Minimize
pro0Rd0 + pro1Rd0 + pro2Rd0 + pro3Rd0 + pro4Rd0 + pro5Rd0 + pro6Rd0 + pro7Rd0 + pro8Rd0 + pro9Rd0 + pro10Rd0 + pro11Rd0 + pro12Rd0 + pro13Rd0 + pro14Rd0 + pro0Rd1 + pro1Rd1 + pro2Rd1 + pro3Rd1 + pro4Rd1 + pro5Rd1 + pro6Rd1 + pro7Rd1 + pro8Rd1 + pro9Rd1 + pro10Rd1 + pro11Rd1 + pro12Rd1 + pro13Rd1 + pro14Rd1 + pro0Rd2 + pro1Rd2 + pro2Rd2 + pro3Rd2 + pro4Rd2 + pro5Rd2 + pro6Rd2 + pro7Rd2 + pro8Rd2 + pro9Rd2 + pro10Rd2 + pro11Rd2 + pro12Rd2 + pro13Rd2 + pro14Rd2 + pro0Rd3 + pro1Rd3 + pro2Rd3 + pro3Rd3 + pro4Rd3 + pro5Rd3 + pro6Rd3 + pro7Rd3 + pro8Rd3 + pro9Rd3 + pro10Rd3 + pro11Rd3 + pro12Rd3 + pro13Rd3 + pro14Rd3 + pro0Rd4 + pro1Rd4 + pro2Rd4 + pro3Rd4 + pro4Rd4 + pro5Rd4 + pro6Rd4 + pro7Rd4 + pro8Rd4 + pro9Rd4 + pro10Rd4 + pro11Rd4 + pro12Rd4 + pro13Rd4 + pro14Rd4

Subject To
p18 + p16Rd1 - p0Rd1 >= 0
p18 - p16Rd1 + p0Rd1 >= 0
- p18 + p16Rd1 + p0Rd1 >= 0
p18 + p16Rd1 + p0Rd1 <= 2
p19 + p17Rd1 - p1Rd1 >= 0
p19 - p17Rd1 + p1Rd1 >= 0
- p19 + p17Rd1 + p1Rd1 >= 0
p19 + p17Rd1 + p1Rd1 <= 2
p20 + p18Rd1 - p2Rd1 >= 0
p20 - p18Rd1 + p2Rd1 >= 0
- p20 + p18Rd1 + p2Rd1 >= 0
p20 + p18Rd1 + p2Rd1 <= 2
p21 + p19Rd1 - p3Rd1 >= 0
p21 - p19Rd1 + p3Rd1 >= 0
- p21 + p19Rd1 + p3Rd1 >= 0
p21 + p19Rd1 + p3Rd1 <= 2
p22 + p20Rd1 - p4Rd1 >= 0
p22 - p20Rd1 + p4Rd1 >= 0
- p22 + p20Rd1 + p4Rd1 >= 0
p22 + p20Rd1 + p4Rd1 <= 2
p23 + p21Rd1 - p5Rd1 >= 0
p23 - p21Rd1 + p5Rd1 >= 0
- p23 + p21Rd1 + p5Rd1 >= 0
p23 + p21Rd1 + p5Rd1 <= 2
p24 + p22Rd1 - p6Rd1 >= 0
p24 - p22Rd1 + p6Rd1 >= 0
- p24 + p22Rd1 + p6Rd1 >= 0
p24 + p22Rd1 + p6Rd1 <= 2
p25 + p23Rd1 - p7Rd1 >= 0
p25 - p23Rd1 + p7Rd1 >= 0
- p25 + p23Rd1 + p7Rd1 >= 0
p25 + p23Rd1 + p7Rd1 <= 2
p26 + p24Rd1 - p8Rd1 >= 0
p26 - p24Rd1 + p8Rd1 >= 0
- p26 + p24Rd1 + p8Rd1 >= 0
p26 + p24Rd1 + p8Rd1 <= 2
p27 + p25Rd1 - p9Rd1 >= 0
p27 - p25Rd1 + p9Rd1 >= 0
- p27 + p25Rd1 + p9Rd1 >= 0
p27 + p25Rd1 + p9Rd1 <= 2
p28 + p26Rd1 - p10Rd1 >= 0
p28 - p26Rd1 + p10Rd1 >= 0
- p28 + p26Rd1 + p10Rd1 >= 0
p28 + p26Rd1 + p10Rd1 <= 2
p29 + p27Rd1 - p11Rd1 >= 0
p29 - p27Rd1 + p11Rd1 >= 0
- p29 + p27Rd1 + p11Rd1 >= 0
p29 + p27Rd1 + p11Rd1 <= 2
p30 + p28Rd1 - p12Rd1 >= 0
p30 - p28Rd1 + p12Rd1 >= 0
- p30 + p28Rd1 + p12Rd1 >= 0
p30 + p28Rd1 + p12Rd1 <= 2
p31 + p29Rd1 - p13Rd1 >= 0
p31 - p29Rd1 + p13Rd1 >= 0
- p31 + p29Rd1 + p13Rd1 >= 0
p31 + p29Rd1 + p13Rd1 <= 2
p16 + p30Rd1 - p14Rd1 >= 0
p16 - p30Rd1 + p14Rd1 >= 0
- p16 + p30Rd1 + p14Rd1 >= 0
p16 + p30Rd1 + p14Rd1 <= 2
p17 + p31Rd1 - p15Rd1 >= 0
p17 - p31Rd1 + p15Rd1 >= 0
- p17 + p31Rd1 + p15Rd1 >= 0
p17 + p31Rd1 + p15Rd1 <= 2
p17 - p1Rd1 + pro0Rd0 >= 0 
p10 - p17 + pro0Rd0 >= 0 
p1Rd1 - p10 + pro0Rd0 >= 0 
p10 + p17 + p1Rd1 + pro0Rd0 <= 3 
p10 + p17 + p1Rd1 - pro0Rd0 >= 0 
p9 + p16 + p0Rd1 + pro0Rd0 - p17 >= 0 
p17 + p9 - p16 + p0Rd1 + pro0Rd0 >= 0 
p17 - p9 + p16 + p0Rd1 + pro0Rd0 >= 0 
p10 + p9 + p16 - p0Rd1 + pro0Rd0 >= 0 
p1Rd1 - p9 - p16 - p0Rd1 + pro0Rd0 >= -2 
p9 - p17 - p16 - p0Rd1 + pro0Rd0 >= -2 
p16 - p17 - p9 - p0Rd1 + pro0Rd0 >= -2 
p0Rd1 - p17 - p9 - p16 + pro0Rd0 >= -2 
p18 - p2Rd1 + pro1Rd0 >= 0 
p11 - p18 + pro1Rd0 >= 0 
p2Rd1 - p11 + pro1Rd0 >= 0 
p11 + p18 + p2Rd1 + pro1Rd0 <= 3 
p11 + p18 + p2Rd1 - pro1Rd0 >= 0 
p10 + p17 + p1Rd1 + pro1Rd0 - p18 >= 0 
p18 + p10 - p17 + p1Rd1 + pro1Rd0 >= 0 
p18 - p10 + p17 + p1Rd1 + pro1Rd0 >= 0 
p11 + p10 + p17 - p1Rd1 + pro1Rd0 >= 0 
p2Rd1 - p10 - p17 - p1Rd1 + pro1Rd0 >= -2 
p10 - p18 - p17 - p1Rd1 + pro1Rd0 >= -2 
p17 - p18 - p10 - p1Rd1 + pro1Rd0 >= -2 
p1Rd1 - p18 - p10 - p17 + pro1Rd0 >= -2 
p19 - p3Rd1 + pro2Rd0 >= 0 
p12 - p19 + pro2Rd0 >= 0 
p3Rd1 - p12 + pro2Rd0 >= 0 
p12 + p19 + p3Rd1 + pro2Rd0 <= 3 
p12 + p19 + p3Rd1 - pro2Rd0 >= 0 
p11 + p18 + p2Rd1 + pro2Rd0 - p19 >= 0 
p19 + p11 - p18 + p2Rd1 + pro2Rd0 >= 0 
p19 - p11 + p18 + p2Rd1 + pro2Rd0 >= 0 
p12 + p11 + p18 - p2Rd1 + pro2Rd0 >= 0 
p3Rd1 - p11 - p18 - p2Rd1 + pro2Rd0 >= -2 
p11 - p19 - p18 - p2Rd1 + pro2Rd0 >= -2 
p18 - p19 - p11 - p2Rd1 + pro2Rd0 >= -2 
p2Rd1 - p19 - p11 - p18 + pro2Rd0 >= -2 
p20 - p4Rd1 + pro3Rd0 >= 0 
p13 - p20 + pro3Rd0 >= 0 
p4Rd1 - p13 + pro3Rd0 >= 0 
p13 + p20 + p4Rd1 + pro3Rd0 <= 3 
p13 + p20 + p4Rd1 - pro3Rd0 >= 0 
p12 + p19 + p3Rd1 + pro3Rd0 - p20 >= 0 
p20 + p12 - p19 + p3Rd1 + pro3Rd0 >= 0 
p20 - p12 + p19 + p3Rd1 + pro3Rd0 >= 0 
p13 + p12 + p19 - p3Rd1 + pro3Rd0 >= 0 
p4Rd1 - p12 - p19 - p3Rd1 + pro3Rd0 >= -2 
p12 - p20 - p19 - p3Rd1 + pro3Rd0 >= -2 
p19 - p20 - p12 - p3Rd1 + pro3Rd0 >= -2 
p3Rd1 - p20 - p12 - p19 + pro3Rd0 >= -2 
p21 - p5Rd1 + pro4Rd0 >= 0 
p14 - p21 + pro4Rd0 >= 0 
p5Rd1 - p14 + pro4Rd0 >= 0 
p14 + p21 + p5Rd1 + pro4Rd0 <= 3 
p14 + p21 + p5Rd1 - pro4Rd0 >= 0 
p13 + p20 + p4Rd1 + pro4Rd0 - p21 >= 0 
p21 + p13 - p20 + p4Rd1 + pro4Rd0 >= 0 
p21 - p13 + p20 + p4Rd1 + pro4Rd0 >= 0 
p14 + p13 + p20 - p4Rd1 + pro4Rd0 >= 0 
p5Rd1 - p13 - p20 - p4Rd1 + pro4Rd0 >= -2 
p13 - p21 - p20 - p4Rd1 + pro4Rd0 >= -2 
p20 - p21 - p13 - p4Rd1 + pro4Rd0 >= -2 
p4Rd1 - p21 - p13 - p20 + pro4Rd0 >= -2 
p22 - p6Rd1 + pro5Rd0 >= 0 
p15 - p22 + pro5Rd0 >= 0 
p6Rd1 - p15 + pro5Rd0 >= 0 
p15 + p22 + p6Rd1 + pro5Rd0 <= 3 
p15 + p22 + p6Rd1 - pro5Rd0 >= 0 
p14 + p21 + p5Rd1 + pro5Rd0 - p22 >= 0 
p22 + p14 - p21 + p5Rd1 + pro5Rd0 >= 0 
p22 - p14 + p21 + p5Rd1 + pro5Rd0 >= 0 
p15 + p14 + p21 - p5Rd1 + pro5Rd0 >= 0 
p6Rd1 - p14 - p21 - p5Rd1 + pro5Rd0 >= -2 
p14 - p22 - p21 - p5Rd1 + pro5Rd0 >= -2 
p21 - p22 - p14 - p5Rd1 + pro5Rd0 >= -2 
p5Rd1 - p22 - p14 - p21 + pro5Rd0 >= -2 
p23 - p7Rd1 + pro6Rd0 >= 0 
p0 - p23 + pro6Rd0 >= 0 
p7Rd1 - p0 + pro6Rd0 >= 0 
p0 + p23 + p7Rd1 + pro6Rd0 <= 3 
p0 + p23 + p7Rd1 - pro6Rd0 >= 0 
p15 + p22 + p6Rd1 + pro6Rd0 - p23 >= 0 
p23 + p15 - p22 + p6Rd1 + pro6Rd0 >= 0 
p23 - p15 + p22 + p6Rd1 + pro6Rd0 >= 0 
p0 + p15 + p22 - p6Rd1 + pro6Rd0 >= 0 
p7Rd1 - p15 - p22 - p6Rd1 + pro6Rd0 >= -2 
p15 - p23 - p22 - p6Rd1 + pro6Rd0 >= -2 
p22 - p23 - p15 - p6Rd1 + pro6Rd0 >= -2 
p6Rd1 - p23 - p15 - p22 + pro6Rd0 >= -2 
p24 - p8Rd1 + pro7Rd0 >= 0 
p1 - p24 + pro7Rd0 >= 0 
p8Rd1 - p1 + pro7Rd0 >= 0 
p1 + p24 + p8Rd1 + pro7Rd0 <= 3 
p1 + p24 + p8Rd1 - pro7Rd0 >= 0 
p0 + p23 + p7Rd1 + pro7Rd0 - p24 >= 0 
p24 + p0 - p23 + p7Rd1 + pro7Rd0 >= 0 
p24 - p0 + p23 + p7Rd1 + pro7Rd0 >= 0 
p1 + p0 + p23 - p7Rd1 + pro7Rd0 >= 0 
p8Rd1 - p0 - p23 - p7Rd1 + pro7Rd0 >= -2 
p0 - p24 - p23 - p7Rd1 + pro7Rd0 >= -2 
p23 - p24 - p0 - p7Rd1 + pro7Rd0 >= -2 
p7Rd1 - p24 - p0 - p23 + pro7Rd0 >= -2 
p25 - p9Rd1 + pro8Rd0 >= 0 
p2 - p25 + pro8Rd0 >= 0 
p9Rd1 - p2 + pro8Rd0 >= 0 
p2 + p25 + p9Rd1 + pro8Rd0 <= 3 
p2 + p25 + p9Rd1 - pro8Rd0 >= 0 
p1 + p24 + p8Rd1 + pro8Rd0 - p25 >= 0 
p25 + p1 - p24 + p8Rd1 + pro8Rd0 >= 0 
p25 - p1 + p24 + p8Rd1 + pro8Rd0 >= 0 
p2 + p1 + p24 - p8Rd1 + pro8Rd0 >= 0 
p9Rd1 - p1 - p24 - p8Rd1 + pro8Rd0 >= -2 
p1 - p25 - p24 - p8Rd1 + pro8Rd0 >= -2 
p24 - p25 - p1 - p8Rd1 + pro8Rd0 >= -2 
p8Rd1 - p25 - p1 - p24 + pro8Rd0 >= -2 
p26 - p10Rd1 + pro9Rd0 >= 0 
p3 - p26 + pro9Rd0 >= 0 
p10Rd1 - p3 + pro9Rd0 >= 0 
p3 + p26 + p10Rd1 + pro9Rd0 <= 3 
p3 + p26 + p10Rd1 - pro9Rd0 >= 0 
p2 + p25 + p9Rd1 + pro9Rd0 - p26 >= 0 
p26 + p2 - p25 + p9Rd1 + pro9Rd0 >= 0 
p26 - p2 + p25 + p9Rd1 + pro9Rd0 >= 0 
p3 + p2 + p25 - p9Rd1 + pro9Rd0 >= 0 
p10Rd1 - p2 - p25 - p9Rd1 + pro9Rd0 >= -2 
p2 - p26 - p25 - p9Rd1 + pro9Rd0 >= -2 
p25 - p26 - p2 - p9Rd1 + pro9Rd0 >= -2 
p9Rd1 - p26 - p2 - p25 + pro9Rd0 >= -2 
p27 - p11Rd1 + pro10Rd0 >= 0 
p4 - p27 + pro10Rd0 >= 0 
p11Rd1 - p4 + pro10Rd0 >= 0 
p4 + p27 + p11Rd1 + pro10Rd0 <= 3 
p4 + p27 + p11Rd1 - pro10Rd0 >= 0 
p3 + p26 + p10Rd1 + pro10Rd0 - p27 >= 0 
p27 + p3 - p26 + p10Rd1 + pro10Rd0 >= 0 
p27 - p3 + p26 + p10Rd1 + pro10Rd0 >= 0 
p4 + p3 + p26 - p10Rd1 + pro10Rd0 >= 0 
p11Rd1 - p3 - p26 - p10Rd1 + pro10Rd0 >= -2 
p3 - p27 - p26 - p10Rd1 + pro10Rd0 >= -2 
p26 - p27 - p3 - p10Rd1 + pro10Rd0 >= -2 
p10Rd1 - p27 - p3 - p26 + pro10Rd0 >= -2 
p28 - p12Rd1 + pro11Rd0 >= 0 
p5 - p28 + pro11Rd0 >= 0 
p12Rd1 - p5 + pro11Rd0 >= 0 
p5 + p28 + p12Rd1 + pro11Rd0 <= 3 
p5 + p28 + p12Rd1 - pro11Rd0 >= 0 
p4 + p27 + p11Rd1 + pro11Rd0 - p28 >= 0 
p28 + p4 - p27 + p11Rd1 + pro11Rd0 >= 0 
p28 - p4 + p27 + p11Rd1 + pro11Rd0 >= 0 
p5 + p4 + p27 - p11Rd1 + pro11Rd0 >= 0 
p12Rd1 - p4 - p27 - p11Rd1 + pro11Rd0 >= -2 
p4 - p28 - p27 - p11Rd1 + pro11Rd0 >= -2 
p27 - p28 - p4 - p11Rd1 + pro11Rd0 >= -2 
p11Rd1 - p28 - p4 - p27 + pro11Rd0 >= -2 
p29 - p13Rd1 + pro12Rd0 >= 0 
p6 - p29 + pro12Rd0 >= 0 
p13Rd1 - p6 + pro12Rd0 >= 0 
p6 + p29 + p13Rd1 + pro12Rd0 <= 3 
p6 + p29 + p13Rd1 - pro12Rd0 >= 0 
p5 + p28 + p12Rd1 + pro12Rd0 - p29 >= 0 
p29 + p5 - p28 + p12Rd1 + pro12Rd0 >= 0 
p29 - p5 + p28 + p12Rd1 + pro12Rd0 >= 0 
p6 + p5 + p28 - p12Rd1 + pro12Rd0 >= 0 
p13Rd1 - p5 - p28 - p12Rd1 + pro12Rd0 >= -2 
p5 - p29 - p28 - p12Rd1 + pro12Rd0 >= -2 
p28 - p29 - p5 - p12Rd1 + pro12Rd0 >= -2 
p12Rd1 - p29 - p5 - p28 + pro12Rd0 >= -2 
p30 - p14Rd1 + pro13Rd0 >= 0 
p7 - p30 + pro13Rd0 >= 0 
p14Rd1 - p7 + pro13Rd0 >= 0 
p7 + p30 + p14Rd1 + pro13Rd0 <= 3 
p7 + p30 + p14Rd1 - pro13Rd0 >= 0 
p6 + p29 + p13Rd1 + pro13Rd0 - p30 >= 0 
p30 + p6 - p29 + p13Rd1 + pro13Rd0 >= 0 
p30 - p6 + p29 + p13Rd1 + pro13Rd0 >= 0 
p7 + p6 + p29 - p13Rd1 + pro13Rd0 >= 0 
p14Rd1 - p6 - p29 - p13Rd1 + pro13Rd0 >= -2 
p6 - p30 - p29 - p13Rd1 + pro13Rd0 >= -2 
p29 - p30 - p6 - p13Rd1 + pro13Rd0 >= -2 
p13Rd1 - p30 - p6 - p29 + pro13Rd0 >= -2 
p31 - p15Rd1 + pro14Rd0 >= 0 
p8 - p31 + pro14Rd0 >= 0 
p15Rd1 - p8 + pro14Rd0 >= 0 
p8 + p31 + p15Rd1 + pro14Rd0 <= 3 
p8 + p31 + p15Rd1 - pro14Rd0 >= 0 
p7 + p30 + p14Rd1 + pro14Rd0 - p31 >= 0 
p31 + p7 - p30 + p14Rd1 + pro14Rd0 >= 0 
p31 - p7 + p30 + p14Rd1 + pro14Rd0 >= 0 
p8 + p7 + p30 - p14Rd1 + pro14Rd0 >= 0 
p15Rd1 - p7 - p30 - p14Rd1 + pro14Rd0 >= -2 
p7 - p31 - p30 - p14Rd1 + pro14Rd0 >= -2 
p30 - p31 - p7 - p14Rd1 + pro14Rd0 >= -2 
p14Rd1 - p31 - p7 - p30 + pro14Rd0 >= -2 
p8 + p31 + p15Rd1 <= 2 
p8 + p31 + p15Rd1 - 2 temp0 >= 0 
temp0 - p8 >= 0 
temp0 - p31 >= 0 
temp0 - p15Rd1 >= 0 
p18Rd1 + p16Rd2 - p0Rd2 >= 0
p18Rd1 - p16Rd2 + p0Rd2 >= 0
- p18Rd1 + p16Rd2 + p0Rd2 >= 0
p18Rd1 + p16Rd2 + p0Rd2 <= 2
p19Rd1 + p17Rd2 - p1Rd2 >= 0
p19Rd1 - p17Rd2 + p1Rd2 >= 0
- p19Rd1 + p17Rd2 + p1Rd2 >= 0
p19Rd1 + p17Rd2 + p1Rd2 <= 2
p20Rd1 + p18Rd2 - p2Rd2 >= 0
p20Rd1 - p18Rd2 + p2Rd2 >= 0
- p20Rd1 + p18Rd2 + p2Rd2 >= 0
p20Rd1 + p18Rd2 + p2Rd2 <= 2
p21Rd1 + p19Rd2 - p3Rd2 >= 0
p21Rd1 - p19Rd2 + p3Rd2 >= 0
- p21Rd1 + p19Rd2 + p3Rd2 >= 0
p21Rd1 + p19Rd2 + p3Rd2 <= 2
p22Rd1 + p20Rd2 - p4Rd2 >= 0
p22Rd1 - p20Rd2 + p4Rd2 >= 0
- p22Rd1 + p20Rd2 + p4Rd2 >= 0
p22Rd1 + p20Rd2 + p4Rd2 <= 2
p23Rd1 + p21Rd2 - p5Rd2 >= 0
p23Rd1 - p21Rd2 + p5Rd2 >= 0
- p23Rd1 + p21Rd2 + p5Rd2 >= 0
p23Rd1 + p21Rd2 + p5Rd2 <= 2
p24Rd1 + p22Rd2 - p6Rd2 >= 0
p24Rd1 - p22Rd2 + p6Rd2 >= 0
- p24Rd1 + p22Rd2 + p6Rd2 >= 0
p24Rd1 + p22Rd2 + p6Rd2 <= 2
p25Rd1 + p23Rd2 - p7Rd2 >= 0
p25Rd1 - p23Rd2 + p7Rd2 >= 0
- p25Rd1 + p23Rd2 + p7Rd2 >= 0
p25Rd1 + p23Rd2 + p7Rd2 <= 2
p26Rd1 + p24Rd2 - p8Rd2 >= 0
p26Rd1 - p24Rd2 + p8Rd2 >= 0
- p26Rd1 + p24Rd2 + p8Rd2 >= 0
p26Rd1 + p24Rd2 + p8Rd2 <= 2
p27Rd1 + p25Rd2 - p9Rd2 >= 0
p27Rd1 - p25Rd2 + p9Rd2 >= 0
- p27Rd1 + p25Rd2 + p9Rd2 >= 0
p27Rd1 + p25Rd2 + p9Rd2 <= 2
p28Rd1 + p26Rd2 - p10Rd2 >= 0
p28Rd1 - p26Rd2 + p10Rd2 >= 0
- p28Rd1 + p26Rd2 + p10Rd2 >= 0
p28Rd1 + p26Rd2 + p10Rd2 <= 2
p29Rd1 + p27Rd2 - p11Rd2 >= 0
p29Rd1 - p27Rd2 + p11Rd2 >= 0
- p29Rd1 + p27Rd2 + p11Rd2 >= 0
p29Rd1 + p27Rd2 + p11Rd2 <= 2
p30Rd1 + p28Rd2 - p12Rd2 >= 0
p30Rd1 - p28Rd2 + p12Rd2 >= 0
- p30Rd1 + p28Rd2 + p12Rd2 >= 0
p30Rd1 + p28Rd2 + p12Rd2 <= 2
p31Rd1 + p29Rd2 - p13Rd2 >= 0
p31Rd1 - p29Rd2 + p13Rd2 >= 0
- p31Rd1 + p29Rd2 + p13Rd2 >= 0
p31Rd1 + p29Rd2 + p13Rd2 <= 2
p16Rd1 + p30Rd2 - p14Rd2 >= 0
p16Rd1 - p30Rd2 + p14Rd2 >= 0
- p16Rd1 + p30Rd2 + p14Rd2 >= 0
p16Rd1 + p30Rd2 + p14Rd2 <= 2
p17Rd1 + p31Rd2 - p15Rd2 >= 0
p17Rd1 - p31Rd2 + p15Rd2 >= 0
- p17Rd1 + p31Rd2 + p15Rd2 >= 0
p17Rd1 + p31Rd2 + p15Rd2 <= 2
p17Rd1 - p1Rd2 + pro0Rd1 >= 0 
p10Rd1 - p17Rd1 + pro0Rd1 >= 0 
p1Rd2 - p10Rd1 + pro0Rd1 >= 0 
p10Rd1 + p17Rd1 + p1Rd2 + pro0Rd1 <= 3 
p10Rd1 + p17Rd1 + p1Rd2 - pro0Rd1 >= 0 
p9Rd1 + p16Rd1 + p0Rd2 + pro0Rd1 - p17Rd1 >= 0 
p17Rd1 + p9Rd1 - p16Rd1 + p0Rd2 + pro0Rd1 >= 0 
p17Rd1 - p9Rd1 + p16Rd1 + p0Rd2 + pro0Rd1 >= 0 
p10Rd1 + p9Rd1 + p16Rd1 - p0Rd2 + pro0Rd1 >= 0 
p1Rd2 - p9Rd1 - p16Rd1 - p0Rd2 + pro0Rd1 >= -2 
p9Rd1 - p17Rd1 - p16Rd1 - p0Rd2 + pro0Rd1 >= -2 
p16Rd1 - p17Rd1 - p9Rd1 - p0Rd2 + pro0Rd1 >= -2 
p0Rd2 - p17Rd1 - p9Rd1 - p16Rd1 + pro0Rd1 >= -2 
p18Rd1 - p2Rd2 + pro1Rd1 >= 0 
p11Rd1 - p18Rd1 + pro1Rd1 >= 0 
p2Rd2 - p11Rd1 + pro1Rd1 >= 0 
p11Rd1 + p18Rd1 + p2Rd2 + pro1Rd1 <= 3 
p11Rd1 + p18Rd1 + p2Rd2 - pro1Rd1 >= 0 
p10Rd1 + p17Rd1 + p1Rd2 + pro1Rd1 - p18Rd1 >= 0 
p18Rd1 + p10Rd1 - p17Rd1 + p1Rd2 + pro1Rd1 >= 0 
p18Rd1 - p10Rd1 + p17Rd1 + p1Rd2 + pro1Rd1 >= 0 
p11Rd1 + p10Rd1 + p17Rd1 - p1Rd2 + pro1Rd1 >= 0 
p2Rd2 - p10Rd1 - p17Rd1 - p1Rd2 + pro1Rd1 >= -2 
p10Rd1 - p18Rd1 - p17Rd1 - p1Rd2 + pro1Rd1 >= -2 
p17Rd1 - p18Rd1 - p10Rd1 - p1Rd2 + pro1Rd1 >= -2 
p1Rd2 - p18Rd1 - p10Rd1 - p17Rd1 + pro1Rd1 >= -2 
p19Rd1 - p3Rd2 + pro2Rd1 >= 0 
p12Rd1 - p19Rd1 + pro2Rd1 >= 0 
p3Rd2 - p12Rd1 + pro2Rd1 >= 0 
p12Rd1 + p19Rd1 + p3Rd2 + pro2Rd1 <= 3 
p12Rd1 + p19Rd1 + p3Rd2 - pro2Rd1 >= 0 
p11Rd1 + p18Rd1 + p2Rd2 + pro2Rd1 - p19Rd1 >= 0 
p19Rd1 + p11Rd1 - p18Rd1 + p2Rd2 + pro2Rd1 >= 0 
p19Rd1 - p11Rd1 + p18Rd1 + p2Rd2 + pro2Rd1 >= 0 
p12Rd1 + p11Rd1 + p18Rd1 - p2Rd2 + pro2Rd1 >= 0 
p3Rd2 - p11Rd1 - p18Rd1 - p2Rd2 + pro2Rd1 >= -2 
p11Rd1 - p19Rd1 - p18Rd1 - p2Rd2 + pro2Rd1 >= -2 
p18Rd1 - p19Rd1 - p11Rd1 - p2Rd2 + pro2Rd1 >= -2 
p2Rd2 - p19Rd1 - p11Rd1 - p18Rd1 + pro2Rd1 >= -2 
p20Rd1 - p4Rd2 + pro3Rd1 >= 0 
p13Rd1 - p20Rd1 + pro3Rd1 >= 0 
p4Rd2 - p13Rd1 + pro3Rd1 >= 0 
p13Rd1 + p20Rd1 + p4Rd2 + pro3Rd1 <= 3 
p13Rd1 + p20Rd1 + p4Rd2 - pro3Rd1 >= 0 
p12Rd1 + p19Rd1 + p3Rd2 + pro3Rd1 - p20Rd1 >= 0 
p20Rd1 + p12Rd1 - p19Rd1 + p3Rd2 + pro3Rd1 >= 0 
p20Rd1 - p12Rd1 + p19Rd1 + p3Rd2 + pro3Rd1 >= 0 
p13Rd1 + p12Rd1 + p19Rd1 - p3Rd2 + pro3Rd1 >= 0 
p4Rd2 - p12Rd1 - p19Rd1 - p3Rd2 + pro3Rd1 >= -2 
p12Rd1 - p20Rd1 - p19Rd1 - p3Rd2 + pro3Rd1 >= -2 
p19Rd1 - p20Rd1 - p12Rd1 - p3Rd2 + pro3Rd1 >= -2 
p3Rd2 - p20Rd1 - p12Rd1 - p19Rd1 + pro3Rd1 >= -2 
p21Rd1 - p5Rd2 + pro4Rd1 >= 0 
p14Rd1 - p21Rd1 + pro4Rd1 >= 0 
p5Rd2 - p14Rd1 + pro4Rd1 >= 0 
p14Rd1 + p21Rd1 + p5Rd2 + pro4Rd1 <= 3 
p14Rd1 + p21Rd1 + p5Rd2 - pro4Rd1 >= 0 
p13Rd1 + p20Rd1 + p4Rd2 + pro4Rd1 - p21Rd1 >= 0 
p21Rd1 + p13Rd1 - p20Rd1 + p4Rd2 + pro4Rd1 >= 0 
p21Rd1 - p13Rd1 + p20Rd1 + p4Rd2 + pro4Rd1 >= 0 
p14Rd1 + p13Rd1 + p20Rd1 - p4Rd2 + pro4Rd1 >= 0 
p5Rd2 - p13Rd1 - p20Rd1 - p4Rd2 + pro4Rd1 >= -2 
p13Rd1 - p21Rd1 - p20Rd1 - p4Rd2 + pro4Rd1 >= -2 
p20Rd1 - p21Rd1 - p13Rd1 - p4Rd2 + pro4Rd1 >= -2 
p4Rd2 - p21Rd1 - p13Rd1 - p20Rd1 + pro4Rd1 >= -2 
p22Rd1 - p6Rd2 + pro5Rd1 >= 0 
p15Rd1 - p22Rd1 + pro5Rd1 >= 0 
p6Rd2 - p15Rd1 + pro5Rd1 >= 0 
p15Rd1 + p22Rd1 + p6Rd2 + pro5Rd1 <= 3 
p15Rd1 + p22Rd1 + p6Rd2 - pro5Rd1 >= 0 
p14Rd1 + p21Rd1 + p5Rd2 + pro5Rd1 - p22Rd1 >= 0 
p22Rd1 + p14Rd1 - p21Rd1 + p5Rd2 + pro5Rd1 >= 0 
p22Rd1 - p14Rd1 + p21Rd1 + p5Rd2 + pro5Rd1 >= 0 
p15Rd1 + p14Rd1 + p21Rd1 - p5Rd2 + pro5Rd1 >= 0 
p6Rd2 - p14Rd1 - p21Rd1 - p5Rd2 + pro5Rd1 >= -2 
p14Rd1 - p22Rd1 - p21Rd1 - p5Rd2 + pro5Rd1 >= -2 
p21Rd1 - p22Rd1 - p14Rd1 - p5Rd2 + pro5Rd1 >= -2 
p5Rd2 - p22Rd1 - p14Rd1 - p21Rd1 + pro5Rd1 >= -2 
p23Rd1 - p7Rd2 + pro6Rd1 >= 0 
p0Rd1 - p23Rd1 + pro6Rd1 >= 0 
p7Rd2 - p0Rd1 + pro6Rd1 >= 0 
p0Rd1 + p23Rd1 + p7Rd2 + pro6Rd1 <= 3 
p0Rd1 + p23Rd1 + p7Rd2 - pro6Rd1 >= 0 
p15Rd1 + p22Rd1 + p6Rd2 + pro6Rd1 - p23Rd1 >= 0 
p23Rd1 + p15Rd1 - p22Rd1 + p6Rd2 + pro6Rd1 >= 0 
p23Rd1 - p15Rd1 + p22Rd1 + p6Rd2 + pro6Rd1 >= 0 
p0Rd1 + p15Rd1 + p22Rd1 - p6Rd2 + pro6Rd1 >= 0 
p7Rd2 - p15Rd1 - p22Rd1 - p6Rd2 + pro6Rd1 >= -2 
p15Rd1 - p23Rd1 - p22Rd1 - p6Rd2 + pro6Rd1 >= -2 
p22Rd1 - p23Rd1 - p15Rd1 - p6Rd2 + pro6Rd1 >= -2 
p6Rd2 - p23Rd1 - p15Rd1 - p22Rd1 + pro6Rd1 >= -2 
p24Rd1 - p8Rd2 + pro7Rd1 >= 0 
p1Rd1 - p24Rd1 + pro7Rd1 >= 0 
p8Rd2 - p1Rd1 + pro7Rd1 >= 0 
p1Rd1 + p24Rd1 + p8Rd2 + pro7Rd1 <= 3 
p1Rd1 + p24Rd1 + p8Rd2 - pro7Rd1 >= 0 
p0Rd1 + p23Rd1 + p7Rd2 + pro7Rd1 - p24Rd1 >= 0 
p24Rd1 + p0Rd1 - p23Rd1 + p7Rd2 + pro7Rd1 >= 0 
p24Rd1 - p0Rd1 + p23Rd1 + p7Rd2 + pro7Rd1 >= 0 
p1Rd1 + p0Rd1 + p23Rd1 - p7Rd2 + pro7Rd1 >= 0 
p8Rd2 - p0Rd1 - p23Rd1 - p7Rd2 + pro7Rd1 >= -2 
p0Rd1 - p24Rd1 - p23Rd1 - p7Rd2 + pro7Rd1 >= -2 
p23Rd1 - p24Rd1 - p0Rd1 - p7Rd2 + pro7Rd1 >= -2 
p7Rd2 - p24Rd1 - p0Rd1 - p23Rd1 + pro7Rd1 >= -2 
p25Rd1 - p9Rd2 + pro8Rd1 >= 0 
p2Rd1 - p25Rd1 + pro8Rd1 >= 0 
p9Rd2 - p2Rd1 + pro8Rd1 >= 0 
p2Rd1 + p25Rd1 + p9Rd2 + pro8Rd1 <= 3 
p2Rd1 + p25Rd1 + p9Rd2 - pro8Rd1 >= 0 
p1Rd1 + p24Rd1 + p8Rd2 + pro8Rd1 - p25Rd1 >= 0 
p25Rd1 + p1Rd1 - p24Rd1 + p8Rd2 + pro8Rd1 >= 0 
p25Rd1 - p1Rd1 + p24Rd1 + p8Rd2 + pro8Rd1 >= 0 
p2Rd1 + p1Rd1 + p24Rd1 - p8Rd2 + pro8Rd1 >= 0 
p9Rd2 - p1Rd1 - p24Rd1 - p8Rd2 + pro8Rd1 >= -2 
p1Rd1 - p25Rd1 - p24Rd1 - p8Rd2 + pro8Rd1 >= -2 
p24Rd1 - p25Rd1 - p1Rd1 - p8Rd2 + pro8Rd1 >= -2 
p8Rd2 - p25Rd1 - p1Rd1 - p24Rd1 + pro8Rd1 >= -2 
p26Rd1 - p10Rd2 + pro9Rd1 >= 0 
p3Rd1 - p26Rd1 + pro9Rd1 >= 0 
p10Rd2 - p3Rd1 + pro9Rd1 >= 0 
p3Rd1 + p26Rd1 + p10Rd2 + pro9Rd1 <= 3 
p3Rd1 + p26Rd1 + p10Rd2 - pro9Rd1 >= 0 
p2Rd1 + p25Rd1 + p9Rd2 + pro9Rd1 - p26Rd1 >= 0 
p26Rd1 + p2Rd1 - p25Rd1 + p9Rd2 + pro9Rd1 >= 0 
p26Rd1 - p2Rd1 + p25Rd1 + p9Rd2 + pro9Rd1 >= 0 
p3Rd1 + p2Rd1 + p25Rd1 - p9Rd2 + pro9Rd1 >= 0 
p10Rd2 - p2Rd1 - p25Rd1 - p9Rd2 + pro9Rd1 >= -2 
p2Rd1 - p26Rd1 - p25Rd1 - p9Rd2 + pro9Rd1 >= -2 
p25Rd1 - p26Rd1 - p2Rd1 - p9Rd2 + pro9Rd1 >= -2 
p9Rd2 - p26Rd1 - p2Rd1 - p25Rd1 + pro9Rd1 >= -2 
p27Rd1 - p11Rd2 + pro10Rd1 >= 0 
p4Rd1 - p27Rd1 + pro10Rd1 >= 0 
p11Rd2 - p4Rd1 + pro10Rd1 >= 0 
p4Rd1 + p27Rd1 + p11Rd2 + pro10Rd1 <= 3 
p4Rd1 + p27Rd1 + p11Rd2 - pro10Rd1 >= 0 
p3Rd1 + p26Rd1 + p10Rd2 + pro10Rd1 - p27Rd1 >= 0 
p27Rd1 + p3Rd1 - p26Rd1 + p10Rd2 + pro10Rd1 >= 0 
p27Rd1 - p3Rd1 + p26Rd1 + p10Rd2 + pro10Rd1 >= 0 
p4Rd1 + p3Rd1 + p26Rd1 - p10Rd2 + pro10Rd1 >= 0 
p11Rd2 - p3Rd1 - p26Rd1 - p10Rd2 + pro10Rd1 >= -2 
p3Rd1 - p27Rd1 - p26Rd1 - p10Rd2 + pro10Rd1 >= -2 
p26Rd1 - p27Rd1 - p3Rd1 - p10Rd2 + pro10Rd1 >= -2 
p10Rd2 - p27Rd1 - p3Rd1 - p26Rd1 + pro10Rd1 >= -2 
p28Rd1 - p12Rd2 + pro11Rd1 >= 0 
p5Rd1 - p28Rd1 + pro11Rd1 >= 0 
p12Rd2 - p5Rd1 + pro11Rd1 >= 0 
p5Rd1 + p28Rd1 + p12Rd2 + pro11Rd1 <= 3 
p5Rd1 + p28Rd1 + p12Rd2 - pro11Rd1 >= 0 
p4Rd1 + p27Rd1 + p11Rd2 + pro11Rd1 - p28Rd1 >= 0 
p28Rd1 + p4Rd1 - p27Rd1 + p11Rd2 + pro11Rd1 >= 0 
p28Rd1 - p4Rd1 + p27Rd1 + p11Rd2 + pro11Rd1 >= 0 
p5Rd1 + p4Rd1 + p27Rd1 - p11Rd2 + pro11Rd1 >= 0 
p12Rd2 - p4Rd1 - p27Rd1 - p11Rd2 + pro11Rd1 >= -2 
p4Rd1 - p28Rd1 - p27Rd1 - p11Rd2 + pro11Rd1 >= -2 
p27Rd1 - p28Rd1 - p4Rd1 - p11Rd2 + pro11Rd1 >= -2 
p11Rd2 - p28Rd1 - p4Rd1 - p27Rd1 + pro11Rd1 >= -2 
p29Rd1 - p13Rd2 + pro12Rd1 >= 0 
p6Rd1 - p29Rd1 + pro12Rd1 >= 0 
p13Rd2 - p6Rd1 + pro12Rd1 >= 0 
p6Rd1 + p29Rd1 + p13Rd2 + pro12Rd1 <= 3 
p6Rd1 + p29Rd1 + p13Rd2 - pro12Rd1 >= 0 
p5Rd1 + p28Rd1 + p12Rd2 + pro12Rd1 - p29Rd1 >= 0 
p29Rd1 + p5Rd1 - p28Rd1 + p12Rd2 + pro12Rd1 >= 0 
p29Rd1 - p5Rd1 + p28Rd1 + p12Rd2 + pro12Rd1 >= 0 
p6Rd1 + p5Rd1 + p28Rd1 - p12Rd2 + pro12Rd1 >= 0 
p13Rd2 - p5Rd1 - p28Rd1 - p12Rd2 + pro12Rd1 >= -2 
p5Rd1 - p29Rd1 - p28Rd1 - p12Rd2 + pro12Rd1 >= -2 
p28Rd1 - p29Rd1 - p5Rd1 - p12Rd2 + pro12Rd1 >= -2 
p12Rd2 - p29Rd1 - p5Rd1 - p28Rd1 + pro12Rd1 >= -2 
p30Rd1 - p14Rd2 + pro13Rd1 >= 0 
p7Rd1 - p30Rd1 + pro13Rd1 >= 0 
p14Rd2 - p7Rd1 + pro13Rd1 >= 0 
p7Rd1 + p30Rd1 + p14Rd2 + pro13Rd1 <= 3 
p7Rd1 + p30Rd1 + p14Rd2 - pro13Rd1 >= 0 
p6Rd1 + p29Rd1 + p13Rd2 + pro13Rd1 - p30Rd1 >= 0 
p30Rd1 + p6Rd1 - p29Rd1 + p13Rd2 + pro13Rd1 >= 0 
p30Rd1 - p6Rd1 + p29Rd1 + p13Rd2 + pro13Rd1 >= 0 
p7Rd1 + p6Rd1 + p29Rd1 - p13Rd2 + pro13Rd1 >= 0 
p14Rd2 - p6Rd1 - p29Rd1 - p13Rd2 + pro13Rd1 >= -2 
p6Rd1 - p30Rd1 - p29Rd1 - p13Rd2 + pro13Rd1 >= -2 
p29Rd1 - p30Rd1 - p6Rd1 - p13Rd2 + pro13Rd1 >= -2 
p13Rd2 - p30Rd1 - p6Rd1 - p29Rd1 + pro13Rd1 >= -2 
p31Rd1 - p15Rd2 + pro14Rd1 >= 0 
p8Rd1 - p31Rd1 + pro14Rd1 >= 0 
p15Rd2 - p8Rd1 + pro14Rd1 >= 0 
p8Rd1 + p31Rd1 + p15Rd2 + pro14Rd1 <= 3 
p8Rd1 + p31Rd1 + p15Rd2 - pro14Rd1 >= 0 
p7Rd1 + p30Rd1 + p14Rd2 + pro14Rd1 - p31Rd1 >= 0 
p31Rd1 + p7Rd1 - p30Rd1 + p14Rd2 + pro14Rd1 >= 0 
p31Rd1 - p7Rd1 + p30Rd1 + p14Rd2 + pro14Rd1 >= 0 
p8Rd1 + p7Rd1 + p30Rd1 - p14Rd2 + pro14Rd1 >= 0 
p15Rd2 - p7Rd1 - p30Rd1 - p14Rd2 + pro14Rd1 >= -2 
p7Rd1 - p31Rd1 - p30Rd1 - p14Rd2 + pro14Rd1 >= -2 
p30Rd1 - p31Rd1 - p7Rd1 - p14Rd2 + pro14Rd1 >= -2 
p14Rd2 - p31Rd1 - p7Rd1 - p30Rd1 + pro14Rd1 >= -2 
p8Rd1 + p31Rd1 + p15Rd2 <= 2 
p8Rd1 + p31Rd1 + p15Rd2 - 2 temp1 >= 0 
temp1 - p8Rd1 >= 0 
temp1 - p31Rd1 >= 0 
temp1 - p15Rd2 >= 0 
p18Rd2 + p16Rd3 - p0Rd3 >= 0
p18Rd2 - p16Rd3 + p0Rd3 >= 0
- p18Rd2 + p16Rd3 + p0Rd3 >= 0
p18Rd2 + p16Rd3 + p0Rd3 <= 2
p19Rd2 + p17Rd3 - p1Rd3 >= 0
p19Rd2 - p17Rd3 + p1Rd3 >= 0
- p19Rd2 + p17Rd3 + p1Rd3 >= 0
p19Rd2 + p17Rd3 + p1Rd3 <= 2
p20Rd2 + p18Rd3 - p2Rd3 >= 0
p20Rd2 - p18Rd3 + p2Rd3 >= 0
- p20Rd2 + p18Rd3 + p2Rd3 >= 0
p20Rd2 + p18Rd3 + p2Rd3 <= 2
p21Rd2 + p19Rd3 - p3Rd3 >= 0
p21Rd2 - p19Rd3 + p3Rd3 >= 0
- p21Rd2 + p19Rd3 + p3Rd3 >= 0
p21Rd2 + p19Rd3 + p3Rd3 <= 2
p22Rd2 + p20Rd3 - p4Rd3 >= 0
p22Rd2 - p20Rd3 + p4Rd3 >= 0
- p22Rd2 + p20Rd3 + p4Rd3 >= 0
p22Rd2 + p20Rd3 + p4Rd3 <= 2
p23Rd2 + p21Rd3 - p5Rd3 >= 0
p23Rd2 - p21Rd3 + p5Rd3 >= 0
- p23Rd2 + p21Rd3 + p5Rd3 >= 0
p23Rd2 + p21Rd3 + p5Rd3 <= 2
p24Rd2 + p22Rd3 - p6Rd3 >= 0
p24Rd2 - p22Rd3 + p6Rd3 >= 0
- p24Rd2 + p22Rd3 + p6Rd3 >= 0
p24Rd2 + p22Rd3 + p6Rd3 <= 2
p25Rd2 + p23Rd3 - p7Rd3 >= 0
p25Rd2 - p23Rd3 + p7Rd3 >= 0
- p25Rd2 + p23Rd3 + p7Rd3 >= 0
p25Rd2 + p23Rd3 + p7Rd3 <= 2
p26Rd2 + p24Rd3 - p8Rd3 >= 0
p26Rd2 - p24Rd3 + p8Rd3 >= 0
- p26Rd2 + p24Rd3 + p8Rd3 >= 0
p26Rd2 + p24Rd3 + p8Rd3 <= 2
p27Rd2 + p25Rd3 - p9Rd3 >= 0
p27Rd2 - p25Rd3 + p9Rd3 >= 0
- p27Rd2 + p25Rd3 + p9Rd3 >= 0
p27Rd2 + p25Rd3 + p9Rd3 <= 2
p28Rd2 + p26Rd3 - p10Rd3 >= 0
p28Rd2 - p26Rd3 + p10Rd3 >= 0
- p28Rd2 + p26Rd3 + p10Rd3 >= 0
p28Rd2 + p26Rd3 + p10Rd3 <= 2
p29Rd2 + p27Rd3 - p11Rd3 >= 0
p29Rd2 - p27Rd3 + p11Rd3 >= 0
- p29Rd2 + p27Rd3 + p11Rd3 >= 0
p29Rd2 + p27Rd3 + p11Rd3 <= 2
p30Rd2 + p28Rd3 - p12Rd3 >= 0
p30Rd2 - p28Rd3 + p12Rd3 >= 0
- p30Rd2 + p28Rd3 + p12Rd3 >= 0
p30Rd2 + p28Rd3 + p12Rd3 <= 2
p31Rd2 + p29Rd3 - p13Rd3 >= 0
p31Rd2 - p29Rd3 + p13Rd3 >= 0
- p31Rd2 + p29Rd3 + p13Rd3 >= 0
p31Rd2 + p29Rd3 + p13Rd3 <= 2
p16Rd2 + p30Rd3 - p14Rd3 >= 0
p16Rd2 - p30Rd3 + p14Rd3 >= 0
- p16Rd2 + p30Rd3 + p14Rd3 >= 0
p16Rd2 + p30Rd3 + p14Rd3 <= 2
p17Rd2 + p31Rd3 - p15Rd3 >= 0
p17Rd2 - p31Rd3 + p15Rd3 >= 0
- p17Rd2 + p31Rd3 + p15Rd3 >= 0
p17Rd2 + p31Rd3 + p15Rd3 <= 2
p17Rd2 - p1Rd3 + pro0Rd2 >= 0 
p10Rd2 - p17Rd2 + pro0Rd2 >= 0 
p1Rd3 - p10Rd2 + pro0Rd2 >= 0 
p10Rd2 + p17Rd2 + p1Rd3 + pro0Rd2 <= 3 
p10Rd2 + p17Rd2 + p1Rd3 - pro0Rd2 >= 0 
p9Rd2 + p16Rd2 + p0Rd3 + pro0Rd2 - p17Rd2 >= 0 
p17Rd2 + p9Rd2 - p16Rd2 + p0Rd3 + pro0Rd2 >= 0 
p17Rd2 - p9Rd2 + p16Rd2 + p0Rd3 + pro0Rd2 >= 0 
p10Rd2 + p9Rd2 + p16Rd2 - p0Rd3 + pro0Rd2 >= 0 
p1Rd3 - p9Rd2 - p16Rd2 - p0Rd3 + pro0Rd2 >= -2 
p9Rd2 - p17Rd2 - p16Rd2 - p0Rd3 + pro0Rd2 >= -2 
p16Rd2 - p17Rd2 - p9Rd2 - p0Rd3 + pro0Rd2 >= -2 
p0Rd3 - p17Rd2 - p9Rd2 - p16Rd2 + pro0Rd2 >= -2 
p18Rd2 - p2Rd3 + pro1Rd2 >= 0 
p11Rd2 - p18Rd2 + pro1Rd2 >= 0 
p2Rd3 - p11Rd2 + pro1Rd2 >= 0 
p11Rd2 + p18Rd2 + p2Rd3 + pro1Rd2 <= 3 
p11Rd2 + p18Rd2 + p2Rd3 - pro1Rd2 >= 0 
p10Rd2 + p17Rd2 + p1Rd3 + pro1Rd2 - p18Rd2 >= 0 
p18Rd2 + p10Rd2 - p17Rd2 + p1Rd3 + pro1Rd2 >= 0 
p18Rd2 - p10Rd2 + p17Rd2 + p1Rd3 + pro1Rd2 >= 0 
p11Rd2 + p10Rd2 + p17Rd2 - p1Rd3 + pro1Rd2 >= 0 
p2Rd3 - p10Rd2 - p17Rd2 - p1Rd3 + pro1Rd2 >= -2 
p10Rd2 - p18Rd2 - p17Rd2 - p1Rd3 + pro1Rd2 >= -2 
p17Rd2 - p18Rd2 - p10Rd2 - p1Rd3 + pro1Rd2 >= -2 
p1Rd3 - p18Rd2 - p10Rd2 - p17Rd2 + pro1Rd2 >= -2 
p19Rd2 - p3Rd3 + pro2Rd2 >= 0 
p12Rd2 - p19Rd2 + pro2Rd2 >= 0 
p3Rd3 - p12Rd2 + pro2Rd2 >= 0 
p12Rd2 + p19Rd2 + p3Rd3 + pro2Rd2 <= 3 
p12Rd2 + p19Rd2 + p3Rd3 - pro2Rd2 >= 0 
p11Rd2 + p18Rd2 + p2Rd3 + pro2Rd2 - p19Rd2 >= 0 
p19Rd2 + p11Rd2 - p18Rd2 + p2Rd3 + pro2Rd2 >= 0 
p19Rd2 - p11Rd2 + p18Rd2 + p2Rd3 + pro2Rd2 >= 0 
p12Rd2 + p11Rd2 + p18Rd2 - p2Rd3 + pro2Rd2 >= 0 
p3Rd3 - p11Rd2 - p18Rd2 - p2Rd3 + pro2Rd2 >= -2 
p11Rd2 - p19Rd2 - p18Rd2 - p2Rd3 + pro2Rd2 >= -2 
p18Rd2 - p19Rd2 - p11Rd2 - p2Rd3 + pro2Rd2 >= -2 
p2Rd3 - p19Rd2 - p11Rd2 - p18Rd2 + pro2Rd2 >= -2 
p20Rd2 - p4Rd3 + pro3Rd2 >= 0 
p13Rd2 - p20Rd2 + pro3Rd2 >= 0 
p4Rd3 - p13Rd2 + pro3Rd2 >= 0 
p13Rd2 + p20Rd2 + p4Rd3 + pro3Rd2 <= 3 
p13Rd2 + p20Rd2 + p4Rd3 - pro3Rd2 >= 0 
p12Rd2 + p19Rd2 + p3Rd3 + pro3Rd2 - p20Rd2 >= 0 
p20Rd2 + p12Rd2 - p19Rd2 + p3Rd3 + pro3Rd2 >= 0 
p20Rd2 - p12Rd2 + p19Rd2 + p3Rd3 + pro3Rd2 >= 0 
p13Rd2 + p12Rd2 + p19Rd2 - p3Rd3 + pro3Rd2 >= 0 
p4Rd3 - p12Rd2 - p19Rd2 - p3Rd3 + pro3Rd2 >= -2 
p12Rd2 - p20Rd2 - p19Rd2 - p3Rd3 + pro3Rd2 >= -2 
p19Rd2 - p20Rd2 - p12Rd2 - p3Rd3 + pro3Rd2 >= -2 
p3Rd3 - p20Rd2 - p12Rd2 - p19Rd2 + pro3Rd2 >= -2 
p21Rd2 - p5Rd3 + pro4Rd2 >= 0 
p14Rd2 - p21Rd2 + pro4Rd2 >= 0 
p5Rd3 - p14Rd2 + pro4Rd2 >= 0 
p14Rd2 + p21Rd2 + p5Rd3 + pro4Rd2 <= 3 
p14Rd2 + p21Rd2 + p5Rd3 - pro4Rd2 >= 0 
p13Rd2 + p20Rd2 + p4Rd3 + pro4Rd2 - p21Rd2 >= 0 
p21Rd2 + p13Rd2 - p20Rd2 + p4Rd3 + pro4Rd2 >= 0 
p21Rd2 - p13Rd2 + p20Rd2 + p4Rd3 + pro4Rd2 >= 0 
p14Rd2 + p13Rd2 + p20Rd2 - p4Rd3 + pro4Rd2 >= 0 
p5Rd3 - p13Rd2 - p20Rd2 - p4Rd3 + pro4Rd2 >= -2 
p13Rd2 - p21Rd2 - p20Rd2 - p4Rd3 + pro4Rd2 >= -2 
p20Rd2 - p21Rd2 - p13Rd2 - p4Rd3 + pro4Rd2 >= -2 
p4Rd3 - p21Rd2 - p13Rd2 - p20Rd2 + pro4Rd2 >= -2 
p22Rd2 - p6Rd3 + pro5Rd2 >= 0 
p15Rd2 - p22Rd2 + pro5Rd2 >= 0 
p6Rd3 - p15Rd2 + pro5Rd2 >= 0 
p15Rd2 + p22Rd2 + p6Rd3 + pro5Rd2 <= 3 
p15Rd2 + p22Rd2 + p6Rd3 - pro5Rd2 >= 0 
p14Rd2 + p21Rd2 + p5Rd3 + pro5Rd2 - p22Rd2 >= 0 
p22Rd2 + p14Rd2 - p21Rd2 + p5Rd3 + pro5Rd2 >= 0 
p22Rd2 - p14Rd2 + p21Rd2 + p5Rd3 + pro5Rd2 >= 0 
p15Rd2 + p14Rd2 + p21Rd2 - p5Rd3 + pro5Rd2 >= 0 
p6Rd3 - p14Rd2 - p21Rd2 - p5Rd3 + pro5Rd2 >= -2 
p14Rd2 - p22Rd2 - p21Rd2 - p5Rd3 + pro5Rd2 >= -2 
p21Rd2 - p22Rd2 - p14Rd2 - p5Rd3 + pro5Rd2 >= -2 
p5Rd3 - p22Rd2 - p14Rd2 - p21Rd2 + pro5Rd2 >= -2 
p23Rd2 - p7Rd3 + pro6Rd2 >= 0 
p0Rd2 - p23Rd2 + pro6Rd2 >= 0 
p7Rd3 - p0Rd2 + pro6Rd2 >= 0 
p0Rd2 + p23Rd2 + p7Rd3 + pro6Rd2 <= 3 
p0Rd2 + p23Rd2 + p7Rd3 - pro6Rd2 >= 0 
p15Rd2 + p22Rd2 + p6Rd3 + pro6Rd2 - p23Rd2 >= 0 
p23Rd2 + p15Rd2 - p22Rd2 + p6Rd3 + pro6Rd2 >= 0 
p23Rd2 - p15Rd2 + p22Rd2 + p6Rd3 + pro6Rd2 >= 0 
p0Rd2 + p15Rd2 + p22Rd2 - p6Rd3 + pro6Rd2 >= 0 
p7Rd3 - p15Rd2 - p22Rd2 - p6Rd3 + pro6Rd2 >= -2 
p15Rd2 - p23Rd2 - p22Rd2 - p6Rd3 + pro6Rd2 >= -2 
p22Rd2 - p23Rd2 - p15Rd2 - p6Rd3 + pro6Rd2 >= -2 
p6Rd3 - p23Rd2 - p15Rd2 - p22Rd2 + pro6Rd2 >= -2 
p24Rd2 - p8Rd3 + pro7Rd2 >= 0 
p1Rd2 - p24Rd2 + pro7Rd2 >= 0 
p8Rd3 - p1Rd2 + pro7Rd2 >= 0 
p1Rd2 + p24Rd2 + p8Rd3 + pro7Rd2 <= 3 
p1Rd2 + p24Rd2 + p8Rd3 - pro7Rd2 >= 0 
p0Rd2 + p23Rd2 + p7Rd3 + pro7Rd2 - p24Rd2 >= 0 
p24Rd2 + p0Rd2 - p23Rd2 + p7Rd3 + pro7Rd2 >= 0 
p24Rd2 - p0Rd2 + p23Rd2 + p7Rd3 + pro7Rd2 >= 0 
p1Rd2 + p0Rd2 + p23Rd2 - p7Rd3 + pro7Rd2 >= 0 
p8Rd3 - p0Rd2 - p23Rd2 - p7Rd3 + pro7Rd2 >= -2 
p0Rd2 - p24Rd2 - p23Rd2 - p7Rd3 + pro7Rd2 >= -2 
p23Rd2 - p24Rd2 - p0Rd2 - p7Rd3 + pro7Rd2 >= -2 
p7Rd3 - p24Rd2 - p0Rd2 - p23Rd2 + pro7Rd2 >= -2 
p25Rd2 - p9Rd3 + pro8Rd2 >= 0 
p2Rd2 - p25Rd2 + pro8Rd2 >= 0 
p9Rd3 - p2Rd2 + pro8Rd2 >= 0 
p2Rd2 + p25Rd2 + p9Rd3 + pro8Rd2 <= 3 
p2Rd2 + p25Rd2 + p9Rd3 - pro8Rd2 >= 0 
p1Rd2 + p24Rd2 + p8Rd3 + pro8Rd2 - p25Rd2 >= 0 
p25Rd2 + p1Rd2 - p24Rd2 + p8Rd3 + pro8Rd2 >= 0 
p25Rd2 - p1Rd2 + p24Rd2 + p8Rd3 + pro8Rd2 >= 0 
p2Rd2 + p1Rd2 + p24Rd2 - p8Rd3 + pro8Rd2 >= 0 
p9Rd3 - p1Rd2 - p24Rd2 - p8Rd3 + pro8Rd2 >= -2 
p1Rd2 - p25Rd2 - p24Rd2 - p8Rd3 + pro8Rd2 >= -2 
p24Rd2 - p25Rd2 - p1Rd2 - p8Rd3 + pro8Rd2 >= -2 
p8Rd3 - p25Rd2 - p1Rd2 - p24Rd2 + pro8Rd2 >= -2 
p26Rd2 - p10Rd3 + pro9Rd2 >= 0 
p3Rd2 - p26Rd2 + pro9Rd2 >= 0 
p10Rd3 - p3Rd2 + pro9Rd2 >= 0 
p3Rd2 + p26Rd2 + p10Rd3 + pro9Rd2 <= 3 
p3Rd2 + p26Rd2 + p10Rd3 - pro9Rd2 >= 0 
p2Rd2 + p25Rd2 + p9Rd3 + pro9Rd2 - p26Rd2 >= 0 
p26Rd2 + p2Rd2 - p25Rd2 + p9Rd3 + pro9Rd2 >= 0 
p26Rd2 - p2Rd2 + p25Rd2 + p9Rd3 + pro9Rd2 >= 0 
p3Rd2 + p2Rd2 + p25Rd2 - p9Rd3 + pro9Rd2 >= 0 
p10Rd3 - p2Rd2 - p25Rd2 - p9Rd3 + pro9Rd2 >= -2 
p2Rd2 - p26Rd2 - p25Rd2 - p9Rd3 + pro9Rd2 >= -2 
p25Rd2 - p26Rd2 - p2Rd2 - p9Rd3 + pro9Rd2 >= -2 
p9Rd3 - p26Rd2 - p2Rd2 - p25Rd2 + pro9Rd2 >= -2 
p27Rd2 - p11Rd3 + pro10Rd2 >= 0 
p4Rd2 - p27Rd2 + pro10Rd2 >= 0 
p11Rd3 - p4Rd2 + pro10Rd2 >= 0 
p4Rd2 + p27Rd2 + p11Rd3 + pro10Rd2 <= 3 
p4Rd2 + p27Rd2 + p11Rd3 - pro10Rd2 >= 0 
p3Rd2 + p26Rd2 + p10Rd3 + pro10Rd2 - p27Rd2 >= 0 
p27Rd2 + p3Rd2 - p26Rd2 + p10Rd3 + pro10Rd2 >= 0 
p27Rd2 - p3Rd2 + p26Rd2 + p10Rd3 + pro10Rd2 >= 0 
p4Rd2 + p3Rd2 + p26Rd2 - p10Rd3 + pro10Rd2 >= 0 
p11Rd3 - p3Rd2 - p26Rd2 - p10Rd3 + pro10Rd2 >= -2 
p3Rd2 - p27Rd2 - p26Rd2 - p10Rd3 + pro10Rd2 >= -2 
p26Rd2 - p27Rd2 - p3Rd2 - p10Rd3 + pro10Rd2 >= -2 
p10Rd3 - p27Rd2 - p3Rd2 - p26Rd2 + pro10Rd2 >= -2 
p28Rd2 - p12Rd3 + pro11Rd2 >= 0 
p5Rd2 - p28Rd2 + pro11Rd2 >= 0 
p12Rd3 - p5Rd2 + pro11Rd2 >= 0 
p5Rd2 + p28Rd2 + p12Rd3 + pro11Rd2 <= 3 
p5Rd2 + p28Rd2 + p12Rd3 - pro11Rd2 >= 0 
p4Rd2 + p27Rd2 + p11Rd3 + pro11Rd2 - p28Rd2 >= 0 
p28Rd2 + p4Rd2 - p27Rd2 + p11Rd3 + pro11Rd2 >= 0 
p28Rd2 - p4Rd2 + p27Rd2 + p11Rd3 + pro11Rd2 >= 0 
p5Rd2 + p4Rd2 + p27Rd2 - p11Rd3 + pro11Rd2 >= 0 
p12Rd3 - p4Rd2 - p27Rd2 - p11Rd3 + pro11Rd2 >= -2 
p4Rd2 - p28Rd2 - p27Rd2 - p11Rd3 + pro11Rd2 >= -2 
p27Rd2 - p28Rd2 - p4Rd2 - p11Rd3 + pro11Rd2 >= -2 
p11Rd3 - p28Rd2 - p4Rd2 - p27Rd2 + pro11Rd2 >= -2 
p29Rd2 - p13Rd3 + pro12Rd2 >= 0 
p6Rd2 - p29Rd2 + pro12Rd2 >= 0 
p13Rd3 - p6Rd2 + pro12Rd2 >= 0 
p6Rd2 + p29Rd2 + p13Rd3 + pro12Rd2 <= 3 
p6Rd2 + p29Rd2 + p13Rd3 - pro12Rd2 >= 0 
p5Rd2 + p28Rd2 + p12Rd3 + pro12Rd2 - p29Rd2 >= 0 
p29Rd2 + p5Rd2 - p28Rd2 + p12Rd3 + pro12Rd2 >= 0 
p29Rd2 - p5Rd2 + p28Rd2 + p12Rd3 + pro12Rd2 >= 0 
p6Rd2 + p5Rd2 + p28Rd2 - p12Rd3 + pro12Rd2 >= 0 
p13Rd3 - p5Rd2 - p28Rd2 - p12Rd3 + pro12Rd2 >= -2 
p5Rd2 - p29Rd2 - p28Rd2 - p12Rd3 + pro12Rd2 >= -2 
p28Rd2 - p29Rd2 - p5Rd2 - p12Rd3 + pro12Rd2 >= -2 
p12Rd3 - p29Rd2 - p5Rd2 - p28Rd2 + pro12Rd2 >= -2 
p30Rd2 - p14Rd3 + pro13Rd2 >= 0 
p7Rd2 - p30Rd2 + pro13Rd2 >= 0 
p14Rd3 - p7Rd2 + pro13Rd2 >= 0 
p7Rd2 + p30Rd2 + p14Rd3 + pro13Rd2 <= 3 
p7Rd2 + p30Rd2 + p14Rd3 - pro13Rd2 >= 0 
p6Rd2 + p29Rd2 + p13Rd3 + pro13Rd2 - p30Rd2 >= 0 
p30Rd2 + p6Rd2 - p29Rd2 + p13Rd3 + pro13Rd2 >= 0 
p30Rd2 - p6Rd2 + p29Rd2 + p13Rd3 + pro13Rd2 >= 0 
p7Rd2 + p6Rd2 + p29Rd2 - p13Rd3 + pro13Rd2 >= 0 
p14Rd3 - p6Rd2 - p29Rd2 - p13Rd3 + pro13Rd2 >= -2 
p6Rd2 - p30Rd2 - p29Rd2 - p13Rd3 + pro13Rd2 >= -2 
p29Rd2 - p30Rd2 - p6Rd2 - p13Rd3 + pro13Rd2 >= -2 
p13Rd3 - p30Rd2 - p6Rd2 - p29Rd2 + pro13Rd2 >= -2 
p31Rd2 - p15Rd3 + pro14Rd2 >= 0 
p8Rd2 - p31Rd2 + pro14Rd2 >= 0 
p15Rd3 - p8Rd2 + pro14Rd2 >= 0 
p8Rd2 + p31Rd2 + p15Rd3 + pro14Rd2 <= 3 
p8Rd2 + p31Rd2 + p15Rd3 - pro14Rd2 >= 0 
p7Rd2 + p30Rd2 + p14Rd3 + pro14Rd2 - p31Rd2 >= 0 
p31Rd2 + p7Rd2 - p30Rd2 + p14Rd3 + pro14Rd2 >= 0 
p31Rd2 - p7Rd2 + p30Rd2 + p14Rd3 + pro14Rd2 >= 0 
p8Rd2 + p7Rd2 + p30Rd2 - p14Rd3 + pro14Rd2 >= 0 
p15Rd3 - p7Rd2 - p30Rd2 - p14Rd3 + pro14Rd2 >= -2 
p7Rd2 - p31Rd2 - p30Rd2 - p14Rd3 + pro14Rd2 >= -2 
p30Rd2 - p31Rd2 - p7Rd2 - p14Rd3 + pro14Rd2 >= -2 
p14Rd3 - p31Rd2 - p7Rd2 - p30Rd2 + pro14Rd2 >= -2 
p8Rd2 + p31Rd2 + p15Rd3 <= 2 
p8Rd2 + p31Rd2 + p15Rd3 - 2 temp2 >= 0 
temp2 - p8Rd2 >= 0 
temp2 - p31Rd2 >= 0 
temp2 - p15Rd3 >= 0 
p18Rd3 + p16Rd4 - p0Rd4 >= 0
p18Rd3 - p16Rd4 + p0Rd4 >= 0
- p18Rd3 + p16Rd4 + p0Rd4 >= 0
p18Rd3 + p16Rd4 + p0Rd4 <= 2
p19Rd3 + p17Rd4 - p1Rd4 >= 0
p19Rd3 - p17Rd4 + p1Rd4 >= 0
- p19Rd3 + p17Rd4 + p1Rd4 >= 0
p19Rd3 + p17Rd4 + p1Rd4 <= 2
p20Rd3 + p18Rd4 - p2Rd4 >= 0
p20Rd3 - p18Rd4 + p2Rd4 >= 0
- p20Rd3 + p18Rd4 + p2Rd4 >= 0
p20Rd3 + p18Rd4 + p2Rd4 <= 2
p21Rd3 + p19Rd4 - p3Rd4 >= 0
p21Rd3 - p19Rd4 + p3Rd4 >= 0
- p21Rd3 + p19Rd4 + p3Rd4 >= 0
p21Rd3 + p19Rd4 + p3Rd4 <= 2
p22Rd3 + p20Rd4 - p4Rd4 >= 0
p22Rd3 - p20Rd4 + p4Rd4 >= 0
- p22Rd3 + p20Rd4 + p4Rd4 >= 0
p22Rd3 + p20Rd4 + p4Rd4 <= 2
p23Rd3 + p21Rd4 - p5Rd4 >= 0
p23Rd3 - p21Rd4 + p5Rd4 >= 0
- p23Rd3 + p21Rd4 + p5Rd4 >= 0
p23Rd3 + p21Rd4 + p5Rd4 <= 2
p24Rd3 + p22Rd4 - p6Rd4 >= 0
p24Rd3 - p22Rd4 + p6Rd4 >= 0
- p24Rd3 + p22Rd4 + p6Rd4 >= 0
p24Rd3 + p22Rd4 + p6Rd4 <= 2
p25Rd3 + p23Rd4 - p7Rd4 >= 0
p25Rd3 - p23Rd4 + p7Rd4 >= 0
- p25Rd3 + p23Rd4 + p7Rd4 >= 0
p25Rd3 + p23Rd4 + p7Rd4 <= 2
p26Rd3 + p24Rd4 - p8Rd4 >= 0
p26Rd3 - p24Rd4 + p8Rd4 >= 0
- p26Rd3 + p24Rd4 + p8Rd4 >= 0
p26Rd3 + p24Rd4 + p8Rd4 <= 2
p27Rd3 + p25Rd4 - p9Rd4 >= 0
p27Rd3 - p25Rd4 + p9Rd4 >= 0
- p27Rd3 + p25Rd4 + p9Rd4 >= 0
p27Rd3 + p25Rd4 + p9Rd4 <= 2
p28Rd3 + p26Rd4 - p10Rd4 >= 0
p28Rd3 - p26Rd4 + p10Rd4 >= 0
- p28Rd3 + p26Rd4 + p10Rd4 >= 0
p28Rd3 + p26Rd4 + p10Rd4 <= 2
p29Rd3 + p27Rd4 - p11Rd4 >= 0
p29Rd3 - p27Rd4 + p11Rd4 >= 0
- p29Rd3 + p27Rd4 + p11Rd4 >= 0
p29Rd3 + p27Rd4 + p11Rd4 <= 2
p30Rd3 + p28Rd4 - p12Rd4 >= 0
p30Rd3 - p28Rd4 + p12Rd4 >= 0
- p30Rd3 + p28Rd4 + p12Rd4 >= 0
p30Rd3 + p28Rd4 + p12Rd4 <= 2
p31Rd3 + p29Rd4 - p13Rd4 >= 0
p31Rd3 - p29Rd4 + p13Rd4 >= 0
- p31Rd3 + p29Rd4 + p13Rd4 >= 0
p31Rd3 + p29Rd4 + p13Rd4 <= 2
p16Rd3 + p30Rd4 - p14Rd4 >= 0
p16Rd3 - p30Rd4 + p14Rd4 >= 0
- p16Rd3 + p30Rd4 + p14Rd4 >= 0
p16Rd3 + p30Rd4 + p14Rd4 <= 2
p17Rd3 + p31Rd4 - p15Rd4 >= 0
p17Rd3 - p31Rd4 + p15Rd4 >= 0
- p17Rd3 + p31Rd4 + p15Rd4 >= 0
p17Rd3 + p31Rd4 + p15Rd4 <= 2
p17Rd3 - p1Rd4 + pro0Rd3 >= 0 
p10Rd3 - p17Rd3 + pro0Rd3 >= 0 
p1Rd4 - p10Rd3 + pro0Rd3 >= 0 
p10Rd3 + p17Rd3 + p1Rd4 + pro0Rd3 <= 3 
p10Rd3 + p17Rd3 + p1Rd4 - pro0Rd3 >= 0 
p9Rd3 + p16Rd3 + p0Rd4 + pro0Rd3 - p17Rd3 >= 0 
p17Rd3 + p9Rd3 - p16Rd3 + p0Rd4 + pro0Rd3 >= 0 
p17Rd3 - p9Rd3 + p16Rd3 + p0Rd4 + pro0Rd3 >= 0 
p10Rd3 + p9Rd3 + p16Rd3 - p0Rd4 + pro0Rd3 >= 0 
p1Rd4 - p9Rd3 - p16Rd3 - p0Rd4 + pro0Rd3 >= -2 
p9Rd3 - p17Rd3 - p16Rd3 - p0Rd4 + pro0Rd3 >= -2 
p16Rd3 - p17Rd3 - p9Rd3 - p0Rd4 + pro0Rd3 >= -2 
p0Rd4 - p17Rd3 - p9Rd3 - p16Rd3 + pro0Rd3 >= -2 
p18Rd3 - p2Rd4 + pro1Rd3 >= 0 
p11Rd3 - p18Rd3 + pro1Rd3 >= 0 
p2Rd4 - p11Rd3 + pro1Rd3 >= 0 
p11Rd3 + p18Rd3 + p2Rd4 + pro1Rd3 <= 3 
p11Rd3 + p18Rd3 + p2Rd4 - pro1Rd3 >= 0 
p10Rd3 + p17Rd3 + p1Rd4 + pro1Rd3 - p18Rd3 >= 0 
p18Rd3 + p10Rd3 - p17Rd3 + p1Rd4 + pro1Rd3 >= 0 
p18Rd3 - p10Rd3 + p17Rd3 + p1Rd4 + pro1Rd3 >= 0 
p11Rd3 + p10Rd3 + p17Rd3 - p1Rd4 + pro1Rd3 >= 0 
p2Rd4 - p10Rd3 - p17Rd3 - p1Rd4 + pro1Rd3 >= -2 
p10Rd3 - p18Rd3 - p17Rd3 - p1Rd4 + pro1Rd3 >= -2 
p17Rd3 - p18Rd3 - p10Rd3 - p1Rd4 + pro1Rd3 >= -2 
p1Rd4 - p18Rd3 - p10Rd3 - p17Rd3 + pro1Rd3 >= -2 
p19Rd3 - p3Rd4 + pro2Rd3 >= 0 
p12Rd3 - p19Rd3 + pro2Rd3 >= 0 
p3Rd4 - p12Rd3 + pro2Rd3 >= 0 
p12Rd3 + p19Rd3 + p3Rd4 + pro2Rd3 <= 3 
p12Rd3 + p19Rd3 + p3Rd4 - pro2Rd3 >= 0 
p11Rd3 + p18Rd3 + p2Rd4 + pro2Rd3 - p19Rd3 >= 0 
p19Rd3 + p11Rd3 - p18Rd3 + p2Rd4 + pro2Rd3 >= 0 
p19Rd3 - p11Rd3 + p18Rd3 + p2Rd4 + pro2Rd3 >= 0 
p12Rd3 + p11Rd3 + p18Rd3 - p2Rd4 + pro2Rd3 >= 0 
p3Rd4 - p11Rd3 - p18Rd3 - p2Rd4 + pro2Rd3 >= -2 
p11Rd3 - p19Rd3 - p18Rd3 - p2Rd4 + pro2Rd3 >= -2 
p18Rd3 - p19Rd3 - p11Rd3 - p2Rd4 + pro2Rd3 >= -2 
p2Rd4 - p19Rd3 - p11Rd3 - p18Rd3 + pro2Rd3 >= -2 
p20Rd3 - p4Rd4 + pro3Rd3 >= 0 
p13Rd3 - p20Rd3 + pro3Rd3 >= 0 
p4Rd4 - p13Rd3 + pro3Rd3 >= 0 
p13Rd3 + p20Rd3 + p4Rd4 + pro3Rd3 <= 3 
p13Rd3 + p20Rd3 + p4Rd4 - pro3Rd3 >= 0 
p12Rd3 + p19Rd3 + p3Rd4 + pro3Rd3 - p20Rd3 >= 0 
p20Rd3 + p12Rd3 - p19Rd3 + p3Rd4 + pro3Rd3 >= 0 
p20Rd3 - p12Rd3 + p19Rd3 + p3Rd4 + pro3Rd3 >= 0 
p13Rd3 + p12Rd3 + p19Rd3 - p3Rd4 + pro3Rd3 >= 0 
p4Rd4 - p12Rd3 - p19Rd3 - p3Rd4 + pro3Rd3 >= -2 
p12Rd3 - p20Rd3 - p19Rd3 - p3Rd4 + pro3Rd3 >= -2 
p19Rd3 - p20Rd3 - p12Rd3 - p3Rd4 + pro3Rd3 >= -2 
p3Rd4 - p20Rd3 - p12Rd3 - p19Rd3 + pro3Rd3 >= -2 
p21Rd3 - p5Rd4 + pro4Rd3 >= 0 
p14Rd3 - p21Rd3 + pro4Rd3 >= 0 
p5Rd4 - p14Rd3 + pro4Rd3 >= 0 
p14Rd3 + p21Rd3 + p5Rd4 + pro4Rd3 <= 3 
p14Rd3 + p21Rd3 + p5Rd4 - pro4Rd3 >= 0 
p13Rd3 + p20Rd3 + p4Rd4 + pro4Rd3 - p21Rd3 >= 0 
p21Rd3 + p13Rd3 - p20Rd3 + p4Rd4 + pro4Rd3 >= 0 
p21Rd3 - p13Rd3 + p20Rd3 + p4Rd4 + pro4Rd3 >= 0 
p14Rd3 + p13Rd3 + p20Rd3 - p4Rd4 + pro4Rd3 >= 0 
p5Rd4 - p13Rd3 - p20Rd3 - p4Rd4 + pro4Rd3 >= -2 
p13Rd3 - p21Rd3 - p20Rd3 - p4Rd4 + pro4Rd3 >= -2 
p20Rd3 - p21Rd3 - p13Rd3 - p4Rd4 + pro4Rd3 >= -2 
p4Rd4 - p21Rd3 - p13Rd3 - p20Rd3 + pro4Rd3 >= -2 
p22Rd3 - p6Rd4 + pro5Rd3 >= 0 
p15Rd3 - p22Rd3 + pro5Rd3 >= 0 
p6Rd4 - p15Rd3 + pro5Rd3 >= 0 
p15Rd3 + p22Rd3 + p6Rd4 + pro5Rd3 <= 3 
p15Rd3 + p22Rd3 + p6Rd4 - pro5Rd3 >= 0 
p14Rd3 + p21Rd3 + p5Rd4 + pro5Rd3 - p22Rd3 >= 0 
p22Rd3 + p14Rd3 - p21Rd3 + p5Rd4 + pro5Rd3 >= 0 
p22Rd3 - p14Rd3 + p21Rd3 + p5Rd4 + pro5Rd3 >= 0 
p15Rd3 + p14Rd3 + p21Rd3 - p5Rd4 + pro5Rd3 >= 0 
p6Rd4 - p14Rd3 - p21Rd3 - p5Rd4 + pro5Rd3 >= -2 
p14Rd3 - p22Rd3 - p21Rd3 - p5Rd4 + pro5Rd3 >= -2 
p21Rd3 - p22Rd3 - p14Rd3 - p5Rd4 + pro5Rd3 >= -2 
p5Rd4 - p22Rd3 - p14Rd3 - p21Rd3 + pro5Rd3 >= -2 
p23Rd3 - p7Rd4 + pro6Rd3 >= 0 
p0Rd3 - p23Rd3 + pro6Rd3 >= 0 
p7Rd4 - p0Rd3 + pro6Rd3 >= 0 
p0Rd3 + p23Rd3 + p7Rd4 + pro6Rd3 <= 3 
p0Rd3 + p23Rd3 + p7Rd4 - pro6Rd3 >= 0 
p15Rd3 + p22Rd3 + p6Rd4 + pro6Rd3 - p23Rd3 >= 0 
p23Rd3 + p15Rd3 - p22Rd3 + p6Rd4 + pro6Rd3 >= 0 
p23Rd3 - p15Rd3 + p22Rd3 + p6Rd4 + pro6Rd3 >= 0 
p0Rd3 + p15Rd3 + p22Rd3 - p6Rd4 + pro6Rd3 >= 0 
p7Rd4 - p15Rd3 - p22Rd3 - p6Rd4 + pro6Rd3 >= -2 
p15Rd3 - p23Rd3 - p22Rd3 - p6Rd4 + pro6Rd3 >= -2 
p22Rd3 - p23Rd3 - p15Rd3 - p6Rd4 + pro6Rd3 >= -2 
p6Rd4 - p23Rd3 - p15Rd3 - p22Rd3 + pro6Rd3 >= -2 
p24Rd3 - p8Rd4 + pro7Rd3 >= 0 
p1Rd3 - p24Rd3 + pro7Rd3 >= 0 
p8Rd4 - p1Rd3 + pro7Rd3 >= 0 
p1Rd3 + p24Rd3 + p8Rd4 + pro7Rd3 <= 3 
p1Rd3 + p24Rd3 + p8Rd4 - pro7Rd3 >= 0 
p0Rd3 + p23Rd3 + p7Rd4 + pro7Rd3 - p24Rd3 >= 0 
p24Rd3 + p0Rd3 - p23Rd3 + p7Rd4 + pro7Rd3 >= 0 
p24Rd3 - p0Rd3 + p23Rd3 + p7Rd4 + pro7Rd3 >= 0 
p1Rd3 + p0Rd3 + p23Rd3 - p7Rd4 + pro7Rd3 >= 0 
p8Rd4 - p0Rd3 - p23Rd3 - p7Rd4 + pro7Rd3 >= -2 
p0Rd3 - p24Rd3 - p23Rd3 - p7Rd4 + pro7Rd3 >= -2 
p23Rd3 - p24Rd3 - p0Rd3 - p7Rd4 + pro7Rd3 >= -2 
p7Rd4 - p24Rd3 - p0Rd3 - p23Rd3 + pro7Rd3 >= -2 
p25Rd3 - p9Rd4 + pro8Rd3 >= 0 
p2Rd3 - p25Rd3 + pro8Rd3 >= 0 
p9Rd4 - p2Rd3 + pro8Rd3 >= 0 
p2Rd3 + p25Rd3 + p9Rd4 + pro8Rd3 <= 3 
p2Rd3 + p25Rd3 + p9Rd4 - pro8Rd3 >= 0 
p1Rd3 + p24Rd3 + p8Rd4 + pro8Rd3 - p25Rd3 >= 0 
p25Rd3 + p1Rd3 - p24Rd3 + p8Rd4 + pro8Rd3 >= 0 
p25Rd3 - p1Rd3 + p24Rd3 + p8Rd4 + pro8Rd3 >= 0 
p2Rd3 + p1Rd3 + p24Rd3 - p8Rd4 + pro8Rd3 >= 0 
p9Rd4 - p1Rd3 - p24Rd3 - p8Rd4 + pro8Rd3 >= -2 
p1Rd3 - p25Rd3 - p24Rd3 - p8Rd4 + pro8Rd3 >= -2 
p24Rd3 - p25Rd3 - p1Rd3 - p8Rd4 + pro8Rd3 >= -2 
p8Rd4 - p25Rd3 - p1Rd3 - p24Rd3 + pro8Rd3 >= -2 
p26Rd3 - p10Rd4 + pro9Rd3 >= 0 
p3Rd3 - p26Rd3 + pro9Rd3 >= 0 
p10Rd4 - p3Rd3 + pro9Rd3 >= 0 
p3Rd3 + p26Rd3 + p10Rd4 + pro9Rd3 <= 3 
p3Rd3 + p26Rd3 + p10Rd4 - pro9Rd3 >= 0 
p2Rd3 + p25Rd3 + p9Rd4 + pro9Rd3 - p26Rd3 >= 0 
p26Rd3 + p2Rd3 - p25Rd3 + p9Rd4 + pro9Rd3 >= 0 
p26Rd3 - p2Rd3 + p25Rd3 + p9Rd4 + pro9Rd3 >= 0 
p3Rd3 + p2Rd3 + p25Rd3 - p9Rd4 + pro9Rd3 >= 0 
p10Rd4 - p2Rd3 - p25Rd3 - p9Rd4 + pro9Rd3 >= -2 
p2Rd3 - p26Rd3 - p25Rd3 - p9Rd4 + pro9Rd3 >= -2 
p25Rd3 - p26Rd3 - p2Rd3 - p9Rd4 + pro9Rd3 >= -2 
p9Rd4 - p26Rd3 - p2Rd3 - p25Rd3 + pro9Rd3 >= -2 
p27Rd3 - p11Rd4 + pro10Rd3 >= 0 
p4Rd3 - p27Rd3 + pro10Rd3 >= 0 
p11Rd4 - p4Rd3 + pro10Rd3 >= 0 
p4Rd3 + p27Rd3 + p11Rd4 + pro10Rd3 <= 3 
p4Rd3 + p27Rd3 + p11Rd4 - pro10Rd3 >= 0 
p3Rd3 + p26Rd3 + p10Rd4 + pro10Rd3 - p27Rd3 >= 0 
p27Rd3 + p3Rd3 - p26Rd3 + p10Rd4 + pro10Rd3 >= 0 
p27Rd3 - p3Rd3 + p26Rd3 + p10Rd4 + pro10Rd3 >= 0 
p4Rd3 + p3Rd3 + p26Rd3 - p10Rd4 + pro10Rd3 >= 0 
p11Rd4 - p3Rd3 - p26Rd3 - p10Rd4 + pro10Rd3 >= -2 
p3Rd3 - p27Rd3 - p26Rd3 - p10Rd4 + pro10Rd3 >= -2 
p26Rd3 - p27Rd3 - p3Rd3 - p10Rd4 + pro10Rd3 >= -2 
p10Rd4 - p27Rd3 - p3Rd3 - p26Rd3 + pro10Rd3 >= -2 
p28Rd3 - p12Rd4 + pro11Rd3 >= 0 
p5Rd3 - p28Rd3 + pro11Rd3 >= 0 
p12Rd4 - p5Rd3 + pro11Rd3 >= 0 
p5Rd3 + p28Rd3 + p12Rd4 + pro11Rd3 <= 3 
p5Rd3 + p28Rd3 + p12Rd4 - pro11Rd3 >= 0 
p4Rd3 + p27Rd3 + p11Rd4 + pro11Rd3 - p28Rd3 >= 0 
p28Rd3 + p4Rd3 - p27Rd3 + p11Rd4 + pro11Rd3 >= 0 
p28Rd3 - p4Rd3 + p27Rd3 + p11Rd4 + pro11Rd3 >= 0 
p5Rd3 + p4Rd3 + p27Rd3 - p11Rd4 + pro11Rd3 >= 0 
p12Rd4 - p4Rd3 - p27Rd3 - p11Rd4 + pro11Rd3 >= -2 
p4Rd3 - p28Rd3 - p27Rd3 - p11Rd4 + pro11Rd3 >= -2 
p27Rd3 - p28Rd3 - p4Rd3 - p11Rd4 + pro11Rd3 >= -2 
p11Rd4 - p28Rd3 - p4Rd3 - p27Rd3 + pro11Rd3 >= -2 
p29Rd3 - p13Rd4 + pro12Rd3 >= 0 
p6Rd3 - p29Rd3 + pro12Rd3 >= 0 
p13Rd4 - p6Rd3 + pro12Rd3 >= 0 
p6Rd3 + p29Rd3 + p13Rd4 + pro12Rd3 <= 3 
p6Rd3 + p29Rd3 + p13Rd4 - pro12Rd3 >= 0 
p5Rd3 + p28Rd3 + p12Rd4 + pro12Rd3 - p29Rd3 >= 0 
p29Rd3 + p5Rd3 - p28Rd3 + p12Rd4 + pro12Rd3 >= 0 
p29Rd3 - p5Rd3 + p28Rd3 + p12Rd4 + pro12Rd3 >= 0 
p6Rd3 + p5Rd3 + p28Rd3 - p12Rd4 + pro12Rd3 >= 0 
p13Rd4 - p5Rd3 - p28Rd3 - p12Rd4 + pro12Rd3 >= -2 
p5Rd3 - p29Rd3 - p28Rd3 - p12Rd4 + pro12Rd3 >= -2 
p28Rd3 - p29Rd3 - p5Rd3 - p12Rd4 + pro12Rd3 >= -2 
p12Rd4 - p29Rd3 - p5Rd3 - p28Rd3 + pro12Rd3 >= -2 
p30Rd3 - p14Rd4 + pro13Rd3 >= 0 
p7Rd3 - p30Rd3 + pro13Rd3 >= 0 
p14Rd4 - p7Rd3 + pro13Rd3 >= 0 
p7Rd3 + p30Rd3 + p14Rd4 + pro13Rd3 <= 3 
p7Rd3 + p30Rd3 + p14Rd4 - pro13Rd3 >= 0 
p6Rd3 + p29Rd3 + p13Rd4 + pro13Rd3 - p30Rd3 >= 0 
p30Rd3 + p6Rd3 - p29Rd3 + p13Rd4 + pro13Rd3 >= 0 
p30Rd3 - p6Rd3 + p29Rd3 + p13Rd4 + pro13Rd3 >= 0 
p7Rd3 + p6Rd3 + p29Rd3 - p13Rd4 + pro13Rd3 >= 0 
p14Rd4 - p6Rd3 - p29Rd3 - p13Rd4 + pro13Rd3 >= -2 
p6Rd3 - p30Rd3 - p29Rd3 - p13Rd4 + pro13Rd3 >= -2 
p29Rd3 - p30Rd3 - p6Rd3 - p13Rd4 + pro13Rd3 >= -2 
p13Rd4 - p30Rd3 - p6Rd3 - p29Rd3 + pro13Rd3 >= -2 
p31Rd3 - p15Rd4 + pro14Rd3 >= 0 
p8Rd3 - p31Rd3 + pro14Rd3 >= 0 
p15Rd4 - p8Rd3 + pro14Rd3 >= 0 
p8Rd3 + p31Rd3 + p15Rd4 + pro14Rd3 <= 3 
p8Rd3 + p31Rd3 + p15Rd4 - pro14Rd3 >= 0 
p7Rd3 + p30Rd3 + p14Rd4 + pro14Rd3 - p31Rd3 >= 0 
p31Rd3 + p7Rd3 - p30Rd3 + p14Rd4 + pro14Rd3 >= 0 
p31Rd3 - p7Rd3 + p30Rd3 + p14Rd4 + pro14Rd3 >= 0 
p8Rd3 + p7Rd3 + p30Rd3 - p14Rd4 + pro14Rd3 >= 0 
p15Rd4 - p7Rd3 - p30Rd3 - p14Rd4 + pro14Rd3 >= -2 
p7Rd3 - p31Rd3 - p30Rd3 - p14Rd4 + pro14Rd3 >= -2 
p30Rd3 - p31Rd3 - p7Rd3 - p14Rd4 + pro14Rd3 >= -2 
p14Rd4 - p31Rd3 - p7Rd3 - p30Rd3 + pro14Rd3 >= -2 
p8Rd3 + p31Rd3 + p15Rd4 <= 2 
p8Rd3 + p31Rd3 + p15Rd4 - 2 temp3 >= 0 
temp3 - p8Rd3 >= 0 
temp3 - p31Rd3 >= 0 
temp3 - p15Rd4 >= 0 
p18Rd4 + p16Rd5 - p0Rd5 >= 0
p18Rd4 - p16Rd5 + p0Rd5 >= 0
- p18Rd4 + p16Rd5 + p0Rd5 >= 0
p18Rd4 + p16Rd5 + p0Rd5 <= 2
p19Rd4 + p17Rd5 - p1Rd5 >= 0
p19Rd4 - p17Rd5 + p1Rd5 >= 0
- p19Rd4 + p17Rd5 + p1Rd5 >= 0
p19Rd4 + p17Rd5 + p1Rd5 <= 2
p20Rd4 + p18Rd5 - p2Rd5 >= 0
p20Rd4 - p18Rd5 + p2Rd5 >= 0
- p20Rd4 + p18Rd5 + p2Rd5 >= 0
p20Rd4 + p18Rd5 + p2Rd5 <= 2
p21Rd4 + p19Rd5 - p3Rd5 >= 0
p21Rd4 - p19Rd5 + p3Rd5 >= 0
- p21Rd4 + p19Rd5 + p3Rd5 >= 0
p21Rd4 + p19Rd5 + p3Rd5 <= 2
p22Rd4 + p20Rd5 - p4Rd5 >= 0
p22Rd4 - p20Rd5 + p4Rd5 >= 0
- p22Rd4 + p20Rd5 + p4Rd5 >= 0
p22Rd4 + p20Rd5 + p4Rd5 <= 2
p23Rd4 + p21Rd5 - p5Rd5 >= 0
p23Rd4 - p21Rd5 + p5Rd5 >= 0
- p23Rd4 + p21Rd5 + p5Rd5 >= 0
p23Rd4 + p21Rd5 + p5Rd5 <= 2
p24Rd4 + p22Rd5 - p6Rd5 >= 0
p24Rd4 - p22Rd5 + p6Rd5 >= 0
- p24Rd4 + p22Rd5 + p6Rd5 >= 0
p24Rd4 + p22Rd5 + p6Rd5 <= 2
p25Rd4 + p23Rd5 - p7Rd5 >= 0
p25Rd4 - p23Rd5 + p7Rd5 >= 0
- p25Rd4 + p23Rd5 + p7Rd5 >= 0
p25Rd4 + p23Rd5 + p7Rd5 <= 2
p26Rd4 + p24Rd5 - p8Rd5 >= 0
p26Rd4 - p24Rd5 + p8Rd5 >= 0
- p26Rd4 + p24Rd5 + p8Rd5 >= 0
p26Rd4 + p24Rd5 + p8Rd5 <= 2
p27Rd4 + p25Rd5 - p9Rd5 >= 0
p27Rd4 - p25Rd5 + p9Rd5 >= 0
- p27Rd4 + p25Rd5 + p9Rd5 >= 0
p27Rd4 + p25Rd5 + p9Rd5 <= 2
p28Rd4 + p26Rd5 - p10Rd5 >= 0
p28Rd4 - p26Rd5 + p10Rd5 >= 0
- p28Rd4 + p26Rd5 + p10Rd5 >= 0
p28Rd4 + p26Rd5 + p10Rd5 <= 2
p29Rd4 + p27Rd5 - p11Rd5 >= 0
p29Rd4 - p27Rd5 + p11Rd5 >= 0
- p29Rd4 + p27Rd5 + p11Rd5 >= 0
p29Rd4 + p27Rd5 + p11Rd5 <= 2
p30Rd4 + p28Rd5 - p12Rd5 >= 0
p30Rd4 - p28Rd5 + p12Rd5 >= 0
- p30Rd4 + p28Rd5 + p12Rd5 >= 0
p30Rd4 + p28Rd5 + p12Rd5 <= 2
p31Rd4 + p29Rd5 - p13Rd5 >= 0
p31Rd4 - p29Rd5 + p13Rd5 >= 0
- p31Rd4 + p29Rd5 + p13Rd5 >= 0
p31Rd4 + p29Rd5 + p13Rd5 <= 2
p16Rd4 + p30Rd5 - p14Rd5 >= 0
p16Rd4 - p30Rd5 + p14Rd5 >= 0
- p16Rd4 + p30Rd5 + p14Rd5 >= 0
p16Rd4 + p30Rd5 + p14Rd5 <= 2
p17Rd4 + p31Rd5 - p15Rd5 >= 0
p17Rd4 - p31Rd5 + p15Rd5 >= 0
- p17Rd4 + p31Rd5 + p15Rd5 >= 0
p17Rd4 + p31Rd5 + p15Rd5 <= 2
p17Rd4 - p1Rd5 + pro0Rd4 >= 0 
p10Rd4 - p17Rd4 + pro0Rd4 >= 0 
p1Rd5 - p10Rd4 + pro0Rd4 >= 0 
p10Rd4 + p17Rd4 + p1Rd5 + pro0Rd4 <= 3 
p10Rd4 + p17Rd4 + p1Rd5 - pro0Rd4 >= 0 
p9Rd4 + p16Rd4 + p0Rd5 + pro0Rd4 - p17Rd4 >= 0 
p17Rd4 + p9Rd4 - p16Rd4 + p0Rd5 + pro0Rd4 >= 0 
p17Rd4 - p9Rd4 + p16Rd4 + p0Rd5 + pro0Rd4 >= 0 
p10Rd4 + p9Rd4 + p16Rd4 - p0Rd5 + pro0Rd4 >= 0 
p1Rd5 - p9Rd4 - p16Rd4 - p0Rd5 + pro0Rd4 >= -2 
p9Rd4 - p17Rd4 - p16Rd4 - p0Rd5 + pro0Rd4 >= -2 
p16Rd4 - p17Rd4 - p9Rd4 - p0Rd5 + pro0Rd4 >= -2 
p0Rd5 - p17Rd4 - p9Rd4 - p16Rd4 + pro0Rd4 >= -2 
p18Rd4 - p2Rd5 + pro1Rd4 >= 0 
p11Rd4 - p18Rd4 + pro1Rd4 >= 0 
p2Rd5 - p11Rd4 + pro1Rd4 >= 0 
p11Rd4 + p18Rd4 + p2Rd5 + pro1Rd4 <= 3 
p11Rd4 + p18Rd4 + p2Rd5 - pro1Rd4 >= 0 
p10Rd4 + p17Rd4 + p1Rd5 + pro1Rd4 - p18Rd4 >= 0 
p18Rd4 + p10Rd4 - p17Rd4 + p1Rd5 + pro1Rd4 >= 0 
p18Rd4 - p10Rd4 + p17Rd4 + p1Rd5 + pro1Rd4 >= 0 
p11Rd4 + p10Rd4 + p17Rd4 - p1Rd5 + pro1Rd4 >= 0 
p2Rd5 - p10Rd4 - p17Rd4 - p1Rd5 + pro1Rd4 >= -2 
p10Rd4 - p18Rd4 - p17Rd4 - p1Rd5 + pro1Rd4 >= -2 
p17Rd4 - p18Rd4 - p10Rd4 - p1Rd5 + pro1Rd4 >= -2 
p1Rd5 - p18Rd4 - p10Rd4 - p17Rd4 + pro1Rd4 >= -2 
p19Rd4 - p3Rd5 + pro2Rd4 >= 0 
p12Rd4 - p19Rd4 + pro2Rd4 >= 0 
p3Rd5 - p12Rd4 + pro2Rd4 >= 0 
p12Rd4 + p19Rd4 + p3Rd5 + pro2Rd4 <= 3 
p12Rd4 + p19Rd4 + p3Rd5 - pro2Rd4 >= 0 
p11Rd4 + p18Rd4 + p2Rd5 + pro2Rd4 - p19Rd4 >= 0 
p19Rd4 + p11Rd4 - p18Rd4 + p2Rd5 + pro2Rd4 >= 0 
p19Rd4 - p11Rd4 + p18Rd4 + p2Rd5 + pro2Rd4 >= 0 
p12Rd4 + p11Rd4 + p18Rd4 - p2Rd5 + pro2Rd4 >= 0 
p3Rd5 - p11Rd4 - p18Rd4 - p2Rd5 + pro2Rd4 >= -2 
p11Rd4 - p19Rd4 - p18Rd4 - p2Rd5 + pro2Rd4 >= -2 
p18Rd4 - p19Rd4 - p11Rd4 - p2Rd5 + pro2Rd4 >= -2 
p2Rd5 - p19Rd4 - p11Rd4 - p18Rd4 + pro2Rd4 >= -2 
p20Rd4 - p4Rd5 + pro3Rd4 >= 0 
p13Rd4 - p20Rd4 + pro3Rd4 >= 0 
p4Rd5 - p13Rd4 + pro3Rd4 >= 0 
p13Rd4 + p20Rd4 + p4Rd5 + pro3Rd4 <= 3 
p13Rd4 + p20Rd4 + p4Rd5 - pro3Rd4 >= 0 
p12Rd4 + p19Rd4 + p3Rd5 + pro3Rd4 - p20Rd4 >= 0 
p20Rd4 + p12Rd4 - p19Rd4 + p3Rd5 + pro3Rd4 >= 0 
p20Rd4 - p12Rd4 + p19Rd4 + p3Rd5 + pro3Rd4 >= 0 
p13Rd4 + p12Rd4 + p19Rd4 - p3Rd5 + pro3Rd4 >= 0 
p4Rd5 - p12Rd4 - p19Rd4 - p3Rd5 + pro3Rd4 >= -2 
p12Rd4 - p20Rd4 - p19Rd4 - p3Rd5 + pro3Rd4 >= -2 
p19Rd4 - p20Rd4 - p12Rd4 - p3Rd5 + pro3Rd4 >= -2 
p3Rd5 - p20Rd4 - p12Rd4 - p19Rd4 + pro3Rd4 >= -2 
p21Rd4 - p5Rd5 + pro4Rd4 >= 0 
p14Rd4 - p21Rd4 + pro4Rd4 >= 0 
p5Rd5 - p14Rd4 + pro4Rd4 >= 0 
p14Rd4 + p21Rd4 + p5Rd5 + pro4Rd4 <= 3 
p14Rd4 + p21Rd4 + p5Rd5 - pro4Rd4 >= 0 
p13Rd4 + p20Rd4 + p4Rd5 + pro4Rd4 - p21Rd4 >= 0 
p21Rd4 + p13Rd4 - p20Rd4 + p4Rd5 + pro4Rd4 >= 0 
p21Rd4 - p13Rd4 + p20Rd4 + p4Rd5 + pro4Rd4 >= 0 
p14Rd4 + p13Rd4 + p20Rd4 - p4Rd5 + pro4Rd4 >= 0 
p5Rd5 - p13Rd4 - p20Rd4 - p4Rd5 + pro4Rd4 >= -2 
p13Rd4 - p21Rd4 - p20Rd4 - p4Rd5 + pro4Rd4 >= -2 
p20Rd4 - p21Rd4 - p13Rd4 - p4Rd5 + pro4Rd4 >= -2 
p4Rd5 - p21Rd4 - p13Rd4 - p20Rd4 + pro4Rd4 >= -2 
p22Rd4 - p6Rd5 + pro5Rd4 >= 0 
p15Rd4 - p22Rd4 + pro5Rd4 >= 0 
p6Rd5 - p15Rd4 + pro5Rd4 >= 0 
p15Rd4 + p22Rd4 + p6Rd5 + pro5Rd4 <= 3 
p15Rd4 + p22Rd4 + p6Rd5 - pro5Rd4 >= 0 
p14Rd4 + p21Rd4 + p5Rd5 + pro5Rd4 - p22Rd4 >= 0 
p22Rd4 + p14Rd4 - p21Rd4 + p5Rd5 + pro5Rd4 >= 0 
p22Rd4 - p14Rd4 + p21Rd4 + p5Rd5 + pro5Rd4 >= 0 
p15Rd4 + p14Rd4 + p21Rd4 - p5Rd5 + pro5Rd4 >= 0 
p6Rd5 - p14Rd4 - p21Rd4 - p5Rd5 + pro5Rd4 >= -2 
p14Rd4 - p22Rd4 - p21Rd4 - p5Rd5 + pro5Rd4 >= -2 
p21Rd4 - p22Rd4 - p14Rd4 - p5Rd5 + pro5Rd4 >= -2 
p5Rd5 - p22Rd4 - p14Rd4 - p21Rd4 + pro5Rd4 >= -2 
p23Rd4 - p7Rd5 + pro6Rd4 >= 0 
p0Rd4 - p23Rd4 + pro6Rd4 >= 0 
p7Rd5 - p0Rd4 + pro6Rd4 >= 0 
p0Rd4 + p23Rd4 + p7Rd5 + pro6Rd4 <= 3 
p0Rd4 + p23Rd4 + p7Rd5 - pro6Rd4 >= 0 
p15Rd4 + p22Rd4 + p6Rd5 + pro6Rd4 - p23Rd4 >= 0 
p23Rd4 + p15Rd4 - p22Rd4 + p6Rd5 + pro6Rd4 >= 0 
p23Rd4 - p15Rd4 + p22Rd4 + p6Rd5 + pro6Rd4 >= 0 
p0Rd4 + p15Rd4 + p22Rd4 - p6Rd5 + pro6Rd4 >= 0 
p7Rd5 - p15Rd4 - p22Rd4 - p6Rd5 + pro6Rd4 >= -2 
p15Rd4 - p23Rd4 - p22Rd4 - p6Rd5 + pro6Rd4 >= -2 
p22Rd4 - p23Rd4 - p15Rd4 - p6Rd5 + pro6Rd4 >= -2 
p6Rd5 - p23Rd4 - p15Rd4 - p22Rd4 + pro6Rd4 >= -2 
p24Rd4 - p8Rd5 + pro7Rd4 >= 0 
p1Rd4 - p24Rd4 + pro7Rd4 >= 0 
p8Rd5 - p1Rd4 + pro7Rd4 >= 0 
p1Rd4 + p24Rd4 + p8Rd5 + pro7Rd4 <= 3 
p1Rd4 + p24Rd4 + p8Rd5 - pro7Rd4 >= 0 
p0Rd4 + p23Rd4 + p7Rd5 + pro7Rd4 - p24Rd4 >= 0 
p24Rd4 + p0Rd4 - p23Rd4 + p7Rd5 + pro7Rd4 >= 0 
p24Rd4 - p0Rd4 + p23Rd4 + p7Rd5 + pro7Rd4 >= 0 
p1Rd4 + p0Rd4 + p23Rd4 - p7Rd5 + pro7Rd4 >= 0 
p8Rd5 - p0Rd4 - p23Rd4 - p7Rd5 + pro7Rd4 >= -2 
p0Rd4 - p24Rd4 - p23Rd4 - p7Rd5 + pro7Rd4 >= -2 
p23Rd4 - p24Rd4 - p0Rd4 - p7Rd5 + pro7Rd4 >= -2 
p7Rd5 - p24Rd4 - p0Rd4 - p23Rd4 + pro7Rd4 >= -2 
p25Rd4 - p9Rd5 + pro8Rd4 >= 0 
p2Rd4 - p25Rd4 + pro8Rd4 >= 0 
p9Rd5 - p2Rd4 + pro8Rd4 >= 0 
p2Rd4 + p25Rd4 + p9Rd5 + pro8Rd4 <= 3 
p2Rd4 + p25Rd4 + p9Rd5 - pro8Rd4 >= 0 
p1Rd4 + p24Rd4 + p8Rd5 + pro8Rd4 - p25Rd4 >= 0 
p25Rd4 + p1Rd4 - p24Rd4 + p8Rd5 + pro8Rd4 >= 0 
p25Rd4 - p1Rd4 + p24Rd4 + p8Rd5 + pro8Rd4 >= 0 
p2Rd4 + p1Rd4 + p24Rd4 - p8Rd5 + pro8Rd4 >= 0 
p9Rd5 - p1Rd4 - p24Rd4 - p8Rd5 + pro8Rd4 >= -2 
p1Rd4 - p25Rd4 - p24Rd4 - p8Rd5 + pro8Rd4 >= -2 
p24Rd4 - p25Rd4 - p1Rd4 - p8Rd5 + pro8Rd4 >= -2 
p8Rd5 - p25Rd4 - p1Rd4 - p24Rd4 + pro8Rd4 >= -2 
p26Rd4 - p10Rd5 + pro9Rd4 >= 0 
p3Rd4 - p26Rd4 + pro9Rd4 >= 0 
p10Rd5 - p3Rd4 + pro9Rd4 >= 0 
p3Rd4 + p26Rd4 + p10Rd5 + pro9Rd4 <= 3 
p3Rd4 + p26Rd4 + p10Rd5 - pro9Rd4 >= 0 
p2Rd4 + p25Rd4 + p9Rd5 + pro9Rd4 - p26Rd4 >= 0 
p26Rd4 + p2Rd4 - p25Rd4 + p9Rd5 + pro9Rd4 >= 0 
p26Rd4 - p2Rd4 + p25Rd4 + p9Rd5 + pro9Rd4 >= 0 
p3Rd4 + p2Rd4 + p25Rd4 - p9Rd5 + pro9Rd4 >= 0 
p10Rd5 - p2Rd4 - p25Rd4 - p9Rd5 + pro9Rd4 >= -2 
p2Rd4 - p26Rd4 - p25Rd4 - p9Rd5 + pro9Rd4 >= -2 
p25Rd4 - p26Rd4 - p2Rd4 - p9Rd5 + pro9Rd4 >= -2 
p9Rd5 - p26Rd4 - p2Rd4 - p25Rd4 + pro9Rd4 >= -2 
p27Rd4 - p11Rd5 + pro10Rd4 >= 0 
p4Rd4 - p27Rd4 + pro10Rd4 >= 0 
p11Rd5 - p4Rd4 + pro10Rd4 >= 0 
p4Rd4 + p27Rd4 + p11Rd5 + pro10Rd4 <= 3 
p4Rd4 + p27Rd4 + p11Rd5 - pro10Rd4 >= 0 
p3Rd4 + p26Rd4 + p10Rd5 + pro10Rd4 - p27Rd4 >= 0 
p27Rd4 + p3Rd4 - p26Rd4 + p10Rd5 + pro10Rd4 >= 0 
p27Rd4 - p3Rd4 + p26Rd4 + p10Rd5 + pro10Rd4 >= 0 
p4Rd4 + p3Rd4 + p26Rd4 - p10Rd5 + pro10Rd4 >= 0 
p11Rd5 - p3Rd4 - p26Rd4 - p10Rd5 + pro10Rd4 >= -2 
p3Rd4 - p27Rd4 - p26Rd4 - p10Rd5 + pro10Rd4 >= -2 
p26Rd4 - p27Rd4 - p3Rd4 - p10Rd5 + pro10Rd4 >= -2 
p10Rd5 - p27Rd4 - p3Rd4 - p26Rd4 + pro10Rd4 >= -2 
p28Rd4 - p12Rd5 + pro11Rd4 >= 0 
p5Rd4 - p28Rd4 + pro11Rd4 >= 0 
p12Rd5 - p5Rd4 + pro11Rd4 >= 0 
p5Rd4 + p28Rd4 + p12Rd5 + pro11Rd4 <= 3 
p5Rd4 + p28Rd4 + p12Rd5 - pro11Rd4 >= 0 
p4Rd4 + p27Rd4 + p11Rd5 + pro11Rd4 - p28Rd4 >= 0 
p28Rd4 + p4Rd4 - p27Rd4 + p11Rd5 + pro11Rd4 >= 0 
p28Rd4 - p4Rd4 + p27Rd4 + p11Rd5 + pro11Rd4 >= 0 
p5Rd4 + p4Rd4 + p27Rd4 - p11Rd5 + pro11Rd4 >= 0 
p12Rd5 - p4Rd4 - p27Rd4 - p11Rd5 + pro11Rd4 >= -2 
p4Rd4 - p28Rd4 - p27Rd4 - p11Rd5 + pro11Rd4 >= -2 
p27Rd4 - p28Rd4 - p4Rd4 - p11Rd5 + pro11Rd4 >= -2 
p11Rd5 - p28Rd4 - p4Rd4 - p27Rd4 + pro11Rd4 >= -2 
p29Rd4 - p13Rd5 + pro12Rd4 >= 0 
p6Rd4 - p29Rd4 + pro12Rd4 >= 0 
p13Rd5 - p6Rd4 + pro12Rd4 >= 0 
p6Rd4 + p29Rd4 + p13Rd5 + pro12Rd4 <= 3 
p6Rd4 + p29Rd4 + p13Rd5 - pro12Rd4 >= 0 
p5Rd4 + p28Rd4 + p12Rd5 + pro12Rd4 - p29Rd4 >= 0 
p29Rd4 + p5Rd4 - p28Rd4 + p12Rd5 + pro12Rd4 >= 0 
p29Rd4 - p5Rd4 + p28Rd4 + p12Rd5 + pro12Rd4 >= 0 
p6Rd4 + p5Rd4 + p28Rd4 - p12Rd5 + pro12Rd4 >= 0 
p13Rd5 - p5Rd4 - p28Rd4 - p12Rd5 + pro12Rd4 >= -2 
p5Rd4 - p29Rd4 - p28Rd4 - p12Rd5 + pro12Rd4 >= -2 
p28Rd4 - p29Rd4 - p5Rd4 - p12Rd5 + pro12Rd4 >= -2 
p12Rd5 - p29Rd4 - p5Rd4 - p28Rd4 + pro12Rd4 >= -2 
p30Rd4 - p14Rd5 + pro13Rd4 >= 0 
p7Rd4 - p30Rd4 + pro13Rd4 >= 0 
p14Rd5 - p7Rd4 + pro13Rd4 >= 0 
p7Rd4 + p30Rd4 + p14Rd5 + pro13Rd4 <= 3 
p7Rd4 + p30Rd4 + p14Rd5 - pro13Rd4 >= 0 
p6Rd4 + p29Rd4 + p13Rd5 + pro13Rd4 - p30Rd4 >= 0 
p30Rd4 + p6Rd4 - p29Rd4 + p13Rd5 + pro13Rd4 >= 0 
p30Rd4 - p6Rd4 + p29Rd4 + p13Rd5 + pro13Rd4 >= 0 
p7Rd4 + p6Rd4 + p29Rd4 - p13Rd5 + pro13Rd4 >= 0 
p14Rd5 - p6Rd4 - p29Rd4 - p13Rd5 + pro13Rd4 >= -2 
p6Rd4 - p30Rd4 - p29Rd4 - p13Rd5 + pro13Rd4 >= -2 
p29Rd4 - p30Rd4 - p6Rd4 - p13Rd5 + pro13Rd4 >= -2 
p13Rd5 - p30Rd4 - p6Rd4 - p29Rd4 + pro13Rd4 >= -2 
p31Rd4 - p15Rd5 + pro14Rd4 >= 0 
p8Rd4 - p31Rd4 + pro14Rd4 >= 0 
p15Rd5 - p8Rd4 + pro14Rd4 >= 0 
p8Rd4 + p31Rd4 + p15Rd5 + pro14Rd4 <= 3 
p8Rd4 + p31Rd4 + p15Rd5 - pro14Rd4 >= 0 
p7Rd4 + p30Rd4 + p14Rd5 + pro14Rd4 - p31Rd4 >= 0 
p31Rd4 + p7Rd4 - p30Rd4 + p14Rd5 + pro14Rd4 >= 0 
p31Rd4 - p7Rd4 + p30Rd4 + p14Rd5 + pro14Rd4 >= 0 
p8Rd4 + p7Rd4 + p30Rd4 - p14Rd5 + pro14Rd4 >= 0 
p15Rd5 - p7Rd4 - p30Rd4 - p14Rd5 + pro14Rd4 >= -2 
p7Rd4 - p31Rd4 - p30Rd4 - p14Rd5 + pro14Rd4 >= -2 
p30Rd4 - p31Rd4 - p7Rd4 - p14Rd5 + pro14Rd4 >= -2 
p14Rd5 - p31Rd4 - p7Rd4 - p30Rd4 + pro14Rd4 >= -2 
p8Rd4 + p31Rd4 + p15Rd5 <= 2 
p8Rd4 + p31Rd4 + p15Rd5 - 2 temp4 >= 0 
temp4 - p8Rd4 >= 0 
temp4 - p31Rd4 >= 0 
temp4 - p15Rd5 >= 0 
p9Rd5 = 1
p0Rd5 = 0
p1Rd5 = 0
p2Rd5 = 0
p3Rd5 = 0
p4Rd5 = 0
p5Rd5 = 0
p6Rd5 = 0
p7Rd5 = 0
p8Rd5 = 0
p10Rd5 = 0
p11Rd5 = 0
p12Rd5 = 0
p13Rd5 = 0
p14Rd5 = 0
p15Rd5 = 0
p16Rd5 = 0
p17Rd5 = 0
p18Rd5 = 0
p19Rd5 = 0
p20Rd5 = 0
p21Rd5 = 0
p22Rd5 = 0
p23Rd5 = 0
p24Rd5 = 0
p25Rd5 = 0
p26Rd5 = 0
p27Rd5 = 0
p28Rd5 = 0
p29Rd5 = 0
p30Rd5 = 0
p31Rd5 = 0


Binary
pro9Rd4
p5Rd2
p3Rd4
p0Rd1
p30Rd3
p26Rd3
p17Rd3
p8
p25
p21Rd2
p11
p24Rd3
pro2Rd1
p16
pro8Rd3
p29
p30
p31Rd3
pro1Rd2
p28Rd2
p27Rd5
p19
pro3Rd1
pro12Rd2
p7
p31Rd4
pro4Rd2
p30Rd2
p25Rd5
=
p21Rd3
p11Rd3
pro6Rd3
p18Rd1
pro13Rd2
pro7Rd4
p29Rd1
p26Rd2
p15Rd1
p20Rd5
p0Rd5
p5Rd3
p18Rd5
p0Rd3
pro10Rd0
p8Rd1
pro8Rd0
p13Rd3
p13Rd2
pro10Rd1
p29Rd2
p3Rd2
pro8Rd2
p14Rd5
p21Rd5
p21
p31Rd2
p4
p26Rd5
pro8Rd4
p20Rd3
p27Rd1
p28Rd1
pro6Rd4
temp2
pro10Rd3
p19Rd2
p4Rd2
p31Rd1
p9Rd3
p6Rd3
p0Rd4
pro14Rd3
p1Rd2
pro7Rd3
pro3Rd3
p16Rd4
p12Rd3
p29Rd4
p7Rd3
pro9Rd0
pro13Rd1
p17Rd5
pro0Rd0
p8Rd4
p23Rd4
p21Rd4
p19Rd5
p25Rd1
pro2Rd2
pro3Rd2
p2Rd3
p7Rd2
pro13Rd0
p26Rd4
p25Rd3
p27Rd4
pro12Rd1
p20Rd4
temp0
temp1
p18Rd2
p14Rd4
p8Rd5
p15Rd3
pro4Rd0
p24Rd2
p24
pro3Rd4
p27Rd3
p10
p28Rd4
temp4
p11Rd2
p9Rd4
p20Rd2
pro7Rd1
pro7Rd2
pro1Rd1
pro14Rd2
p2
p17Rd4
p22Rd4
p26
p7Rd5
p31Rd5
pro13Rd3
pro10Rd2
p19Rd1
p11Rd1
p22Rd3
p28Rd3
p15
p14Rd2
pro11Rd4
pro7Rd0
p10Rd3
pro6Rd1
pro8Rd1
pro0Rd1
p7Rd1
p3Rd1
p15Rd2
pro4Rd1
p5Rd4
p17Rd1
p20
pro9Rd3
p9
p30Rd4
p6Rd5
p1Rd5
pro1Rd0
p0Rd2
p1Rd4
pro13Rd4
pro5Rd4
p27Rd2
p21Rd1
p14Rd1
p6Rd2
pro5Rd0
pro0Rd3
p13Rd5
p2Rd5
pro14Rd1
p12Rd1
p5
p2Rd2
p10Rd2
p13Rd4
p23Rd1
p6
p14Rd3
p23Rd3
p13
pro11Rd2
p12Rd5
p16Rd5
p31
p4Rd4
p27
p4Rd5
p12
p7Rd4
p8Rd2
p17
pro10Rd4
p17Rd2
pro5Rd3
pro5Rd1
p24Rd5
p29Rd3
p22
p11Rd5
pro2Rd4
p5Rd1
pro12Rd4
p1
p14
pro12Rd0
p23Rd2
p16Rd2
pro4Rd3
p28
pro2Rd3
pro0Rd4
p23Rd5
pro4Rd4
p20Rd1
p25Rd2
p24Rd1
pro11Rd3
p11Rd4
p19Rd3
pro6Rd2
p9Rd5
p15Rd4
pro0Rd2
p12Rd2
pro3Rd0
p5Rd5
p9Rd2
pro14Rd4
pro9Rd2
p22Rd2
pro12Rd3
p10Rd1
p23
pro11Rd1
p6Rd1
pro1Rd4
pro11Rd0
p1Rd3
p1Rd1
p2Rd4
p12Rd4
p3
p4Rd1
p10Rd4
p15Rd5
p25Rd4
pro6Rd0
p18Rd3
p28Rd5
p3Rd3
p26Rd1
p13Rd1
pro9Rd1
p24Rd4
p18
p30Rd5
p29Rd5
p8Rd3
p30Rd1
p0
p4Rd3
temp3
pro5Rd2
p22Rd5
p6Rd4
p3Rd5
pro14Rd0
p10Rd5
p22Rd1
p16Rd1
p9Rd1
p18Rd4
p16Rd3
pro2Rd0
p2Rd1
p19Rd4
pro1Rd3
