Minimize
pro0Rd0 + pro1Rd0 + pro2Rd0 + pro3Rd0 + pro4Rd0 + pro5Rd0 + pro6Rd0 + pro7Rd0 + pro8Rd0 + pro9Rd0 + pro10Rd0 + pro11Rd0 + pro12Rd0 + pro13Rd0 + pro14Rd0 + pro0Rd1 + pro1Rd1 + pro2Rd1 + pro3Rd1 + pro4Rd1 + pro5Rd1 + pro6Rd1 + pro7Rd1 + pro8Rd1 + pro9Rd1 + pro10Rd1 + pro11Rd1 + pro12Rd1 + pro13Rd1 + pro14Rd1 + pro0Rd2 + pro1Rd2 + pro2Rd2 + pro3Rd2 + pro4Rd2 + pro5Rd2 + pro6Rd2 + pro7Rd2 + pro8Rd2 + pro9Rd2 + pro10Rd2 + pro11Rd2 + pro12Rd2 + pro13Rd2 + pro14Rd2

Subject To
p0 + p1 + p2 + p3 + p4 + p5 + p6 + p7 + p8 + p9 + p10 + p11 + p12 + p13 + p14 + p15 + p16 + p17 + p18 + p19 + p20 + p21 + p22 + p23 + p24 + p25 + p26 + p27 + p28 + p29 + p30 + p31 >= 1
p18 + p16Rd1 + p0Rd1 <= 2
p18 + p16Rd1 + p0Rd1 - 2 temp0Rnd0 >= 0
temp0Rnd0 - p18 >= 0
temp0Rnd0 - p16Rd1 >= 0
temp0Rnd0 - p0Rd1 >= 0
p19 + p17Rd1 + p1Rd1 <= 2
p19 + p17Rd1 + p1Rd1 - 2 temp1Rnd0 >= 0
temp1Rnd0 - p19 >= 0
temp1Rnd0 - p17Rd1 >= 0
temp1Rnd0 - p1Rd1 >= 0
p20 + p18Rd1 + p2Rd1 <= 2
p20 + p18Rd1 + p2Rd1 - 2 temp2Rnd0 >= 0
temp2Rnd0 - p20 >= 0
temp2Rnd0 - p18Rd1 >= 0
temp2Rnd0 - p2Rd1 >= 0
p21 + p19Rd1 + p3Rd1 <= 2
p21 + p19Rd1 + p3Rd1 - 2 temp3Rnd0 >= 0
temp3Rnd0 - p21 >= 0
temp3Rnd0 - p19Rd1 >= 0
temp3Rnd0 - p3Rd1 >= 0
p22 + p20Rd1 + p4Rd1 <= 2
p22 + p20Rd1 + p4Rd1 - 2 temp4Rnd0 >= 0
temp4Rnd0 - p22 >= 0
temp4Rnd0 - p20Rd1 >= 0
temp4Rnd0 - p4Rd1 >= 0
p23 + p21Rd1 + p5Rd1 <= 2
p23 + p21Rd1 + p5Rd1 - 2 temp5Rnd0 >= 0
temp5Rnd0 - p23 >= 0
temp5Rnd0 - p21Rd1 >= 0
temp5Rnd0 - p5Rd1 >= 0
p24 + p22Rd1 + p6Rd1 <= 2
p24 + p22Rd1 + p6Rd1 - 2 temp6Rnd0 >= 0
temp6Rnd0 - p24 >= 0
temp6Rnd0 - p22Rd1 >= 0
temp6Rnd0 - p6Rd1 >= 0
p25 + p23Rd1 + p7Rd1 <= 2
p25 + p23Rd1 + p7Rd1 - 2 temp7Rnd0 >= 0
temp7Rnd0 - p25 >= 0
temp7Rnd0 - p23Rd1 >= 0
temp7Rnd0 - p7Rd1 >= 0
p26 + p24Rd1 + p8Rd1 <= 2
p26 + p24Rd1 + p8Rd1 - 2 temp8Rnd0 >= 0
temp8Rnd0 - p26 >= 0
temp8Rnd0 - p24Rd1 >= 0
temp8Rnd0 - p8Rd1 >= 0
p27 + p25Rd1 + p9Rd1 <= 2
p27 + p25Rd1 + p9Rd1 - 2 temp9Rnd0 >= 0
temp9Rnd0 - p27 >= 0
temp9Rnd0 - p25Rd1 >= 0
temp9Rnd0 - p9Rd1 >= 0
p28 + p26Rd1 + p10Rd1 <= 2
p28 + p26Rd1 + p10Rd1 - 2 temp10Rnd0 >= 0
temp10Rnd0 - p28 >= 0
temp10Rnd0 - p26Rd1 >= 0
temp10Rnd0 - p10Rd1 >= 0
p29 + p27Rd1 + p11Rd1 <= 2
p29 + p27Rd1 + p11Rd1 - 2 temp11Rnd0 >= 0
temp11Rnd0 - p29 >= 0
temp11Rnd0 - p27Rd1 >= 0
temp11Rnd0 - p11Rd1 >= 0
p30 + p28Rd1 + p12Rd1 <= 2
p30 + p28Rd1 + p12Rd1 - 2 temp12Rnd0 >= 0
temp12Rnd0 - p30 >= 0
temp12Rnd0 - p28Rd1 >= 0
temp12Rnd0 - p12Rd1 >= 0
p31 + p29Rd1 + p13Rd1 <= 2
p31 + p29Rd1 + p13Rd1 - 2 temp13Rnd0 >= 0
temp13Rnd0 - p31 >= 0
temp13Rnd0 - p29Rd1 >= 0
temp13Rnd0 - p13Rd1 >= 0
p16 + p30Rd1 + p14Rd1 <= 2
p16 + p30Rd1 + p14Rd1 - 2 temp14Rnd0 >= 0
temp14Rnd0 - p16 >= 0
temp14Rnd0 - p30Rd1 >= 0
temp14Rnd0 - p14Rd1 >= 0
p17 + p31Rd1 + p15Rd1 <= 2
p17 + p31Rd1 + p15Rd1 - 2 temp15Rnd0 >= 0
temp15Rnd0 - p17 >= 0
temp15Rnd0 - p31Rd1 >= 0
temp15Rnd0 - p15Rd1 >= 0
p17 - p1Rd1 + pro0Rd0 >= 0 
p10 - p17 + pro0Rd0 >= 0 
p1Rd1 - p10 + pro0Rd0 >= 0 
p10 + p17 + p1Rd1 + pro0Rd0 <= 3 
p10 + p17 + p1Rd1 - pro0Rd0 >= 0 
p9 + p16 + p0Rd1 + pro0Rd0 - p17 >= 0 
p17 + p9 - p16 + p0Rd1 + pro0Rd0 >= 0 
p17 - p9 + p16 + p0Rd1 + pro0Rd0 >= 0 
p10 + p9 + p16 - p0Rd1 + pro0Rd0 >= 0 
p1Rd1 - p9 - p16 - p0Rd1 + pro0Rd0 >= -2 
p9 - p17 - p16 - p0Rd1 + pro0Rd0 >= -2 
p16 - p17 - p9 - p0Rd1 + pro0Rd0 >= -2 
p0Rd1 - p17 - p9 - p16 + pro0Rd0 >= -2 
p18 - p2Rd1 + pro1Rd0 >= 0 
p11 - p18 + pro1Rd0 >= 0 
p2Rd1 - p11 + pro1Rd0 >= 0 
p11 + p18 + p2Rd1 + pro1Rd0 <= 3 
p11 + p18 + p2Rd1 - pro1Rd0 >= 0 
p10 + p17 + p1Rd1 + pro1Rd0 - p18 >= 0 
p18 + p10 - p17 + p1Rd1 + pro1Rd0 >= 0 
p18 - p10 + p17 + p1Rd1 + pro1Rd0 >= 0 
p11 + p10 + p17 - p1Rd1 + pro1Rd0 >= 0 
p2Rd1 - p10 - p17 - p1Rd1 + pro1Rd0 >= -2 
p10 - p18 - p17 - p1Rd1 + pro1Rd0 >= -2 
p17 - p18 - p10 - p1Rd1 + pro1Rd0 >= -2 
p1Rd1 - p18 - p10 - p17 + pro1Rd0 >= -2 
p19 - p3Rd1 + pro2Rd0 >= 0 
p12 - p19 + pro2Rd0 >= 0 
p3Rd1 - p12 + pro2Rd0 >= 0 
p12 + p19 + p3Rd1 + pro2Rd0 <= 3 
p12 + p19 + p3Rd1 - pro2Rd0 >= 0 
p11 + p18 + p2Rd1 + pro2Rd0 - p19 >= 0 
p19 + p11 - p18 + p2Rd1 + pro2Rd0 >= 0 
p19 - p11 + p18 + p2Rd1 + pro2Rd0 >= 0 
p12 + p11 + p18 - p2Rd1 + pro2Rd0 >= 0 
p3Rd1 - p11 - p18 - p2Rd1 + pro2Rd0 >= -2 
p11 - p19 - p18 - p2Rd1 + pro2Rd0 >= -2 
p18 - p19 - p11 - p2Rd1 + pro2Rd0 >= -2 
p2Rd1 - p19 - p11 - p18 + pro2Rd0 >= -2 
p20 - p4Rd1 + pro3Rd0 >= 0 
p13 - p20 + pro3Rd0 >= 0 
p4Rd1 - p13 + pro3Rd0 >= 0 
p13 + p20 + p4Rd1 + pro3Rd0 <= 3 
p13 + p20 + p4Rd1 - pro3Rd0 >= 0 
p12 + p19 + p3Rd1 + pro3Rd0 - p20 >= 0 
p20 + p12 - p19 + p3Rd1 + pro3Rd0 >= 0 
p20 - p12 + p19 + p3Rd1 + pro3Rd0 >= 0 
p13 + p12 + p19 - p3Rd1 + pro3Rd0 >= 0 
p4Rd1 - p12 - p19 - p3Rd1 + pro3Rd0 >= -2 
p12 - p20 - p19 - p3Rd1 + pro3Rd0 >= -2 
p19 - p20 - p12 - p3Rd1 + pro3Rd0 >= -2 
p3Rd1 - p20 - p12 - p19 + pro3Rd0 >= -2 
p21 - p5Rd1 + pro4Rd0 >= 0 
p14 - p21 + pro4Rd0 >= 0 
p5Rd1 - p14 + pro4Rd0 >= 0 
p14 + p21 + p5Rd1 + pro4Rd0 <= 3 
p14 + p21 + p5Rd1 - pro4Rd0 >= 0 
p13 + p20 + p4Rd1 + pro4Rd0 - p21 >= 0 
p21 + p13 - p20 + p4Rd1 + pro4Rd0 >= 0 
p21 - p13 + p20 + p4Rd1 + pro4Rd0 >= 0 
p14 + p13 + p20 - p4Rd1 + pro4Rd0 >= 0 
p5Rd1 - p13 - p20 - p4Rd1 + pro4Rd0 >= -2 
p13 - p21 - p20 - p4Rd1 + pro4Rd0 >= -2 
p20 - p21 - p13 - p4Rd1 + pro4Rd0 >= -2 
p4Rd1 - p21 - p13 - p20 + pro4Rd0 >= -2 
p22 - p6Rd1 + pro5Rd0 >= 0 
p15 - p22 + pro5Rd0 >= 0 
p6Rd1 - p15 + pro5Rd0 >= 0 
p15 + p22 + p6Rd1 + pro5Rd0 <= 3 
p15 + p22 + p6Rd1 - pro5Rd0 >= 0 
p14 + p21 + p5Rd1 + pro5Rd0 - p22 >= 0 
p22 + p14 - p21 + p5Rd1 + pro5Rd0 >= 0 
p22 - p14 + p21 + p5Rd1 + pro5Rd0 >= 0 
p15 + p14 + p21 - p5Rd1 + pro5Rd0 >= 0 
p6Rd1 - p14 - p21 - p5Rd1 + pro5Rd0 >= -2 
p14 - p22 - p21 - p5Rd1 + pro5Rd0 >= -2 
p21 - p22 - p14 - p5Rd1 + pro5Rd0 >= -2 
p5Rd1 - p22 - p14 - p21 + pro5Rd0 >= -2 
p23 - p7Rd1 + pro6Rd0 >= 0 
p0 - p23 + pro6Rd0 >= 0 
p7Rd1 - p0 + pro6Rd0 >= 0 
p0 + p23 + p7Rd1 + pro6Rd0 <= 3 
p0 + p23 + p7Rd1 - pro6Rd0 >= 0 
p15 + p22 + p6Rd1 + pro6Rd0 - p23 >= 0 
p23 + p15 - p22 + p6Rd1 + pro6Rd0 >= 0 
p23 - p15 + p22 + p6Rd1 + pro6Rd0 >= 0 
p0 + p15 + p22 - p6Rd1 + pro6Rd0 >= 0 
p7Rd1 - p15 - p22 - p6Rd1 + pro6Rd0 >= -2 
p15 - p23 - p22 - p6Rd1 + pro6Rd0 >= -2 
p22 - p23 - p15 - p6Rd1 + pro6Rd0 >= -2 
p6Rd1 - p23 - p15 - p22 + pro6Rd0 >= -2 
p24 - p8Rd1 + pro7Rd0 >= 0 
p1 - p24 + pro7Rd0 >= 0 
p8Rd1 - p1 + pro7Rd0 >= 0 
p1 + p24 + p8Rd1 + pro7Rd0 <= 3 
p1 + p24 + p8Rd1 - pro7Rd0 >= 0 
p0 + p23 + p7Rd1 + pro7Rd0 - p24 >= 0 
p24 + p0 - p23 + p7Rd1 + pro7Rd0 >= 0 
p24 - p0 + p23 + p7Rd1 + pro7Rd0 >= 0 
p1 + p0 + p23 - p7Rd1 + pro7Rd0 >= 0 
p8Rd1 - p0 - p23 - p7Rd1 + pro7Rd0 >= -2 
p0 - p24 - p23 - p7Rd1 + pro7Rd0 >= -2 
p23 - p24 - p0 - p7Rd1 + pro7Rd0 >= -2 
p7Rd1 - p24 - p0 - p23 + pro7Rd0 >= -2 
p25 - p9Rd1 + pro8Rd0 >= 0 
p2 - p25 + pro8Rd0 >= 0 
p9Rd1 - p2 + pro8Rd0 >= 0 
p2 + p25 + p9Rd1 + pro8Rd0 <= 3 
p2 + p25 + p9Rd1 - pro8Rd0 >= 0 
p1 + p24 + p8Rd1 + pro8Rd0 - p25 >= 0 
p25 + p1 - p24 + p8Rd1 + pro8Rd0 >= 0 
p25 - p1 + p24 + p8Rd1 + pro8Rd0 >= 0 
p2 + p1 + p24 - p8Rd1 + pro8Rd0 >= 0 
p9Rd1 - p1 - p24 - p8Rd1 + pro8Rd0 >= -2 
p1 - p25 - p24 - p8Rd1 + pro8Rd0 >= -2 
p24 - p25 - p1 - p8Rd1 + pro8Rd0 >= -2 
p8Rd1 - p25 - p1 - p24 + pro8Rd0 >= -2 
p26 - p10Rd1 + pro9Rd0 >= 0 
p3 - p26 + pro9Rd0 >= 0 
p10Rd1 - p3 + pro9Rd0 >= 0 
p3 + p26 + p10Rd1 + pro9Rd0 <= 3 
p3 + p26 + p10Rd1 - pro9Rd0 >= 0 
p2 + p25 + p9Rd1 + pro9Rd0 - p26 >= 0 
p26 + p2 - p25 + p9Rd1 + pro9Rd0 >= 0 
p26 - p2 + p25 + p9Rd1 + pro9Rd0 >= 0 
p3 + p2 + p25 - p9Rd1 + pro9Rd0 >= 0 
p10Rd1 - p2 - p25 - p9Rd1 + pro9Rd0 >= -2 
p2 - p26 - p25 - p9Rd1 + pro9Rd0 >= -2 
p25 - p26 - p2 - p9Rd1 + pro9Rd0 >= -2 
p9Rd1 - p26 - p2 - p25 + pro9Rd0 >= -2 
p27 - p11Rd1 + pro10Rd0 >= 0 
p4 - p27 + pro10Rd0 >= 0 
p11Rd1 - p4 + pro10Rd0 >= 0 
p4 + p27 + p11Rd1 + pro10Rd0 <= 3 
p4 + p27 + p11Rd1 - pro10Rd0 >= 0 
p3 + p26 + p10Rd1 + pro10Rd0 - p27 >= 0 
p27 + p3 - p26 + p10Rd1 + pro10Rd0 >= 0 
p27 - p3 + p26 + p10Rd1 + pro10Rd0 >= 0 
p4 + p3 + p26 - p10Rd1 + pro10Rd0 >= 0 
p11Rd1 - p3 - p26 - p10Rd1 + pro10Rd0 >= -2 
p3 - p27 - p26 - p10Rd1 + pro10Rd0 >= -2 
p26 - p27 - p3 - p10Rd1 + pro10Rd0 >= -2 
p10Rd1 - p27 - p3 - p26 + pro10Rd0 >= -2 
p28 - p12Rd1 + pro11Rd0 >= 0 
p5 - p28 + pro11Rd0 >= 0 
p12Rd1 - p5 + pro11Rd0 >= 0 
p5 + p28 + p12Rd1 + pro11Rd0 <= 3 
p5 + p28 + p12Rd1 - pro11Rd0 >= 0 
p4 + p27 + p11Rd1 + pro11Rd0 - p28 >= 0 
p28 + p4 - p27 + p11Rd1 + pro11Rd0 >= 0 
p28 - p4 + p27 + p11Rd1 + pro11Rd0 >= 0 
p5 + p4 + p27 - p11Rd1 + pro11Rd0 >= 0 
p12Rd1 - p4 - p27 - p11Rd1 + pro11Rd0 >= -2 
p4 - p28 - p27 - p11Rd1 + pro11Rd0 >= -2 
p27 - p28 - p4 - p11Rd1 + pro11Rd0 >= -2 
p11Rd1 - p28 - p4 - p27 + pro11Rd0 >= -2 
p29 - p13Rd1 + pro12Rd0 >= 0 
p6 - p29 + pro12Rd0 >= 0 
p13Rd1 - p6 + pro12Rd0 >= 0 
p6 + p29 + p13Rd1 + pro12Rd0 <= 3 
p6 + p29 + p13Rd1 - pro12Rd0 >= 0 
p5 + p28 + p12Rd1 + pro12Rd0 - p29 >= 0 
p29 + p5 - p28 + p12Rd1 + pro12Rd0 >= 0 
p29 - p5 + p28 + p12Rd1 + pro12Rd0 >= 0 
p6 + p5 + p28 - p12Rd1 + pro12Rd0 >= 0 
p13Rd1 - p5 - p28 - p12Rd1 + pro12Rd0 >= -2 
p5 - p29 - p28 - p12Rd1 + pro12Rd0 >= -2 
p28 - p29 - p5 - p12Rd1 + pro12Rd0 >= -2 
p12Rd1 - p29 - p5 - p28 + pro12Rd0 >= -2 
p30 - p14Rd1 + pro13Rd0 >= 0 
p7 - p30 + pro13Rd0 >= 0 
p14Rd1 - p7 + pro13Rd0 >= 0 
p7 + p30 + p14Rd1 + pro13Rd0 <= 3 
p7 + p30 + p14Rd1 - pro13Rd0 >= 0 
p6 + p29 + p13Rd1 + pro13Rd0 - p30 >= 0 
p30 + p6 - p29 + p13Rd1 + pro13Rd0 >= 0 
p30 - p6 + p29 + p13Rd1 + pro13Rd0 >= 0 
p7 + p6 + p29 - p13Rd1 + pro13Rd0 >= 0 
p14Rd1 - p6 - p29 - p13Rd1 + pro13Rd0 >= -2 
p6 - p30 - p29 - p13Rd1 + pro13Rd0 >= -2 
p29 - p30 - p6 - p13Rd1 + pro13Rd0 >= -2 
p13Rd1 - p30 - p6 - p29 + pro13Rd0 >= -2 
p31 - p15Rd1 + pro14Rd0 >= 0 
p8 - p31 + pro14Rd0 >= 0 
p15Rd1 - p8 + pro14Rd0 >= 0 
p8 + p31 + p15Rd1 + pro14Rd0 <= 3 
p8 + p31 + p15Rd1 - pro14Rd0 >= 0 
p7 + p30 + p14Rd1 + pro14Rd0 - p31 >= 0 
p31 + p7 - p30 + p14Rd1 + pro14Rd0 >= 0 
p31 - p7 + p30 + p14Rd1 + pro14Rd0 >= 0 
p8 + p7 + p30 - p14Rd1 + pro14Rd0 >= 0 
p15Rd1 - p7 - p30 - p14Rd1 + pro14Rd0 >= -2 
p7 - p31 - p30 - p14Rd1 + pro14Rd0 >= -2 
p30 - p31 - p7 - p14Rd1 + pro14Rd0 >= -2 
p14Rd1 - p31 - p7 - p30 + pro14Rd0 >= -2 
p8 + p31 + p15Rd1 <= 2 
p8 + p31 + p15Rd1 - 2 temp0 >= 0 
temp0 - p8 >= 0 
temp0 - p31 >= 0 
temp0 - p15Rd1 >= 0 
p18Rd1 + p16Rd2 + p0Rd2 <= 2
p18Rd1 + p16Rd2 + p0Rd2 - 2 temp0Rnd1 >= 0
temp0Rnd1 - p18Rd1 >= 0
temp0Rnd1 - p16Rd2 >= 0
temp0Rnd1 - p0Rd2 >= 0
p19Rd1 + p17Rd2 + p1Rd2 <= 2
p19Rd1 + p17Rd2 + p1Rd2 - 2 temp1Rnd1 >= 0
temp1Rnd1 - p19Rd1 >= 0
temp1Rnd1 - p17Rd2 >= 0
temp1Rnd1 - p1Rd2 >= 0
p20Rd1 + p18Rd2 + p2Rd2 <= 2
p20Rd1 + p18Rd2 + p2Rd2 - 2 temp2Rnd1 >= 0
temp2Rnd1 - p20Rd1 >= 0
temp2Rnd1 - p18Rd2 >= 0
temp2Rnd1 - p2Rd2 >= 0
p21Rd1 + p19Rd2 + p3Rd2 <= 2
p21Rd1 + p19Rd2 + p3Rd2 - 2 temp3Rnd1 >= 0
temp3Rnd1 - p21Rd1 >= 0
temp3Rnd1 - p19Rd2 >= 0
temp3Rnd1 - p3Rd2 >= 0
p22Rd1 + p20Rd2 + p4Rd2 <= 2
p22Rd1 + p20Rd2 + p4Rd2 - 2 temp4Rnd1 >= 0
temp4Rnd1 - p22Rd1 >= 0
temp4Rnd1 - p20Rd2 >= 0
temp4Rnd1 - p4Rd2 >= 0
p23Rd1 + p21Rd2 + p5Rd2 <= 2
p23Rd1 + p21Rd2 + p5Rd2 - 2 temp5Rnd1 >= 0
temp5Rnd1 - p23Rd1 >= 0
temp5Rnd1 - p21Rd2 >= 0
temp5Rnd1 - p5Rd2 >= 0
p24Rd1 + p22Rd2 + p6Rd2 <= 2
p24Rd1 + p22Rd2 + p6Rd2 - 2 temp6Rnd1 >= 0
temp6Rnd1 - p24Rd1 >= 0
temp6Rnd1 - p22Rd2 >= 0
temp6Rnd1 - p6Rd2 >= 0
p25Rd1 + p23Rd2 + p7Rd2 <= 2
p25Rd1 + p23Rd2 + p7Rd2 - 2 temp7Rnd1 >= 0
temp7Rnd1 - p25Rd1 >= 0
temp7Rnd1 - p23Rd2 >= 0
temp7Rnd1 - p7Rd2 >= 0
p26Rd1 + p24Rd2 + p8Rd2 <= 2
p26Rd1 + p24Rd2 + p8Rd2 - 2 temp8Rnd1 >= 0
temp8Rnd1 - p26Rd1 >= 0
temp8Rnd1 - p24Rd2 >= 0
temp8Rnd1 - p8Rd2 >= 0
p27Rd1 + p25Rd2 + p9Rd2 <= 2
p27Rd1 + p25Rd2 + p9Rd2 - 2 temp9Rnd1 >= 0
temp9Rnd1 - p27Rd1 >= 0
temp9Rnd1 - p25Rd2 >= 0
temp9Rnd1 - p9Rd2 >= 0
p28Rd1 + p26Rd2 + p10Rd2 <= 2
p28Rd1 + p26Rd2 + p10Rd2 - 2 temp10Rnd1 >= 0
temp10Rnd1 - p28Rd1 >= 0
temp10Rnd1 - p26Rd2 >= 0
temp10Rnd1 - p10Rd2 >= 0
p29Rd1 + p27Rd2 + p11Rd2 <= 2
p29Rd1 + p27Rd2 + p11Rd2 - 2 temp11Rnd1 >= 0
temp11Rnd1 - p29Rd1 >= 0
temp11Rnd1 - p27Rd2 >= 0
temp11Rnd1 - p11Rd2 >= 0
p30Rd1 + p28Rd2 + p12Rd2 <= 2
p30Rd1 + p28Rd2 + p12Rd2 - 2 temp12Rnd1 >= 0
temp12Rnd1 - p30Rd1 >= 0
temp12Rnd1 - p28Rd2 >= 0
temp12Rnd1 - p12Rd2 >= 0
p31Rd1 + p29Rd2 + p13Rd2 <= 2
p31Rd1 + p29Rd2 + p13Rd2 - 2 temp13Rnd1 >= 0
temp13Rnd1 - p31Rd1 >= 0
temp13Rnd1 - p29Rd2 >= 0
temp13Rnd1 - p13Rd2 >= 0
p16Rd1 + p30Rd2 + p14Rd2 <= 2
p16Rd1 + p30Rd2 + p14Rd2 - 2 temp14Rnd1 >= 0
temp14Rnd1 - p16Rd1 >= 0
temp14Rnd1 - p30Rd2 >= 0
temp14Rnd1 - p14Rd2 >= 0
p17Rd1 + p31Rd2 + p15Rd2 <= 2
p17Rd1 + p31Rd2 + p15Rd2 - 2 temp15Rnd1 >= 0
temp15Rnd1 - p17Rd1 >= 0
temp15Rnd1 - p31Rd2 >= 0
temp15Rnd1 - p15Rd2 >= 0
p17Rd1 - p1Rd2 + pro0Rd1 >= 0 
p10Rd1 - p17Rd1 + pro0Rd1 >= 0 
p1Rd2 - p10Rd1 + pro0Rd1 >= 0 
p10Rd1 + p17Rd1 + p1Rd2 + pro0Rd1 <= 3 
p10Rd1 + p17Rd1 + p1Rd2 - pro0Rd1 >= 0 
p9Rd1 + p16Rd1 + p0Rd2 + pro0Rd1 - p17Rd1 >= 0 
p17Rd1 + p9Rd1 - p16Rd1 + p0Rd2 + pro0Rd1 >= 0 
p17Rd1 - p9Rd1 + p16Rd1 + p0Rd2 + pro0Rd1 >= 0 
p10Rd1 + p9Rd1 + p16Rd1 - p0Rd2 + pro0Rd1 >= 0 
p1Rd2 - p9Rd1 - p16Rd1 - p0Rd2 + pro0Rd1 >= -2 
p9Rd1 - p17Rd1 - p16Rd1 - p0Rd2 + pro0Rd1 >= -2 
p16Rd1 - p17Rd1 - p9Rd1 - p0Rd2 + pro0Rd1 >= -2 
p0Rd2 - p17Rd1 - p9Rd1 - p16Rd1 + pro0Rd1 >= -2 
p18Rd1 - p2Rd2 + pro1Rd1 >= 0 
p11Rd1 - p18Rd1 + pro1Rd1 >= 0 
p2Rd2 - p11Rd1 + pro1Rd1 >= 0 
p11Rd1 + p18Rd1 + p2Rd2 + pro1Rd1 <= 3 
p11Rd1 + p18Rd1 + p2Rd2 - pro1Rd1 >= 0 
p10Rd1 + p17Rd1 + p1Rd2 + pro1Rd1 - p18Rd1 >= 0 
p18Rd1 + p10Rd1 - p17Rd1 + p1Rd2 + pro1Rd1 >= 0 
p18Rd1 - p10Rd1 + p17Rd1 + p1Rd2 + pro1Rd1 >= 0 
p11Rd1 + p10Rd1 + p17Rd1 - p1Rd2 + pro1Rd1 >= 0 
p2Rd2 - p10Rd1 - p17Rd1 - p1Rd2 + pro1Rd1 >= -2 
p10Rd1 - p18Rd1 - p17Rd1 - p1Rd2 + pro1Rd1 >= -2 
p17Rd1 - p18Rd1 - p10Rd1 - p1Rd2 + pro1Rd1 >= -2 
p1Rd2 - p18Rd1 - p10Rd1 - p17Rd1 + pro1Rd1 >= -2 
p19Rd1 - p3Rd2 + pro2Rd1 >= 0 
p12Rd1 - p19Rd1 + pro2Rd1 >= 0 
p3Rd2 - p12Rd1 + pro2Rd1 >= 0 
p12Rd1 + p19Rd1 + p3Rd2 + pro2Rd1 <= 3 
p12Rd1 + p19Rd1 + p3Rd2 - pro2Rd1 >= 0 
p11Rd1 + p18Rd1 + p2Rd2 + pro2Rd1 - p19Rd1 >= 0 
p19Rd1 + p11Rd1 - p18Rd1 + p2Rd2 + pro2Rd1 >= 0 
p19Rd1 - p11Rd1 + p18Rd1 + p2Rd2 + pro2Rd1 >= 0 
p12Rd1 + p11Rd1 + p18Rd1 - p2Rd2 + pro2Rd1 >= 0 
p3Rd2 - p11Rd1 - p18Rd1 - p2Rd2 + pro2Rd1 >= -2 
p11Rd1 - p19Rd1 - p18Rd1 - p2Rd2 + pro2Rd1 >= -2 
p18Rd1 - p19Rd1 - p11Rd1 - p2Rd2 + pro2Rd1 >= -2 
p2Rd2 - p19Rd1 - p11Rd1 - p18Rd1 + pro2Rd1 >= -2 
p20Rd1 - p4Rd2 + pro3Rd1 >= 0 
p13Rd1 - p20Rd1 + pro3Rd1 >= 0 
p4Rd2 - p13Rd1 + pro3Rd1 >= 0 
p13Rd1 + p20Rd1 + p4Rd2 + pro3Rd1 <= 3 
p13Rd1 + p20Rd1 + p4Rd2 - pro3Rd1 >= 0 
p12Rd1 + p19Rd1 + p3Rd2 + pro3Rd1 - p20Rd1 >= 0 
p20Rd1 + p12Rd1 - p19Rd1 + p3Rd2 + pro3Rd1 >= 0 
p20Rd1 - p12Rd1 + p19Rd1 + p3Rd2 + pro3Rd1 >= 0 
p13Rd1 + p12Rd1 + p19Rd1 - p3Rd2 + pro3Rd1 >= 0 
p4Rd2 - p12Rd1 - p19Rd1 - p3Rd2 + pro3Rd1 >= -2 
p12Rd1 - p20Rd1 - p19Rd1 - p3Rd2 + pro3Rd1 >= -2 
p19Rd1 - p20Rd1 - p12Rd1 - p3Rd2 + pro3Rd1 >= -2 
p3Rd2 - p20Rd1 - p12Rd1 - p19Rd1 + pro3Rd1 >= -2 
p21Rd1 - p5Rd2 + pro4Rd1 >= 0 
p14Rd1 - p21Rd1 + pro4Rd1 >= 0 
p5Rd2 - p14Rd1 + pro4Rd1 >= 0 
p14Rd1 + p21Rd1 + p5Rd2 + pro4Rd1 <= 3 
p14Rd1 + p21Rd1 + p5Rd2 - pro4Rd1 >= 0 
p13Rd1 + p20Rd1 + p4Rd2 + pro4Rd1 - p21Rd1 >= 0 
p21Rd1 + p13Rd1 - p20Rd1 + p4Rd2 + pro4Rd1 >= 0 
p21Rd1 - p13Rd1 + p20Rd1 + p4Rd2 + pro4Rd1 >= 0 
p14Rd1 + p13Rd1 + p20Rd1 - p4Rd2 + pro4Rd1 >= 0 
p5Rd2 - p13Rd1 - p20Rd1 - p4Rd2 + pro4Rd1 >= -2 
p13Rd1 - p21Rd1 - p20Rd1 - p4Rd2 + pro4Rd1 >= -2 
p20Rd1 - p21Rd1 - p13Rd1 - p4Rd2 + pro4Rd1 >= -2 
p4Rd2 - p21Rd1 - p13Rd1 - p20Rd1 + pro4Rd1 >= -2 
p22Rd1 - p6Rd2 + pro5Rd1 >= 0 
p15Rd1 - p22Rd1 + pro5Rd1 >= 0 
p6Rd2 - p15Rd1 + pro5Rd1 >= 0 
p15Rd1 + p22Rd1 + p6Rd2 + pro5Rd1 <= 3 
p15Rd1 + p22Rd1 + p6Rd2 - pro5Rd1 >= 0 
p14Rd1 + p21Rd1 + p5Rd2 + pro5Rd1 - p22Rd1 >= 0 
p22Rd1 + p14Rd1 - p21Rd1 + p5Rd2 + pro5Rd1 >= 0 
p22Rd1 - p14Rd1 + p21Rd1 + p5Rd2 + pro5Rd1 >= 0 
p15Rd1 + p14Rd1 + p21Rd1 - p5Rd2 + pro5Rd1 >= 0 
p6Rd2 - p14Rd1 - p21Rd1 - p5Rd2 + pro5Rd1 >= -2 
p14Rd1 - p22Rd1 - p21Rd1 - p5Rd2 + pro5Rd1 >= -2 
p21Rd1 - p22Rd1 - p14Rd1 - p5Rd2 + pro5Rd1 >= -2 
p5Rd2 - p22Rd1 - p14Rd1 - p21Rd1 + pro5Rd1 >= -2 
p23Rd1 - p7Rd2 + pro6Rd1 >= 0 
p0Rd1 - p23Rd1 + pro6Rd1 >= 0 
p7Rd2 - p0Rd1 + pro6Rd1 >= 0 
p0Rd1 + p23Rd1 + p7Rd2 + pro6Rd1 <= 3 
p0Rd1 + p23Rd1 + p7Rd2 - pro6Rd1 >= 0 
p15Rd1 + p22Rd1 + p6Rd2 + pro6Rd1 - p23Rd1 >= 0 
p23Rd1 + p15Rd1 - p22Rd1 + p6Rd2 + pro6Rd1 >= 0 
p23Rd1 - p15Rd1 + p22Rd1 + p6Rd2 + pro6Rd1 >= 0 
p0Rd1 + p15Rd1 + p22Rd1 - p6Rd2 + pro6Rd1 >= 0 
p7Rd2 - p15Rd1 - p22Rd1 - p6Rd2 + pro6Rd1 >= -2 
p15Rd1 - p23Rd1 - p22Rd1 - p6Rd2 + pro6Rd1 >= -2 
p22Rd1 - p23Rd1 - p15Rd1 - p6Rd2 + pro6Rd1 >= -2 
p6Rd2 - p23Rd1 - p15Rd1 - p22Rd1 + pro6Rd1 >= -2 
p24Rd1 - p8Rd2 + pro7Rd1 >= 0 
p1Rd1 - p24Rd1 + pro7Rd1 >= 0 
p8Rd2 - p1Rd1 + pro7Rd1 >= 0 
p1Rd1 + p24Rd1 + p8Rd2 + pro7Rd1 <= 3 
p1Rd1 + p24Rd1 + p8Rd2 - pro7Rd1 >= 0 
p0Rd1 + p23Rd1 + p7Rd2 + pro7Rd1 - p24Rd1 >= 0 
p24Rd1 + p0Rd1 - p23Rd1 + p7Rd2 + pro7Rd1 >= 0 
p24Rd1 - p0Rd1 + p23Rd1 + p7Rd2 + pro7Rd1 >= 0 
p1Rd1 + p0Rd1 + p23Rd1 - p7Rd2 + pro7Rd1 >= 0 
p8Rd2 - p0Rd1 - p23Rd1 - p7Rd2 + pro7Rd1 >= -2 
p0Rd1 - p24Rd1 - p23Rd1 - p7Rd2 + pro7Rd1 >= -2 
p23Rd1 - p24Rd1 - p0Rd1 - p7Rd2 + pro7Rd1 >= -2 
p7Rd2 - p24Rd1 - p0Rd1 - p23Rd1 + pro7Rd1 >= -2 
p25Rd1 - p9Rd2 + pro8Rd1 >= 0 
p2Rd1 - p25Rd1 + pro8Rd1 >= 0 
p9Rd2 - p2Rd1 + pro8Rd1 >= 0 
p2Rd1 + p25Rd1 + p9Rd2 + pro8Rd1 <= 3 
p2Rd1 + p25Rd1 + p9Rd2 - pro8Rd1 >= 0 
p1Rd1 + p24Rd1 + p8Rd2 + pro8Rd1 - p25Rd1 >= 0 
p25Rd1 + p1Rd1 - p24Rd1 + p8Rd2 + pro8Rd1 >= 0 
p25Rd1 - p1Rd1 + p24Rd1 + p8Rd2 + pro8Rd1 >= 0 
p2Rd1 + p1Rd1 + p24Rd1 - p8Rd2 + pro8Rd1 >= 0 
p9Rd2 - p1Rd1 - p24Rd1 - p8Rd2 + pro8Rd1 >= -2 
p1Rd1 - p25Rd1 - p24Rd1 - p8Rd2 + pro8Rd1 >= -2 
p24Rd1 - p25Rd1 - p1Rd1 - p8Rd2 + pro8Rd1 >= -2 
p8Rd2 - p25Rd1 - p1Rd1 - p24Rd1 + pro8Rd1 >= -2 
p26Rd1 - p10Rd2 + pro9Rd1 >= 0 
p3Rd1 - p26Rd1 + pro9Rd1 >= 0 
p10Rd2 - p3Rd1 + pro9Rd1 >= 0 
p3Rd1 + p26Rd1 + p10Rd2 + pro9Rd1 <= 3 
p3Rd1 + p26Rd1 + p10Rd2 - pro9Rd1 >= 0 
p2Rd1 + p25Rd1 + p9Rd2 + pro9Rd1 - p26Rd1 >= 0 
p26Rd1 + p2Rd1 - p25Rd1 + p9Rd2 + pro9Rd1 >= 0 
p26Rd1 - p2Rd1 + p25Rd1 + p9Rd2 + pro9Rd1 >= 0 
p3Rd1 + p2Rd1 + p25Rd1 - p9Rd2 + pro9Rd1 >= 0 
p10Rd2 - p2Rd1 - p25Rd1 - p9Rd2 + pro9Rd1 >= -2 
p2Rd1 - p26Rd1 - p25Rd1 - p9Rd2 + pro9Rd1 >= -2 
p25Rd1 - p26Rd1 - p2Rd1 - p9Rd2 + pro9Rd1 >= -2 
p9Rd2 - p26Rd1 - p2Rd1 - p25Rd1 + pro9Rd1 >= -2 
p27Rd1 - p11Rd2 + pro10Rd1 >= 0 
p4Rd1 - p27Rd1 + pro10Rd1 >= 0 
p11Rd2 - p4Rd1 + pro10Rd1 >= 0 
p4Rd1 + p27Rd1 + p11Rd2 + pro10Rd1 <= 3 
p4Rd1 + p27Rd1 + p11Rd2 - pro10Rd1 >= 0 
p3Rd1 + p26Rd1 + p10Rd2 + pro10Rd1 - p27Rd1 >= 0 
p27Rd1 + p3Rd1 - p26Rd1 + p10Rd2 + pro10Rd1 >= 0 
p27Rd1 - p3Rd1 + p26Rd1 + p10Rd2 + pro10Rd1 >= 0 
p4Rd1 + p3Rd1 + p26Rd1 - p10Rd2 + pro10Rd1 >= 0 
p11Rd2 - p3Rd1 - p26Rd1 - p10Rd2 + pro10Rd1 >= -2 
p3Rd1 - p27Rd1 - p26Rd1 - p10Rd2 + pro10Rd1 >= -2 
p26Rd1 - p27Rd1 - p3Rd1 - p10Rd2 + pro10Rd1 >= -2 
p10Rd2 - p27Rd1 - p3Rd1 - p26Rd1 + pro10Rd1 >= -2 
p28Rd1 - p12Rd2 + pro11Rd1 >= 0 
p5Rd1 - p28Rd1 + pro11Rd1 >= 0 
p12Rd2 - p5Rd1 + pro11Rd1 >= 0 
p5Rd1 + p28Rd1 + p12Rd2 + pro11Rd1 <= 3 
p5Rd1 + p28Rd1 + p12Rd2 - pro11Rd1 >= 0 
p4Rd1 + p27Rd1 + p11Rd2 + pro11Rd1 - p28Rd1 >= 0 
p28Rd1 + p4Rd1 - p27Rd1 + p11Rd2 + pro11Rd1 >= 0 
p28Rd1 - p4Rd1 + p27Rd1 + p11Rd2 + pro11Rd1 >= 0 
p5Rd1 + p4Rd1 + p27Rd1 - p11Rd2 + pro11Rd1 >= 0 
p12Rd2 - p4Rd1 - p27Rd1 - p11Rd2 + pro11Rd1 >= -2 
p4Rd1 - p28Rd1 - p27Rd1 - p11Rd2 + pro11Rd1 >= -2 
p27Rd1 - p28Rd1 - p4Rd1 - p11Rd2 + pro11Rd1 >= -2 
p11Rd2 - p28Rd1 - p4Rd1 - p27Rd1 + pro11Rd1 >= -2 
p29Rd1 - p13Rd2 + pro12Rd1 >= 0 
p6Rd1 - p29Rd1 + pro12Rd1 >= 0 
p13Rd2 - p6Rd1 + pro12Rd1 >= 0 
p6Rd1 + p29Rd1 + p13Rd2 + pro12Rd1 <= 3 
p6Rd1 + p29Rd1 + p13Rd2 - pro12Rd1 >= 0 
p5Rd1 + p28Rd1 + p12Rd2 + pro12Rd1 - p29Rd1 >= 0 
p29Rd1 + p5Rd1 - p28Rd1 + p12Rd2 + pro12Rd1 >= 0 
p29Rd1 - p5Rd1 + p28Rd1 + p12Rd2 + pro12Rd1 >= 0 
p6Rd1 + p5Rd1 + p28Rd1 - p12Rd2 + pro12Rd1 >= 0 
p13Rd2 - p5Rd1 - p28Rd1 - p12Rd2 + pro12Rd1 >= -2 
p5Rd1 - p29Rd1 - p28Rd1 - p12Rd2 + pro12Rd1 >= -2 
p28Rd1 - p29Rd1 - p5Rd1 - p12Rd2 + pro12Rd1 >= -2 
p12Rd2 - p29Rd1 - p5Rd1 - p28Rd1 + pro12Rd1 >= -2 
p30Rd1 - p14Rd2 + pro13Rd1 >= 0 
p7Rd1 - p30Rd1 + pro13Rd1 >= 0 
p14Rd2 - p7Rd1 + pro13Rd1 >= 0 
p7Rd1 + p30Rd1 + p14Rd2 + pro13Rd1 <= 3 
p7Rd1 + p30Rd1 + p14Rd2 - pro13Rd1 >= 0 
p6Rd1 + p29Rd1 + p13Rd2 + pro13Rd1 - p30Rd1 >= 0 
p30Rd1 + p6Rd1 - p29Rd1 + p13Rd2 + pro13Rd1 >= 0 
p30Rd1 - p6Rd1 + p29Rd1 + p13Rd2 + pro13Rd1 >= 0 
p7Rd1 + p6Rd1 + p29Rd1 - p13Rd2 + pro13Rd1 >= 0 
p14Rd2 - p6Rd1 - p29Rd1 - p13Rd2 + pro13Rd1 >= -2 
p6Rd1 - p30Rd1 - p29Rd1 - p13Rd2 + pro13Rd1 >= -2 
p29Rd1 - p30Rd1 - p6Rd1 - p13Rd2 + pro13Rd1 >= -2 
p13Rd2 - p30Rd1 - p6Rd1 - p29Rd1 + pro13Rd1 >= -2 
p31Rd1 - p15Rd2 + pro14Rd1 >= 0 
p8Rd1 - p31Rd1 + pro14Rd1 >= 0 
p15Rd2 - p8Rd1 + pro14Rd1 >= 0 
p8Rd1 + p31Rd1 + p15Rd2 + pro14Rd1 <= 3 
p8Rd1 + p31Rd1 + p15Rd2 - pro14Rd1 >= 0 
p7Rd1 + p30Rd1 + p14Rd2 + pro14Rd1 - p31Rd1 >= 0 
p31Rd1 + p7Rd1 - p30Rd1 + p14Rd2 + pro14Rd1 >= 0 
p31Rd1 - p7Rd1 + p30Rd1 + p14Rd2 + pro14Rd1 >= 0 
p8Rd1 + p7Rd1 + p30Rd1 - p14Rd2 + pro14Rd1 >= 0 
p15Rd2 - p7Rd1 - p30Rd1 - p14Rd2 + pro14Rd1 >= -2 
p7Rd1 - p31Rd1 - p30Rd1 - p14Rd2 + pro14Rd1 >= -2 
p30Rd1 - p31Rd1 - p7Rd1 - p14Rd2 + pro14Rd1 >= -2 
p14Rd2 - p31Rd1 - p7Rd1 - p30Rd1 + pro14Rd1 >= -2 
p8Rd1 + p31Rd1 + p15Rd2 <= 2 
p8Rd1 + p31Rd1 + p15Rd2 - 2 temp1 >= 0 
temp1 - p8Rd1 >= 0 
temp1 - p31Rd1 >= 0 
temp1 - p15Rd2 >= 0 
p18Rd2 + p16Rd3 + p0Rd3 <= 2
p18Rd2 + p16Rd3 + p0Rd3 - 2 temp0Rnd2 >= 0
temp0Rnd2 - p18Rd2 >= 0
temp0Rnd2 - p16Rd3 >= 0
temp0Rnd2 - p0Rd3 >= 0
p19Rd2 + p17Rd3 + p1Rd3 <= 2
p19Rd2 + p17Rd3 + p1Rd3 - 2 temp1Rnd2 >= 0
temp1Rnd2 - p19Rd2 >= 0
temp1Rnd2 - p17Rd3 >= 0
temp1Rnd2 - p1Rd3 >= 0
p20Rd2 + p18Rd3 + p2Rd3 <= 2
p20Rd2 + p18Rd3 + p2Rd3 - 2 temp2Rnd2 >= 0
temp2Rnd2 - p20Rd2 >= 0
temp2Rnd2 - p18Rd3 >= 0
temp2Rnd2 - p2Rd3 >= 0
p21Rd2 + p19Rd3 + p3Rd3 <= 2
p21Rd2 + p19Rd3 + p3Rd3 - 2 temp3Rnd2 >= 0
temp3Rnd2 - p21Rd2 >= 0
temp3Rnd2 - p19Rd3 >= 0
temp3Rnd2 - p3Rd3 >= 0
p22Rd2 + p20Rd3 + p4Rd3 <= 2
p22Rd2 + p20Rd3 + p4Rd3 - 2 temp4Rnd2 >= 0
temp4Rnd2 - p22Rd2 >= 0
temp4Rnd2 - p20Rd3 >= 0
temp4Rnd2 - p4Rd3 >= 0
p23Rd2 + p21Rd3 + p5Rd3 <= 2
p23Rd2 + p21Rd3 + p5Rd3 - 2 temp5Rnd2 >= 0
temp5Rnd2 - p23Rd2 >= 0
temp5Rnd2 - p21Rd3 >= 0
temp5Rnd2 - p5Rd3 >= 0
p24Rd2 + p22Rd3 + p6Rd3 <= 2
p24Rd2 + p22Rd3 + p6Rd3 - 2 temp6Rnd2 >= 0
temp6Rnd2 - p24Rd2 >= 0
temp6Rnd2 - p22Rd3 >= 0
temp6Rnd2 - p6Rd3 >= 0
p25Rd2 + p23Rd3 + p7Rd3 <= 2
p25Rd2 + p23Rd3 + p7Rd3 - 2 temp7Rnd2 >= 0
temp7Rnd2 - p25Rd2 >= 0
temp7Rnd2 - p23Rd3 >= 0
temp7Rnd2 - p7Rd3 >= 0
p26Rd2 + p24Rd3 + p8Rd3 <= 2
p26Rd2 + p24Rd3 + p8Rd3 - 2 temp8Rnd2 >= 0
temp8Rnd2 - p26Rd2 >= 0
temp8Rnd2 - p24Rd3 >= 0
temp8Rnd2 - p8Rd3 >= 0
p27Rd2 + p25Rd3 + p9Rd3 <= 2
p27Rd2 + p25Rd3 + p9Rd3 - 2 temp9Rnd2 >= 0
temp9Rnd2 - p27Rd2 >= 0
temp9Rnd2 - p25Rd3 >= 0
temp9Rnd2 - p9Rd3 >= 0
p28Rd2 + p26Rd3 + p10Rd3 <= 2
p28Rd2 + p26Rd3 + p10Rd3 - 2 temp10Rnd2 >= 0
temp10Rnd2 - p28Rd2 >= 0
temp10Rnd2 - p26Rd3 >= 0
temp10Rnd2 - p10Rd3 >= 0
p29Rd2 + p27Rd3 + p11Rd3 <= 2
p29Rd2 + p27Rd3 + p11Rd3 - 2 temp11Rnd2 >= 0
temp11Rnd2 - p29Rd2 >= 0
temp11Rnd2 - p27Rd3 >= 0
temp11Rnd2 - p11Rd3 >= 0
p30Rd2 + p28Rd3 + p12Rd3 <= 2
p30Rd2 + p28Rd3 + p12Rd3 - 2 temp12Rnd2 >= 0
temp12Rnd2 - p30Rd2 >= 0
temp12Rnd2 - p28Rd3 >= 0
temp12Rnd2 - p12Rd3 >= 0
p31Rd2 + p29Rd3 + p13Rd3 <= 2
p31Rd2 + p29Rd3 + p13Rd3 - 2 temp13Rnd2 >= 0
temp13Rnd2 - p31Rd2 >= 0
temp13Rnd2 - p29Rd3 >= 0
temp13Rnd2 - p13Rd3 >= 0
p16Rd2 + p30Rd3 + p14Rd3 <= 2
p16Rd2 + p30Rd3 + p14Rd3 - 2 temp14Rnd2 >= 0
temp14Rnd2 - p16Rd2 >= 0
temp14Rnd2 - p30Rd3 >= 0
temp14Rnd2 - p14Rd3 >= 0
p17Rd2 + p31Rd3 + p15Rd3 <= 2
p17Rd2 + p31Rd3 + p15Rd3 - 2 temp15Rnd2 >= 0
temp15Rnd2 - p17Rd2 >= 0
temp15Rnd2 - p31Rd3 >= 0
temp15Rnd2 - p15Rd3 >= 0
p17Rd2 - p1Rd3 + pro0Rd2 >= 0 
p10Rd2 - p17Rd2 + pro0Rd2 >= 0 
p1Rd3 - p10Rd2 + pro0Rd2 >= 0 
p10Rd2 + p17Rd2 + p1Rd3 + pro0Rd2 <= 3 
p10Rd2 + p17Rd2 + p1Rd3 - pro0Rd2 >= 0 
p9Rd2 + p16Rd2 + p0Rd3 + pro0Rd2 - p17Rd2 >= 0 
p17Rd2 + p9Rd2 - p16Rd2 + p0Rd3 + pro0Rd2 >= 0 
p17Rd2 - p9Rd2 + p16Rd2 + p0Rd3 + pro0Rd2 >= 0 
p10Rd2 + p9Rd2 + p16Rd2 - p0Rd3 + pro0Rd2 >= 0 
p1Rd3 - p9Rd2 - p16Rd2 - p0Rd3 + pro0Rd2 >= -2 
p9Rd2 - p17Rd2 - p16Rd2 - p0Rd3 + pro0Rd2 >= -2 
p16Rd2 - p17Rd2 - p9Rd2 - p0Rd3 + pro0Rd2 >= -2 
p0Rd3 - p17Rd2 - p9Rd2 - p16Rd2 + pro0Rd2 >= -2 
p18Rd2 - p2Rd3 + pro1Rd2 >= 0 
p11Rd2 - p18Rd2 + pro1Rd2 >= 0 
p2Rd3 - p11Rd2 + pro1Rd2 >= 0 
p11Rd2 + p18Rd2 + p2Rd3 + pro1Rd2 <= 3 
p11Rd2 + p18Rd2 + p2Rd3 - pro1Rd2 >= 0 
p10Rd2 + p17Rd2 + p1Rd3 + pro1Rd2 - p18Rd2 >= 0 
p18Rd2 + p10Rd2 - p17Rd2 + p1Rd3 + pro1Rd2 >= 0 
p18Rd2 - p10Rd2 + p17Rd2 + p1Rd3 + pro1Rd2 >= 0 
p11Rd2 + p10Rd2 + p17Rd2 - p1Rd3 + pro1Rd2 >= 0 
p2Rd3 - p10Rd2 - p17Rd2 - p1Rd3 + pro1Rd2 >= -2 
p10Rd2 - p18Rd2 - p17Rd2 - p1Rd3 + pro1Rd2 >= -2 
p17Rd2 - p18Rd2 - p10Rd2 - p1Rd3 + pro1Rd2 >= -2 
p1Rd3 - p18Rd2 - p10Rd2 - p17Rd2 + pro1Rd2 >= -2 
p19Rd2 - p3Rd3 + pro2Rd2 >= 0 
p12Rd2 - p19Rd2 + pro2Rd2 >= 0 
p3Rd3 - p12Rd2 + pro2Rd2 >= 0 
p12Rd2 + p19Rd2 + p3Rd3 + pro2Rd2 <= 3 
p12Rd2 + p19Rd2 + p3Rd3 - pro2Rd2 >= 0 
p11Rd2 + p18Rd2 + p2Rd3 + pro2Rd2 - p19Rd2 >= 0 
p19Rd2 + p11Rd2 - p18Rd2 + p2Rd3 + pro2Rd2 >= 0 
p19Rd2 - p11Rd2 + p18Rd2 + p2Rd3 + pro2Rd2 >= 0 
p12Rd2 + p11Rd2 + p18Rd2 - p2Rd3 + pro2Rd2 >= 0 
p3Rd3 - p11Rd2 - p18Rd2 - p2Rd3 + pro2Rd2 >= -2 
p11Rd2 - p19Rd2 - p18Rd2 - p2Rd3 + pro2Rd2 >= -2 
p18Rd2 - p19Rd2 - p11Rd2 - p2Rd3 + pro2Rd2 >= -2 
p2Rd3 - p19Rd2 - p11Rd2 - p18Rd2 + pro2Rd2 >= -2 
p20Rd2 - p4Rd3 + pro3Rd2 >= 0 
p13Rd2 - p20Rd2 + pro3Rd2 >= 0 
p4Rd3 - p13Rd2 + pro3Rd2 >= 0 
p13Rd2 + p20Rd2 + p4Rd3 + pro3Rd2 <= 3 
p13Rd2 + p20Rd2 + p4Rd3 - pro3Rd2 >= 0 
p12Rd2 + p19Rd2 + p3Rd3 + pro3Rd2 - p20Rd2 >= 0 
p20Rd2 + p12Rd2 - p19Rd2 + p3Rd3 + pro3Rd2 >= 0 
p20Rd2 - p12Rd2 + p19Rd2 + p3Rd3 + pro3Rd2 >= 0 
p13Rd2 + p12Rd2 + p19Rd2 - p3Rd3 + pro3Rd2 >= 0 
p4Rd3 - p12Rd2 - p19Rd2 - p3Rd3 + pro3Rd2 >= -2 
p12Rd2 - p20Rd2 - p19Rd2 - p3Rd3 + pro3Rd2 >= -2 
p19Rd2 - p20Rd2 - p12Rd2 - p3Rd3 + pro3Rd2 >= -2 
p3Rd3 - p20Rd2 - p12Rd2 - p19Rd2 + pro3Rd2 >= -2 
p21Rd2 - p5Rd3 + pro4Rd2 >= 0 
p14Rd2 - p21Rd2 + pro4Rd2 >= 0 
p5Rd3 - p14Rd2 + pro4Rd2 >= 0 
p14Rd2 + p21Rd2 + p5Rd3 + pro4Rd2 <= 3 
p14Rd2 + p21Rd2 + p5Rd3 - pro4Rd2 >= 0 
p13Rd2 + p20Rd2 + p4Rd3 + pro4Rd2 - p21Rd2 >= 0 
p21Rd2 + p13Rd2 - p20Rd2 + p4Rd3 + pro4Rd2 >= 0 
p21Rd2 - p13Rd2 + p20Rd2 + p4Rd3 + pro4Rd2 >= 0 
p14Rd2 + p13Rd2 + p20Rd2 - p4Rd3 + pro4Rd2 >= 0 
p5Rd3 - p13Rd2 - p20Rd2 - p4Rd3 + pro4Rd2 >= -2 
p13Rd2 - p21Rd2 - p20Rd2 - p4Rd3 + pro4Rd2 >= -2 
p20Rd2 - p21Rd2 - p13Rd2 - p4Rd3 + pro4Rd2 >= -2 
p4Rd3 - p21Rd2 - p13Rd2 - p20Rd2 + pro4Rd2 >= -2 
p22Rd2 - p6Rd3 + pro5Rd2 >= 0 
p15Rd2 - p22Rd2 + pro5Rd2 >= 0 
p6Rd3 - p15Rd2 + pro5Rd2 >= 0 
p15Rd2 + p22Rd2 + p6Rd3 + pro5Rd2 <= 3 
p15Rd2 + p22Rd2 + p6Rd3 - pro5Rd2 >= 0 
p14Rd2 + p21Rd2 + p5Rd3 + pro5Rd2 - p22Rd2 >= 0 
p22Rd2 + p14Rd2 - p21Rd2 + p5Rd3 + pro5Rd2 >= 0 
p22Rd2 - p14Rd2 + p21Rd2 + p5Rd3 + pro5Rd2 >= 0 
p15Rd2 + p14Rd2 + p21Rd2 - p5Rd3 + pro5Rd2 >= 0 
p6Rd3 - p14Rd2 - p21Rd2 - p5Rd3 + pro5Rd2 >= -2 
p14Rd2 - p22Rd2 - p21Rd2 - p5Rd3 + pro5Rd2 >= -2 
p21Rd2 - p22Rd2 - p14Rd2 - p5Rd3 + pro5Rd2 >= -2 
p5Rd3 - p22Rd2 - p14Rd2 - p21Rd2 + pro5Rd2 >= -2 
p23Rd2 - p7Rd3 + pro6Rd2 >= 0 
p0Rd2 - p23Rd2 + pro6Rd2 >= 0 
p7Rd3 - p0Rd2 + pro6Rd2 >= 0 
p0Rd2 + p23Rd2 + p7Rd3 + pro6Rd2 <= 3 
p0Rd2 + p23Rd2 + p7Rd3 - pro6Rd2 >= 0 
p15Rd2 + p22Rd2 + p6Rd3 + pro6Rd2 - p23Rd2 >= 0 
p23Rd2 + p15Rd2 - p22Rd2 + p6Rd3 + pro6Rd2 >= 0 
p23Rd2 - p15Rd2 + p22Rd2 + p6Rd3 + pro6Rd2 >= 0 
p0Rd2 + p15Rd2 + p22Rd2 - p6Rd3 + pro6Rd2 >= 0 
p7Rd3 - p15Rd2 - p22Rd2 - p6Rd3 + pro6Rd2 >= -2 
p15Rd2 - p23Rd2 - p22Rd2 - p6Rd3 + pro6Rd2 >= -2 
p22Rd2 - p23Rd2 - p15Rd2 - p6Rd3 + pro6Rd2 >= -2 
p6Rd3 - p23Rd2 - p15Rd2 - p22Rd2 + pro6Rd2 >= -2 
p24Rd2 - p8Rd3 + pro7Rd2 >= 0 
p1Rd2 - p24Rd2 + pro7Rd2 >= 0 
p8Rd3 - p1Rd2 + pro7Rd2 >= 0 
p1Rd2 + p24Rd2 + p8Rd3 + pro7Rd2 <= 3 
p1Rd2 + p24Rd2 + p8Rd3 - pro7Rd2 >= 0 
p0Rd2 + p23Rd2 + p7Rd3 + pro7Rd2 - p24Rd2 >= 0 
p24Rd2 + p0Rd2 - p23Rd2 + p7Rd3 + pro7Rd2 >= 0 
p24Rd2 - p0Rd2 + p23Rd2 + p7Rd3 + pro7Rd2 >= 0 
p1Rd2 + p0Rd2 + p23Rd2 - p7Rd3 + pro7Rd2 >= 0 
p8Rd3 - p0Rd2 - p23Rd2 - p7Rd3 + pro7Rd2 >= -2 
p0Rd2 - p24Rd2 - p23Rd2 - p7Rd3 + pro7Rd2 >= -2 
p23Rd2 - p24Rd2 - p0Rd2 - p7Rd3 + pro7Rd2 >= -2 
p7Rd3 - p24Rd2 - p0Rd2 - p23Rd2 + pro7Rd2 >= -2 
p25Rd2 - p9Rd3 + pro8Rd2 >= 0 
p2Rd2 - p25Rd2 + pro8Rd2 >= 0 
p9Rd3 - p2Rd2 + pro8Rd2 >= 0 
p2Rd2 + p25Rd2 + p9Rd3 + pro8Rd2 <= 3 
p2Rd2 + p25Rd2 + p9Rd3 - pro8Rd2 >= 0 
p1Rd2 + p24Rd2 + p8Rd3 + pro8Rd2 - p25Rd2 >= 0 
p25Rd2 + p1Rd2 - p24Rd2 + p8Rd3 + pro8Rd2 >= 0 
p25Rd2 - p1Rd2 + p24Rd2 + p8Rd3 + pro8Rd2 >= 0 
p2Rd2 + p1Rd2 + p24Rd2 - p8Rd3 + pro8Rd2 >= 0 
p9Rd3 - p1Rd2 - p24Rd2 - p8Rd3 + pro8Rd2 >= -2 
p1Rd2 - p25Rd2 - p24Rd2 - p8Rd3 + pro8Rd2 >= -2 
p24Rd2 - p25Rd2 - p1Rd2 - p8Rd3 + pro8Rd2 >= -2 
p8Rd3 - p25Rd2 - p1Rd2 - p24Rd2 + pro8Rd2 >= -2 
p26Rd2 - p10Rd3 + pro9Rd2 >= 0 
p3Rd2 - p26Rd2 + pro9Rd2 >= 0 
p10Rd3 - p3Rd2 + pro9Rd2 >= 0 
p3Rd2 + p26Rd2 + p10Rd3 + pro9Rd2 <= 3 
p3Rd2 + p26Rd2 + p10Rd3 - pro9Rd2 >= 0 
p2Rd2 + p25Rd2 + p9Rd3 + pro9Rd2 - p26Rd2 >= 0 
p26Rd2 + p2Rd2 - p25Rd2 + p9Rd3 + pro9Rd2 >= 0 
p26Rd2 - p2Rd2 + p25Rd2 + p9Rd3 + pro9Rd2 >= 0 
p3Rd2 + p2Rd2 + p25Rd2 - p9Rd3 + pro9Rd2 >= 0 
p10Rd3 - p2Rd2 - p25Rd2 - p9Rd3 + pro9Rd2 >= -2 
p2Rd2 - p26Rd2 - p25Rd2 - p9Rd3 + pro9Rd2 >= -2 
p25Rd2 - p26Rd2 - p2Rd2 - p9Rd3 + pro9Rd2 >= -2 
p9Rd3 - p26Rd2 - p2Rd2 - p25Rd2 + pro9Rd2 >= -2 
p27Rd2 - p11Rd3 + pro10Rd2 >= 0 
p4Rd2 - p27Rd2 + pro10Rd2 >= 0 
p11Rd3 - p4Rd2 + pro10Rd2 >= 0 
p4Rd2 + p27Rd2 + p11Rd3 + pro10Rd2 <= 3 
p4Rd2 + p27Rd2 + p11Rd3 - pro10Rd2 >= 0 
p3Rd2 + p26Rd2 + p10Rd3 + pro10Rd2 - p27Rd2 >= 0 
p27Rd2 + p3Rd2 - p26Rd2 + p10Rd3 + pro10Rd2 >= 0 
p27Rd2 - p3Rd2 + p26Rd2 + p10Rd3 + pro10Rd2 >= 0 
p4Rd2 + p3Rd2 + p26Rd2 - p10Rd3 + pro10Rd2 >= 0 
p11Rd3 - p3Rd2 - p26Rd2 - p10Rd3 + pro10Rd2 >= -2 
p3Rd2 - p27Rd2 - p26Rd2 - p10Rd3 + pro10Rd2 >= -2 
p26Rd2 - p27Rd2 - p3Rd2 - p10Rd3 + pro10Rd2 >= -2 
p10Rd3 - p27Rd2 - p3Rd2 - p26Rd2 + pro10Rd2 >= -2 
p28Rd2 - p12Rd3 + pro11Rd2 >= 0 
p5Rd2 - p28Rd2 + pro11Rd2 >= 0 
p12Rd3 - p5Rd2 + pro11Rd2 >= 0 
p5Rd2 + p28Rd2 + p12Rd3 + pro11Rd2 <= 3 
p5Rd2 + p28Rd2 + p12Rd3 - pro11Rd2 >= 0 
p4Rd2 + p27Rd2 + p11Rd3 + pro11Rd2 - p28Rd2 >= 0 
p28Rd2 + p4Rd2 - p27Rd2 + p11Rd3 + pro11Rd2 >= 0 
p28Rd2 - p4Rd2 + p27Rd2 + p11Rd3 + pro11Rd2 >= 0 
p5Rd2 + p4Rd2 + p27Rd2 - p11Rd3 + pro11Rd2 >= 0 
p12Rd3 - p4Rd2 - p27Rd2 - p11Rd3 + pro11Rd2 >= -2 
p4Rd2 - p28Rd2 - p27Rd2 - p11Rd3 + pro11Rd2 >= -2 
p27Rd2 - p28Rd2 - p4Rd2 - p11Rd3 + pro11Rd2 >= -2 
p11Rd3 - p28Rd2 - p4Rd2 - p27Rd2 + pro11Rd2 >= -2 
p29Rd2 - p13Rd3 + pro12Rd2 >= 0 
p6Rd2 - p29Rd2 + pro12Rd2 >= 0 
p13Rd3 - p6Rd2 + pro12Rd2 >= 0 
p6Rd2 + p29Rd2 + p13Rd3 + pro12Rd2 <= 3 
p6Rd2 + p29Rd2 + p13Rd3 - pro12Rd2 >= 0 
p5Rd2 + p28Rd2 + p12Rd3 + pro12Rd2 - p29Rd2 >= 0 
p29Rd2 + p5Rd2 - p28Rd2 + p12Rd3 + pro12Rd2 >= 0 
p29Rd2 - p5Rd2 + p28Rd2 + p12Rd3 + pro12Rd2 >= 0 
p6Rd2 + p5Rd2 + p28Rd2 - p12Rd3 + pro12Rd2 >= 0 
p13Rd3 - p5Rd2 - p28Rd2 - p12Rd3 + pro12Rd2 >= -2 
p5Rd2 - p29Rd2 - p28Rd2 - p12Rd3 + pro12Rd2 >= -2 
p28Rd2 - p29Rd2 - p5Rd2 - p12Rd3 + pro12Rd2 >= -2 
p12Rd3 - p29Rd2 - p5Rd2 - p28Rd2 + pro12Rd2 >= -2 
p30Rd2 - p14Rd3 + pro13Rd2 >= 0 
p7Rd2 - p30Rd2 + pro13Rd2 >= 0 
p14Rd3 - p7Rd2 + pro13Rd2 >= 0 
p7Rd2 + p30Rd2 + p14Rd3 + pro13Rd2 <= 3 
p7Rd2 + p30Rd2 + p14Rd3 - pro13Rd2 >= 0 
p6Rd2 + p29Rd2 + p13Rd3 + pro13Rd2 - p30Rd2 >= 0 
p30Rd2 + p6Rd2 - p29Rd2 + p13Rd3 + pro13Rd2 >= 0 
p30Rd2 - p6Rd2 + p29Rd2 + p13Rd3 + pro13Rd2 >= 0 
p7Rd2 + p6Rd2 + p29Rd2 - p13Rd3 + pro13Rd2 >= 0 
p14Rd3 - p6Rd2 - p29Rd2 - p13Rd3 + pro13Rd2 >= -2 
p6Rd2 - p30Rd2 - p29Rd2 - p13Rd3 + pro13Rd2 >= -2 
p29Rd2 - p30Rd2 - p6Rd2 - p13Rd3 + pro13Rd2 >= -2 
p13Rd3 - p30Rd2 - p6Rd2 - p29Rd2 + pro13Rd2 >= -2 
p31Rd2 - p15Rd3 + pro14Rd2 >= 0 
p8Rd2 - p31Rd2 + pro14Rd2 >= 0 
p15Rd3 - p8Rd2 + pro14Rd2 >= 0 
p8Rd2 + p31Rd2 + p15Rd3 + pro14Rd2 <= 3 
p8Rd2 + p31Rd2 + p15Rd3 - pro14Rd2 >= 0 
p7Rd2 + p30Rd2 + p14Rd3 + pro14Rd2 - p31Rd2 >= 0 
p31Rd2 + p7Rd2 - p30Rd2 + p14Rd3 + pro14Rd2 >= 0 
p31Rd2 - p7Rd2 + p30Rd2 + p14Rd3 + pro14Rd2 >= 0 
p8Rd2 + p7Rd2 + p30Rd2 - p14Rd3 + pro14Rd2 >= 0 
p15Rd3 - p7Rd2 - p30Rd2 - p14Rd3 + pro14Rd2 >= -2 
p7Rd2 - p31Rd2 - p30Rd2 - p14Rd3 + pro14Rd2 >= -2 
p30Rd2 - p31Rd2 - p7Rd2 - p14Rd3 + pro14Rd2 >= -2 
p14Rd3 - p31Rd2 - p7Rd2 - p30Rd2 + pro14Rd2 >= -2 
p8Rd2 + p31Rd2 + p15Rd3 <= 2 
p8Rd2 + p31Rd2 + p15Rd3 - 2 temp2 >= 0 
temp2 - p8Rd2 >= 0 
temp2 - p31Rd2 >= 0 
temp2 - p15Rd3 >= 0 


Binary
p24
p28
p30
p5
p1
p17
p7
p16
p21
p12
p4
p27
p2
p31
p13
p15Rd3
temp2
p8
p3
p23
p22
p9
p11
p26
p19
p0
p29
p6
p10
p20
p15
p25
p14
p18
