Minimize
-eq_1_0 + -eq_1_1 + -eq_1_2 + -eq_1_3 + -eq_1_4 + -eq_1_5 + -eq_1_6 + -eq_1_7 + -eq_1_8 + -eq_1_9 + -eq_1_10 + -eq_1_11 + -eq_1_12 + -eq_1_13 + -eq_1_14 + -eq_2_0 + -eq_2_1 + -eq_2_2 + -eq_2_3 + -eq_2_4 + -eq_2_5 + -eq_2_6 + -eq_2_7 + -eq_2_8 + -eq_2_9 + -eq_2_10 + -eq_2_11 + -eq_2_12 + -eq_2_13 + -eq_2_14 + -eq_3_0 + -eq_3_1 + -eq_3_2 + -eq_3_3 + -eq_3_4 + -eq_3_5 + -eq_3_6 + -eq_3_7 + -eq_3_8 + -eq_3_9 + -eq_3_10 + -eq_3_11 + -eq_3_12 + -eq_3_13 + -eq_3_14 + -eq_4_0 + -eq_4_1 + -eq_4_2 + -eq_4_3 + -eq_4_4 + -eq_4_5 + -eq_4_6 + -eq_4_7 + -eq_4_8 + -eq_4_9 + -eq_4_10 + -eq_4_11 + -eq_4_12 + -eq_4_13 + -eq_4_14 + -eq_5_0 + -eq_5_1 + -eq_5_2 + -eq_5_3 + -eq_5_4 + -eq_5_5 + -eq_5_6 + -eq_5_7 + -eq_5_8 + -eq_5_9 + -eq_5_10 + -eq_5_11 + -eq_5_12 + -eq_5_13 + -eq_5_14 + -eq_6_0 + -eq_6_1 + -eq_6_2 + -eq_6_3 + -eq_6_4 + -eq_6_5 + -eq_6_6 + -eq_6_7 + -eq_6_8 + -eq_6_9 + -eq_6_10 + -eq_6_11 + -eq_6_12 + -eq_6_13 + -eq_6_14

Subject To
p0 + p1 + p2 + p3 + p4 + p5 + p6 + p7 + p8 + p9 + p10 + p11 + p12 + p13 + p14 + p15 + p16 + p17 + p18 + p19 + p20 + p21 + p22 + p23 + p24 + p25 + p26 + p27 + p28 + p29 + p30 + p31 >= 1
p0 + p1 + p2 + p3 + p4 + p5 + p6 + p7 + p8 + p9 + p10 + p11 + p12 + p13 + p14 + p15 + p16 + p17 + p18 + p19 + p20 + p21 + p22 + p23 + p24 + p25 + p26 + p27 + p28 + p29 + p30 + p31 <= 8
p18 + p16Rd1 - p0Rd1 >= 0
p18 - p16Rd1 + p0Rd1 >= 0
-p18 + p16Rd1 + p0Rd1 >= 0
p18 + p16Rd1 + p0Rd1 <= 2
p19 + p17Rd1 - p1Rd1 >= 0
p19 - p17Rd1 + p1Rd1 >= 0
-p19 + p17Rd1 + p1Rd1 >= 0
p19 + p17Rd1 + p1Rd1 <= 2
p20 + p18Rd1 - p2Rd1 >= 0
p20 - p18Rd1 + p2Rd1 >= 0
-p20 + p18Rd1 + p2Rd1 >= 0
p20 + p18Rd1 + p2Rd1 <= 2
p21 + p19Rd1 - p3Rd1 >= 0
p21 - p19Rd1 + p3Rd1 >= 0
-p21 + p19Rd1 + p3Rd1 >= 0
p21 + p19Rd1 + p3Rd1 <= 2
p22 + p20Rd1 - p4Rd1 >= 0
p22 - p20Rd1 + p4Rd1 >= 0
-p22 + p20Rd1 + p4Rd1 >= 0
p22 + p20Rd1 + p4Rd1 <= 2
p23 + p21Rd1 - p5Rd1 >= 0
p23 - p21Rd1 + p5Rd1 >= 0
-p23 + p21Rd1 + p5Rd1 >= 0
p23 + p21Rd1 + p5Rd1 <= 2
p24 + p22Rd1 - p6Rd1 >= 0
p24 - p22Rd1 + p6Rd1 >= 0
-p24 + p22Rd1 + p6Rd1 >= 0
p24 + p22Rd1 + p6Rd1 <= 2
p25 + p23Rd1 - p7Rd1 >= 0
p25 - p23Rd1 + p7Rd1 >= 0
-p25 + p23Rd1 + p7Rd1 >= 0
p25 + p23Rd1 + p7Rd1 <= 2
p26 + p24Rd1 - p8Rd1 >= 0
p26 - p24Rd1 + p8Rd1 >= 0
-p26 + p24Rd1 + p8Rd1 >= 0
p26 + p24Rd1 + p8Rd1 <= 2
p27 + p25Rd1 - p9Rd1 >= 0
p27 - p25Rd1 + p9Rd1 >= 0
-p27 + p25Rd1 + p9Rd1 >= 0
p27 + p25Rd1 + p9Rd1 <= 2
p28 + p26Rd1 - p10Rd1 >= 0
p28 - p26Rd1 + p10Rd1 >= 0
-p28 + p26Rd1 + p10Rd1 >= 0
p28 + p26Rd1 + p10Rd1 <= 2
p29 + p27Rd1 - p11Rd1 >= 0
p29 - p27Rd1 + p11Rd1 >= 0
-p29 + p27Rd1 + p11Rd1 >= 0
p29 + p27Rd1 + p11Rd1 <= 2
p30 + p28Rd1 - p12Rd1 >= 0
p30 - p28Rd1 + p12Rd1 >= 0
-p30 + p28Rd1 + p12Rd1 >= 0
p30 + p28Rd1 + p12Rd1 <= 2
p31 + p29Rd1 - p13Rd1 >= 0
p31 - p29Rd1 + p13Rd1 >= 0
-p31 + p29Rd1 + p13Rd1 >= 0
p31 + p29Rd1 + p13Rd1 <= 2
p16 + p30Rd1 - p14Rd1 >= 0
p16 - p30Rd1 + p14Rd1 >= 0
-p16 + p30Rd1 + p14Rd1 >= 0
p16 + p30Rd1 + p14Rd1 <= 2
p17 + p31Rd1 - p15Rd1 >= 0
p17 - p31Rd1 + p15Rd1 >= 0
-p17 + p31Rd1 + p15Rd1 >= 0
p17 + p31Rd1 + p15Rd1 <= 2
p9 + p16 + p0Rd1 <= 2
p9 + p16 + p0Rd1 - 2 d0_R1 >= 0
d0_R1 - p9 >= 0
d0_R1 - p16 >= 0
d0_R1 - p0Rd1 >= 0
eq_1_0 <= p9
eq_1_0 <= p16
eq_1_0 <= p0Rd1
p9 + p16 + p0Rd1 - eq_1_0 >= 0
p9 + p16 + p0Rd1 - 2 eq_1_0 <= 0
p10 + p17 + p1Rd1 + 2 eq_1_0 <= 3
p10 + p17 + p1Rd1 - 2 eq_1_0 >= -1
p10 + p17 + p1Rd1 - eq_1_0 >= 0
p10 + p17 + p1Rd1 + eq_1_0 <= 2
eq_1_1 <= p10
eq_1_1 <= p17
eq_1_1 <= p1Rd1
p10 + p17 + p1Rd1 - eq_1_1 >= 0
p10 + p17 + p1Rd1 - 2 eq_1_1 <= 0
p11 + p18 + p2Rd1 + 2 eq_1_1 <= 3
p11 + p18 + p2Rd1 - 2 eq_1_1 >= -1
p11 + p18 + p2Rd1 - eq_1_1 >= 0
p11 + p18 + p2Rd1 + eq_1_1 <= 2
eq_1_2 <= p11
eq_1_2 <= p18
eq_1_2 <= p2Rd1
p11 + p18 + p2Rd1 - eq_1_2 >= 0
p11 + p18 + p2Rd1 - 2 eq_1_2 <= 0
p12 + p19 + p3Rd1 + 2 eq_1_2 <= 3
p12 + p19 + p3Rd1 - 2 eq_1_2 >= -1
p12 + p19 + p3Rd1 - eq_1_2 >= 0
p12 + p19 + p3Rd1 + eq_1_2 <= 2
eq_1_3 <= p12
eq_1_3 <= p19
eq_1_3 <= p3Rd1
p12 + p19 + p3Rd1 - eq_1_3 >= 0
p12 + p19 + p3Rd1 - 2 eq_1_3 <= 0
p13 + p20 + p4Rd1 + 2 eq_1_3 <= 3
p13 + p20 + p4Rd1 - 2 eq_1_3 >= -1
p13 + p20 + p4Rd1 - eq_1_3 >= 0
p13 + p20 + p4Rd1 + eq_1_3 <= 2
eq_1_4 <= p13
eq_1_4 <= p20
eq_1_4 <= p4Rd1
p13 + p20 + p4Rd1 - eq_1_4 >= 0
p13 + p20 + p4Rd1 - 2 eq_1_4 <= 0
p14 + p21 + p5Rd1 + 2 eq_1_4 <= 3
p14 + p21 + p5Rd1 - 2 eq_1_4 >= -1
p14 + p21 + p5Rd1 - eq_1_4 >= 0
p14 + p21 + p5Rd1 + eq_1_4 <= 2
eq_1_5 <= p14
eq_1_5 <= p21
eq_1_5 <= p5Rd1
p14 + p21 + p5Rd1 - eq_1_5 >= 0
p14 + p21 + p5Rd1 - 2 eq_1_5 <= 0
p15 + p22 + p6Rd1 + 2 eq_1_5 <= 3
p15 + p22 + p6Rd1 - 2 eq_1_5 >= -1
p15 + p22 + p6Rd1 - eq_1_5 >= 0
p15 + p22 + p6Rd1 + eq_1_5 <= 2
eq_1_6 <= p15
eq_1_6 <= p22
eq_1_6 <= p6Rd1
p15 + p22 + p6Rd1 - eq_1_6 >= 0
p15 + p22 + p6Rd1 - 2 eq_1_6 <= 0
p0 + p23 + p7Rd1 + 2 eq_1_6 <= 3
p0 + p23 + p7Rd1 - 2 eq_1_6 >= -1
p0 + p23 + p7Rd1 - eq_1_6 >= 0
p0 + p23 + p7Rd1 + eq_1_6 <= 2
eq_1_7 <= p0
eq_1_7 <= p23
eq_1_7 <= p7Rd1
p0 + p23 + p7Rd1 - eq_1_7 >= 0
p0 + p23 + p7Rd1 - 2 eq_1_7 <= 0
p1 + p24 + p8Rd1 + 2 eq_1_7 <= 3
p1 + p24 + p8Rd1 - 2 eq_1_7 >= -1
p1 + p24 + p8Rd1 - eq_1_7 >= 0
p1 + p24 + p8Rd1 + eq_1_7 <= 2
eq_1_8 <= p1
eq_1_8 <= p24
eq_1_8 <= p8Rd1
p1 + p24 + p8Rd1 - eq_1_8 >= 0
p1 + p24 + p8Rd1 - 2 eq_1_8 <= 0
p2 + p25 + p9Rd1 + 2 eq_1_8 <= 3
p2 + p25 + p9Rd1 - 2 eq_1_8 >= -1
p2 + p25 + p9Rd1 - eq_1_8 >= 0
p2 + p25 + p9Rd1 + eq_1_8 <= 2
eq_1_9 <= p2
eq_1_9 <= p25
eq_1_9 <= p9Rd1
p2 + p25 + p9Rd1 - eq_1_9 >= 0
p2 + p25 + p9Rd1 - 2 eq_1_9 <= 0
p3 + p26 + p10Rd1 + 2 eq_1_9 <= 3
p3 + p26 + p10Rd1 - 2 eq_1_9 >= -1
p3 + p26 + p10Rd1 - eq_1_9 >= 0
p3 + p26 + p10Rd1 + eq_1_9 <= 2
eq_1_10 <= p3
eq_1_10 <= p26
eq_1_10 <= p10Rd1
p3 + p26 + p10Rd1 - eq_1_10 >= 0
p3 + p26 + p10Rd1 - 2 eq_1_10 <= 0
p4 + p27 + p11Rd1 + 2 eq_1_10 <= 3
p4 + p27 + p11Rd1 - 2 eq_1_10 >= -1
p4 + p27 + p11Rd1 - eq_1_10 >= 0
p4 + p27 + p11Rd1 + eq_1_10 <= 2
eq_1_11 <= p4
eq_1_11 <= p27
eq_1_11 <= p11Rd1
p4 + p27 + p11Rd1 - eq_1_11 >= 0
p4 + p27 + p11Rd1 - 2 eq_1_11 <= 0
p5 + p28 + p12Rd1 + 2 eq_1_11 <= 3
p5 + p28 + p12Rd1 - 2 eq_1_11 >= -1
p5 + p28 + p12Rd1 - eq_1_11 >= 0
p5 + p28 + p12Rd1 + eq_1_11 <= 2
eq_1_12 <= p5
eq_1_12 <= p28
eq_1_12 <= p12Rd1
p5 + p28 + p12Rd1 - eq_1_12 >= 0
p5 + p28 + p12Rd1 - 2 eq_1_12 <= 0
p6 + p29 + p13Rd1 + 2 eq_1_12 <= 3
p6 + p29 + p13Rd1 - 2 eq_1_12 >= -1
p6 + p29 + p13Rd1 - eq_1_12 >= 0
p6 + p29 + p13Rd1 + eq_1_12 <= 2
eq_1_13 <= p6
eq_1_13 <= p29
eq_1_13 <= p13Rd1
p6 + p29 + p13Rd1 - eq_1_13 >= 0
p6 + p29 + p13Rd1 - 2 eq_1_13 <= 0
p7 + p30 + p14Rd1 + 2 eq_1_13 <= 3
p7 + p30 + p14Rd1 - 2 eq_1_13 >= -1
p7 + p30 + p14Rd1 - eq_1_13 >= 0
p7 + p30 + p14Rd1 + eq_1_13 <= 2
eq_1_14 <= p7
eq_1_14 <= p30
eq_1_14 <= p14Rd1
p7 + p30 + p14Rd1 - eq_1_14 >= 0
p7 + p30 + p14Rd1 - 2 eq_1_14 <= 0
p8 + p31 + p15Rd1 + 2 eq_1_14 <= 3
p8 + p31 + p15Rd1 - 2 eq_1_14 >= -1
p8 + p31 + p15Rd1 - eq_1_14 >= 0
p8 + p31 + p15Rd1 + eq_1_14 <= 2
p18Rd1 + p16Rd2 - p0Rd2 >= 0
p18Rd1 - p16Rd2 + p0Rd2 >= 0
-p18Rd1 + p16Rd2 + p0Rd2 >= 0
p18Rd1 + p16Rd2 + p0Rd2 <= 2
p19Rd1 + p17Rd2 - p1Rd2 >= 0
p19Rd1 - p17Rd2 + p1Rd2 >= 0
-p19Rd1 + p17Rd2 + p1Rd2 >= 0
p19Rd1 + p17Rd2 + p1Rd2 <= 2
p20Rd1 + p18Rd2 - p2Rd2 >= 0
p20Rd1 - p18Rd2 + p2Rd2 >= 0
-p20Rd1 + p18Rd2 + p2Rd2 >= 0
p20Rd1 + p18Rd2 + p2Rd2 <= 2
p21Rd1 + p19Rd2 - p3Rd2 >= 0
p21Rd1 - p19Rd2 + p3Rd2 >= 0
-p21Rd1 + p19Rd2 + p3Rd2 >= 0
p21Rd1 + p19Rd2 + p3Rd2 <= 2
p22Rd1 + p20Rd2 - p4Rd2 >= 0
p22Rd1 - p20Rd2 + p4Rd2 >= 0
-p22Rd1 + p20Rd2 + p4Rd2 >= 0
p22Rd1 + p20Rd2 + p4Rd2 <= 2
p23Rd1 + p21Rd2 - p5Rd2 >= 0
p23Rd1 - p21Rd2 + p5Rd2 >= 0
-p23Rd1 + p21Rd2 + p5Rd2 >= 0
p23Rd1 + p21Rd2 + p5Rd2 <= 2
p24Rd1 + p22Rd2 - p6Rd2 >= 0
p24Rd1 - p22Rd2 + p6Rd2 >= 0
-p24Rd1 + p22Rd2 + p6Rd2 >= 0
p24Rd1 + p22Rd2 + p6Rd2 <= 2
p25Rd1 + p23Rd2 - p7Rd2 >= 0
p25Rd1 - p23Rd2 + p7Rd2 >= 0
-p25Rd1 + p23Rd2 + p7Rd2 >= 0
p25Rd1 + p23Rd2 + p7Rd2 <= 2
p26Rd1 + p24Rd2 - p8Rd2 >= 0
p26Rd1 - p24Rd2 + p8Rd2 >= 0
-p26Rd1 + p24Rd2 + p8Rd2 >= 0
p26Rd1 + p24Rd2 + p8Rd2 <= 2
p27Rd1 + p25Rd2 - p9Rd2 >= 0
p27Rd1 - p25Rd2 + p9Rd2 >= 0
-p27Rd1 + p25Rd2 + p9Rd2 >= 0
p27Rd1 + p25Rd2 + p9Rd2 <= 2
p28Rd1 + p26Rd2 - p10Rd2 >= 0
p28Rd1 - p26Rd2 + p10Rd2 >= 0
-p28Rd1 + p26Rd2 + p10Rd2 >= 0
p28Rd1 + p26Rd2 + p10Rd2 <= 2
p29Rd1 + p27Rd2 - p11Rd2 >= 0
p29Rd1 - p27Rd2 + p11Rd2 >= 0
-p29Rd1 + p27Rd2 + p11Rd2 >= 0
p29Rd1 + p27Rd2 + p11Rd2 <= 2
p30Rd1 + p28Rd2 - p12Rd2 >= 0
p30Rd1 - p28Rd2 + p12Rd2 >= 0
-p30Rd1 + p28Rd2 + p12Rd2 >= 0
p30Rd1 + p28Rd2 + p12Rd2 <= 2
p31Rd1 + p29Rd2 - p13Rd2 >= 0
p31Rd1 - p29Rd2 + p13Rd2 >= 0
-p31Rd1 + p29Rd2 + p13Rd2 >= 0
p31Rd1 + p29Rd2 + p13Rd2 <= 2
p16Rd1 + p30Rd2 - p14Rd2 >= 0
p16Rd1 - p30Rd2 + p14Rd2 >= 0
-p16Rd1 + p30Rd2 + p14Rd2 >= 0
p16Rd1 + p30Rd2 + p14Rd2 <= 2
p17Rd1 + p31Rd2 - p15Rd2 >= 0
p17Rd1 - p31Rd2 + p15Rd2 >= 0
-p17Rd1 + p31Rd2 + p15Rd2 >= 0
p17Rd1 + p31Rd2 + p15Rd2 <= 2
p9Rd1 + p16Rd1 + p0Rd2 <= 2
p9Rd1 + p16Rd1 + p0Rd2 - 2 d0_R2 >= 0
d0_R2 - p9Rd1 >= 0
d0_R2 - p16Rd1 >= 0
d0_R2 - p0Rd2 >= 0
eq_2_0 <= p9Rd1
eq_2_0 <= p16Rd1
eq_2_0 <= p0Rd2
p9Rd1 + p16Rd1 + p0Rd2 - eq_2_0 >= 0
p9Rd1 + p16Rd1 + p0Rd2 - 2 eq_2_0 <= 0
p10Rd1 + p17Rd1 + p1Rd2 + 2 eq_2_0 <= 3
p10Rd1 + p17Rd1 + p1Rd2 - 2 eq_2_0 >= -1
p10Rd1 + p17Rd1 + p1Rd2 - eq_2_0 >= 0
p10Rd1 + p17Rd1 + p1Rd2 + eq_2_0 <= 2
eq_2_1 <= p10Rd1
eq_2_1 <= p17Rd1
eq_2_1 <= p1Rd2
p10Rd1 + p17Rd1 + p1Rd2 - eq_2_1 >= 0
p10Rd1 + p17Rd1 + p1Rd2 - 2 eq_2_1 <= 0
p11Rd1 + p18Rd1 + p2Rd2 + 2 eq_2_1 <= 3
p11Rd1 + p18Rd1 + p2Rd2 - 2 eq_2_1 >= -1
p11Rd1 + p18Rd1 + p2Rd2 - eq_2_1 >= 0
p11Rd1 + p18Rd1 + p2Rd2 + eq_2_1 <= 2
eq_2_2 <= p11Rd1
eq_2_2 <= p18Rd1
eq_2_2 <= p2Rd2
p11Rd1 + p18Rd1 + p2Rd2 - eq_2_2 >= 0
p11Rd1 + p18Rd1 + p2Rd2 - 2 eq_2_2 <= 0
p12Rd1 + p19Rd1 + p3Rd2 + 2 eq_2_2 <= 3
p12Rd1 + p19Rd1 + p3Rd2 - 2 eq_2_2 >= -1
p12Rd1 + p19Rd1 + p3Rd2 - eq_2_2 >= 0
p12Rd1 + p19Rd1 + p3Rd2 + eq_2_2 <= 2
eq_2_3 <= p12Rd1
eq_2_3 <= p19Rd1
eq_2_3 <= p3Rd2
p12Rd1 + p19Rd1 + p3Rd2 - eq_2_3 >= 0
p12Rd1 + p19Rd1 + p3Rd2 - 2 eq_2_3 <= 0
p13Rd1 + p20Rd1 + p4Rd2 + 2 eq_2_3 <= 3
p13Rd1 + p20Rd1 + p4Rd2 - 2 eq_2_3 >= -1
p13Rd1 + p20Rd1 + p4Rd2 - eq_2_3 >= 0
p13Rd1 + p20Rd1 + p4Rd2 + eq_2_3 <= 2
eq_2_4 <= p13Rd1
eq_2_4 <= p20Rd1
eq_2_4 <= p4Rd2
p13Rd1 + p20Rd1 + p4Rd2 - eq_2_4 >= 0
p13Rd1 + p20Rd1 + p4Rd2 - 2 eq_2_4 <= 0
p14Rd1 + p21Rd1 + p5Rd2 + 2 eq_2_4 <= 3
p14Rd1 + p21Rd1 + p5Rd2 - 2 eq_2_4 >= -1
p14Rd1 + p21Rd1 + p5Rd2 - eq_2_4 >= 0
p14Rd1 + p21Rd1 + p5Rd2 + eq_2_4 <= 2
eq_2_5 <= p14Rd1
eq_2_5 <= p21Rd1
eq_2_5 <= p5Rd2
p14Rd1 + p21Rd1 + p5Rd2 - eq_2_5 >= 0
p14Rd1 + p21Rd1 + p5Rd2 - 2 eq_2_5 <= 0
p15Rd1 + p22Rd1 + p6Rd2 + 2 eq_2_5 <= 3
p15Rd1 + p22Rd1 + p6Rd2 - 2 eq_2_5 >= -1
p15Rd1 + p22Rd1 + p6Rd2 - eq_2_5 >= 0
p15Rd1 + p22Rd1 + p6Rd2 + eq_2_5 <= 2
eq_2_6 <= p15Rd1
eq_2_6 <= p22Rd1
eq_2_6 <= p6Rd2
p15Rd1 + p22Rd1 + p6Rd2 - eq_2_6 >= 0
p15Rd1 + p22Rd1 + p6Rd2 - 2 eq_2_6 <= 0
p0Rd1 + p23Rd1 + p7Rd2 + 2 eq_2_6 <= 3
p0Rd1 + p23Rd1 + p7Rd2 - 2 eq_2_6 >= -1
p0Rd1 + p23Rd1 + p7Rd2 - eq_2_6 >= 0
p0Rd1 + p23Rd1 + p7Rd2 + eq_2_6 <= 2
eq_2_7 <= p0Rd1
eq_2_7 <= p23Rd1
eq_2_7 <= p7Rd2
p0Rd1 + p23Rd1 + p7Rd2 - eq_2_7 >= 0
p0Rd1 + p23Rd1 + p7Rd2 - 2 eq_2_7 <= 0
p1Rd1 + p24Rd1 + p8Rd2 + 2 eq_2_7 <= 3
p1Rd1 + p24Rd1 + p8Rd2 - 2 eq_2_7 >= -1
p1Rd1 + p24Rd1 + p8Rd2 - eq_2_7 >= 0
p1Rd1 + p24Rd1 + p8Rd2 + eq_2_7 <= 2
eq_2_8 <= p1Rd1
eq_2_8 <= p24Rd1
eq_2_8 <= p8Rd2
p1Rd1 + p24Rd1 + p8Rd2 - eq_2_8 >= 0
p1Rd1 + p24Rd1 + p8Rd2 - 2 eq_2_8 <= 0
p2Rd1 + p25Rd1 + p9Rd2 + 2 eq_2_8 <= 3
p2Rd1 + p25Rd1 + p9Rd2 - 2 eq_2_8 >= -1
p2Rd1 + p25Rd1 + p9Rd2 - eq_2_8 >= 0
p2Rd1 + p25Rd1 + p9Rd2 + eq_2_8 <= 2
eq_2_9 <= p2Rd1
eq_2_9 <= p25Rd1
eq_2_9 <= p9Rd2
p2Rd1 + p25Rd1 + p9Rd2 - eq_2_9 >= 0
p2Rd1 + p25Rd1 + p9Rd2 - 2 eq_2_9 <= 0
p3Rd1 + p26Rd1 + p10Rd2 + 2 eq_2_9 <= 3
p3Rd1 + p26Rd1 + p10Rd2 - 2 eq_2_9 >= -1
p3Rd1 + p26Rd1 + p10Rd2 - eq_2_9 >= 0
p3Rd1 + p26Rd1 + p10Rd2 + eq_2_9 <= 2
eq_2_10 <= p3Rd1
eq_2_10 <= p26Rd1
eq_2_10 <= p10Rd2
p3Rd1 + p26Rd1 + p10Rd2 - eq_2_10 >= 0
p3Rd1 + p26Rd1 + p10Rd2 - 2 eq_2_10 <= 0
p4Rd1 + p27Rd1 + p11Rd2 + 2 eq_2_10 <= 3
p4Rd1 + p27Rd1 + p11Rd2 - 2 eq_2_10 >= -1
p4Rd1 + p27Rd1 + p11Rd2 - eq_2_10 >= 0
p4Rd1 + p27Rd1 + p11Rd2 + eq_2_10 <= 2
eq_2_11 <= p4Rd1
eq_2_11 <= p27Rd1
eq_2_11 <= p11Rd2
p4Rd1 + p27Rd1 + p11Rd2 - eq_2_11 >= 0
p4Rd1 + p27Rd1 + p11Rd2 - 2 eq_2_11 <= 0
p5Rd1 + p28Rd1 + p12Rd2 + 2 eq_2_11 <= 3
p5Rd1 + p28Rd1 + p12Rd2 - 2 eq_2_11 >= -1
p5Rd1 + p28Rd1 + p12Rd2 - eq_2_11 >= 0
p5Rd1 + p28Rd1 + p12Rd2 + eq_2_11 <= 2
eq_2_12 <= p5Rd1
eq_2_12 <= p28Rd1
eq_2_12 <= p12Rd2
p5Rd1 + p28Rd1 + p12Rd2 - eq_2_12 >= 0
p5Rd1 + p28Rd1 + p12Rd2 - 2 eq_2_12 <= 0
p6Rd1 + p29Rd1 + p13Rd2 + 2 eq_2_12 <= 3
p6Rd1 + p29Rd1 + p13Rd2 - 2 eq_2_12 >= -1
p6Rd1 + p29Rd1 + p13Rd2 - eq_2_12 >= 0
p6Rd1 + p29Rd1 + p13Rd2 + eq_2_12 <= 2
eq_2_13 <= p6Rd1
eq_2_13 <= p29Rd1
eq_2_13 <= p13Rd2
p6Rd1 + p29Rd1 + p13Rd2 - eq_2_13 >= 0
p6Rd1 + p29Rd1 + p13Rd2 - 2 eq_2_13 <= 0
p7Rd1 + p30Rd1 + p14Rd2 + 2 eq_2_13 <= 3
p7Rd1 + p30Rd1 + p14Rd2 - 2 eq_2_13 >= -1
p7Rd1 + p30Rd1 + p14Rd2 - eq_2_13 >= 0
p7Rd1 + p30Rd1 + p14Rd2 + eq_2_13 <= 2
eq_2_14 <= p7Rd1
eq_2_14 <= p30Rd1
eq_2_14 <= p14Rd2
p7Rd1 + p30Rd1 + p14Rd2 - eq_2_14 >= 0
p7Rd1 + p30Rd1 + p14Rd2 - 2 eq_2_14 <= 0
p8Rd1 + p31Rd1 + p15Rd2 + 2 eq_2_14 <= 3
p8Rd1 + p31Rd1 + p15Rd2 - 2 eq_2_14 >= -1
p8Rd1 + p31Rd1 + p15Rd2 - eq_2_14 >= 0
p8Rd1 + p31Rd1 + p15Rd2 + eq_2_14 <= 2
p18Rd2 + p16Rd3 - p0Rd3 >= 0
p18Rd2 - p16Rd3 + p0Rd3 >= 0
-p18Rd2 + p16Rd3 + p0Rd3 >= 0
p18Rd2 + p16Rd3 + p0Rd3 <= 2
p19Rd2 + p17Rd3 - p1Rd3 >= 0
p19Rd2 - p17Rd3 + p1Rd3 >= 0
-p19Rd2 + p17Rd3 + p1Rd3 >= 0
p19Rd2 + p17Rd3 + p1Rd3 <= 2
p20Rd2 + p18Rd3 - p2Rd3 >= 0
p20Rd2 - p18Rd3 + p2Rd3 >= 0
-p20Rd2 + p18Rd3 + p2Rd3 >= 0
p20Rd2 + p18Rd3 + p2Rd3 <= 2
p21Rd2 + p19Rd3 - p3Rd3 >= 0
p21Rd2 - p19Rd3 + p3Rd3 >= 0
-p21Rd2 + p19Rd3 + p3Rd3 >= 0
p21Rd2 + p19Rd3 + p3Rd3 <= 2
p22Rd2 + p20Rd3 - p4Rd3 >= 0
p22Rd2 - p20Rd3 + p4Rd3 >= 0
-p22Rd2 + p20Rd3 + p4Rd3 >= 0
p22Rd2 + p20Rd3 + p4Rd3 <= 2
p23Rd2 + p21Rd3 - p5Rd3 >= 0
p23Rd2 - p21Rd3 + p5Rd3 >= 0
-p23Rd2 + p21Rd3 + p5Rd3 >= 0
p23Rd2 + p21Rd3 + p5Rd3 <= 2
p24Rd2 + p22Rd3 - p6Rd3 >= 0
p24Rd2 - p22Rd3 + p6Rd3 >= 0
-p24Rd2 + p22Rd3 + p6Rd3 >= 0
p24Rd2 + p22Rd3 + p6Rd3 <= 2
p25Rd2 + p23Rd3 - p7Rd3 >= 0
p25Rd2 - p23Rd3 + p7Rd3 >= 0
-p25Rd2 + p23Rd3 + p7Rd3 >= 0
p25Rd2 + p23Rd3 + p7Rd3 <= 2
p26Rd2 + p24Rd3 - p8Rd3 >= 0
p26Rd2 - p24Rd3 + p8Rd3 >= 0
-p26Rd2 + p24Rd3 + p8Rd3 >= 0
p26Rd2 + p24Rd3 + p8Rd3 <= 2
p27Rd2 + p25Rd3 - p9Rd3 >= 0
p27Rd2 - p25Rd3 + p9Rd3 >= 0
-p27Rd2 + p25Rd3 + p9Rd3 >= 0
p27Rd2 + p25Rd3 + p9Rd3 <= 2
p28Rd2 + p26Rd3 - p10Rd3 >= 0
p28Rd2 - p26Rd3 + p10Rd3 >= 0
-p28Rd2 + p26Rd3 + p10Rd3 >= 0
p28Rd2 + p26Rd3 + p10Rd3 <= 2
p29Rd2 + p27Rd3 - p11Rd3 >= 0
p29Rd2 - p27Rd3 + p11Rd3 >= 0
-p29Rd2 + p27Rd3 + p11Rd3 >= 0
p29Rd2 + p27Rd3 + p11Rd3 <= 2
p30Rd2 + p28Rd3 - p12Rd3 >= 0
p30Rd2 - p28Rd3 + p12Rd3 >= 0
-p30Rd2 + p28Rd3 + p12Rd3 >= 0
p30Rd2 + p28Rd3 + p12Rd3 <= 2
p31Rd2 + p29Rd3 - p13Rd3 >= 0
p31Rd2 - p29Rd3 + p13Rd3 >= 0
-p31Rd2 + p29Rd3 + p13Rd3 >= 0
p31Rd2 + p29Rd3 + p13Rd3 <= 2
p16Rd2 + p30Rd3 - p14Rd3 >= 0
p16Rd2 - p30Rd3 + p14Rd3 >= 0
-p16Rd2 + p30Rd3 + p14Rd3 >= 0
p16Rd2 + p30Rd3 + p14Rd3 <= 2
p17Rd2 + p31Rd3 - p15Rd3 >= 0
p17Rd2 - p31Rd3 + p15Rd3 >= 0
-p17Rd2 + p31Rd3 + p15Rd3 >= 0
p17Rd2 + p31Rd3 + p15Rd3 <= 2
p9Rd2 + p16Rd2 + p0Rd3 <= 2
p9Rd2 + p16Rd2 + p0Rd3 - 2 d0_R3 >= 0
d0_R3 - p9Rd2 >= 0
d0_R3 - p16Rd2 >= 0
d0_R3 - p0Rd3 >= 0
eq_3_0 <= p9Rd2
eq_3_0 <= p16Rd2
eq_3_0 <= p0Rd3
p9Rd2 + p16Rd2 + p0Rd3 - eq_3_0 >= 0
p9Rd2 + p16Rd2 + p0Rd3 - 2 eq_3_0 <= 0
p10Rd2 + p17Rd2 + p1Rd3 + 2 eq_3_0 <= 3
p10Rd2 + p17Rd2 + p1Rd3 - 2 eq_3_0 >= -1
p10Rd2 + p17Rd2 + p1Rd3 - eq_3_0 >= 0
p10Rd2 + p17Rd2 + p1Rd3 + eq_3_0 <= 2
eq_3_1 <= p10Rd2
eq_3_1 <= p17Rd2
eq_3_1 <= p1Rd3
p10Rd2 + p17Rd2 + p1Rd3 - eq_3_1 >= 0
p10Rd2 + p17Rd2 + p1Rd3 - 2 eq_3_1 <= 0
p11Rd2 + p18Rd2 + p2Rd3 + 2 eq_3_1 <= 3
p11Rd2 + p18Rd2 + p2Rd3 - 2 eq_3_1 >= -1
p11Rd2 + p18Rd2 + p2Rd3 - eq_3_1 >= 0
p11Rd2 + p18Rd2 + p2Rd3 + eq_3_1 <= 2
eq_3_2 <= p11Rd2
eq_3_2 <= p18Rd2
eq_3_2 <= p2Rd3
p11Rd2 + p18Rd2 + p2Rd3 - eq_3_2 >= 0
p11Rd2 + p18Rd2 + p2Rd3 - 2 eq_3_2 <= 0
p12Rd2 + p19Rd2 + p3Rd3 + 2 eq_3_2 <= 3
p12Rd2 + p19Rd2 + p3Rd3 - 2 eq_3_2 >= -1
p12Rd2 + p19Rd2 + p3Rd3 - eq_3_2 >= 0
p12Rd2 + p19Rd2 + p3Rd3 + eq_3_2 <= 2
eq_3_3 <= p12Rd2
eq_3_3 <= p19Rd2
eq_3_3 <= p3Rd3
p12Rd2 + p19Rd2 + p3Rd3 - eq_3_3 >= 0
p12Rd2 + p19Rd2 + p3Rd3 - 2 eq_3_3 <= 0
p13Rd2 + p20Rd2 + p4Rd3 + 2 eq_3_3 <= 3
p13Rd2 + p20Rd2 + p4Rd3 - 2 eq_3_3 >= -1
p13Rd2 + p20Rd2 + p4Rd3 - eq_3_3 >= 0
p13Rd2 + p20Rd2 + p4Rd3 + eq_3_3 <= 2
eq_3_4 <= p13Rd2
eq_3_4 <= p20Rd2
eq_3_4 <= p4Rd3
p13Rd2 + p20Rd2 + p4Rd3 - eq_3_4 >= 0
p13Rd2 + p20Rd2 + p4Rd3 - 2 eq_3_4 <= 0
p14Rd2 + p21Rd2 + p5Rd3 + 2 eq_3_4 <= 3
p14Rd2 + p21Rd2 + p5Rd3 - 2 eq_3_4 >= -1
p14Rd2 + p21Rd2 + p5Rd3 - eq_3_4 >= 0
p14Rd2 + p21Rd2 + p5Rd3 + eq_3_4 <= 2
eq_3_5 <= p14Rd2
eq_3_5 <= p21Rd2
eq_3_5 <= p5Rd3
p14Rd2 + p21Rd2 + p5Rd3 - eq_3_5 >= 0
p14Rd2 + p21Rd2 + p5Rd3 - 2 eq_3_5 <= 0
p15Rd2 + p22Rd2 + p6Rd3 + 2 eq_3_5 <= 3
p15Rd2 + p22Rd2 + p6Rd3 - 2 eq_3_5 >= -1
p15Rd2 + p22Rd2 + p6Rd3 - eq_3_5 >= 0
p15Rd2 + p22Rd2 + p6Rd3 + eq_3_5 <= 2
eq_3_6 <= p15Rd2
eq_3_6 <= p22Rd2
eq_3_6 <= p6Rd3
p15Rd2 + p22Rd2 + p6Rd3 - eq_3_6 >= 0
p15Rd2 + p22Rd2 + p6Rd3 - 2 eq_3_6 <= 0
p0Rd2 + p23Rd2 + p7Rd3 + 2 eq_3_6 <= 3
p0Rd2 + p23Rd2 + p7Rd3 - 2 eq_3_6 >= -1
p0Rd2 + p23Rd2 + p7Rd3 - eq_3_6 >= 0
p0Rd2 + p23Rd2 + p7Rd3 + eq_3_6 <= 2
eq_3_7 <= p0Rd2
eq_3_7 <= p23Rd2
eq_3_7 <= p7Rd3
p0Rd2 + p23Rd2 + p7Rd3 - eq_3_7 >= 0
p0Rd2 + p23Rd2 + p7Rd3 - 2 eq_3_7 <= 0
p1Rd2 + p24Rd2 + p8Rd3 + 2 eq_3_7 <= 3
p1Rd2 + p24Rd2 + p8Rd3 - 2 eq_3_7 >= -1
p1Rd2 + p24Rd2 + p8Rd3 - eq_3_7 >= 0
p1Rd2 + p24Rd2 + p8Rd3 + eq_3_7 <= 2
eq_3_8 <= p1Rd2
eq_3_8 <= p24Rd2
eq_3_8 <= p8Rd3
p1Rd2 + p24Rd2 + p8Rd3 - eq_3_8 >= 0
p1Rd2 + p24Rd2 + p8Rd3 - 2 eq_3_8 <= 0
p2Rd2 + p25Rd2 + p9Rd3 + 2 eq_3_8 <= 3
p2Rd2 + p25Rd2 + p9Rd3 - 2 eq_3_8 >= -1
p2Rd2 + p25Rd2 + p9Rd3 - eq_3_8 >= 0
p2Rd2 + p25Rd2 + p9Rd3 + eq_3_8 <= 2
eq_3_9 <= p2Rd2
eq_3_9 <= p25Rd2
eq_3_9 <= p9Rd3
p2Rd2 + p25Rd2 + p9Rd3 - eq_3_9 >= 0
p2Rd2 + p25Rd2 + p9Rd3 - 2 eq_3_9 <= 0
p3Rd2 + p26Rd2 + p10Rd3 + 2 eq_3_9 <= 3
p3Rd2 + p26Rd2 + p10Rd3 - 2 eq_3_9 >= -1
p3Rd2 + p26Rd2 + p10Rd3 - eq_3_9 >= 0
p3Rd2 + p26Rd2 + p10Rd3 + eq_3_9 <= 2
eq_3_10 <= p3Rd2
eq_3_10 <= p26Rd2
eq_3_10 <= p10Rd3
p3Rd2 + p26Rd2 + p10Rd3 - eq_3_10 >= 0
p3Rd2 + p26Rd2 + p10Rd3 - 2 eq_3_10 <= 0
p4Rd2 + p27Rd2 + p11Rd3 + 2 eq_3_10 <= 3
p4Rd2 + p27Rd2 + p11Rd3 - 2 eq_3_10 >= -1
p4Rd2 + p27Rd2 + p11Rd3 - eq_3_10 >= 0
p4Rd2 + p27Rd2 + p11Rd3 + eq_3_10 <= 2
eq_3_11 <= p4Rd2
eq_3_11 <= p27Rd2
eq_3_11 <= p11Rd3
p4Rd2 + p27Rd2 + p11Rd3 - eq_3_11 >= 0
p4Rd2 + p27Rd2 + p11Rd3 - 2 eq_3_11 <= 0
p5Rd2 + p28Rd2 + p12Rd3 + 2 eq_3_11 <= 3
p5Rd2 + p28Rd2 + p12Rd3 - 2 eq_3_11 >= -1
p5Rd2 + p28Rd2 + p12Rd3 - eq_3_11 >= 0
p5Rd2 + p28Rd2 + p12Rd3 + eq_3_11 <= 2
eq_3_12 <= p5Rd2
eq_3_12 <= p28Rd2
eq_3_12 <= p12Rd3
p5Rd2 + p28Rd2 + p12Rd3 - eq_3_12 >= 0
p5Rd2 + p28Rd2 + p12Rd3 - 2 eq_3_12 <= 0
p6Rd2 + p29Rd2 + p13Rd3 + 2 eq_3_12 <= 3
p6Rd2 + p29Rd2 + p13Rd3 - 2 eq_3_12 >= -1
p6Rd2 + p29Rd2 + p13Rd3 - eq_3_12 >= 0
p6Rd2 + p29Rd2 + p13Rd3 + eq_3_12 <= 2
eq_3_13 <= p6Rd2
eq_3_13 <= p29Rd2
eq_3_13 <= p13Rd3
p6Rd2 + p29Rd2 + p13Rd3 - eq_3_13 >= 0
p6Rd2 + p29Rd2 + p13Rd3 - 2 eq_3_13 <= 0
p7Rd2 + p30Rd2 + p14Rd3 + 2 eq_3_13 <= 3
p7Rd2 + p30Rd2 + p14Rd3 - 2 eq_3_13 >= -1
p7Rd2 + p30Rd2 + p14Rd3 - eq_3_13 >= 0
p7Rd2 + p30Rd2 + p14Rd3 + eq_3_13 <= 2
eq_3_14 <= p7Rd2
eq_3_14 <= p30Rd2
eq_3_14 <= p14Rd3
p7Rd2 + p30Rd2 + p14Rd3 - eq_3_14 >= 0
p7Rd2 + p30Rd2 + p14Rd3 - 2 eq_3_14 <= 0
p8Rd2 + p31Rd2 + p15Rd3 + 2 eq_3_14 <= 3
p8Rd2 + p31Rd2 + p15Rd3 - 2 eq_3_14 >= -1
p8Rd2 + p31Rd2 + p15Rd3 - eq_3_14 >= 0
p8Rd2 + p31Rd2 + p15Rd3 + eq_3_14 <= 2
p18Rd3 + p16Rd4 - p0Rd4 >= 0
p18Rd3 - p16Rd4 + p0Rd4 >= 0
-p18Rd3 + p16Rd4 + p0Rd4 >= 0
p18Rd3 + p16Rd4 + p0Rd4 <= 2
p19Rd3 + p17Rd4 - p1Rd4 >= 0
p19Rd3 - p17Rd4 + p1Rd4 >= 0
-p19Rd3 + p17Rd4 + p1Rd4 >= 0
p19Rd3 + p17Rd4 + p1Rd4 <= 2
p20Rd3 + p18Rd4 - p2Rd4 >= 0
p20Rd3 - p18Rd4 + p2Rd4 >= 0
-p20Rd3 + p18Rd4 + p2Rd4 >= 0
p20Rd3 + p18Rd4 + p2Rd4 <= 2
p21Rd3 + p19Rd4 - p3Rd4 >= 0
p21Rd3 - p19Rd4 + p3Rd4 >= 0
-p21Rd3 + p19Rd4 + p3Rd4 >= 0
p21Rd3 + p19Rd4 + p3Rd4 <= 2
p22Rd3 + p20Rd4 - p4Rd4 >= 0
p22Rd3 - p20Rd4 + p4Rd4 >= 0
-p22Rd3 + p20Rd4 + p4Rd4 >= 0
p22Rd3 + p20Rd4 + p4Rd4 <= 2
p23Rd3 + p21Rd4 - p5Rd4 >= 0
p23Rd3 - p21Rd4 + p5Rd4 >= 0
-p23Rd3 + p21Rd4 + p5Rd4 >= 0
p23Rd3 + p21Rd4 + p5Rd4 <= 2
p24Rd3 + p22Rd4 - p6Rd4 >= 0
p24Rd3 - p22Rd4 + p6Rd4 >= 0
-p24Rd3 + p22Rd4 + p6Rd4 >= 0
p24Rd3 + p22Rd4 + p6Rd4 <= 2
p25Rd3 + p23Rd4 - p7Rd4 >= 0
p25Rd3 - p23Rd4 + p7Rd4 >= 0
-p25Rd3 + p23Rd4 + p7Rd4 >= 0
p25Rd3 + p23Rd4 + p7Rd4 <= 2
p26Rd3 + p24Rd4 - p8Rd4 >= 0
p26Rd3 - p24Rd4 + p8Rd4 >= 0
-p26Rd3 + p24Rd4 + p8Rd4 >= 0
p26Rd3 + p24Rd4 + p8Rd4 <= 2
p27Rd3 + p25Rd4 - p9Rd4 >= 0
p27Rd3 - p25Rd4 + p9Rd4 >= 0
-p27Rd3 + p25Rd4 + p9Rd4 >= 0
p27Rd3 + p25Rd4 + p9Rd4 <= 2
p28Rd3 + p26Rd4 - p10Rd4 >= 0
p28Rd3 - p26Rd4 + p10Rd4 >= 0
-p28Rd3 + p26Rd4 + p10Rd4 >= 0
p28Rd3 + p26Rd4 + p10Rd4 <= 2
p29Rd3 + p27Rd4 - p11Rd4 >= 0
p29Rd3 - p27Rd4 + p11Rd4 >= 0
-p29Rd3 + p27Rd4 + p11Rd4 >= 0
p29Rd3 + p27Rd4 + p11Rd4 <= 2
p30Rd3 + p28Rd4 - p12Rd4 >= 0
p30Rd3 - p28Rd4 + p12Rd4 >= 0
-p30Rd3 + p28Rd4 + p12Rd4 >= 0
p30Rd3 + p28Rd4 + p12Rd4 <= 2
p31Rd3 + p29Rd4 - p13Rd4 >= 0
p31Rd3 - p29Rd4 + p13Rd4 >= 0
-p31Rd3 + p29Rd4 + p13Rd4 >= 0
p31Rd3 + p29Rd4 + p13Rd4 <= 2
p16Rd3 + p30Rd4 - p14Rd4 >= 0
p16Rd3 - p30Rd4 + p14Rd4 >= 0
-p16Rd3 + p30Rd4 + p14Rd4 >= 0
p16Rd3 + p30Rd4 + p14Rd4 <= 2
p17Rd3 + p31Rd4 - p15Rd4 >= 0
p17Rd3 - p31Rd4 + p15Rd4 >= 0
-p17Rd3 + p31Rd4 + p15Rd4 >= 0
p17Rd3 + p31Rd4 + p15Rd4 <= 2
p9Rd3 + p16Rd3 + p0Rd4 <= 2
p9Rd3 + p16Rd3 + p0Rd4 - 2 d0_R4 >= 0
d0_R4 - p9Rd3 >= 0
d0_R4 - p16Rd3 >= 0
d0_R4 - p0Rd4 >= 0
eq_4_0 <= p9Rd3
eq_4_0 <= p16Rd3
eq_4_0 <= p0Rd4
p9Rd3 + p16Rd3 + p0Rd4 - eq_4_0 >= 0
p9Rd3 + p16Rd3 + p0Rd4 - 2 eq_4_0 <= 0
p10Rd3 + p17Rd3 + p1Rd4 + 2 eq_4_0 <= 3
p10Rd3 + p17Rd3 + p1Rd4 - 2 eq_4_0 >= -1
p10Rd3 + p17Rd3 + p1Rd4 - eq_4_0 >= 0
p10Rd3 + p17Rd3 + p1Rd4 + eq_4_0 <= 2
eq_4_1 <= p10Rd3
eq_4_1 <= p17Rd3
eq_4_1 <= p1Rd4
p10Rd3 + p17Rd3 + p1Rd4 - eq_4_1 >= 0
p10Rd3 + p17Rd3 + p1Rd4 - 2 eq_4_1 <= 0
p11Rd3 + p18Rd3 + p2Rd4 + 2 eq_4_1 <= 3
p11Rd3 + p18Rd3 + p2Rd4 - 2 eq_4_1 >= -1
p11Rd3 + p18Rd3 + p2Rd4 - eq_4_1 >= 0
p11Rd3 + p18Rd3 + p2Rd4 + eq_4_1 <= 2
eq_4_2 <= p11Rd3
eq_4_2 <= p18Rd3
eq_4_2 <= p2Rd4
p11Rd3 + p18Rd3 + p2Rd4 - eq_4_2 >= 0
p11Rd3 + p18Rd3 + p2Rd4 - 2 eq_4_2 <= 0
p12Rd3 + p19Rd3 + p3Rd4 + 2 eq_4_2 <= 3
p12Rd3 + p19Rd3 + p3Rd4 - 2 eq_4_2 >= -1
p12Rd3 + p19Rd3 + p3Rd4 - eq_4_2 >= 0
p12Rd3 + p19Rd3 + p3Rd4 + eq_4_2 <= 2
eq_4_3 <= p12Rd3
eq_4_3 <= p19Rd3
eq_4_3 <= p3Rd4
p12Rd3 + p19Rd3 + p3Rd4 - eq_4_3 >= 0
p12Rd3 + p19Rd3 + p3Rd4 - 2 eq_4_3 <= 0
p13Rd3 + p20Rd3 + p4Rd4 + 2 eq_4_3 <= 3
p13Rd3 + p20Rd3 + p4Rd4 - 2 eq_4_3 >= -1
p13Rd3 + p20Rd3 + p4Rd4 - eq_4_3 >= 0
p13Rd3 + p20Rd3 + p4Rd4 + eq_4_3 <= 2
eq_4_4 <= p13Rd3
eq_4_4 <= p20Rd3
eq_4_4 <= p4Rd4
p13Rd3 + p20Rd3 + p4Rd4 - eq_4_4 >= 0
p13Rd3 + p20Rd3 + p4Rd4 - 2 eq_4_4 <= 0
p14Rd3 + p21Rd3 + p5Rd4 + 2 eq_4_4 <= 3
p14Rd3 + p21Rd3 + p5Rd4 - 2 eq_4_4 >= -1
p14Rd3 + p21Rd3 + p5Rd4 - eq_4_4 >= 0
p14Rd3 + p21Rd3 + p5Rd4 + eq_4_4 <= 2
eq_4_5 <= p14Rd3
eq_4_5 <= p21Rd3
eq_4_5 <= p5Rd4
p14Rd3 + p21Rd3 + p5Rd4 - eq_4_5 >= 0
p14Rd3 + p21Rd3 + p5Rd4 - 2 eq_4_5 <= 0
p15Rd3 + p22Rd3 + p6Rd4 + 2 eq_4_5 <= 3
p15Rd3 + p22Rd3 + p6Rd4 - 2 eq_4_5 >= -1
p15Rd3 + p22Rd3 + p6Rd4 - eq_4_5 >= 0
p15Rd3 + p22Rd3 + p6Rd4 + eq_4_5 <= 2
eq_4_6 <= p15Rd3
eq_4_6 <= p22Rd3
eq_4_6 <= p6Rd4
p15Rd3 + p22Rd3 + p6Rd4 - eq_4_6 >= 0
p15Rd3 + p22Rd3 + p6Rd4 - 2 eq_4_6 <= 0
p0Rd3 + p23Rd3 + p7Rd4 + 2 eq_4_6 <= 3
p0Rd3 + p23Rd3 + p7Rd4 - 2 eq_4_6 >= -1
p0Rd3 + p23Rd3 + p7Rd4 - eq_4_6 >= 0
p0Rd3 + p23Rd3 + p7Rd4 + eq_4_6 <= 2
eq_4_7 <= p0Rd3
eq_4_7 <= p23Rd3
eq_4_7 <= p7Rd4
p0Rd3 + p23Rd3 + p7Rd4 - eq_4_7 >= 0
p0Rd3 + p23Rd3 + p7Rd4 - 2 eq_4_7 <= 0
p1Rd3 + p24Rd3 + p8Rd4 + 2 eq_4_7 <= 3
p1Rd3 + p24Rd3 + p8Rd4 - 2 eq_4_7 >= -1
p1Rd3 + p24Rd3 + p8Rd4 - eq_4_7 >= 0
p1Rd3 + p24Rd3 + p8Rd4 + eq_4_7 <= 2
eq_4_8 <= p1Rd3
eq_4_8 <= p24Rd3
eq_4_8 <= p8Rd4
p1Rd3 + p24Rd3 + p8Rd4 - eq_4_8 >= 0
p1Rd3 + p24Rd3 + p8Rd4 - 2 eq_4_8 <= 0
p2Rd3 + p25Rd3 + p9Rd4 + 2 eq_4_8 <= 3
p2Rd3 + p25Rd3 + p9Rd4 - 2 eq_4_8 >= -1
p2Rd3 + p25Rd3 + p9Rd4 - eq_4_8 >= 0
p2Rd3 + p25Rd3 + p9Rd4 + eq_4_8 <= 2
eq_4_9 <= p2Rd3
eq_4_9 <= p25Rd3
eq_4_9 <= p9Rd4
p2Rd3 + p25Rd3 + p9Rd4 - eq_4_9 >= 0
p2Rd3 + p25Rd3 + p9Rd4 - 2 eq_4_9 <= 0
p3Rd3 + p26Rd3 + p10Rd4 + 2 eq_4_9 <= 3
p3Rd3 + p26Rd3 + p10Rd4 - 2 eq_4_9 >= -1
p3Rd3 + p26Rd3 + p10Rd4 - eq_4_9 >= 0
p3Rd3 + p26Rd3 + p10Rd4 + eq_4_9 <= 2
eq_4_10 <= p3Rd3
eq_4_10 <= p26Rd3
eq_4_10 <= p10Rd4
p3Rd3 + p26Rd3 + p10Rd4 - eq_4_10 >= 0
p3Rd3 + p26Rd3 + p10Rd4 - 2 eq_4_10 <= 0
p4Rd3 + p27Rd3 + p11Rd4 + 2 eq_4_10 <= 3
p4Rd3 + p27Rd3 + p11Rd4 - 2 eq_4_10 >= -1
p4Rd3 + p27Rd3 + p11Rd4 - eq_4_10 >= 0
p4Rd3 + p27Rd3 + p11Rd4 + eq_4_10 <= 2
eq_4_11 <= p4Rd3
eq_4_11 <= p27Rd3
eq_4_11 <= p11Rd4
p4Rd3 + p27Rd3 + p11Rd4 - eq_4_11 >= 0
p4Rd3 + p27Rd3 + p11Rd4 - 2 eq_4_11 <= 0
p5Rd3 + p28Rd3 + p12Rd4 + 2 eq_4_11 <= 3
p5Rd3 + p28Rd3 + p12Rd4 - 2 eq_4_11 >= -1
p5Rd3 + p28Rd3 + p12Rd4 - eq_4_11 >= 0
p5Rd3 + p28Rd3 + p12Rd4 + eq_4_11 <= 2
eq_4_12 <= p5Rd3
eq_4_12 <= p28Rd3
eq_4_12 <= p12Rd4
p5Rd3 + p28Rd3 + p12Rd4 - eq_4_12 >= 0
p5Rd3 + p28Rd3 + p12Rd4 - 2 eq_4_12 <= 0
p6Rd3 + p29Rd3 + p13Rd4 + 2 eq_4_12 <= 3
p6Rd3 + p29Rd3 + p13Rd4 - 2 eq_4_12 >= -1
p6Rd3 + p29Rd3 + p13Rd4 - eq_4_12 >= 0
p6Rd3 + p29Rd3 + p13Rd4 + eq_4_12 <= 2
eq_4_13 <= p6Rd3
eq_4_13 <= p29Rd3
eq_4_13 <= p13Rd4
p6Rd3 + p29Rd3 + p13Rd4 - eq_4_13 >= 0
p6Rd3 + p29Rd3 + p13Rd4 - 2 eq_4_13 <= 0
p7Rd3 + p30Rd3 + p14Rd4 + 2 eq_4_13 <= 3
p7Rd3 + p30Rd3 + p14Rd4 - 2 eq_4_13 >= -1
p7Rd3 + p30Rd3 + p14Rd4 - eq_4_13 >= 0
p7Rd3 + p30Rd3 + p14Rd4 + eq_4_13 <= 2
eq_4_14 <= p7Rd3
eq_4_14 <= p30Rd3
eq_4_14 <= p14Rd4
p7Rd3 + p30Rd3 + p14Rd4 - eq_4_14 >= 0
p7Rd3 + p30Rd3 + p14Rd4 - 2 eq_4_14 <= 0
p8Rd3 + p31Rd3 + p15Rd4 + 2 eq_4_14 <= 3
p8Rd3 + p31Rd3 + p15Rd4 - 2 eq_4_14 >= -1
p8Rd3 + p31Rd3 + p15Rd4 - eq_4_14 >= 0
p8Rd3 + p31Rd3 + p15Rd4 + eq_4_14 <= 2
p18Rd4 + p16Rd5 - p0Rd5 >= 0
p18Rd4 - p16Rd5 + p0Rd5 >= 0
-p18Rd4 + p16Rd5 + p0Rd5 >= 0
p18Rd4 + p16Rd5 + p0Rd5 <= 2
p19Rd4 + p17Rd5 - p1Rd5 >= 0
p19Rd4 - p17Rd5 + p1Rd5 >= 0
-p19Rd4 + p17Rd5 + p1Rd5 >= 0
p19Rd4 + p17Rd5 + p1Rd5 <= 2
p20Rd4 + p18Rd5 - p2Rd5 >= 0
p20Rd4 - p18Rd5 + p2Rd5 >= 0
-p20Rd4 + p18Rd5 + p2Rd5 >= 0
p20Rd4 + p18Rd5 + p2Rd5 <= 2
p21Rd4 + p19Rd5 - p3Rd5 >= 0
p21Rd4 - p19Rd5 + p3Rd5 >= 0
-p21Rd4 + p19Rd5 + p3Rd5 >= 0
p21Rd4 + p19Rd5 + p3Rd5 <= 2
p22Rd4 + p20Rd5 - p4Rd5 >= 0
p22Rd4 - p20Rd5 + p4Rd5 >= 0
-p22Rd4 + p20Rd5 + p4Rd5 >= 0
p22Rd4 + p20Rd5 + p4Rd5 <= 2
p23Rd4 + p21Rd5 - p5Rd5 >= 0
p23Rd4 - p21Rd5 + p5Rd5 >= 0
-p23Rd4 + p21Rd5 + p5Rd5 >= 0
p23Rd4 + p21Rd5 + p5Rd5 <= 2
p24Rd4 + p22Rd5 - p6Rd5 >= 0
p24Rd4 - p22Rd5 + p6Rd5 >= 0
-p24Rd4 + p22Rd5 + p6Rd5 >= 0
p24Rd4 + p22Rd5 + p6Rd5 <= 2
p25Rd4 + p23Rd5 - p7Rd5 >= 0
p25Rd4 - p23Rd5 + p7Rd5 >= 0
-p25Rd4 + p23Rd5 + p7Rd5 >= 0
p25Rd4 + p23Rd5 + p7Rd5 <= 2
p26Rd4 + p24Rd5 - p8Rd5 >= 0
p26Rd4 - p24Rd5 + p8Rd5 >= 0
-p26Rd4 + p24Rd5 + p8Rd5 >= 0
p26Rd4 + p24Rd5 + p8Rd5 <= 2
p27Rd4 + p25Rd5 - p9Rd5 >= 0
p27Rd4 - p25Rd5 + p9Rd5 >= 0
-p27Rd4 + p25Rd5 + p9Rd5 >= 0
p27Rd4 + p25Rd5 + p9Rd5 <= 2
p28Rd4 + p26Rd5 - p10Rd5 >= 0
p28Rd4 - p26Rd5 + p10Rd5 >= 0
-p28Rd4 + p26Rd5 + p10Rd5 >= 0
p28Rd4 + p26Rd5 + p10Rd5 <= 2
p29Rd4 + p27Rd5 - p11Rd5 >= 0
p29Rd4 - p27Rd5 + p11Rd5 >= 0
-p29Rd4 + p27Rd5 + p11Rd5 >= 0
p29Rd4 + p27Rd5 + p11Rd5 <= 2
p30Rd4 + p28Rd5 - p12Rd5 >= 0
p30Rd4 - p28Rd5 + p12Rd5 >= 0
-p30Rd4 + p28Rd5 + p12Rd5 >= 0
p30Rd4 + p28Rd5 + p12Rd5 <= 2
p31Rd4 + p29Rd5 - p13Rd5 >= 0
p31Rd4 - p29Rd5 + p13Rd5 >= 0
-p31Rd4 + p29Rd5 + p13Rd5 >= 0
p31Rd4 + p29Rd5 + p13Rd5 <= 2
p16Rd4 + p30Rd5 - p14Rd5 >= 0
p16Rd4 - p30Rd5 + p14Rd5 >= 0
-p16Rd4 + p30Rd5 + p14Rd5 >= 0
p16Rd4 + p30Rd5 + p14Rd5 <= 2
p17Rd4 + p31Rd5 - p15Rd5 >= 0
p17Rd4 - p31Rd5 + p15Rd5 >= 0
-p17Rd4 + p31Rd5 + p15Rd5 >= 0
p17Rd4 + p31Rd5 + p15Rd5 <= 2
p9Rd4 + p16Rd4 + p0Rd5 <= 2
p9Rd4 + p16Rd4 + p0Rd5 - 2 d0_R5 >= 0
d0_R5 - p9Rd4 >= 0
d0_R5 - p16Rd4 >= 0
d0_R5 - p0Rd5 >= 0
eq_5_0 <= p9Rd4
eq_5_0 <= p16Rd4
eq_5_0 <= p0Rd5
p9Rd4 + p16Rd4 + p0Rd5 - eq_5_0 >= 0
p9Rd4 + p16Rd4 + p0Rd5 - 2 eq_5_0 <= 0
p10Rd4 + p17Rd4 + p1Rd5 + 2 eq_5_0 <= 3
p10Rd4 + p17Rd4 + p1Rd5 - 2 eq_5_0 >= -1
p10Rd4 + p17Rd4 + p1Rd5 - eq_5_0 >= 0
p10Rd4 + p17Rd4 + p1Rd5 + eq_5_0 <= 2
eq_5_1 <= p10Rd4
eq_5_1 <= p17Rd4
eq_5_1 <= p1Rd5
p10Rd4 + p17Rd4 + p1Rd5 - eq_5_1 >= 0
p10Rd4 + p17Rd4 + p1Rd5 - 2 eq_5_1 <= 0
p11Rd4 + p18Rd4 + p2Rd5 + 2 eq_5_1 <= 3
p11Rd4 + p18Rd4 + p2Rd5 - 2 eq_5_1 >= -1
p11Rd4 + p18Rd4 + p2Rd5 - eq_5_1 >= 0
p11Rd4 + p18Rd4 + p2Rd5 + eq_5_1 <= 2
eq_5_2 <= p11Rd4
eq_5_2 <= p18Rd4
eq_5_2 <= p2Rd5
p11Rd4 + p18Rd4 + p2Rd5 - eq_5_2 >= 0
p11Rd4 + p18Rd4 + p2Rd5 - 2 eq_5_2 <= 0
p12Rd4 + p19Rd4 + p3Rd5 + 2 eq_5_2 <= 3
p12Rd4 + p19Rd4 + p3Rd5 - 2 eq_5_2 >= -1
p12Rd4 + p19Rd4 + p3Rd5 - eq_5_2 >= 0
p12Rd4 + p19Rd4 + p3Rd5 + eq_5_2 <= 2
eq_5_3 <= p12Rd4
eq_5_3 <= p19Rd4
eq_5_3 <= p3Rd5
p12Rd4 + p19Rd4 + p3Rd5 - eq_5_3 >= 0
p12Rd4 + p19Rd4 + p3Rd5 - 2 eq_5_3 <= 0
p13Rd4 + p20Rd4 + p4Rd5 + 2 eq_5_3 <= 3
p13Rd4 + p20Rd4 + p4Rd5 - 2 eq_5_3 >= -1
p13Rd4 + p20Rd4 + p4Rd5 - eq_5_3 >= 0
p13Rd4 + p20Rd4 + p4Rd5 + eq_5_3 <= 2
eq_5_4 <= p13Rd4
eq_5_4 <= p20Rd4
eq_5_4 <= p4Rd5
p13Rd4 + p20Rd4 + p4Rd5 - eq_5_4 >= 0
p13Rd4 + p20Rd4 + p4Rd5 - 2 eq_5_4 <= 0
p14Rd4 + p21Rd4 + p5Rd5 + 2 eq_5_4 <= 3
p14Rd4 + p21Rd4 + p5Rd5 - 2 eq_5_4 >= -1
p14Rd4 + p21Rd4 + p5Rd5 - eq_5_4 >= 0
p14Rd4 + p21Rd4 + p5Rd5 + eq_5_4 <= 2
eq_5_5 <= p14Rd4
eq_5_5 <= p21Rd4
eq_5_5 <= p5Rd5
p14Rd4 + p21Rd4 + p5Rd5 - eq_5_5 >= 0
p14Rd4 + p21Rd4 + p5Rd5 - 2 eq_5_5 <= 0
p15Rd4 + p22Rd4 + p6Rd5 + 2 eq_5_5 <= 3
p15Rd4 + p22Rd4 + p6Rd5 - 2 eq_5_5 >= -1
p15Rd4 + p22Rd4 + p6Rd5 - eq_5_5 >= 0
p15Rd4 + p22Rd4 + p6Rd5 + eq_5_5 <= 2
eq_5_6 <= p15Rd4
eq_5_6 <= p22Rd4
eq_5_6 <= p6Rd5
p15Rd4 + p22Rd4 + p6Rd5 - eq_5_6 >= 0
p15Rd4 + p22Rd4 + p6Rd5 - 2 eq_5_6 <= 0
p0Rd4 + p23Rd4 + p7Rd5 + 2 eq_5_6 <= 3
p0Rd4 + p23Rd4 + p7Rd5 - 2 eq_5_6 >= -1
p0Rd4 + p23Rd4 + p7Rd5 - eq_5_6 >= 0
p0Rd4 + p23Rd4 + p7Rd5 + eq_5_6 <= 2
eq_5_7 <= p0Rd4
eq_5_7 <= p23Rd4
eq_5_7 <= p7Rd5
p0Rd4 + p23Rd4 + p7Rd5 - eq_5_7 >= 0
p0Rd4 + p23Rd4 + p7Rd5 - 2 eq_5_7 <= 0
p1Rd4 + p24Rd4 + p8Rd5 + 2 eq_5_7 <= 3
p1Rd4 + p24Rd4 + p8Rd5 - 2 eq_5_7 >= -1
p1Rd4 + p24Rd4 + p8Rd5 - eq_5_7 >= 0
p1Rd4 + p24Rd4 + p8Rd5 + eq_5_7 <= 2
eq_5_8 <= p1Rd4
eq_5_8 <= p24Rd4
eq_5_8 <= p8Rd5
p1Rd4 + p24Rd4 + p8Rd5 - eq_5_8 >= 0
p1Rd4 + p24Rd4 + p8Rd5 - 2 eq_5_8 <= 0
p2Rd4 + p25Rd4 + p9Rd5 + 2 eq_5_8 <= 3
p2Rd4 + p25Rd4 + p9Rd5 - 2 eq_5_8 >= -1
p2Rd4 + p25Rd4 + p9Rd5 - eq_5_8 >= 0
p2Rd4 + p25Rd4 + p9Rd5 + eq_5_8 <= 2
eq_5_9 <= p2Rd4
eq_5_9 <= p25Rd4
eq_5_9 <= p9Rd5
p2Rd4 + p25Rd4 + p9Rd5 - eq_5_9 >= 0
p2Rd4 + p25Rd4 + p9Rd5 - 2 eq_5_9 <= 0
p3Rd4 + p26Rd4 + p10Rd5 + 2 eq_5_9 <= 3
p3Rd4 + p26Rd4 + p10Rd5 - 2 eq_5_9 >= -1
p3Rd4 + p26Rd4 + p10Rd5 - eq_5_9 >= 0
p3Rd4 + p26Rd4 + p10Rd5 + eq_5_9 <= 2
eq_5_10 <= p3Rd4
eq_5_10 <= p26Rd4
eq_5_10 <= p10Rd5
p3Rd4 + p26Rd4 + p10Rd5 - eq_5_10 >= 0
p3Rd4 + p26Rd4 + p10Rd5 - 2 eq_5_10 <= 0
p4Rd4 + p27Rd4 + p11Rd5 + 2 eq_5_10 <= 3
p4Rd4 + p27Rd4 + p11Rd5 - 2 eq_5_10 >= -1
p4Rd4 + p27Rd4 + p11Rd5 - eq_5_10 >= 0
p4Rd4 + p27Rd4 + p11Rd5 + eq_5_10 <= 2
eq_5_11 <= p4Rd4
eq_5_11 <= p27Rd4
eq_5_11 <= p11Rd5
p4Rd4 + p27Rd4 + p11Rd5 - eq_5_11 >= 0
p4Rd4 + p27Rd4 + p11Rd5 - 2 eq_5_11 <= 0
p5Rd4 + p28Rd4 + p12Rd5 + 2 eq_5_11 <= 3
p5Rd4 + p28Rd4 + p12Rd5 - 2 eq_5_11 >= -1
p5Rd4 + p28Rd4 + p12Rd5 - eq_5_11 >= 0
p5Rd4 + p28Rd4 + p12Rd5 + eq_5_11 <= 2
eq_5_12 <= p5Rd4
eq_5_12 <= p28Rd4
eq_5_12 <= p12Rd5
p5Rd4 + p28Rd4 + p12Rd5 - eq_5_12 >= 0
p5Rd4 + p28Rd4 + p12Rd5 - 2 eq_5_12 <= 0
p6Rd4 + p29Rd4 + p13Rd5 + 2 eq_5_12 <= 3
p6Rd4 + p29Rd4 + p13Rd5 - 2 eq_5_12 >= -1
p6Rd4 + p29Rd4 + p13Rd5 - eq_5_12 >= 0
p6Rd4 + p29Rd4 + p13Rd5 + eq_5_12 <= 2
eq_5_13 <= p6Rd4
eq_5_13 <= p29Rd4
eq_5_13 <= p13Rd5
p6Rd4 + p29Rd4 + p13Rd5 - eq_5_13 >= 0
p6Rd4 + p29Rd4 + p13Rd5 - 2 eq_5_13 <= 0
p7Rd4 + p30Rd4 + p14Rd5 + 2 eq_5_13 <= 3
p7Rd4 + p30Rd4 + p14Rd5 - 2 eq_5_13 >= -1
p7Rd4 + p30Rd4 + p14Rd5 - eq_5_13 >= 0
p7Rd4 + p30Rd4 + p14Rd5 + eq_5_13 <= 2
eq_5_14 <= p7Rd4
eq_5_14 <= p30Rd4
eq_5_14 <= p14Rd5
p7Rd4 + p30Rd4 + p14Rd5 - eq_5_14 >= 0
p7Rd4 + p30Rd4 + p14Rd5 - 2 eq_5_14 <= 0
p8Rd4 + p31Rd4 + p15Rd5 + 2 eq_5_14 <= 3
p8Rd4 + p31Rd4 + p15Rd5 - 2 eq_5_14 >= -1
p8Rd4 + p31Rd4 + p15Rd5 - eq_5_14 >= 0
p8Rd4 + p31Rd4 + p15Rd5 + eq_5_14 <= 2
p18Rd5 + p16Rd6 - p0Rd6 >= 0
p18Rd5 - p16Rd6 + p0Rd6 >= 0
-p18Rd5 + p16Rd6 + p0Rd6 >= 0
p18Rd5 + p16Rd6 + p0Rd6 <= 2
p19Rd5 + p17Rd6 - p1Rd6 >= 0
p19Rd5 - p17Rd6 + p1Rd6 >= 0
-p19Rd5 + p17Rd6 + p1Rd6 >= 0
p19Rd5 + p17Rd6 + p1Rd6 <= 2
p20Rd5 + p18Rd6 - p2Rd6 >= 0
p20Rd5 - p18Rd6 + p2Rd6 >= 0
-p20Rd5 + p18Rd6 + p2Rd6 >= 0
p20Rd5 + p18Rd6 + p2Rd6 <= 2
p21Rd5 + p19Rd6 - p3Rd6 >= 0
p21Rd5 - p19Rd6 + p3Rd6 >= 0
-p21Rd5 + p19Rd6 + p3Rd6 >= 0
p21Rd5 + p19Rd6 + p3Rd6 <= 2
p22Rd5 + p20Rd6 - p4Rd6 >= 0
p22Rd5 - p20Rd6 + p4Rd6 >= 0
-p22Rd5 + p20Rd6 + p4Rd6 >= 0
p22Rd5 + p20Rd6 + p4Rd6 <= 2
p23Rd5 + p21Rd6 - p5Rd6 >= 0
p23Rd5 - p21Rd6 + p5Rd6 >= 0
-p23Rd5 + p21Rd6 + p5Rd6 >= 0
p23Rd5 + p21Rd6 + p5Rd6 <= 2
p24Rd5 + p22Rd6 - p6Rd6 >= 0
p24Rd5 - p22Rd6 + p6Rd6 >= 0
-p24Rd5 + p22Rd6 + p6Rd6 >= 0
p24Rd5 + p22Rd6 + p6Rd6 <= 2
p25Rd5 + p23Rd6 - p7Rd6 >= 0
p25Rd5 - p23Rd6 + p7Rd6 >= 0
-p25Rd5 + p23Rd6 + p7Rd6 >= 0
p25Rd5 + p23Rd6 + p7Rd6 <= 2
p26Rd5 + p24Rd6 - p8Rd6 >= 0
p26Rd5 - p24Rd6 + p8Rd6 >= 0
-p26Rd5 + p24Rd6 + p8Rd6 >= 0
p26Rd5 + p24Rd6 + p8Rd6 <= 2
p27Rd5 + p25Rd6 - p9Rd6 >= 0
p27Rd5 - p25Rd6 + p9Rd6 >= 0
-p27Rd5 + p25Rd6 + p9Rd6 >= 0
p27Rd5 + p25Rd6 + p9Rd6 <= 2
p28Rd5 + p26Rd6 - p10Rd6 >= 0
p28Rd5 - p26Rd6 + p10Rd6 >= 0
-p28Rd5 + p26Rd6 + p10Rd6 >= 0
p28Rd5 + p26Rd6 + p10Rd6 <= 2
p29Rd5 + p27Rd6 - p11Rd6 >= 0
p29Rd5 - p27Rd6 + p11Rd6 >= 0
-p29Rd5 + p27Rd6 + p11Rd6 >= 0
p29Rd5 + p27Rd6 + p11Rd6 <= 2
p30Rd5 + p28Rd6 - p12Rd6 >= 0
p30Rd5 - p28Rd6 + p12Rd6 >= 0
-p30Rd5 + p28Rd6 + p12Rd6 >= 0
p30Rd5 + p28Rd6 + p12Rd6 <= 2
p31Rd5 + p29Rd6 - p13Rd6 >= 0
p31Rd5 - p29Rd6 + p13Rd6 >= 0
-p31Rd5 + p29Rd6 + p13Rd6 >= 0
p31Rd5 + p29Rd6 + p13Rd6 <= 2
p16Rd5 + p30Rd6 - p14Rd6 >= 0
p16Rd5 - p30Rd6 + p14Rd6 >= 0
-p16Rd5 + p30Rd6 + p14Rd6 >= 0
p16Rd5 + p30Rd6 + p14Rd6 <= 2
p17Rd5 + p31Rd6 - p15Rd6 >= 0
p17Rd5 - p31Rd6 + p15Rd6 >= 0
-p17Rd5 + p31Rd6 + p15Rd6 >= 0
p17Rd5 + p31Rd6 + p15Rd6 <= 2
p9Rd5 + p16Rd5 + p0Rd6 <= 2
p9Rd5 + p16Rd5 + p0Rd6 - 2 d0_R6 >= 0
d0_R6 - p9Rd5 >= 0
d0_R6 - p16Rd5 >= 0
d0_R6 - p0Rd6 >= 0
eq_6_0 <= p9Rd5
eq_6_0 <= p16Rd5
eq_6_0 <= p0Rd6
p9Rd5 + p16Rd5 + p0Rd6 - eq_6_0 >= 0
p9Rd5 + p16Rd5 + p0Rd6 - 2 eq_6_0 <= 0
p10Rd5 + p17Rd5 + p1Rd6 + 2 eq_6_0 <= 3
p10Rd5 + p17Rd5 + p1Rd6 - 2 eq_6_0 >= -1
p10Rd5 + p17Rd5 + p1Rd6 - eq_6_0 >= 0
p10Rd5 + p17Rd5 + p1Rd6 + eq_6_0 <= 2
eq_6_1 <= p10Rd5
eq_6_1 <= p17Rd5
eq_6_1 <= p1Rd6
p10Rd5 + p17Rd5 + p1Rd6 - eq_6_1 >= 0
p10Rd5 + p17Rd5 + p1Rd6 - 2 eq_6_1 <= 0
p11Rd5 + p18Rd5 + p2Rd6 + 2 eq_6_1 <= 3
p11Rd5 + p18Rd5 + p2Rd6 - 2 eq_6_1 >= -1
p11Rd5 + p18Rd5 + p2Rd6 - eq_6_1 >= 0
p11Rd5 + p18Rd5 + p2Rd6 + eq_6_1 <= 2
eq_6_2 <= p11Rd5
eq_6_2 <= p18Rd5
eq_6_2 <= p2Rd6
p11Rd5 + p18Rd5 + p2Rd6 - eq_6_2 >= 0
p11Rd5 + p18Rd5 + p2Rd6 - 2 eq_6_2 <= 0
p12Rd5 + p19Rd5 + p3Rd6 + 2 eq_6_2 <= 3
p12Rd5 + p19Rd5 + p3Rd6 - 2 eq_6_2 >= -1
p12Rd5 + p19Rd5 + p3Rd6 - eq_6_2 >= 0
p12Rd5 + p19Rd5 + p3Rd6 + eq_6_2 <= 2
eq_6_3 <= p12Rd5
eq_6_3 <= p19Rd5
eq_6_3 <= p3Rd6
p12Rd5 + p19Rd5 + p3Rd6 - eq_6_3 >= 0
p12Rd5 + p19Rd5 + p3Rd6 - 2 eq_6_3 <= 0
p13Rd5 + p20Rd5 + p4Rd6 + 2 eq_6_3 <= 3
p13Rd5 + p20Rd5 + p4Rd6 - 2 eq_6_3 >= -1
p13Rd5 + p20Rd5 + p4Rd6 - eq_6_3 >= 0
p13Rd5 + p20Rd5 + p4Rd6 + eq_6_3 <= 2
eq_6_4 <= p13Rd5
eq_6_4 <= p20Rd5
eq_6_4 <= p4Rd6
p13Rd5 + p20Rd5 + p4Rd6 - eq_6_4 >= 0
p13Rd5 + p20Rd5 + p4Rd6 - 2 eq_6_4 <= 0
p14Rd5 + p21Rd5 + p5Rd6 + 2 eq_6_4 <= 3
p14Rd5 + p21Rd5 + p5Rd6 - 2 eq_6_4 >= -1
p14Rd5 + p21Rd5 + p5Rd6 - eq_6_4 >= 0
p14Rd5 + p21Rd5 + p5Rd6 + eq_6_4 <= 2
eq_6_5 <= p14Rd5
eq_6_5 <= p21Rd5
eq_6_5 <= p5Rd6
p14Rd5 + p21Rd5 + p5Rd6 - eq_6_5 >= 0
p14Rd5 + p21Rd5 + p5Rd6 - 2 eq_6_5 <= 0
p15Rd5 + p22Rd5 + p6Rd6 + 2 eq_6_5 <= 3
p15Rd5 + p22Rd5 + p6Rd6 - 2 eq_6_5 >= -1
p15Rd5 + p22Rd5 + p6Rd6 - eq_6_5 >= 0
p15Rd5 + p22Rd5 + p6Rd6 + eq_6_5 <= 2
eq_6_6 <= p15Rd5
eq_6_6 <= p22Rd5
eq_6_6 <= p6Rd6
p15Rd5 + p22Rd5 + p6Rd6 - eq_6_6 >= 0
p15Rd5 + p22Rd5 + p6Rd6 - 2 eq_6_6 <= 0
p0Rd5 + p23Rd5 + p7Rd6 + 2 eq_6_6 <= 3
p0Rd5 + p23Rd5 + p7Rd6 - 2 eq_6_6 >= -1
p0Rd5 + p23Rd5 + p7Rd6 - eq_6_6 >= 0
p0Rd5 + p23Rd5 + p7Rd6 + eq_6_6 <= 2
eq_6_7 <= p0Rd5
eq_6_7 <= p23Rd5
eq_6_7 <= p7Rd6
p0Rd5 + p23Rd5 + p7Rd6 - eq_6_7 >= 0
p0Rd5 + p23Rd5 + p7Rd6 - 2 eq_6_7 <= 0
p1Rd5 + p24Rd5 + p8Rd6 + 2 eq_6_7 <= 3
p1Rd5 + p24Rd5 + p8Rd6 - 2 eq_6_7 >= -1
p1Rd5 + p24Rd5 + p8Rd6 - eq_6_7 >= 0
p1Rd5 + p24Rd5 + p8Rd6 + eq_6_7 <= 2
eq_6_8 <= p1Rd5
eq_6_8 <= p24Rd5
eq_6_8 <= p8Rd6
p1Rd5 + p24Rd5 + p8Rd6 - eq_6_8 >= 0
p1Rd5 + p24Rd5 + p8Rd6 - 2 eq_6_8 <= 0
p2Rd5 + p25Rd5 + p9Rd6 + 2 eq_6_8 <= 3
p2Rd5 + p25Rd5 + p9Rd6 - 2 eq_6_8 >= -1
p2Rd5 + p25Rd5 + p9Rd6 - eq_6_8 >= 0
p2Rd5 + p25Rd5 + p9Rd6 + eq_6_8 <= 2
eq_6_9 <= p2Rd5
eq_6_9 <= p25Rd5
eq_6_9 <= p9Rd6
p2Rd5 + p25Rd5 + p9Rd6 - eq_6_9 >= 0
p2Rd5 + p25Rd5 + p9Rd6 - 2 eq_6_9 <= 0
p3Rd5 + p26Rd5 + p10Rd6 + 2 eq_6_9 <= 3
p3Rd5 + p26Rd5 + p10Rd6 - 2 eq_6_9 >= -1
p3Rd5 + p26Rd5 + p10Rd6 - eq_6_9 >= 0
p3Rd5 + p26Rd5 + p10Rd6 + eq_6_9 <= 2
eq_6_10 <= p3Rd5
eq_6_10 <= p26Rd5
eq_6_10 <= p10Rd6
p3Rd5 + p26Rd5 + p10Rd6 - eq_6_10 >= 0
p3Rd5 + p26Rd5 + p10Rd6 - 2 eq_6_10 <= 0
p4Rd5 + p27Rd5 + p11Rd6 + 2 eq_6_10 <= 3
p4Rd5 + p27Rd5 + p11Rd6 - 2 eq_6_10 >= -1
p4Rd5 + p27Rd5 + p11Rd6 - eq_6_10 >= 0
p4Rd5 + p27Rd5 + p11Rd6 + eq_6_10 <= 2
eq_6_11 <= p4Rd5
eq_6_11 <= p27Rd5
eq_6_11 <= p11Rd6
p4Rd5 + p27Rd5 + p11Rd6 - eq_6_11 >= 0
p4Rd5 + p27Rd5 + p11Rd6 - 2 eq_6_11 <= 0
p5Rd5 + p28Rd5 + p12Rd6 + 2 eq_6_11 <= 3
p5Rd5 + p28Rd5 + p12Rd6 - 2 eq_6_11 >= -1
p5Rd5 + p28Rd5 + p12Rd6 - eq_6_11 >= 0
p5Rd5 + p28Rd5 + p12Rd6 + eq_6_11 <= 2
eq_6_12 <= p5Rd5
eq_6_12 <= p28Rd5
eq_6_12 <= p12Rd6
p5Rd5 + p28Rd5 + p12Rd6 - eq_6_12 >= 0
p5Rd5 + p28Rd5 + p12Rd6 - 2 eq_6_12 <= 0
p6Rd5 + p29Rd5 + p13Rd6 + 2 eq_6_12 <= 3
p6Rd5 + p29Rd5 + p13Rd6 - 2 eq_6_12 >= -1
p6Rd5 + p29Rd5 + p13Rd6 - eq_6_12 >= 0
p6Rd5 + p29Rd5 + p13Rd6 + eq_6_12 <= 2
eq_6_13 <= p6Rd5
eq_6_13 <= p29Rd5
eq_6_13 <= p13Rd6
p6Rd5 + p29Rd5 + p13Rd6 - eq_6_13 >= 0
p6Rd5 + p29Rd5 + p13Rd6 - 2 eq_6_13 <= 0
p7Rd5 + p30Rd5 + p14Rd6 + 2 eq_6_13 <= 3
p7Rd5 + p30Rd5 + p14Rd6 - 2 eq_6_13 >= -1
p7Rd5 + p30Rd5 + p14Rd6 - eq_6_13 >= 0
p7Rd5 + p30Rd5 + p14Rd6 + eq_6_13 <= 2
eq_6_14 <= p7Rd5
eq_6_14 <= p30Rd5
eq_6_14 <= p14Rd6
p7Rd5 + p30Rd5 + p14Rd6 - eq_6_14 >= 0
p7Rd5 + p30Rd5 + p14Rd6 - 2 eq_6_14 <= 0
p8Rd5 + p31Rd5 + p15Rd6 + 2 eq_6_14 <= 3
p8Rd5 + p31Rd5 + p15Rd6 - 2 eq_6_14 >= -1
p8Rd5 + p31Rd5 + p15Rd6 - eq_6_14 >= 0
p8Rd5 + p31Rd5 + p15Rd6 + eq_6_14 <= 2


Binary
p25Rd1
eq_6_11
p0Rd2
eq_1_3
p27
p30
p27Rd6
p2Rd5
p29Rd1
p5Rd3
p3Rd3
d0_R2
eq_5_2
p26Rd5
eq_1_7
eq_3_13
p22Rd4
p2Rd4
p11Rd3
p1
p19Rd6
p22Rd1
p22Rd6
p17Rd3
p8Rd4
p14Rd6
p18
p25Rd5
eq_5_8
p21Rd6
p3Rd6
p28Rd2
p27Rd5
p4
p0Rd3
p2Rd6
eq_4_14
p5
eq_1_5
p23Rd3
p14Rd3
p17Rd6
p8Rd3
p18Rd4
p16Rd4
eq_6_8
p4Rd3
p30Rd5
p19Rd2
p10Rd2
p21
p0
p2Rd1
p27Rd2
p6Rd6
p23Rd4
eq_6_0
p7
p4Rd1
eq_2_5
d0_R5
p23Rd1
p11Rd1
eq_6_1
p19
p15Rd6
p24Rd4
eq_2_13
p10Rd5
eq_3_1
p25Rd3
p2Rd2
p14
eq_5_10
eq_1_1
p15
eq_1_11
p0Rd6
p20
eq_6_9
p9Rd6
p13Rd6
p13
eq_1_14
eq_2_8
p6Rd3
p8Rd2
p10Rd6
eq_2_14
p27Rd3
p29Rd5
p14Rd2
eq_2_6
p16Rd5
eq_1_10
eq_2_10
eq_3_9
p16Rd1
p31Rd6
p17Rd1
p1Rd2
eq_5_7
p14Rd4
eq_1_13
eq_6_4
p26Rd6
p25Rd2
p10
p5Rd6
p4Rd5
p15Rd4
p17Rd2
p13Rd5
p20Rd5
eq_6_14
eq_3_12
p29Rd4
p15Rd2
p9Rd3
p24Rd5
eq_4_2
p8
p28Rd4
p5Rd4
p23Rd5
eq_5_11
p14Rd5
p24Rd1
eq_5_4
p21Rd3
eq_2_3
p20Rd4
eq_2_12
d0_R6
p30Rd2
d0_R4
p8Rd6
p24Rd6
d0_R1
p6Rd4
eq_5_0
eq_4_0
p8Rd1
eq_5_3
eq_6_10
p20Rd6
eq_6_12
eq_3_10
p31Rd3
p3Rd5
p12Rd2
p12Rd4
p5Rd1
p6Rd5
p12Rd5
p16
p9Rd4
p16Rd2
p2Rd3
p8Rd5
p21Rd5
p7Rd1
p23Rd6
p19Rd1
eq_5_14
p16Rd3
p20Rd2
eq_3_7
p0Rd1
p3Rd2
eq_4_5
p20Rd1
p18Rd1
eq_5_13
eq_2_11
p1Rd6
p21Rd1
p9Rd2
p30Rd6
eq_2_9
p14Rd1
p11Rd2
p25Rd4
p27Rd4
p10Rd3
p22Rd5
p28Rd3
eq_4_9
eq_6_7
eq_6_5
p30Rd4
p25
p21Rd2
p18Rd6
eq_1_4
eq_3_3
eq_4_10
p22Rd2
eq_1_12
p22Rd3
p30Rd3
p31Rd1
p29Rd3
eq_4_12
p18Rd2
p13Rd4
p13Rd1
p25Rd6
eq_1_2
p15Rd5
p17Rd4
p5Rd2
eq_3_11
p20Rd3
p15Rd3
p17
eq_3_6
p12Rd3
p1Rd1
p12
p28Rd6
eq_4_3
eq_1_9
eq_1_6
eq_4_1
p15Rd1
p1Rd3
p18Rd5
eq_2_1
p11Rd6
eq_5_9
p22
p4Rd6
eq_6_2
p26Rd1
p7Rd6
p9Rd5
p9Rd1
p9
eq_1_8
p26
p0Rd5
eq_5_6
p6Rd2
p7Rd2
p31Rd2
eq_1_0
p0Rd4
eq_2_4
p10Rd4
p11Rd4
eq_3_8
p24Rd3
p31
p27Rd1
eq_6_13
p24
p24Rd2
p2
p31Rd4
eq_5_5
p3Rd4
p7Rd5
p12Rd6
eq_3_2
p26Rd4
p18Rd3
p1Rd5
p29
p19Rd5
p28Rd1
p29Rd6
p26Rd2
eq_3_0
eq_5_12
p5Rd5
p7Rd3
eq_6_3
eq_5_1
p4Rd2
p6
p11
eq_4_4
eq_3_5
p16Rd6
p19Rd3
eq_4_6
eq_4_13
p3Rd1
p26Rd3
p23
p11Rd5
p23Rd2
p30Rd1
p4Rd4
p28Rd5
p3
p17Rd5
p28
p13Rd3
p12Rd1
eq_4_8
p7Rd4
p13Rd2
eq_2_0
p6Rd1
eq_6_6
p31Rd5
p29Rd2
eq_4_7
eq_2_7
p21Rd4
eq_4_11
p19Rd4
p10Rd1
eq_2_2
eq_3_4
eq_3_14
d0_R3
p1Rd4
