Minimize
pro0Rd0 + pro1Rd0 + pro2Rd0 + pro3Rd0 + pro4Rd0 + pro5Rd0 + pro6Rd0 + pro7Rd0 + pro8Rd0 + pro9Rd0 + pro10Rd0 + pro11Rd0 + pro12Rd0 + pro13Rd0 + pro14Rd0 + pro15Rd0 + pro16Rd0 + pro17Rd0 + pro18Rd0 + pro19Rd0 + pro20Rd0 + pro21Rd0 + pro22Rd0 + pro23Rd0 + pro24Rd0 + pro25Rd0 + pro26Rd0 + pro27Rd0 + pro28Rd0 + pro29Rd0 + pro30Rd0 + pro31Rd0 + pro32Rd0 + pro33Rd0 + pro34Rd0 + pro35Rd0 + pro36Rd0 + pro37Rd0 + pro38Rd0 + pro39Rd0 + pro40Rd0 + pro41Rd0 + pro42Rd0 + pro43Rd0 + pro44Rd0 + pro45Rd0 + pro46Rd0 + pro0Rd1 + pro1Rd1 + pro2Rd1 + pro3Rd1 + pro4Rd1 + pro5Rd1 + pro6Rd1 + pro7Rd1 + pro8Rd1 + pro9Rd1 + pro10Rd1 + pro11Rd1 + pro12Rd1 + pro13Rd1 + pro14Rd1 + pro15Rd1 + pro16Rd1 + pro17Rd1 + pro18Rd1 + pro19Rd1 + pro20Rd1 + pro21Rd1 + pro22Rd1 + pro23Rd1 + pro24Rd1 + pro25Rd1 + pro26Rd1 + pro27Rd1 + pro28Rd1 + pro29Rd1 + pro30Rd1 + pro31Rd1 + pro32Rd1 + pro33Rd1 + pro34Rd1 + pro35Rd1 + pro36Rd1 + pro37Rd1 + pro38Rd1 + pro39Rd1 + pro40Rd1 + pro41Rd1 + pro42Rd1 + pro43Rd1 + pro44Rd1 + pro45Rd1 + pro46Rd1 + pro0Rd2 + pro1Rd2 + pro2Rd2 + pro3Rd2 + pro4Rd2 + pro5Rd2 + pro6Rd2 + pro7Rd2 + pro8Rd2 + pro9Rd2 + pro10Rd2 + pro11Rd2 + pro12Rd2 + pro13Rd2 + pro14Rd2 + pro15Rd2 + pro16Rd2 + pro17Rd2 + pro18Rd2 + pro19Rd2 + pro20Rd2 + pro21Rd2 + pro22Rd2 + pro23Rd2 + pro24Rd2 + pro25Rd2 + pro26Rd2 + pro27Rd2 + pro28Rd2 + pro29Rd2 + pro30Rd2 + pro31Rd2 + pro32Rd2 + pro33Rd2 + pro34Rd2 + pro35Rd2 + pro36Rd2 + pro37Rd2 + pro38Rd2 + pro39Rd2 + pro40Rd2 + pro41Rd2 + pro42Rd2 + pro43Rd2 + pro44Rd2 + pro45Rd2 + pro46Rd2 + pro0Rd3 + pro1Rd3 + pro2Rd3 + pro3Rd3 + pro4Rd3 + pro5Rd3 + pro6Rd3 + pro7Rd3 + pro8Rd3 + pro9Rd3 + pro10Rd3 + pro11Rd3 + pro12Rd3 + pro13Rd3 + pro14Rd3 + pro15Rd3 + pro16Rd3 + pro17Rd3 + pro18Rd3 + pro19Rd3 + pro20Rd3 + pro21Rd3 + pro22Rd3 + pro23Rd3 + pro24Rd3 + pro25Rd3 + pro26Rd3 + pro27Rd3 + pro28Rd3 + pro29Rd3 + pro30Rd3 + pro31Rd3 + pro32Rd3 + pro33Rd3 + pro34Rd3 + pro35Rd3 + pro36Rd3 + pro37Rd3 + pro38Rd3 + pro39Rd3 + pro40Rd3 + pro41Rd3 + pro42Rd3 + pro43Rd3 + pro44Rd3 + pro45Rd3 + pro46Rd3 + pro0Rd4 + pro1Rd4 + pro2Rd4 + pro3Rd4 + pro4Rd4 + pro5Rd4 + pro6Rd4 + pro7Rd4 + pro8Rd4 + pro9Rd4 + pro10Rd4 + pro11Rd4 + pro12Rd4 + pro13Rd4 + pro14Rd4 + pro15Rd4 + pro16Rd4 + pro17Rd4 + pro18Rd4 + pro19Rd4 + pro20Rd4 + pro21Rd4 + pro22Rd4 + pro23Rd4 + pro24Rd4 + pro25Rd4 + pro26Rd4 + pro27Rd4 + pro28Rd4 + pro29Rd4 + pro30Rd4 + pro31Rd4 + pro32Rd4 + pro33Rd4 + pro34Rd4 + pro35Rd4 + pro36Rd4 + pro37Rd4 + pro38Rd4 + pro39Rd4 + pro40Rd4 + pro41Rd4 + pro42Rd4 + pro43Rd4 + pro44Rd4 + pro45Rd4 + pro46Rd4 + pro0Rd5 + pro1Rd5 + pro2Rd5 + pro3Rd5 + pro4Rd5 + pro5Rd5 + pro6Rd5 + pro7Rd5 + pro8Rd5 + pro9Rd5 + pro10Rd5 + pro11Rd5 + pro12Rd5 + pro13Rd5 + pro14Rd5 + pro15Rd5 + pro16Rd5 + pro17Rd5 + pro18Rd5 + pro19Rd5 + pro20Rd5 + pro21Rd5 + pro22Rd5 + pro23Rd5 + pro24Rd5 + pro25Rd5 + pro26Rd5 + pro27Rd5 + pro28Rd5 + pro29Rd5 + pro30Rd5 + pro31Rd5 + pro32Rd5 + pro33Rd5 + pro34Rd5 + pro35Rd5 + pro36Rd5 + pro37Rd5 + pro38Rd5 + pro39Rd5 + pro40Rd5 + pro41Rd5 + pro42Rd5 + pro43Rd5 + pro44Rd5 + pro45Rd5 + pro46Rd5 + pro0Rd6 + pro1Rd6 + pro2Rd6 + pro3Rd6 + pro4Rd6 + pro5Rd6 + pro6Rd6 + pro7Rd6 + pro8Rd6 + pro9Rd6 + pro10Rd6 + pro11Rd6 + pro12Rd6 + pro13Rd6 + pro14Rd6 + pro15Rd6 + pro16Rd6 + pro17Rd6 + pro18Rd6 + pro19Rd6 + pro20Rd6 + pro21Rd6 + pro22Rd6 + pro23Rd6 + pro24Rd6 + pro25Rd6 + pro26Rd6 + pro27Rd6 + pro28Rd6 + pro29Rd6 + pro30Rd6 + pro31Rd6 + pro32Rd6 + pro33Rd6 + pro34Rd6 + pro35Rd6 + pro36Rd6 + pro37Rd6 + pro38Rd6 + pro39Rd6 + pro40Rd6 + pro41Rd6 + pro42Rd6 + pro43Rd6 + pro44Rd6 + pro45Rd6 + pro46Rd6 + pro0Rd7 + pro1Rd7 + pro2Rd7 + pro3Rd7 + pro4Rd7 + pro5Rd7 + pro6Rd7 + pro7Rd7 + pro8Rd7 + pro9Rd7 + pro10Rd7 + pro11Rd7 + pro12Rd7 + pro13Rd7 + pro14Rd7 + pro15Rd7 + pro16Rd7 + pro17Rd7 + pro18Rd7 + pro19Rd7 + pro20Rd7 + pro21Rd7 + pro22Rd7 + pro23Rd7 + pro24Rd7 + pro25Rd7 + pro26Rd7 + pro27Rd7 + pro28Rd7 + pro29Rd7 + pro30Rd7 + pro31Rd7 + pro32Rd7 + pro33Rd7 + pro34Rd7 + pro35Rd7 + pro36Rd7 + pro37Rd7 + pro38Rd7 + pro39Rd7 + pro40Rd7 + pro41Rd7 + pro42Rd7 + pro43Rd7 + pro44Rd7 + pro45Rd7 + pro46Rd7 + pro0Rd8 + pro1Rd8 + pro2Rd8 + pro3Rd8 + pro4Rd8 + pro5Rd8 + pro6Rd8 + pro7Rd8 + pro8Rd8 + pro9Rd8 + pro10Rd8 + pro11Rd8 + pro12Rd8 + pro13Rd8 + pro14Rd8 + pro15Rd8 + pro16Rd8 + pro17Rd8 + pro18Rd8 + pro19Rd8 + pro20Rd8 + pro21Rd8 + pro22Rd8 + pro23Rd8 + pro24Rd8 + pro25Rd8 + pro26Rd8 + pro27Rd8 + pro28Rd8 + pro29Rd8 + pro30Rd8 + pro31Rd8 + pro32Rd8 + pro33Rd8 + pro34Rd8 + pro35Rd8 + pro36Rd8 + pro37Rd8 + pro38Rd8 + pro39Rd8 + pro40Rd8 + pro41Rd8 + pro42Rd8 + pro43Rd8 + pro44Rd8 + pro45Rd8 + pro46Rd8

Subject To
p51 + p48Rd1 - p0Rd1 >= 0
p51 - p48Rd1 + p0Rd1 >= 0
- p51 + p48Rd1 + p0Rd1 >= 0
p51 + p48Rd1 + p0Rd1 <= 2
p52 + p49Rd1 - p1Rd1 >= 0
p52 - p49Rd1 + p1Rd1 >= 0
- p52 + p49Rd1 + p1Rd1 >= 0
p52 + p49Rd1 + p1Rd1 <= 2
p53 + p50Rd1 - p2Rd1 >= 0
p53 - p50Rd1 + p2Rd1 >= 0
- p53 + p50Rd1 + p2Rd1 >= 0
p53 + p50Rd1 + p2Rd1 <= 2
p54 + p51Rd1 - p3Rd1 >= 0
p54 - p51Rd1 + p3Rd1 >= 0
- p54 + p51Rd1 + p3Rd1 >= 0
p54 + p51Rd1 + p3Rd1 <= 2
p55 + p52Rd1 - p4Rd1 >= 0
p55 - p52Rd1 + p4Rd1 >= 0
- p55 + p52Rd1 + p4Rd1 >= 0
p55 + p52Rd1 + p4Rd1 <= 2
p56 + p53Rd1 - p5Rd1 >= 0
p56 - p53Rd1 + p5Rd1 >= 0
- p56 + p53Rd1 + p5Rd1 >= 0
p56 + p53Rd1 + p5Rd1 <= 2
p57 + p54Rd1 - p6Rd1 >= 0
p57 - p54Rd1 + p6Rd1 >= 0
- p57 + p54Rd1 + p6Rd1 >= 0
p57 + p54Rd1 + p6Rd1 <= 2
p58 + p55Rd1 - p7Rd1 >= 0
p58 - p55Rd1 + p7Rd1 >= 0
- p58 + p55Rd1 + p7Rd1 >= 0
p58 + p55Rd1 + p7Rd1 <= 2
p59 + p56Rd1 - p8Rd1 >= 0
p59 - p56Rd1 + p8Rd1 >= 0
- p59 + p56Rd1 + p8Rd1 >= 0
p59 + p56Rd1 + p8Rd1 <= 2
p60 + p57Rd1 - p9Rd1 >= 0
p60 - p57Rd1 + p9Rd1 >= 0
- p60 + p57Rd1 + p9Rd1 >= 0
p60 + p57Rd1 + p9Rd1 <= 2
p61 + p58Rd1 - p10Rd1 >= 0
p61 - p58Rd1 + p10Rd1 >= 0
- p61 + p58Rd1 + p10Rd1 >= 0
p61 + p58Rd1 + p10Rd1 <= 2
p62 + p59Rd1 - p11Rd1 >= 0
p62 - p59Rd1 + p11Rd1 >= 0
- p62 + p59Rd1 + p11Rd1 >= 0
p62 + p59Rd1 + p11Rd1 <= 2
p63 + p60Rd1 - p12Rd1 >= 0
p63 - p60Rd1 + p12Rd1 >= 0
- p63 + p60Rd1 + p12Rd1 >= 0
p63 + p60Rd1 + p12Rd1 <= 2
p64 + p61Rd1 - p13Rd1 >= 0
p64 - p61Rd1 + p13Rd1 >= 0
- p64 + p61Rd1 + p13Rd1 >= 0
p64 + p61Rd1 + p13Rd1 <= 2
p65 + p62Rd1 - p14Rd1 >= 0
p65 - p62Rd1 + p14Rd1 >= 0
- p65 + p62Rd1 + p14Rd1 >= 0
p65 + p62Rd1 + p14Rd1 <= 2
p66 + p63Rd1 - p15Rd1 >= 0
p66 - p63Rd1 + p15Rd1 >= 0
- p66 + p63Rd1 + p15Rd1 >= 0
p66 + p63Rd1 + p15Rd1 <= 2
p67 + p64Rd1 - p16Rd1 >= 0
p67 - p64Rd1 + p16Rd1 >= 0
- p67 + p64Rd1 + p16Rd1 >= 0
p67 + p64Rd1 + p16Rd1 <= 2
p68 + p65Rd1 - p17Rd1 >= 0
p68 - p65Rd1 + p17Rd1 >= 0
- p68 + p65Rd1 + p17Rd1 >= 0
p68 + p65Rd1 + p17Rd1 <= 2
p69 + p66Rd1 - p18Rd1 >= 0
p69 - p66Rd1 + p18Rd1 >= 0
- p69 + p66Rd1 + p18Rd1 >= 0
p69 + p66Rd1 + p18Rd1 <= 2
p70 + p67Rd1 - p19Rd1 >= 0
p70 - p67Rd1 + p19Rd1 >= 0
- p70 + p67Rd1 + p19Rd1 >= 0
p70 + p67Rd1 + p19Rd1 <= 2
p71 + p68Rd1 - p20Rd1 >= 0
p71 - p68Rd1 + p20Rd1 >= 0
- p71 + p68Rd1 + p20Rd1 >= 0
p71 + p68Rd1 + p20Rd1 <= 2
p72 + p69Rd1 - p21Rd1 >= 0
p72 - p69Rd1 + p21Rd1 >= 0
- p72 + p69Rd1 + p21Rd1 >= 0
p72 + p69Rd1 + p21Rd1 <= 2
p73 + p70Rd1 - p22Rd1 >= 0
p73 - p70Rd1 + p22Rd1 >= 0
- p73 + p70Rd1 + p22Rd1 >= 0
p73 + p70Rd1 + p22Rd1 <= 2
p74 + p71Rd1 - p23Rd1 >= 0
p74 - p71Rd1 + p23Rd1 >= 0
- p74 + p71Rd1 + p23Rd1 >= 0
p74 + p71Rd1 + p23Rd1 <= 2
p75 + p72Rd1 - p24Rd1 >= 0
p75 - p72Rd1 + p24Rd1 >= 0
- p75 + p72Rd1 + p24Rd1 >= 0
p75 + p72Rd1 + p24Rd1 <= 2
p76 + p73Rd1 - p25Rd1 >= 0
p76 - p73Rd1 + p25Rd1 >= 0
- p76 + p73Rd1 + p25Rd1 >= 0
p76 + p73Rd1 + p25Rd1 <= 2
p77 + p74Rd1 - p26Rd1 >= 0
p77 - p74Rd1 + p26Rd1 >= 0
- p77 + p74Rd1 + p26Rd1 >= 0
p77 + p74Rd1 + p26Rd1 <= 2
p78 + p75Rd1 - p27Rd1 >= 0
p78 - p75Rd1 + p27Rd1 >= 0
- p78 + p75Rd1 + p27Rd1 >= 0
p78 + p75Rd1 + p27Rd1 <= 2
p79 + p76Rd1 - p28Rd1 >= 0
p79 - p76Rd1 + p28Rd1 >= 0
- p79 + p76Rd1 + p28Rd1 >= 0
p79 + p76Rd1 + p28Rd1 <= 2
p80 + p77Rd1 - p29Rd1 >= 0
p80 - p77Rd1 + p29Rd1 >= 0
- p80 + p77Rd1 + p29Rd1 >= 0
p80 + p77Rd1 + p29Rd1 <= 2
p81 + p78Rd1 - p30Rd1 >= 0
p81 - p78Rd1 + p30Rd1 >= 0
- p81 + p78Rd1 + p30Rd1 >= 0
p81 + p78Rd1 + p30Rd1 <= 2
p82 + p79Rd1 - p31Rd1 >= 0
p82 - p79Rd1 + p31Rd1 >= 0
- p82 + p79Rd1 + p31Rd1 >= 0
p82 + p79Rd1 + p31Rd1 <= 2
p83 + p80Rd1 - p32Rd1 >= 0
p83 - p80Rd1 + p32Rd1 >= 0
- p83 + p80Rd1 + p32Rd1 >= 0
p83 + p80Rd1 + p32Rd1 <= 2
p84 + p81Rd1 - p33Rd1 >= 0
p84 - p81Rd1 + p33Rd1 >= 0
- p84 + p81Rd1 + p33Rd1 >= 0
p84 + p81Rd1 + p33Rd1 <= 2
p85 + p82Rd1 - p34Rd1 >= 0
p85 - p82Rd1 + p34Rd1 >= 0
- p85 + p82Rd1 + p34Rd1 >= 0
p85 + p82Rd1 + p34Rd1 <= 2
p86 + p83Rd1 - p35Rd1 >= 0
p86 - p83Rd1 + p35Rd1 >= 0
- p86 + p83Rd1 + p35Rd1 >= 0
p86 + p83Rd1 + p35Rd1 <= 2
p87 + p84Rd1 - p36Rd1 >= 0
p87 - p84Rd1 + p36Rd1 >= 0
- p87 + p84Rd1 + p36Rd1 >= 0
p87 + p84Rd1 + p36Rd1 <= 2
p88 + p85Rd1 - p37Rd1 >= 0
p88 - p85Rd1 + p37Rd1 >= 0
- p88 + p85Rd1 + p37Rd1 >= 0
p88 + p85Rd1 + p37Rd1 <= 2
p89 + p86Rd1 - p38Rd1 >= 0
p89 - p86Rd1 + p38Rd1 >= 0
- p89 + p86Rd1 + p38Rd1 >= 0
p89 + p86Rd1 + p38Rd1 <= 2
p90 + p87Rd1 - p39Rd1 >= 0
p90 - p87Rd1 + p39Rd1 >= 0
- p90 + p87Rd1 + p39Rd1 >= 0
p90 + p87Rd1 + p39Rd1 <= 2
p91 + p88Rd1 - p40Rd1 >= 0
p91 - p88Rd1 + p40Rd1 >= 0
- p91 + p88Rd1 + p40Rd1 >= 0
p91 + p88Rd1 + p40Rd1 <= 2
p92 + p89Rd1 - p41Rd1 >= 0
p92 - p89Rd1 + p41Rd1 >= 0
- p92 + p89Rd1 + p41Rd1 >= 0
p92 + p89Rd1 + p41Rd1 <= 2
p93 + p90Rd1 - p42Rd1 >= 0
p93 - p90Rd1 + p42Rd1 >= 0
- p93 + p90Rd1 + p42Rd1 >= 0
p93 + p90Rd1 + p42Rd1 <= 2
p94 + p91Rd1 - p43Rd1 >= 0
p94 - p91Rd1 + p43Rd1 >= 0
- p94 + p91Rd1 + p43Rd1 >= 0
p94 + p91Rd1 + p43Rd1 <= 2
p95 + p92Rd1 - p44Rd1 >= 0
p95 - p92Rd1 + p44Rd1 >= 0
- p95 + p92Rd1 + p44Rd1 >= 0
p95 + p92Rd1 + p44Rd1 <= 2
p48 + p93Rd1 - p45Rd1 >= 0
p48 - p93Rd1 + p45Rd1 >= 0
- p48 + p93Rd1 + p45Rd1 >= 0
p48 + p93Rd1 + p45Rd1 <= 2
p49 + p94Rd1 - p46Rd1 >= 0
p49 - p94Rd1 + p46Rd1 >= 0
- p49 + p94Rd1 + p46Rd1 >= 0
p49 + p94Rd1 + p46Rd1 <= 2
p50 + p95Rd1 - p47Rd1 >= 0
p50 - p95Rd1 + p47Rd1 >= 0
- p50 + p95Rd1 + p47Rd1 >= 0
p50 + p95Rd1 + p47Rd1 <= 2
p49 - p1Rd1 + pro0Rd0 >= 0 
p41 - p49 + pro0Rd0 >= 0 
p1Rd1 - p41 + pro0Rd0 >= 0 
p41 + p49 + p1Rd1 + pro0Rd0 <= 3 
p41 + p49 + p1Rd1 - pro0Rd0 >= 0 
p40 + p48 + p0Rd1 + pro0Rd0 - p49 >= 0 
p49 + p40 - p48 + p0Rd1 + pro0Rd0 >= 0 
p49 - p40 + p48 + p0Rd1 + pro0Rd0 >= 0 
p41 + p40 + p48 - p0Rd1 + pro0Rd0 >= 0 
p1Rd1 - p40 - p48 - p0Rd1 + pro0Rd0 >= -2 
p40 - p49 - p48 - p0Rd1 + pro0Rd0 >= -2 
p48 - p49 - p40 - p0Rd1 + pro0Rd0 >= -2 
p0Rd1 - p49 - p40 - p48 + pro0Rd0 >= -2 
p50 - p2Rd1 + pro1Rd0 >= 0 
p42 - p50 + pro1Rd0 >= 0 
p2Rd1 - p42 + pro1Rd0 >= 0 
p42 + p50 + p2Rd1 + pro1Rd0 <= 3 
p42 + p50 + p2Rd1 - pro1Rd0 >= 0 
p41 + p49 + p1Rd1 + pro1Rd0 - p50 >= 0 
p50 + p41 - p49 + p1Rd1 + pro1Rd0 >= 0 
p50 - p41 + p49 + p1Rd1 + pro1Rd0 >= 0 
p42 + p41 + p49 - p1Rd1 + pro1Rd0 >= 0 
p2Rd1 - p41 - p49 - p1Rd1 + pro1Rd0 >= -2 
p41 - p50 - p49 - p1Rd1 + pro1Rd0 >= -2 
p49 - p50 - p41 - p1Rd1 + pro1Rd0 >= -2 
p1Rd1 - p50 - p41 - p49 + pro1Rd0 >= -2 
p51 - p3Rd1 + pro2Rd0 >= 0 
p43 - p51 + pro2Rd0 >= 0 
p3Rd1 - p43 + pro2Rd0 >= 0 
p43 + p51 + p3Rd1 + pro2Rd0 <= 3 
p43 + p51 + p3Rd1 - pro2Rd0 >= 0 
p42 + p50 + p2Rd1 + pro2Rd0 - p51 >= 0 
p51 + p42 - p50 + p2Rd1 + pro2Rd0 >= 0 
p51 - p42 + p50 + p2Rd1 + pro2Rd0 >= 0 
p43 + p42 + p50 - p2Rd1 + pro2Rd0 >= 0 
p3Rd1 - p42 - p50 - p2Rd1 + pro2Rd0 >= -2 
p42 - p51 - p50 - p2Rd1 + pro2Rd0 >= -2 
p50 - p51 - p42 - p2Rd1 + pro2Rd0 >= -2 
p2Rd1 - p51 - p42 - p50 + pro2Rd0 >= -2 
p52 - p4Rd1 + pro3Rd0 >= 0 
p44 - p52 + pro3Rd0 >= 0 
p4Rd1 - p44 + pro3Rd0 >= 0 
p44 + p52 + p4Rd1 + pro3Rd0 <= 3 
p44 + p52 + p4Rd1 - pro3Rd0 >= 0 
p43 + p51 + p3Rd1 + pro3Rd0 - p52 >= 0 
p52 + p43 - p51 + p3Rd1 + pro3Rd0 >= 0 
p52 - p43 + p51 + p3Rd1 + pro3Rd0 >= 0 
p44 + p43 + p51 - p3Rd1 + pro3Rd0 >= 0 
p4Rd1 - p43 - p51 - p3Rd1 + pro3Rd0 >= -2 
p43 - p52 - p51 - p3Rd1 + pro3Rd0 >= -2 
p51 - p52 - p43 - p3Rd1 + pro3Rd0 >= -2 
p3Rd1 - p52 - p43 - p51 + pro3Rd0 >= -2 
p53 - p5Rd1 + pro4Rd0 >= 0 
p45 - p53 + pro4Rd0 >= 0 
p5Rd1 - p45 + pro4Rd0 >= 0 
p45 + p53 + p5Rd1 + pro4Rd0 <= 3 
p45 + p53 + p5Rd1 - pro4Rd0 >= 0 
p44 + p52 + p4Rd1 + pro4Rd0 - p53 >= 0 
p53 + p44 - p52 + p4Rd1 + pro4Rd0 >= 0 
p53 - p44 + p52 + p4Rd1 + pro4Rd0 >= 0 
p45 + p44 + p52 - p4Rd1 + pro4Rd0 >= 0 
p5Rd1 - p44 - p52 - p4Rd1 + pro4Rd0 >= -2 
p44 - p53 - p52 - p4Rd1 + pro4Rd0 >= -2 
p52 - p53 - p44 - p4Rd1 + pro4Rd0 >= -2 
p4Rd1 - p53 - p44 - p52 + pro4Rd0 >= -2 
p54 - p6Rd1 + pro5Rd0 >= 0 
p46 - p54 + pro5Rd0 >= 0 
p6Rd1 - p46 + pro5Rd0 >= 0 
p46 + p54 + p6Rd1 + pro5Rd0 <= 3 
p46 + p54 + p6Rd1 - pro5Rd0 >= 0 
p45 + p53 + p5Rd1 + pro5Rd0 - p54 >= 0 
p54 + p45 - p53 + p5Rd1 + pro5Rd0 >= 0 
p54 - p45 + p53 + p5Rd1 + pro5Rd0 >= 0 
p46 + p45 + p53 - p5Rd1 + pro5Rd0 >= 0 
p6Rd1 - p45 - p53 - p5Rd1 + pro5Rd0 >= -2 
p45 - p54 - p53 - p5Rd1 + pro5Rd0 >= -2 
p53 - p54 - p45 - p5Rd1 + pro5Rd0 >= -2 
p5Rd1 - p54 - p45 - p53 + pro5Rd0 >= -2 
p55 - p7Rd1 + pro6Rd0 >= 0 
p47 - p55 + pro6Rd0 >= 0 
p7Rd1 - p47 + pro6Rd0 >= 0 
p47 + p55 + p7Rd1 + pro6Rd0 <= 3 
p47 + p55 + p7Rd1 - pro6Rd0 >= 0 
p46 + p54 + p6Rd1 + pro6Rd0 - p55 >= 0 
p55 + p46 - p54 + p6Rd1 + pro6Rd0 >= 0 
p55 - p46 + p54 + p6Rd1 + pro6Rd0 >= 0 
p47 + p46 + p54 - p6Rd1 + pro6Rd0 >= 0 
p7Rd1 - p46 - p54 - p6Rd1 + pro6Rd0 >= -2 
p46 - p55 - p54 - p6Rd1 + pro6Rd0 >= -2 
p54 - p55 - p46 - p6Rd1 + pro6Rd0 >= -2 
p6Rd1 - p55 - p46 - p54 + pro6Rd0 >= -2 
p56 - p8Rd1 + pro7Rd0 >= 0 
p0 - p56 + pro7Rd0 >= 0 
p8Rd1 - p0 + pro7Rd0 >= 0 
p0 + p56 + p8Rd1 + pro7Rd0 <= 3 
p0 + p56 + p8Rd1 - pro7Rd0 >= 0 
p47 + p55 + p7Rd1 + pro7Rd0 - p56 >= 0 
p56 + p47 - p55 + p7Rd1 + pro7Rd0 >= 0 
p56 - p47 + p55 + p7Rd1 + pro7Rd0 >= 0 
p0 + p47 + p55 - p7Rd1 + pro7Rd0 >= 0 
p8Rd1 - p47 - p55 - p7Rd1 + pro7Rd0 >= -2 
p47 - p56 - p55 - p7Rd1 + pro7Rd0 >= -2 
p55 - p56 - p47 - p7Rd1 + pro7Rd0 >= -2 
p7Rd1 - p56 - p47 - p55 + pro7Rd0 >= -2 
p57 - p9Rd1 + pro8Rd0 >= 0 
p1 - p57 + pro8Rd0 >= 0 
p9Rd1 - p1 + pro8Rd0 >= 0 
p1 + p57 + p9Rd1 + pro8Rd0 <= 3 
p1 + p57 + p9Rd1 - pro8Rd0 >= 0 
p0 + p56 + p8Rd1 + pro8Rd0 - p57 >= 0 
p57 + p0 - p56 + p8Rd1 + pro8Rd0 >= 0 
p57 - p0 + p56 + p8Rd1 + pro8Rd0 >= 0 
p1 + p0 + p56 - p8Rd1 + pro8Rd0 >= 0 
p9Rd1 - p0 - p56 - p8Rd1 + pro8Rd0 >= -2 
p0 - p57 - p56 - p8Rd1 + pro8Rd0 >= -2 
p56 - p57 - p0 - p8Rd1 + pro8Rd0 >= -2 
p8Rd1 - p57 - p0 - p56 + pro8Rd0 >= -2 
p58 - p10Rd1 + pro9Rd0 >= 0 
p2 - p58 + pro9Rd0 >= 0 
p10Rd1 - p2 + pro9Rd0 >= 0 
p2 + p58 + p10Rd1 + pro9Rd0 <= 3 
p2 + p58 + p10Rd1 - pro9Rd0 >= 0 
p1 + p57 + p9Rd1 + pro9Rd0 - p58 >= 0 
p58 + p1 - p57 + p9Rd1 + pro9Rd0 >= 0 
p58 - p1 + p57 + p9Rd1 + pro9Rd0 >= 0 
p2 + p1 + p57 - p9Rd1 + pro9Rd0 >= 0 
p10Rd1 - p1 - p57 - p9Rd1 + pro9Rd0 >= -2 
p1 - p58 - p57 - p9Rd1 + pro9Rd0 >= -2 
p57 - p58 - p1 - p9Rd1 + pro9Rd0 >= -2 
p9Rd1 - p58 - p1 - p57 + pro9Rd0 >= -2 
p59 - p11Rd1 + pro10Rd0 >= 0 
p3 - p59 + pro10Rd0 >= 0 
p11Rd1 - p3 + pro10Rd0 >= 0 
p3 + p59 + p11Rd1 + pro10Rd0 <= 3 
p3 + p59 + p11Rd1 - pro10Rd0 >= 0 
p2 + p58 + p10Rd1 + pro10Rd0 - p59 >= 0 
p59 + p2 - p58 + p10Rd1 + pro10Rd0 >= 0 
p59 - p2 + p58 + p10Rd1 + pro10Rd0 >= 0 
p3 + p2 + p58 - p10Rd1 + pro10Rd0 >= 0 
p11Rd1 - p2 - p58 - p10Rd1 + pro10Rd0 >= -2 
p2 - p59 - p58 - p10Rd1 + pro10Rd0 >= -2 
p58 - p59 - p2 - p10Rd1 + pro10Rd0 >= -2 
p10Rd1 - p59 - p2 - p58 + pro10Rd0 >= -2 
p60 - p12Rd1 + pro11Rd0 >= 0 
p4 - p60 + pro11Rd0 >= 0 
p12Rd1 - p4 + pro11Rd0 >= 0 
p4 + p60 + p12Rd1 + pro11Rd0 <= 3 
p4 + p60 + p12Rd1 - pro11Rd0 >= 0 
p3 + p59 + p11Rd1 + pro11Rd0 - p60 >= 0 
p60 + p3 - p59 + p11Rd1 + pro11Rd0 >= 0 
p60 - p3 + p59 + p11Rd1 + pro11Rd0 >= 0 
p4 + p3 + p59 - p11Rd1 + pro11Rd0 >= 0 
p12Rd1 - p3 - p59 - p11Rd1 + pro11Rd0 >= -2 
p3 - p60 - p59 - p11Rd1 + pro11Rd0 >= -2 
p59 - p60 - p3 - p11Rd1 + pro11Rd0 >= -2 
p11Rd1 - p60 - p3 - p59 + pro11Rd0 >= -2 
p61 - p13Rd1 + pro12Rd0 >= 0 
p5 - p61 + pro12Rd0 >= 0 
p13Rd1 - p5 + pro12Rd0 >= 0 
p5 + p61 + p13Rd1 + pro12Rd0 <= 3 
p5 + p61 + p13Rd1 - pro12Rd0 >= 0 
p4 + p60 + p12Rd1 + pro12Rd0 - p61 >= 0 
p61 + p4 - p60 + p12Rd1 + pro12Rd0 >= 0 
p61 - p4 + p60 + p12Rd1 + pro12Rd0 >= 0 
p5 + p4 + p60 - p12Rd1 + pro12Rd0 >= 0 
p13Rd1 - p4 - p60 - p12Rd1 + pro12Rd0 >= -2 
p4 - p61 - p60 - p12Rd1 + pro12Rd0 >= -2 
p60 - p61 - p4 - p12Rd1 + pro12Rd0 >= -2 
p12Rd1 - p61 - p4 - p60 + pro12Rd0 >= -2 
p62 - p14Rd1 + pro13Rd0 >= 0 
p6 - p62 + pro13Rd0 >= 0 
p14Rd1 - p6 + pro13Rd0 >= 0 
p6 + p62 + p14Rd1 + pro13Rd0 <= 3 
p6 + p62 + p14Rd1 - pro13Rd0 >= 0 
p5 + p61 + p13Rd1 + pro13Rd0 - p62 >= 0 
p62 + p5 - p61 + p13Rd1 + pro13Rd0 >= 0 
p62 - p5 + p61 + p13Rd1 + pro13Rd0 >= 0 
p6 + p5 + p61 - p13Rd1 + pro13Rd0 >= 0 
p14Rd1 - p5 - p61 - p13Rd1 + pro13Rd0 >= -2 
p5 - p62 - p61 - p13Rd1 + pro13Rd0 >= -2 
p61 - p62 - p5 - p13Rd1 + pro13Rd0 >= -2 
p13Rd1 - p62 - p5 - p61 + pro13Rd0 >= -2 
p63 - p15Rd1 + pro14Rd0 >= 0 
p7 - p63 + pro14Rd0 >= 0 
p15Rd1 - p7 + pro14Rd0 >= 0 
p7 + p63 + p15Rd1 + pro14Rd0 <= 3 
p7 + p63 + p15Rd1 - pro14Rd0 >= 0 
p6 + p62 + p14Rd1 + pro14Rd0 - p63 >= 0 
p63 + p6 - p62 + p14Rd1 + pro14Rd0 >= 0 
p63 - p6 + p62 + p14Rd1 + pro14Rd0 >= 0 
p7 + p6 + p62 - p14Rd1 + pro14Rd0 >= 0 
p15Rd1 - p6 - p62 - p14Rd1 + pro14Rd0 >= -2 
p6 - p63 - p62 - p14Rd1 + pro14Rd0 >= -2 
p62 - p63 - p6 - p14Rd1 + pro14Rd0 >= -2 
p14Rd1 - p63 - p6 - p62 + pro14Rd0 >= -2 
p64 - p16Rd1 + pro15Rd0 >= 0 
p8 - p64 + pro15Rd0 >= 0 
p16Rd1 - p8 + pro15Rd0 >= 0 
p8 + p64 + p16Rd1 + pro15Rd0 <= 3 
p8 + p64 + p16Rd1 - pro15Rd0 >= 0 
p7 + p63 + p15Rd1 + pro15Rd0 - p64 >= 0 
p64 + p7 - p63 + p15Rd1 + pro15Rd0 >= 0 
p64 - p7 + p63 + p15Rd1 + pro15Rd0 >= 0 
p8 + p7 + p63 - p15Rd1 + pro15Rd0 >= 0 
p16Rd1 - p7 - p63 - p15Rd1 + pro15Rd0 >= -2 
p7 - p64 - p63 - p15Rd1 + pro15Rd0 >= -2 
p63 - p64 - p7 - p15Rd1 + pro15Rd0 >= -2 
p15Rd1 - p64 - p7 - p63 + pro15Rd0 >= -2 
p65 - p17Rd1 + pro16Rd0 >= 0 
p9 - p65 + pro16Rd0 >= 0 
p17Rd1 - p9 + pro16Rd0 >= 0 
p9 + p65 + p17Rd1 + pro16Rd0 <= 3 
p9 + p65 + p17Rd1 - pro16Rd0 >= 0 
p8 + p64 + p16Rd1 + pro16Rd0 - p65 >= 0 
p65 + p8 - p64 + p16Rd1 + pro16Rd0 >= 0 
p65 - p8 + p64 + p16Rd1 + pro16Rd0 >= 0 
p9 + p8 + p64 - p16Rd1 + pro16Rd0 >= 0 
p17Rd1 - p8 - p64 - p16Rd1 + pro16Rd0 >= -2 
p8 - p65 - p64 - p16Rd1 + pro16Rd0 >= -2 
p64 - p65 - p8 - p16Rd1 + pro16Rd0 >= -2 
p16Rd1 - p65 - p8 - p64 + pro16Rd0 >= -2 
p66 - p18Rd1 + pro17Rd0 >= 0 
p10 - p66 + pro17Rd0 >= 0 
p18Rd1 - p10 + pro17Rd0 >= 0 
p10 + p66 + p18Rd1 + pro17Rd0 <= 3 
p10 + p66 + p18Rd1 - pro17Rd0 >= 0 
p9 + p65 + p17Rd1 + pro17Rd0 - p66 >= 0 
p66 + p9 - p65 + p17Rd1 + pro17Rd0 >= 0 
p66 - p9 + p65 + p17Rd1 + pro17Rd0 >= 0 
p10 + p9 + p65 - p17Rd1 + pro17Rd0 >= 0 
p18Rd1 - p9 - p65 - p17Rd1 + pro17Rd0 >= -2 
p9 - p66 - p65 - p17Rd1 + pro17Rd0 >= -2 
p65 - p66 - p9 - p17Rd1 + pro17Rd0 >= -2 
p17Rd1 - p66 - p9 - p65 + pro17Rd0 >= -2 
p67 - p19Rd1 + pro18Rd0 >= 0 
p11 - p67 + pro18Rd0 >= 0 
p19Rd1 - p11 + pro18Rd0 >= 0 
p11 + p67 + p19Rd1 + pro18Rd0 <= 3 
p11 + p67 + p19Rd1 - pro18Rd0 >= 0 
p10 + p66 + p18Rd1 + pro18Rd0 - p67 >= 0 
p67 + p10 - p66 + p18Rd1 + pro18Rd0 >= 0 
p67 - p10 + p66 + p18Rd1 + pro18Rd0 >= 0 
p11 + p10 + p66 - p18Rd1 + pro18Rd0 >= 0 
p19Rd1 - p10 - p66 - p18Rd1 + pro18Rd0 >= -2 
p10 - p67 - p66 - p18Rd1 + pro18Rd0 >= -2 
p66 - p67 - p10 - p18Rd1 + pro18Rd0 >= -2 
p18Rd1 - p67 - p10 - p66 + pro18Rd0 >= -2 
p68 - p20Rd1 + pro19Rd0 >= 0 
p12 - p68 + pro19Rd0 >= 0 
p20Rd1 - p12 + pro19Rd0 >= 0 
p12 + p68 + p20Rd1 + pro19Rd0 <= 3 
p12 + p68 + p20Rd1 - pro19Rd0 >= 0 
p11 + p67 + p19Rd1 + pro19Rd0 - p68 >= 0 
p68 + p11 - p67 + p19Rd1 + pro19Rd0 >= 0 
p68 - p11 + p67 + p19Rd1 + pro19Rd0 >= 0 
p12 + p11 + p67 - p19Rd1 + pro19Rd0 >= 0 
p20Rd1 - p11 - p67 - p19Rd1 + pro19Rd0 >= -2 
p11 - p68 - p67 - p19Rd1 + pro19Rd0 >= -2 
p67 - p68 - p11 - p19Rd1 + pro19Rd0 >= -2 
p19Rd1 - p68 - p11 - p67 + pro19Rd0 >= -2 
p69 - p21Rd1 + pro20Rd0 >= 0 
p13 - p69 + pro20Rd0 >= 0 
p21Rd1 - p13 + pro20Rd0 >= 0 
p13 + p69 + p21Rd1 + pro20Rd0 <= 3 
p13 + p69 + p21Rd1 - pro20Rd0 >= 0 
p12 + p68 + p20Rd1 + pro20Rd0 - p69 >= 0 
p69 + p12 - p68 + p20Rd1 + pro20Rd0 >= 0 
p69 - p12 + p68 + p20Rd1 + pro20Rd0 >= 0 
p13 + p12 + p68 - p20Rd1 + pro20Rd0 >= 0 
p21Rd1 - p12 - p68 - p20Rd1 + pro20Rd0 >= -2 
p12 - p69 - p68 - p20Rd1 + pro20Rd0 >= -2 
p68 - p69 - p12 - p20Rd1 + pro20Rd0 >= -2 
p20Rd1 - p69 - p12 - p68 + pro20Rd0 >= -2 
p70 - p22Rd1 + pro21Rd0 >= 0 
p14 - p70 + pro21Rd0 >= 0 
p22Rd1 - p14 + pro21Rd0 >= 0 
p14 + p70 + p22Rd1 + pro21Rd0 <= 3 
p14 + p70 + p22Rd1 - pro21Rd0 >= 0 
p13 + p69 + p21Rd1 + pro21Rd0 - p70 >= 0 
p70 + p13 - p69 + p21Rd1 + pro21Rd0 >= 0 
p70 - p13 + p69 + p21Rd1 + pro21Rd0 >= 0 
p14 + p13 + p69 - p21Rd1 + pro21Rd0 >= 0 
p22Rd1 - p13 - p69 - p21Rd1 + pro21Rd0 >= -2 
p13 - p70 - p69 - p21Rd1 + pro21Rd0 >= -2 
p69 - p70 - p13 - p21Rd1 + pro21Rd0 >= -2 
p21Rd1 - p70 - p13 - p69 + pro21Rd0 >= -2 
p71 - p23Rd1 + pro22Rd0 >= 0 
p15 - p71 + pro22Rd0 >= 0 
p23Rd1 - p15 + pro22Rd0 >= 0 
p15 + p71 + p23Rd1 + pro22Rd0 <= 3 
p15 + p71 + p23Rd1 - pro22Rd0 >= 0 
p14 + p70 + p22Rd1 + pro22Rd0 - p71 >= 0 
p71 + p14 - p70 + p22Rd1 + pro22Rd0 >= 0 
p71 - p14 + p70 + p22Rd1 + pro22Rd0 >= 0 
p15 + p14 + p70 - p22Rd1 + pro22Rd0 >= 0 
p23Rd1 - p14 - p70 - p22Rd1 + pro22Rd0 >= -2 
p14 - p71 - p70 - p22Rd1 + pro22Rd0 >= -2 
p70 - p71 - p14 - p22Rd1 + pro22Rd0 >= -2 
p22Rd1 - p71 - p14 - p70 + pro22Rd0 >= -2 
p72 - p24Rd1 + pro23Rd0 >= 0 
p16 - p72 + pro23Rd0 >= 0 
p24Rd1 - p16 + pro23Rd0 >= 0 
p16 + p72 + p24Rd1 + pro23Rd0 <= 3 
p16 + p72 + p24Rd1 - pro23Rd0 >= 0 
p15 + p71 + p23Rd1 + pro23Rd0 - p72 >= 0 
p72 + p15 - p71 + p23Rd1 + pro23Rd0 >= 0 
p72 - p15 + p71 + p23Rd1 + pro23Rd0 >= 0 
p16 + p15 + p71 - p23Rd1 + pro23Rd0 >= 0 
p24Rd1 - p15 - p71 - p23Rd1 + pro23Rd0 >= -2 
p15 - p72 - p71 - p23Rd1 + pro23Rd0 >= -2 
p71 - p72 - p15 - p23Rd1 + pro23Rd0 >= -2 
p23Rd1 - p72 - p15 - p71 + pro23Rd0 >= -2 
p73 - p25Rd1 + pro24Rd0 >= 0 
p17 - p73 + pro24Rd0 >= 0 
p25Rd1 - p17 + pro24Rd0 >= 0 
p17 + p73 + p25Rd1 + pro24Rd0 <= 3 
p17 + p73 + p25Rd1 - pro24Rd0 >= 0 
p16 + p72 + p24Rd1 + pro24Rd0 - p73 >= 0 
p73 + p16 - p72 + p24Rd1 + pro24Rd0 >= 0 
p73 - p16 + p72 + p24Rd1 + pro24Rd0 >= 0 
p17 + p16 + p72 - p24Rd1 + pro24Rd0 >= 0 
p25Rd1 - p16 - p72 - p24Rd1 + pro24Rd0 >= -2 
p16 - p73 - p72 - p24Rd1 + pro24Rd0 >= -2 
p72 - p73 - p16 - p24Rd1 + pro24Rd0 >= -2 
p24Rd1 - p73 - p16 - p72 + pro24Rd0 >= -2 
p74 - p26Rd1 + pro25Rd0 >= 0 
p18 - p74 + pro25Rd0 >= 0 
p26Rd1 - p18 + pro25Rd0 >= 0 
p18 + p74 + p26Rd1 + pro25Rd0 <= 3 
p18 + p74 + p26Rd1 - pro25Rd0 >= 0 
p17 + p73 + p25Rd1 + pro25Rd0 - p74 >= 0 
p74 + p17 - p73 + p25Rd1 + pro25Rd0 >= 0 
p74 - p17 + p73 + p25Rd1 + pro25Rd0 >= 0 
p18 + p17 + p73 - p25Rd1 + pro25Rd0 >= 0 
p26Rd1 - p17 - p73 - p25Rd1 + pro25Rd0 >= -2 
p17 - p74 - p73 - p25Rd1 + pro25Rd0 >= -2 
p73 - p74 - p17 - p25Rd1 + pro25Rd0 >= -2 
p25Rd1 - p74 - p17 - p73 + pro25Rd0 >= -2 
p75 - p27Rd1 + pro26Rd0 >= 0 
p19 - p75 + pro26Rd0 >= 0 
p27Rd1 - p19 + pro26Rd0 >= 0 
p19 + p75 + p27Rd1 + pro26Rd0 <= 3 
p19 + p75 + p27Rd1 - pro26Rd0 >= 0 
p18 + p74 + p26Rd1 + pro26Rd0 - p75 >= 0 
p75 + p18 - p74 + p26Rd1 + pro26Rd0 >= 0 
p75 - p18 + p74 + p26Rd1 + pro26Rd0 >= 0 
p19 + p18 + p74 - p26Rd1 + pro26Rd0 >= 0 
p27Rd1 - p18 - p74 - p26Rd1 + pro26Rd0 >= -2 
p18 - p75 - p74 - p26Rd1 + pro26Rd0 >= -2 
p74 - p75 - p18 - p26Rd1 + pro26Rd0 >= -2 
p26Rd1 - p75 - p18 - p74 + pro26Rd0 >= -2 
p76 - p28Rd1 + pro27Rd0 >= 0 
p20 - p76 + pro27Rd0 >= 0 
p28Rd1 - p20 + pro27Rd0 >= 0 
p20 + p76 + p28Rd1 + pro27Rd0 <= 3 
p20 + p76 + p28Rd1 - pro27Rd0 >= 0 
p19 + p75 + p27Rd1 + pro27Rd0 - p76 >= 0 
p76 + p19 - p75 + p27Rd1 + pro27Rd0 >= 0 
p76 - p19 + p75 + p27Rd1 + pro27Rd0 >= 0 
p20 + p19 + p75 - p27Rd1 + pro27Rd0 >= 0 
p28Rd1 - p19 - p75 - p27Rd1 + pro27Rd0 >= -2 
p19 - p76 - p75 - p27Rd1 + pro27Rd0 >= -2 
p75 - p76 - p19 - p27Rd1 + pro27Rd0 >= -2 
p27Rd1 - p76 - p19 - p75 + pro27Rd0 >= -2 
p77 - p29Rd1 + pro28Rd0 >= 0 
p21 - p77 + pro28Rd0 >= 0 
p29Rd1 - p21 + pro28Rd0 >= 0 
p21 + p77 + p29Rd1 + pro28Rd0 <= 3 
p21 + p77 + p29Rd1 - pro28Rd0 >= 0 
p20 + p76 + p28Rd1 + pro28Rd0 - p77 >= 0 
p77 + p20 - p76 + p28Rd1 + pro28Rd0 >= 0 
p77 - p20 + p76 + p28Rd1 + pro28Rd0 >= 0 
p21 + p20 + p76 - p28Rd1 + pro28Rd0 >= 0 
p29Rd1 - p20 - p76 - p28Rd1 + pro28Rd0 >= -2 
p20 - p77 - p76 - p28Rd1 + pro28Rd0 >= -2 
p76 - p77 - p20 - p28Rd1 + pro28Rd0 >= -2 
p28Rd1 - p77 - p20 - p76 + pro28Rd0 >= -2 
p78 - p30Rd1 + pro29Rd0 >= 0 
p22 - p78 + pro29Rd0 >= 0 
p30Rd1 - p22 + pro29Rd0 >= 0 
p22 + p78 + p30Rd1 + pro29Rd0 <= 3 
p22 + p78 + p30Rd1 - pro29Rd0 >= 0 
p21 + p77 + p29Rd1 + pro29Rd0 - p78 >= 0 
p78 + p21 - p77 + p29Rd1 + pro29Rd0 >= 0 
p78 - p21 + p77 + p29Rd1 + pro29Rd0 >= 0 
p22 + p21 + p77 - p29Rd1 + pro29Rd0 >= 0 
p30Rd1 - p21 - p77 - p29Rd1 + pro29Rd0 >= -2 
p21 - p78 - p77 - p29Rd1 + pro29Rd0 >= -2 
p77 - p78 - p21 - p29Rd1 + pro29Rd0 >= -2 
p29Rd1 - p78 - p21 - p77 + pro29Rd0 >= -2 
p79 - p31Rd1 + pro30Rd0 >= 0 
p23 - p79 + pro30Rd0 >= 0 
p31Rd1 - p23 + pro30Rd0 >= 0 
p23 + p79 + p31Rd1 + pro30Rd0 <= 3 
p23 + p79 + p31Rd1 - pro30Rd0 >= 0 
p22 + p78 + p30Rd1 + pro30Rd0 - p79 >= 0 
p79 + p22 - p78 + p30Rd1 + pro30Rd0 >= 0 
p79 - p22 + p78 + p30Rd1 + pro30Rd0 >= 0 
p23 + p22 + p78 - p30Rd1 + pro30Rd0 >= 0 
p31Rd1 - p22 - p78 - p30Rd1 + pro30Rd0 >= -2 
p22 - p79 - p78 - p30Rd1 + pro30Rd0 >= -2 
p78 - p79 - p22 - p30Rd1 + pro30Rd0 >= -2 
p30Rd1 - p79 - p22 - p78 + pro30Rd0 >= -2 
p80 - p32Rd1 + pro31Rd0 >= 0 
p24 - p80 + pro31Rd0 >= 0 
p32Rd1 - p24 + pro31Rd0 >= 0 
p24 + p80 + p32Rd1 + pro31Rd0 <= 3 
p24 + p80 + p32Rd1 - pro31Rd0 >= 0 
p23 + p79 + p31Rd1 + pro31Rd0 - p80 >= 0 
p80 + p23 - p79 + p31Rd1 + pro31Rd0 >= 0 
p80 - p23 + p79 + p31Rd1 + pro31Rd0 >= 0 
p24 + p23 + p79 - p31Rd1 + pro31Rd0 >= 0 
p32Rd1 - p23 - p79 - p31Rd1 + pro31Rd0 >= -2 
p23 - p80 - p79 - p31Rd1 + pro31Rd0 >= -2 
p79 - p80 - p23 - p31Rd1 + pro31Rd0 >= -2 
p31Rd1 - p80 - p23 - p79 + pro31Rd0 >= -2 
p81 - p33Rd1 + pro32Rd0 >= 0 
p25 - p81 + pro32Rd0 >= 0 
p33Rd1 - p25 + pro32Rd0 >= 0 
p25 + p81 + p33Rd1 + pro32Rd0 <= 3 
p25 + p81 + p33Rd1 - pro32Rd0 >= 0 
p24 + p80 + p32Rd1 + pro32Rd0 - p81 >= 0 
p81 + p24 - p80 + p32Rd1 + pro32Rd0 >= 0 
p81 - p24 + p80 + p32Rd1 + pro32Rd0 >= 0 
p25 + p24 + p80 - p32Rd1 + pro32Rd0 >= 0 
p33Rd1 - p24 - p80 - p32Rd1 + pro32Rd0 >= -2 
p24 - p81 - p80 - p32Rd1 + pro32Rd0 >= -2 
p80 - p81 - p24 - p32Rd1 + pro32Rd0 >= -2 
p32Rd1 - p81 - p24 - p80 + pro32Rd0 >= -2 
p82 - p34Rd1 + pro33Rd0 >= 0 
p26 - p82 + pro33Rd0 >= 0 
p34Rd1 - p26 + pro33Rd0 >= 0 
p26 + p82 + p34Rd1 + pro33Rd0 <= 3 
p26 + p82 + p34Rd1 - pro33Rd0 >= 0 
p25 + p81 + p33Rd1 + pro33Rd0 - p82 >= 0 
p82 + p25 - p81 + p33Rd1 + pro33Rd0 >= 0 
p82 - p25 + p81 + p33Rd1 + pro33Rd0 >= 0 
p26 + p25 + p81 - p33Rd1 + pro33Rd0 >= 0 
p34Rd1 - p25 - p81 - p33Rd1 + pro33Rd0 >= -2 
p25 - p82 - p81 - p33Rd1 + pro33Rd0 >= -2 
p81 - p82 - p25 - p33Rd1 + pro33Rd0 >= -2 
p33Rd1 - p82 - p25 - p81 + pro33Rd0 >= -2 
p83 - p35Rd1 + pro34Rd0 >= 0 
p27 - p83 + pro34Rd0 >= 0 
p35Rd1 - p27 + pro34Rd0 >= 0 
p27 + p83 + p35Rd1 + pro34Rd0 <= 3 
p27 + p83 + p35Rd1 - pro34Rd0 >= 0 
p26 + p82 + p34Rd1 + pro34Rd0 - p83 >= 0 
p83 + p26 - p82 + p34Rd1 + pro34Rd0 >= 0 
p83 - p26 + p82 + p34Rd1 + pro34Rd0 >= 0 
p27 + p26 + p82 - p34Rd1 + pro34Rd0 >= 0 
p35Rd1 - p26 - p82 - p34Rd1 + pro34Rd0 >= -2 
p26 - p83 - p82 - p34Rd1 + pro34Rd0 >= -2 
p82 - p83 - p26 - p34Rd1 + pro34Rd0 >= -2 
p34Rd1 - p83 - p26 - p82 + pro34Rd0 >= -2 
p84 - p36Rd1 + pro35Rd0 >= 0 
p28 - p84 + pro35Rd0 >= 0 
p36Rd1 - p28 + pro35Rd0 >= 0 
p28 + p84 + p36Rd1 + pro35Rd0 <= 3 
p28 + p84 + p36Rd1 - pro35Rd0 >= 0 
p27 + p83 + p35Rd1 + pro35Rd0 - p84 >= 0 
p84 + p27 - p83 + p35Rd1 + pro35Rd0 >= 0 
p84 - p27 + p83 + p35Rd1 + pro35Rd0 >= 0 
p28 + p27 + p83 - p35Rd1 + pro35Rd0 >= 0 
p36Rd1 - p27 - p83 - p35Rd1 + pro35Rd0 >= -2 
p27 - p84 - p83 - p35Rd1 + pro35Rd0 >= -2 
p83 - p84 - p27 - p35Rd1 + pro35Rd0 >= -2 
p35Rd1 - p84 - p27 - p83 + pro35Rd0 >= -2 
p85 - p37Rd1 + pro36Rd0 >= 0 
p29 - p85 + pro36Rd0 >= 0 
p37Rd1 - p29 + pro36Rd0 >= 0 
p29 + p85 + p37Rd1 + pro36Rd0 <= 3 
p29 + p85 + p37Rd1 - pro36Rd0 >= 0 
p28 + p84 + p36Rd1 + pro36Rd0 - p85 >= 0 
p85 + p28 - p84 + p36Rd1 + pro36Rd0 >= 0 
p85 - p28 + p84 + p36Rd1 + pro36Rd0 >= 0 
p29 + p28 + p84 - p36Rd1 + pro36Rd0 >= 0 
p37Rd1 - p28 - p84 - p36Rd1 + pro36Rd0 >= -2 
p28 - p85 - p84 - p36Rd1 + pro36Rd0 >= -2 
p84 - p85 - p28 - p36Rd1 + pro36Rd0 >= -2 
p36Rd1 - p85 - p28 - p84 + pro36Rd0 >= -2 
p86 - p38Rd1 + pro37Rd0 >= 0 
p30 - p86 + pro37Rd0 >= 0 
p38Rd1 - p30 + pro37Rd0 >= 0 
p30 + p86 + p38Rd1 + pro37Rd0 <= 3 
p30 + p86 + p38Rd1 - pro37Rd0 >= 0 
p29 + p85 + p37Rd1 + pro37Rd0 - p86 >= 0 
p86 + p29 - p85 + p37Rd1 + pro37Rd0 >= 0 
p86 - p29 + p85 + p37Rd1 + pro37Rd0 >= 0 
p30 + p29 + p85 - p37Rd1 + pro37Rd0 >= 0 
p38Rd1 - p29 - p85 - p37Rd1 + pro37Rd0 >= -2 
p29 - p86 - p85 - p37Rd1 + pro37Rd0 >= -2 
p85 - p86 - p29 - p37Rd1 + pro37Rd0 >= -2 
p37Rd1 - p86 - p29 - p85 + pro37Rd0 >= -2 
p87 - p39Rd1 + pro38Rd0 >= 0 
p31 - p87 + pro38Rd0 >= 0 
p39Rd1 - p31 + pro38Rd0 >= 0 
p31 + p87 + p39Rd1 + pro38Rd0 <= 3 
p31 + p87 + p39Rd1 - pro38Rd0 >= 0 
p30 + p86 + p38Rd1 + pro38Rd0 - p87 >= 0 
p87 + p30 - p86 + p38Rd1 + pro38Rd0 >= 0 
p87 - p30 + p86 + p38Rd1 + pro38Rd0 >= 0 
p31 + p30 + p86 - p38Rd1 + pro38Rd0 >= 0 
p39Rd1 - p30 - p86 - p38Rd1 + pro38Rd0 >= -2 
p30 - p87 - p86 - p38Rd1 + pro38Rd0 >= -2 
p86 - p87 - p30 - p38Rd1 + pro38Rd0 >= -2 
p38Rd1 - p87 - p30 - p86 + pro38Rd0 >= -2 
p88 - p40Rd1 + pro39Rd0 >= 0 
p32 - p88 + pro39Rd0 >= 0 
p40Rd1 - p32 + pro39Rd0 >= 0 
p32 + p88 + p40Rd1 + pro39Rd0 <= 3 
p32 + p88 + p40Rd1 - pro39Rd0 >= 0 
p31 + p87 + p39Rd1 + pro39Rd0 - p88 >= 0 
p88 + p31 - p87 + p39Rd1 + pro39Rd0 >= 0 
p88 - p31 + p87 + p39Rd1 + pro39Rd0 >= 0 
p32 + p31 + p87 - p39Rd1 + pro39Rd0 >= 0 
p40Rd1 - p31 - p87 - p39Rd1 + pro39Rd0 >= -2 
p31 - p88 - p87 - p39Rd1 + pro39Rd0 >= -2 
p87 - p88 - p31 - p39Rd1 + pro39Rd0 >= -2 
p39Rd1 - p88 - p31 - p87 + pro39Rd0 >= -2 
p89 - p41Rd1 + pro40Rd0 >= 0 
p33 - p89 + pro40Rd0 >= 0 
p41Rd1 - p33 + pro40Rd0 >= 0 
p33 + p89 + p41Rd1 + pro40Rd0 <= 3 
p33 + p89 + p41Rd1 - pro40Rd0 >= 0 
p32 + p88 + p40Rd1 + pro40Rd0 - p89 >= 0 
p89 + p32 - p88 + p40Rd1 + pro40Rd0 >= 0 
p89 - p32 + p88 + p40Rd1 + pro40Rd0 >= 0 
p33 + p32 + p88 - p40Rd1 + pro40Rd0 >= 0 
p41Rd1 - p32 - p88 - p40Rd1 + pro40Rd0 >= -2 
p32 - p89 - p88 - p40Rd1 + pro40Rd0 >= -2 
p88 - p89 - p32 - p40Rd1 + pro40Rd0 >= -2 
p40Rd1 - p89 - p32 - p88 + pro40Rd0 >= -2 
p90 - p42Rd1 + pro41Rd0 >= 0 
p34 - p90 + pro41Rd0 >= 0 
p42Rd1 - p34 + pro41Rd0 >= 0 
p34 + p90 + p42Rd1 + pro41Rd0 <= 3 
p34 + p90 + p42Rd1 - pro41Rd0 >= 0 
p33 + p89 + p41Rd1 + pro41Rd0 - p90 >= 0 
p90 + p33 - p89 + p41Rd1 + pro41Rd0 >= 0 
p90 - p33 + p89 + p41Rd1 + pro41Rd0 >= 0 
p34 + p33 + p89 - p41Rd1 + pro41Rd0 >= 0 
p42Rd1 - p33 - p89 - p41Rd1 + pro41Rd0 >= -2 
p33 - p90 - p89 - p41Rd1 + pro41Rd0 >= -2 
p89 - p90 - p33 - p41Rd1 + pro41Rd0 >= -2 
p41Rd1 - p90 - p33 - p89 + pro41Rd0 >= -2 
p91 - p43Rd1 + pro42Rd0 >= 0 
p35 - p91 + pro42Rd0 >= 0 
p43Rd1 - p35 + pro42Rd0 >= 0 
p35 + p91 + p43Rd1 + pro42Rd0 <= 3 
p35 + p91 + p43Rd1 - pro42Rd0 >= 0 
p34 + p90 + p42Rd1 + pro42Rd0 - p91 >= 0 
p91 + p34 - p90 + p42Rd1 + pro42Rd0 >= 0 
p91 - p34 + p90 + p42Rd1 + pro42Rd0 >= 0 
p35 + p34 + p90 - p42Rd1 + pro42Rd0 >= 0 
p43Rd1 - p34 - p90 - p42Rd1 + pro42Rd0 >= -2 
p34 - p91 - p90 - p42Rd1 + pro42Rd0 >= -2 
p90 - p91 - p34 - p42Rd1 + pro42Rd0 >= -2 
p42Rd1 - p91 - p34 - p90 + pro42Rd0 >= -2 
p92 - p44Rd1 + pro43Rd0 >= 0 
p36 - p92 + pro43Rd0 >= 0 
p44Rd1 - p36 + pro43Rd0 >= 0 
p36 + p92 + p44Rd1 + pro43Rd0 <= 3 
p36 + p92 + p44Rd1 - pro43Rd0 >= 0 
p35 + p91 + p43Rd1 + pro43Rd0 - p92 >= 0 
p92 + p35 - p91 + p43Rd1 + pro43Rd0 >= 0 
p92 - p35 + p91 + p43Rd1 + pro43Rd0 >= 0 
p36 + p35 + p91 - p43Rd1 + pro43Rd0 >= 0 
p44Rd1 - p35 - p91 - p43Rd1 + pro43Rd0 >= -2 
p35 - p92 - p91 - p43Rd1 + pro43Rd0 >= -2 
p91 - p92 - p35 - p43Rd1 + pro43Rd0 >= -2 
p43Rd1 - p92 - p35 - p91 + pro43Rd0 >= -2 
p93 - p45Rd1 + pro44Rd0 >= 0 
p37 - p93 + pro44Rd0 >= 0 
p45Rd1 - p37 + pro44Rd0 >= 0 
p37 + p93 + p45Rd1 + pro44Rd0 <= 3 
p37 + p93 + p45Rd1 - pro44Rd0 >= 0 
p36 + p92 + p44Rd1 + pro44Rd0 - p93 >= 0 
p93 + p36 - p92 + p44Rd1 + pro44Rd0 >= 0 
p93 - p36 + p92 + p44Rd1 + pro44Rd0 >= 0 
p37 + p36 + p92 - p44Rd1 + pro44Rd0 >= 0 
p45Rd1 - p36 - p92 - p44Rd1 + pro44Rd0 >= -2 
p36 - p93 - p92 - p44Rd1 + pro44Rd0 >= -2 
p92 - p93 - p36 - p44Rd1 + pro44Rd0 >= -2 
p44Rd1 - p93 - p36 - p92 + pro44Rd0 >= -2 
p94 - p46Rd1 + pro45Rd0 >= 0 
p38 - p94 + pro45Rd0 >= 0 
p46Rd1 - p38 + pro45Rd0 >= 0 
p38 + p94 + p46Rd1 + pro45Rd0 <= 3 
p38 + p94 + p46Rd1 - pro45Rd0 >= 0 
p37 + p93 + p45Rd1 + pro45Rd0 - p94 >= 0 
p94 + p37 - p93 + p45Rd1 + pro45Rd0 >= 0 
p94 - p37 + p93 + p45Rd1 + pro45Rd0 >= 0 
p38 + p37 + p93 - p45Rd1 + pro45Rd0 >= 0 
p46Rd1 - p37 - p93 - p45Rd1 + pro45Rd0 >= -2 
p37 - p94 - p93 - p45Rd1 + pro45Rd0 >= -2 
p93 - p94 - p37 - p45Rd1 + pro45Rd0 >= -2 
p45Rd1 - p94 - p37 - p93 + pro45Rd0 >= -2 
p95 - p47Rd1 + pro46Rd0 >= 0 
p39 - p95 + pro46Rd0 >= 0 
p47Rd1 - p39 + pro46Rd0 >= 0 
p39 + p95 + p47Rd1 + pro46Rd0 <= 3 
p39 + p95 + p47Rd1 - pro46Rd0 >= 0 
p38 + p94 + p46Rd1 + pro46Rd0 - p95 >= 0 
p95 + p38 - p94 + p46Rd1 + pro46Rd0 >= 0 
p95 - p38 + p94 + p46Rd1 + pro46Rd0 >= 0 
p39 + p38 + p94 - p46Rd1 + pro46Rd0 >= 0 
p47Rd1 - p38 - p94 - p46Rd1 + pro46Rd0 >= -2 
p38 - p95 - p94 - p46Rd1 + pro46Rd0 >= -2 
p94 - p95 - p38 - p46Rd1 + pro46Rd0 >= -2 
p46Rd1 - p95 - p38 - p94 + pro46Rd0 >= -2 
p39 + p95 + p47Rd1 <= 2 
p39 + p95 + p47Rd1 - 2 temp0 >= 0 
temp0 - p39 >= 0 
temp0 - p95 >= 0 
temp0 - p47Rd1 >= 0 
p51Rd1 + p48Rd2 - p0Rd2 >= 0
p51Rd1 - p48Rd2 + p0Rd2 >= 0
- p51Rd1 + p48Rd2 + p0Rd2 >= 0
p51Rd1 + p48Rd2 + p0Rd2 <= 2
p52Rd1 + p49Rd2 - p1Rd2 >= 0
p52Rd1 - p49Rd2 + p1Rd2 >= 0
- p52Rd1 + p49Rd2 + p1Rd2 >= 0
p52Rd1 + p49Rd2 + p1Rd2 <= 2
p53Rd1 + p50Rd2 - p2Rd2 >= 0
p53Rd1 - p50Rd2 + p2Rd2 >= 0
- p53Rd1 + p50Rd2 + p2Rd2 >= 0
p53Rd1 + p50Rd2 + p2Rd2 <= 2
p54Rd1 + p51Rd2 - p3Rd2 >= 0
p54Rd1 - p51Rd2 + p3Rd2 >= 0
- p54Rd1 + p51Rd2 + p3Rd2 >= 0
p54Rd1 + p51Rd2 + p3Rd2 <= 2
p55Rd1 + p52Rd2 - p4Rd2 >= 0
p55Rd1 - p52Rd2 + p4Rd2 >= 0
- p55Rd1 + p52Rd2 + p4Rd2 >= 0
p55Rd1 + p52Rd2 + p4Rd2 <= 2
p56Rd1 + p53Rd2 - p5Rd2 >= 0
p56Rd1 - p53Rd2 + p5Rd2 >= 0
- p56Rd1 + p53Rd2 + p5Rd2 >= 0
p56Rd1 + p53Rd2 + p5Rd2 <= 2
p57Rd1 + p54Rd2 - p6Rd2 >= 0
p57Rd1 - p54Rd2 + p6Rd2 >= 0
- p57Rd1 + p54Rd2 + p6Rd2 >= 0
p57Rd1 + p54Rd2 + p6Rd2 <= 2
p58Rd1 + p55Rd2 - p7Rd2 >= 0
p58Rd1 - p55Rd2 + p7Rd2 >= 0
- p58Rd1 + p55Rd2 + p7Rd2 >= 0
p58Rd1 + p55Rd2 + p7Rd2 <= 2
p59Rd1 + p56Rd2 - p8Rd2 >= 0
p59Rd1 - p56Rd2 + p8Rd2 >= 0
- p59Rd1 + p56Rd2 + p8Rd2 >= 0
p59Rd1 + p56Rd2 + p8Rd2 <= 2
p60Rd1 + p57Rd2 - p9Rd2 >= 0
p60Rd1 - p57Rd2 + p9Rd2 >= 0
- p60Rd1 + p57Rd2 + p9Rd2 >= 0
p60Rd1 + p57Rd2 + p9Rd2 <= 2
p61Rd1 + p58Rd2 - p10Rd2 >= 0
p61Rd1 - p58Rd2 + p10Rd2 >= 0
- p61Rd1 + p58Rd2 + p10Rd2 >= 0
p61Rd1 + p58Rd2 + p10Rd2 <= 2
p62Rd1 + p59Rd2 - p11Rd2 >= 0
p62Rd1 - p59Rd2 + p11Rd2 >= 0
- p62Rd1 + p59Rd2 + p11Rd2 >= 0
p62Rd1 + p59Rd2 + p11Rd2 <= 2
p63Rd1 + p60Rd2 - p12Rd2 >= 0
p63Rd1 - p60Rd2 + p12Rd2 >= 0
- p63Rd1 + p60Rd2 + p12Rd2 >= 0
p63Rd1 + p60Rd2 + p12Rd2 <= 2
p64Rd1 + p61Rd2 - p13Rd2 >= 0
p64Rd1 - p61Rd2 + p13Rd2 >= 0
- p64Rd1 + p61Rd2 + p13Rd2 >= 0
p64Rd1 + p61Rd2 + p13Rd2 <= 2
p65Rd1 + p62Rd2 - p14Rd2 >= 0
p65Rd1 - p62Rd2 + p14Rd2 >= 0
- p65Rd1 + p62Rd2 + p14Rd2 >= 0
p65Rd1 + p62Rd2 + p14Rd2 <= 2
p66Rd1 + p63Rd2 - p15Rd2 >= 0
p66Rd1 - p63Rd2 + p15Rd2 >= 0
- p66Rd1 + p63Rd2 + p15Rd2 >= 0
p66Rd1 + p63Rd2 + p15Rd2 <= 2
p67Rd1 + p64Rd2 - p16Rd2 >= 0
p67Rd1 - p64Rd2 + p16Rd2 >= 0
- p67Rd1 + p64Rd2 + p16Rd2 >= 0
p67Rd1 + p64Rd2 + p16Rd2 <= 2
p68Rd1 + p65Rd2 - p17Rd2 >= 0
p68Rd1 - p65Rd2 + p17Rd2 >= 0
- p68Rd1 + p65Rd2 + p17Rd2 >= 0
p68Rd1 + p65Rd2 + p17Rd2 <= 2
p69Rd1 + p66Rd2 - p18Rd2 >= 0
p69Rd1 - p66Rd2 + p18Rd2 >= 0
- p69Rd1 + p66Rd2 + p18Rd2 >= 0
p69Rd1 + p66Rd2 + p18Rd2 <= 2
p70Rd1 + p67Rd2 - p19Rd2 >= 0
p70Rd1 - p67Rd2 + p19Rd2 >= 0
- p70Rd1 + p67Rd2 + p19Rd2 >= 0
p70Rd1 + p67Rd2 + p19Rd2 <= 2
p71Rd1 + p68Rd2 - p20Rd2 >= 0
p71Rd1 - p68Rd2 + p20Rd2 >= 0
- p71Rd1 + p68Rd2 + p20Rd2 >= 0
p71Rd1 + p68Rd2 + p20Rd2 <= 2
p72Rd1 + p69Rd2 - p21Rd2 >= 0
p72Rd1 - p69Rd2 + p21Rd2 >= 0
- p72Rd1 + p69Rd2 + p21Rd2 >= 0
p72Rd1 + p69Rd2 + p21Rd2 <= 2
p73Rd1 + p70Rd2 - p22Rd2 >= 0
p73Rd1 - p70Rd2 + p22Rd2 >= 0
- p73Rd1 + p70Rd2 + p22Rd2 >= 0
p73Rd1 + p70Rd2 + p22Rd2 <= 2
p74Rd1 + p71Rd2 - p23Rd2 >= 0
p74Rd1 - p71Rd2 + p23Rd2 >= 0
- p74Rd1 + p71Rd2 + p23Rd2 >= 0
p74Rd1 + p71Rd2 + p23Rd2 <= 2
p75Rd1 + p72Rd2 - p24Rd2 >= 0
p75Rd1 - p72Rd2 + p24Rd2 >= 0
- p75Rd1 + p72Rd2 + p24Rd2 >= 0
p75Rd1 + p72Rd2 + p24Rd2 <= 2
p76Rd1 + p73Rd2 - p25Rd2 >= 0
p76Rd1 - p73Rd2 + p25Rd2 >= 0
- p76Rd1 + p73Rd2 + p25Rd2 >= 0
p76Rd1 + p73Rd2 + p25Rd2 <= 2
p77Rd1 + p74Rd2 - p26Rd2 >= 0
p77Rd1 - p74Rd2 + p26Rd2 >= 0
- p77Rd1 + p74Rd2 + p26Rd2 >= 0
p77Rd1 + p74Rd2 + p26Rd2 <= 2
p78Rd1 + p75Rd2 - p27Rd2 >= 0
p78Rd1 - p75Rd2 + p27Rd2 >= 0
- p78Rd1 + p75Rd2 + p27Rd2 >= 0
p78Rd1 + p75Rd2 + p27Rd2 <= 2
p79Rd1 + p76Rd2 - p28Rd2 >= 0
p79Rd1 - p76Rd2 + p28Rd2 >= 0
- p79Rd1 + p76Rd2 + p28Rd2 >= 0
p79Rd1 + p76Rd2 + p28Rd2 <= 2
p80Rd1 + p77Rd2 - p29Rd2 >= 0
p80Rd1 - p77Rd2 + p29Rd2 >= 0
- p80Rd1 + p77Rd2 + p29Rd2 >= 0
p80Rd1 + p77Rd2 + p29Rd2 <= 2
p81Rd1 + p78Rd2 - p30Rd2 >= 0
p81Rd1 - p78Rd2 + p30Rd2 >= 0
- p81Rd1 + p78Rd2 + p30Rd2 >= 0
p81Rd1 + p78Rd2 + p30Rd2 <= 2
p82Rd1 + p79Rd2 - p31Rd2 >= 0
p82Rd1 - p79Rd2 + p31Rd2 >= 0
- p82Rd1 + p79Rd2 + p31Rd2 >= 0
p82Rd1 + p79Rd2 + p31Rd2 <= 2
p83Rd1 + p80Rd2 - p32Rd2 >= 0
p83Rd1 - p80Rd2 + p32Rd2 >= 0
- p83Rd1 + p80Rd2 + p32Rd2 >= 0
p83Rd1 + p80Rd2 + p32Rd2 <= 2
p84Rd1 + p81Rd2 - p33Rd2 >= 0
p84Rd1 - p81Rd2 + p33Rd2 >= 0
- p84Rd1 + p81Rd2 + p33Rd2 >= 0
p84Rd1 + p81Rd2 + p33Rd2 <= 2
p85Rd1 + p82Rd2 - p34Rd2 >= 0
p85Rd1 - p82Rd2 + p34Rd2 >= 0
- p85Rd1 + p82Rd2 + p34Rd2 >= 0
p85Rd1 + p82Rd2 + p34Rd2 <= 2
p86Rd1 + p83Rd2 - p35Rd2 >= 0
p86Rd1 - p83Rd2 + p35Rd2 >= 0
- p86Rd1 + p83Rd2 + p35Rd2 >= 0
p86Rd1 + p83Rd2 + p35Rd2 <= 2
p87Rd1 + p84Rd2 - p36Rd2 >= 0
p87Rd1 - p84Rd2 + p36Rd2 >= 0
- p87Rd1 + p84Rd2 + p36Rd2 >= 0
p87Rd1 + p84Rd2 + p36Rd2 <= 2
p88Rd1 + p85Rd2 - p37Rd2 >= 0
p88Rd1 - p85Rd2 + p37Rd2 >= 0
- p88Rd1 + p85Rd2 + p37Rd2 >= 0
p88Rd1 + p85Rd2 + p37Rd2 <= 2
p89Rd1 + p86Rd2 - p38Rd2 >= 0
p89Rd1 - p86Rd2 + p38Rd2 >= 0
- p89Rd1 + p86Rd2 + p38Rd2 >= 0
p89Rd1 + p86Rd2 + p38Rd2 <= 2
p90Rd1 + p87Rd2 - p39Rd2 >= 0
p90Rd1 - p87Rd2 + p39Rd2 >= 0
- p90Rd1 + p87Rd2 + p39Rd2 >= 0
p90Rd1 + p87Rd2 + p39Rd2 <= 2
p91Rd1 + p88Rd2 - p40Rd2 >= 0
p91Rd1 - p88Rd2 + p40Rd2 >= 0
- p91Rd1 + p88Rd2 + p40Rd2 >= 0
p91Rd1 + p88Rd2 + p40Rd2 <= 2
p92Rd1 + p89Rd2 - p41Rd2 >= 0
p92Rd1 - p89Rd2 + p41Rd2 >= 0
- p92Rd1 + p89Rd2 + p41Rd2 >= 0
p92Rd1 + p89Rd2 + p41Rd2 <= 2
p93Rd1 + p90Rd2 - p42Rd2 >= 0
p93Rd1 - p90Rd2 + p42Rd2 >= 0
- p93Rd1 + p90Rd2 + p42Rd2 >= 0
p93Rd1 + p90Rd2 + p42Rd2 <= 2
p94Rd1 + p91Rd2 - p43Rd2 >= 0
p94Rd1 - p91Rd2 + p43Rd2 >= 0
- p94Rd1 + p91Rd2 + p43Rd2 >= 0
p94Rd1 + p91Rd2 + p43Rd2 <= 2
p95Rd1 + p92Rd2 - p44Rd2 >= 0
p95Rd1 - p92Rd2 + p44Rd2 >= 0
- p95Rd1 + p92Rd2 + p44Rd2 >= 0
p95Rd1 + p92Rd2 + p44Rd2 <= 2
p48Rd1 + p93Rd2 - p45Rd2 >= 0
p48Rd1 - p93Rd2 + p45Rd2 >= 0
- p48Rd1 + p93Rd2 + p45Rd2 >= 0
p48Rd1 + p93Rd2 + p45Rd2 <= 2
p49Rd1 + p94Rd2 - p46Rd2 >= 0
p49Rd1 - p94Rd2 + p46Rd2 >= 0
- p49Rd1 + p94Rd2 + p46Rd2 >= 0
p49Rd1 + p94Rd2 + p46Rd2 <= 2
p50Rd1 + p95Rd2 - p47Rd2 >= 0
p50Rd1 - p95Rd2 + p47Rd2 >= 0
- p50Rd1 + p95Rd2 + p47Rd2 >= 0
p50Rd1 + p95Rd2 + p47Rd2 <= 2
p49Rd1 - p1Rd2 + pro0Rd1 >= 0 
p41Rd1 - p49Rd1 + pro0Rd1 >= 0 
p1Rd2 - p41Rd1 + pro0Rd1 >= 0 
p41Rd1 + p49Rd1 + p1Rd2 + pro0Rd1 <= 3 
p41Rd1 + p49Rd1 + p1Rd2 - pro0Rd1 >= 0 
p40Rd1 + p48Rd1 + p0Rd2 + pro0Rd1 - p49Rd1 >= 0 
p49Rd1 + p40Rd1 - p48Rd1 + p0Rd2 + pro0Rd1 >= 0 
p49Rd1 - p40Rd1 + p48Rd1 + p0Rd2 + pro0Rd1 >= 0 
p41Rd1 + p40Rd1 + p48Rd1 - p0Rd2 + pro0Rd1 >= 0 
p1Rd2 - p40Rd1 - p48Rd1 - p0Rd2 + pro0Rd1 >= -2 
p40Rd1 - p49Rd1 - p48Rd1 - p0Rd2 + pro0Rd1 >= -2 
p48Rd1 - p49Rd1 - p40Rd1 - p0Rd2 + pro0Rd1 >= -2 
p0Rd2 - p49Rd1 - p40Rd1 - p48Rd1 + pro0Rd1 >= -2 
p50Rd1 - p2Rd2 + pro1Rd1 >= 0 
p42Rd1 - p50Rd1 + pro1Rd1 >= 0 
p2Rd2 - p42Rd1 + pro1Rd1 >= 0 
p42Rd1 + p50Rd1 + p2Rd2 + pro1Rd1 <= 3 
p42Rd1 + p50Rd1 + p2Rd2 - pro1Rd1 >= 0 
p41Rd1 + p49Rd1 + p1Rd2 + pro1Rd1 - p50Rd1 >= 0 
p50Rd1 + p41Rd1 - p49Rd1 + p1Rd2 + pro1Rd1 >= 0 
p50Rd1 - p41Rd1 + p49Rd1 + p1Rd2 + pro1Rd1 >= 0 
p42Rd1 + p41Rd1 + p49Rd1 - p1Rd2 + pro1Rd1 >= 0 
p2Rd2 - p41Rd1 - p49Rd1 - p1Rd2 + pro1Rd1 >= -2 
p41Rd1 - p50Rd1 - p49Rd1 - p1Rd2 + pro1Rd1 >= -2 
p49Rd1 - p50Rd1 - p41Rd1 - p1Rd2 + pro1Rd1 >= -2 
p1Rd2 - p50Rd1 - p41Rd1 - p49Rd1 + pro1Rd1 >= -2 
p51Rd1 - p3Rd2 + pro2Rd1 >= 0 
p43Rd1 - p51Rd1 + pro2Rd1 >= 0 
p3Rd2 - p43Rd1 + pro2Rd1 >= 0 
p43Rd1 + p51Rd1 + p3Rd2 + pro2Rd1 <= 3 
p43Rd1 + p51Rd1 + p3Rd2 - pro2Rd1 >= 0 
p42Rd1 + p50Rd1 + p2Rd2 + pro2Rd1 - p51Rd1 >= 0 
p51Rd1 + p42Rd1 - p50Rd1 + p2Rd2 + pro2Rd1 >= 0 
p51Rd1 - p42Rd1 + p50Rd1 + p2Rd2 + pro2Rd1 >= 0 
p43Rd1 + p42Rd1 + p50Rd1 - p2Rd2 + pro2Rd1 >= 0 
p3Rd2 - p42Rd1 - p50Rd1 - p2Rd2 + pro2Rd1 >= -2 
p42Rd1 - p51Rd1 - p50Rd1 - p2Rd2 + pro2Rd1 >= -2 
p50Rd1 - p51Rd1 - p42Rd1 - p2Rd2 + pro2Rd1 >= -2 
p2Rd2 - p51Rd1 - p42Rd1 - p50Rd1 + pro2Rd1 >= -2 
p52Rd1 - p4Rd2 + pro3Rd1 >= 0 
p44Rd1 - p52Rd1 + pro3Rd1 >= 0 
p4Rd2 - p44Rd1 + pro3Rd1 >= 0 
p44Rd1 + p52Rd1 + p4Rd2 + pro3Rd1 <= 3 
p44Rd1 + p52Rd1 + p4Rd2 - pro3Rd1 >= 0 
p43Rd1 + p51Rd1 + p3Rd2 + pro3Rd1 - p52Rd1 >= 0 
p52Rd1 + p43Rd1 - p51Rd1 + p3Rd2 + pro3Rd1 >= 0 
p52Rd1 - p43Rd1 + p51Rd1 + p3Rd2 + pro3Rd1 >= 0 
p44Rd1 + p43Rd1 + p51Rd1 - p3Rd2 + pro3Rd1 >= 0 
p4Rd2 - p43Rd1 - p51Rd1 - p3Rd2 + pro3Rd1 >= -2 
p43Rd1 - p52Rd1 - p51Rd1 - p3Rd2 + pro3Rd1 >= -2 
p51Rd1 - p52Rd1 - p43Rd1 - p3Rd2 + pro3Rd1 >= -2 
p3Rd2 - p52Rd1 - p43Rd1 - p51Rd1 + pro3Rd1 >= -2 
p53Rd1 - p5Rd2 + pro4Rd1 >= 0 
p45Rd1 - p53Rd1 + pro4Rd1 >= 0 
p5Rd2 - p45Rd1 + pro4Rd1 >= 0 
p45Rd1 + p53Rd1 + p5Rd2 + pro4Rd1 <= 3 
p45Rd1 + p53Rd1 + p5Rd2 - pro4Rd1 >= 0 
p44Rd1 + p52Rd1 + p4Rd2 + pro4Rd1 - p53Rd1 >= 0 
p53Rd1 + p44Rd1 - p52Rd1 + p4Rd2 + pro4Rd1 >= 0 
p53Rd1 - p44Rd1 + p52Rd1 + p4Rd2 + pro4Rd1 >= 0 
p45Rd1 + p44Rd1 + p52Rd1 - p4Rd2 + pro4Rd1 >= 0 
p5Rd2 - p44Rd1 - p52Rd1 - p4Rd2 + pro4Rd1 >= -2 
p44Rd1 - p53Rd1 - p52Rd1 - p4Rd2 + pro4Rd1 >= -2 
p52Rd1 - p53Rd1 - p44Rd1 - p4Rd2 + pro4Rd1 >= -2 
p4Rd2 - p53Rd1 - p44Rd1 - p52Rd1 + pro4Rd1 >= -2 
p54Rd1 - p6Rd2 + pro5Rd1 >= 0 
p46Rd1 - p54Rd1 + pro5Rd1 >= 0 
p6Rd2 - p46Rd1 + pro5Rd1 >= 0 
p46Rd1 + p54Rd1 + p6Rd2 + pro5Rd1 <= 3 
p46Rd1 + p54Rd1 + p6Rd2 - pro5Rd1 >= 0 
p45Rd1 + p53Rd1 + p5Rd2 + pro5Rd1 - p54Rd1 >= 0 
p54Rd1 + p45Rd1 - p53Rd1 + p5Rd2 + pro5Rd1 >= 0 
p54Rd1 - p45Rd1 + p53Rd1 + p5Rd2 + pro5Rd1 >= 0 
p46Rd1 + p45Rd1 + p53Rd1 - p5Rd2 + pro5Rd1 >= 0 
p6Rd2 - p45Rd1 - p53Rd1 - p5Rd2 + pro5Rd1 >= -2 
p45Rd1 - p54Rd1 - p53Rd1 - p5Rd2 + pro5Rd1 >= -2 
p53Rd1 - p54Rd1 - p45Rd1 - p5Rd2 + pro5Rd1 >= -2 
p5Rd2 - p54Rd1 - p45Rd1 - p53Rd1 + pro5Rd1 >= -2 
p55Rd1 - p7Rd2 + pro6Rd1 >= 0 
p47Rd1 - p55Rd1 + pro6Rd1 >= 0 
p7Rd2 - p47Rd1 + pro6Rd1 >= 0 
p47Rd1 + p55Rd1 + p7Rd2 + pro6Rd1 <= 3 
p47Rd1 + p55Rd1 + p7Rd2 - pro6Rd1 >= 0 
p46Rd1 + p54Rd1 + p6Rd2 + pro6Rd1 - p55Rd1 >= 0 
p55Rd1 + p46Rd1 - p54Rd1 + p6Rd2 + pro6Rd1 >= 0 
p55Rd1 - p46Rd1 + p54Rd1 + p6Rd2 + pro6Rd1 >= 0 
p47Rd1 + p46Rd1 + p54Rd1 - p6Rd2 + pro6Rd1 >= 0 
p7Rd2 - p46Rd1 - p54Rd1 - p6Rd2 + pro6Rd1 >= -2 
p46Rd1 - p55Rd1 - p54Rd1 - p6Rd2 + pro6Rd1 >= -2 
p54Rd1 - p55Rd1 - p46Rd1 - p6Rd2 + pro6Rd1 >= -2 
p6Rd2 - p55Rd1 - p46Rd1 - p54Rd1 + pro6Rd1 >= -2 
p56Rd1 - p8Rd2 + pro7Rd1 >= 0 
p0Rd1 - p56Rd1 + pro7Rd1 >= 0 
p8Rd2 - p0Rd1 + pro7Rd1 >= 0 
p0Rd1 + p56Rd1 + p8Rd2 + pro7Rd1 <= 3 
p0Rd1 + p56Rd1 + p8Rd2 - pro7Rd1 >= 0 
p47Rd1 + p55Rd1 + p7Rd2 + pro7Rd1 - p56Rd1 >= 0 
p56Rd1 + p47Rd1 - p55Rd1 + p7Rd2 + pro7Rd1 >= 0 
p56Rd1 - p47Rd1 + p55Rd1 + p7Rd2 + pro7Rd1 >= 0 
p0Rd1 + p47Rd1 + p55Rd1 - p7Rd2 + pro7Rd1 >= 0 
p8Rd2 - p47Rd1 - p55Rd1 - p7Rd2 + pro7Rd1 >= -2 
p47Rd1 - p56Rd1 - p55Rd1 - p7Rd2 + pro7Rd1 >= -2 
p55Rd1 - p56Rd1 - p47Rd1 - p7Rd2 + pro7Rd1 >= -2 
p7Rd2 - p56Rd1 - p47Rd1 - p55Rd1 + pro7Rd1 >= -2 
p57Rd1 - p9Rd2 + pro8Rd1 >= 0 
p1Rd1 - p57Rd1 + pro8Rd1 >= 0 
p9Rd2 - p1Rd1 + pro8Rd1 >= 0 
p1Rd1 + p57Rd1 + p9Rd2 + pro8Rd1 <= 3 
p1Rd1 + p57Rd1 + p9Rd2 - pro8Rd1 >= 0 
p0Rd1 + p56Rd1 + p8Rd2 + pro8Rd1 - p57Rd1 >= 0 
p57Rd1 + p0Rd1 - p56Rd1 + p8Rd2 + pro8Rd1 >= 0 
p57Rd1 - p0Rd1 + p56Rd1 + p8Rd2 + pro8Rd1 >= 0 
p1Rd1 + p0Rd1 + p56Rd1 - p8Rd2 + pro8Rd1 >= 0 
p9Rd2 - p0Rd1 - p56Rd1 - p8Rd2 + pro8Rd1 >= -2 
p0Rd1 - p57Rd1 - p56Rd1 - p8Rd2 + pro8Rd1 >= -2 
p56Rd1 - p57Rd1 - p0Rd1 - p8Rd2 + pro8Rd1 >= -2 
p8Rd2 - p57Rd1 - p0Rd1 - p56Rd1 + pro8Rd1 >= -2 
p58Rd1 - p10Rd2 + pro9Rd1 >= 0 
p2Rd1 - p58Rd1 + pro9Rd1 >= 0 
p10Rd2 - p2Rd1 + pro9Rd1 >= 0 
p2Rd1 + p58Rd1 + p10Rd2 + pro9Rd1 <= 3 
p2Rd1 + p58Rd1 + p10Rd2 - pro9Rd1 >= 0 
p1Rd1 + p57Rd1 + p9Rd2 + pro9Rd1 - p58Rd1 >= 0 
p58Rd1 + p1Rd1 - p57Rd1 + p9Rd2 + pro9Rd1 >= 0 
p58Rd1 - p1Rd1 + p57Rd1 + p9Rd2 + pro9Rd1 >= 0 
p2Rd1 + p1Rd1 + p57Rd1 - p9Rd2 + pro9Rd1 >= 0 
p10Rd2 - p1Rd1 - p57Rd1 - p9Rd2 + pro9Rd1 >= -2 
p1Rd1 - p58Rd1 - p57Rd1 - p9Rd2 + pro9Rd1 >= -2 
p57Rd1 - p58Rd1 - p1Rd1 - p9Rd2 + pro9Rd1 >= -2 
p9Rd2 - p58Rd1 - p1Rd1 - p57Rd1 + pro9Rd1 >= -2 
p59Rd1 - p11Rd2 + pro10Rd1 >= 0 
p3Rd1 - p59Rd1 + pro10Rd1 >= 0 
p11Rd2 - p3Rd1 + pro10Rd1 >= 0 
p3Rd1 + p59Rd1 + p11Rd2 + pro10Rd1 <= 3 
p3Rd1 + p59Rd1 + p11Rd2 - pro10Rd1 >= 0 
p2Rd1 + p58Rd1 + p10Rd2 + pro10Rd1 - p59Rd1 >= 0 
p59Rd1 + p2Rd1 - p58Rd1 + p10Rd2 + pro10Rd1 >= 0 
p59Rd1 - p2Rd1 + p58Rd1 + p10Rd2 + pro10Rd1 >= 0 
p3Rd1 + p2Rd1 + p58Rd1 - p10Rd2 + pro10Rd1 >= 0 
p11Rd2 - p2Rd1 - p58Rd1 - p10Rd2 + pro10Rd1 >= -2 
p2Rd1 - p59Rd1 - p58Rd1 - p10Rd2 + pro10Rd1 >= -2 
p58Rd1 - p59Rd1 - p2Rd1 - p10Rd2 + pro10Rd1 >= -2 
p10Rd2 - p59Rd1 - p2Rd1 - p58Rd1 + pro10Rd1 >= -2 
p60Rd1 - p12Rd2 + pro11Rd1 >= 0 
p4Rd1 - p60Rd1 + pro11Rd1 >= 0 
p12Rd2 - p4Rd1 + pro11Rd1 >= 0 
p4Rd1 + p60Rd1 + p12Rd2 + pro11Rd1 <= 3 
p4Rd1 + p60Rd1 + p12Rd2 - pro11Rd1 >= 0 
p3Rd1 + p59Rd1 + p11Rd2 + pro11Rd1 - p60Rd1 >= 0 
p60Rd1 + p3Rd1 - p59Rd1 + p11Rd2 + pro11Rd1 >= 0 
p60Rd1 - p3Rd1 + p59Rd1 + p11Rd2 + pro11Rd1 >= 0 
p4Rd1 + p3Rd1 + p59Rd1 - p11Rd2 + pro11Rd1 >= 0 
p12Rd2 - p3Rd1 - p59Rd1 - p11Rd2 + pro11Rd1 >= -2 
p3Rd1 - p60Rd1 - p59Rd1 - p11Rd2 + pro11Rd1 >= -2 
p59Rd1 - p60Rd1 - p3Rd1 - p11Rd2 + pro11Rd1 >= -2 
p11Rd2 - p60Rd1 - p3Rd1 - p59Rd1 + pro11Rd1 >= -2 
p61Rd1 - p13Rd2 + pro12Rd1 >= 0 
p5Rd1 - p61Rd1 + pro12Rd1 >= 0 
p13Rd2 - p5Rd1 + pro12Rd1 >= 0 
p5Rd1 + p61Rd1 + p13Rd2 + pro12Rd1 <= 3 
p5Rd1 + p61Rd1 + p13Rd2 - pro12Rd1 >= 0 
p4Rd1 + p60Rd1 + p12Rd2 + pro12Rd1 - p61Rd1 >= 0 
p61Rd1 + p4Rd1 - p60Rd1 + p12Rd2 + pro12Rd1 >= 0 
p61Rd1 - p4Rd1 + p60Rd1 + p12Rd2 + pro12Rd1 >= 0 
p5Rd1 + p4Rd1 + p60Rd1 - p12Rd2 + pro12Rd1 >= 0 
p13Rd2 - p4Rd1 - p60Rd1 - p12Rd2 + pro12Rd1 >= -2 
p4Rd1 - p61Rd1 - p60Rd1 - p12Rd2 + pro12Rd1 >= -2 
p60Rd1 - p61Rd1 - p4Rd1 - p12Rd2 + pro12Rd1 >= -2 
p12Rd2 - p61Rd1 - p4Rd1 - p60Rd1 + pro12Rd1 >= -2 
p62Rd1 - p14Rd2 + pro13Rd1 >= 0 
p6Rd1 - p62Rd1 + pro13Rd1 >= 0 
p14Rd2 - p6Rd1 + pro13Rd1 >= 0 
p6Rd1 + p62Rd1 + p14Rd2 + pro13Rd1 <= 3 
p6Rd1 + p62Rd1 + p14Rd2 - pro13Rd1 >= 0 
p5Rd1 + p61Rd1 + p13Rd2 + pro13Rd1 - p62Rd1 >= 0 
p62Rd1 + p5Rd1 - p61Rd1 + p13Rd2 + pro13Rd1 >= 0 
p62Rd1 - p5Rd1 + p61Rd1 + p13Rd2 + pro13Rd1 >= 0 
p6Rd1 + p5Rd1 + p61Rd1 - p13Rd2 + pro13Rd1 >= 0 
p14Rd2 - p5Rd1 - p61Rd1 - p13Rd2 + pro13Rd1 >= -2 
p5Rd1 - p62Rd1 - p61Rd1 - p13Rd2 + pro13Rd1 >= -2 
p61Rd1 - p62Rd1 - p5Rd1 - p13Rd2 + pro13Rd1 >= -2 
p13Rd2 - p62Rd1 - p5Rd1 - p61Rd1 + pro13Rd1 >= -2 
p63Rd1 - p15Rd2 + pro14Rd1 >= 0 
p7Rd1 - p63Rd1 + pro14Rd1 >= 0 
p15Rd2 - p7Rd1 + pro14Rd1 >= 0 
p7Rd1 + p63Rd1 + p15Rd2 + pro14Rd1 <= 3 
p7Rd1 + p63Rd1 + p15Rd2 - pro14Rd1 >= 0 
p6Rd1 + p62Rd1 + p14Rd2 + pro14Rd1 - p63Rd1 >= 0 
p63Rd1 + p6Rd1 - p62Rd1 + p14Rd2 + pro14Rd1 >= 0 
p63Rd1 - p6Rd1 + p62Rd1 + p14Rd2 + pro14Rd1 >= 0 
p7Rd1 + p6Rd1 + p62Rd1 - p14Rd2 + pro14Rd1 >= 0 
p15Rd2 - p6Rd1 - p62Rd1 - p14Rd2 + pro14Rd1 >= -2 
p6Rd1 - p63Rd1 - p62Rd1 - p14Rd2 + pro14Rd1 >= -2 
p62Rd1 - p63Rd1 - p6Rd1 - p14Rd2 + pro14Rd1 >= -2 
p14Rd2 - p63Rd1 - p6Rd1 - p62Rd1 + pro14Rd1 >= -2 
p64Rd1 - p16Rd2 + pro15Rd1 >= 0 
p8Rd1 - p64Rd1 + pro15Rd1 >= 0 
p16Rd2 - p8Rd1 + pro15Rd1 >= 0 
p8Rd1 + p64Rd1 + p16Rd2 + pro15Rd1 <= 3 
p8Rd1 + p64Rd1 + p16Rd2 - pro15Rd1 >= 0 
p7Rd1 + p63Rd1 + p15Rd2 + pro15Rd1 - p64Rd1 >= 0 
p64Rd1 + p7Rd1 - p63Rd1 + p15Rd2 + pro15Rd1 >= 0 
p64Rd1 - p7Rd1 + p63Rd1 + p15Rd2 + pro15Rd1 >= 0 
p8Rd1 + p7Rd1 + p63Rd1 - p15Rd2 + pro15Rd1 >= 0 
p16Rd2 - p7Rd1 - p63Rd1 - p15Rd2 + pro15Rd1 >= -2 
p7Rd1 - p64Rd1 - p63Rd1 - p15Rd2 + pro15Rd1 >= -2 
p63Rd1 - p64Rd1 - p7Rd1 - p15Rd2 + pro15Rd1 >= -2 
p15Rd2 - p64Rd1 - p7Rd1 - p63Rd1 + pro15Rd1 >= -2 
p65Rd1 - p17Rd2 + pro16Rd1 >= 0 
p9Rd1 - p65Rd1 + pro16Rd1 >= 0 
p17Rd2 - p9Rd1 + pro16Rd1 >= 0 
p9Rd1 + p65Rd1 + p17Rd2 + pro16Rd1 <= 3 
p9Rd1 + p65Rd1 + p17Rd2 - pro16Rd1 >= 0 
p8Rd1 + p64Rd1 + p16Rd2 + pro16Rd1 - p65Rd1 >= 0 
p65Rd1 + p8Rd1 - p64Rd1 + p16Rd2 + pro16Rd1 >= 0 
p65Rd1 - p8Rd1 + p64Rd1 + p16Rd2 + pro16Rd1 >= 0 
p9Rd1 + p8Rd1 + p64Rd1 - p16Rd2 + pro16Rd1 >= 0 
p17Rd2 - p8Rd1 - p64Rd1 - p16Rd2 + pro16Rd1 >= -2 
p8Rd1 - p65Rd1 - p64Rd1 - p16Rd2 + pro16Rd1 >= -2 
p64Rd1 - p65Rd1 - p8Rd1 - p16Rd2 + pro16Rd1 >= -2 
p16Rd2 - p65Rd1 - p8Rd1 - p64Rd1 + pro16Rd1 >= -2 
p66Rd1 - p18Rd2 + pro17Rd1 >= 0 
p10Rd1 - p66Rd1 + pro17Rd1 >= 0 
p18Rd2 - p10Rd1 + pro17Rd1 >= 0 
p10Rd1 + p66Rd1 + p18Rd2 + pro17Rd1 <= 3 
p10Rd1 + p66Rd1 + p18Rd2 - pro17Rd1 >= 0 
p9Rd1 + p65Rd1 + p17Rd2 + pro17Rd1 - p66Rd1 >= 0 
p66Rd1 + p9Rd1 - p65Rd1 + p17Rd2 + pro17Rd1 >= 0 
p66Rd1 - p9Rd1 + p65Rd1 + p17Rd2 + pro17Rd1 >= 0 
p10Rd1 + p9Rd1 + p65Rd1 - p17Rd2 + pro17Rd1 >= 0 
p18Rd2 - p9Rd1 - p65Rd1 - p17Rd2 + pro17Rd1 >= -2 
p9Rd1 - p66Rd1 - p65Rd1 - p17Rd2 + pro17Rd1 >= -2 
p65Rd1 - p66Rd1 - p9Rd1 - p17Rd2 + pro17Rd1 >= -2 
p17Rd2 - p66Rd1 - p9Rd1 - p65Rd1 + pro17Rd1 >= -2 
p67Rd1 - p19Rd2 + pro18Rd1 >= 0 
p11Rd1 - p67Rd1 + pro18Rd1 >= 0 
p19Rd2 - p11Rd1 + pro18Rd1 >= 0 
p11Rd1 + p67Rd1 + p19Rd2 + pro18Rd1 <= 3 
p11Rd1 + p67Rd1 + p19Rd2 - pro18Rd1 >= 0 
p10Rd1 + p66Rd1 + p18Rd2 + pro18Rd1 - p67Rd1 >= 0 
p67Rd1 + p10Rd1 - p66Rd1 + p18Rd2 + pro18Rd1 >= 0 
p67Rd1 - p10Rd1 + p66Rd1 + p18Rd2 + pro18Rd1 >= 0 
p11Rd1 + p10Rd1 + p66Rd1 - p18Rd2 + pro18Rd1 >= 0 
p19Rd2 - p10Rd1 - p66Rd1 - p18Rd2 + pro18Rd1 >= -2 
p10Rd1 - p67Rd1 - p66Rd1 - p18Rd2 + pro18Rd1 >= -2 
p66Rd1 - p67Rd1 - p10Rd1 - p18Rd2 + pro18Rd1 >= -2 
p18Rd2 - p67Rd1 - p10Rd1 - p66Rd1 + pro18Rd1 >= -2 
p68Rd1 - p20Rd2 + pro19Rd1 >= 0 
p12Rd1 - p68Rd1 + pro19Rd1 >= 0 
p20Rd2 - p12Rd1 + pro19Rd1 >= 0 
p12Rd1 + p68Rd1 + p20Rd2 + pro19Rd1 <= 3 
p12Rd1 + p68Rd1 + p20Rd2 - pro19Rd1 >= 0 
p11Rd1 + p67Rd1 + p19Rd2 + pro19Rd1 - p68Rd1 >= 0 
p68Rd1 + p11Rd1 - p67Rd1 + p19Rd2 + pro19Rd1 >= 0 
p68Rd1 - p11Rd1 + p67Rd1 + p19Rd2 + pro19Rd1 >= 0 
p12Rd1 + p11Rd1 + p67Rd1 - p19Rd2 + pro19Rd1 >= 0 
p20Rd2 - p11Rd1 - p67Rd1 - p19Rd2 + pro19Rd1 >= -2 
p11Rd1 - p68Rd1 - p67Rd1 - p19Rd2 + pro19Rd1 >= -2 
p67Rd1 - p68Rd1 - p11Rd1 - p19Rd2 + pro19Rd1 >= -2 
p19Rd2 - p68Rd1 - p11Rd1 - p67Rd1 + pro19Rd1 >= -2 
p69Rd1 - p21Rd2 + pro20Rd1 >= 0 
p13Rd1 - p69Rd1 + pro20Rd1 >= 0 
p21Rd2 - p13Rd1 + pro20Rd1 >= 0 
p13Rd1 + p69Rd1 + p21Rd2 + pro20Rd1 <= 3 
p13Rd1 + p69Rd1 + p21Rd2 - pro20Rd1 >= 0 
p12Rd1 + p68Rd1 + p20Rd2 + pro20Rd1 - p69Rd1 >= 0 
p69Rd1 + p12Rd1 - p68Rd1 + p20Rd2 + pro20Rd1 >= 0 
p69Rd1 - p12Rd1 + p68Rd1 + p20Rd2 + pro20Rd1 >= 0 
p13Rd1 + p12Rd1 + p68Rd1 - p20Rd2 + pro20Rd1 >= 0 
p21Rd2 - p12Rd1 - p68Rd1 - p20Rd2 + pro20Rd1 >= -2 
p12Rd1 - p69Rd1 - p68Rd1 - p20Rd2 + pro20Rd1 >= -2 
p68Rd1 - p69Rd1 - p12Rd1 - p20Rd2 + pro20Rd1 >= -2 
p20Rd2 - p69Rd1 - p12Rd1 - p68Rd1 + pro20Rd1 >= -2 
p70Rd1 - p22Rd2 + pro21Rd1 >= 0 
p14Rd1 - p70Rd1 + pro21Rd1 >= 0 
p22Rd2 - p14Rd1 + pro21Rd1 >= 0 
p14Rd1 + p70Rd1 + p22Rd2 + pro21Rd1 <= 3 
p14Rd1 + p70Rd1 + p22Rd2 - pro21Rd1 >= 0 
p13Rd1 + p69Rd1 + p21Rd2 + pro21Rd1 - p70Rd1 >= 0 
p70Rd1 + p13Rd1 - p69Rd1 + p21Rd2 + pro21Rd1 >= 0 
p70Rd1 - p13Rd1 + p69Rd1 + p21Rd2 + pro21Rd1 >= 0 
p14Rd1 + p13Rd1 + p69Rd1 - p21Rd2 + pro21Rd1 >= 0 
p22Rd2 - p13Rd1 - p69Rd1 - p21Rd2 + pro21Rd1 >= -2 
p13Rd1 - p70Rd1 - p69Rd1 - p21Rd2 + pro21Rd1 >= -2 
p69Rd1 - p70Rd1 - p13Rd1 - p21Rd2 + pro21Rd1 >= -2 
p21Rd2 - p70Rd1 - p13Rd1 - p69Rd1 + pro21Rd1 >= -2 
p71Rd1 - p23Rd2 + pro22Rd1 >= 0 
p15Rd1 - p71Rd1 + pro22Rd1 >= 0 
p23Rd2 - p15Rd1 + pro22Rd1 >= 0 
p15Rd1 + p71Rd1 + p23Rd2 + pro22Rd1 <= 3 
p15Rd1 + p71Rd1 + p23Rd2 - pro22Rd1 >= 0 
p14Rd1 + p70Rd1 + p22Rd2 + pro22Rd1 - p71Rd1 >= 0 
p71Rd1 + p14Rd1 - p70Rd1 + p22Rd2 + pro22Rd1 >= 0 
p71Rd1 - p14Rd1 + p70Rd1 + p22Rd2 + pro22Rd1 >= 0 
p15Rd1 + p14Rd1 + p70Rd1 - p22Rd2 + pro22Rd1 >= 0 
p23Rd2 - p14Rd1 - p70Rd1 - p22Rd2 + pro22Rd1 >= -2 
p14Rd1 - p71Rd1 - p70Rd1 - p22Rd2 + pro22Rd1 >= -2 
p70Rd1 - p71Rd1 - p14Rd1 - p22Rd2 + pro22Rd1 >= -2 
p22Rd2 - p71Rd1 - p14Rd1 - p70Rd1 + pro22Rd1 >= -2 
p72Rd1 - p24Rd2 + pro23Rd1 >= 0 
p16Rd1 - p72Rd1 + pro23Rd1 >= 0 
p24Rd2 - p16Rd1 + pro23Rd1 >= 0 
p16Rd1 + p72Rd1 + p24Rd2 + pro23Rd1 <= 3 
p16Rd1 + p72Rd1 + p24Rd2 - pro23Rd1 >= 0 
p15Rd1 + p71Rd1 + p23Rd2 + pro23Rd1 - p72Rd1 >= 0 
p72Rd1 + p15Rd1 - p71Rd1 + p23Rd2 + pro23Rd1 >= 0 
p72Rd1 - p15Rd1 + p71Rd1 + p23Rd2 + pro23Rd1 >= 0 
p16Rd1 + p15Rd1 + p71Rd1 - p23Rd2 + pro23Rd1 >= 0 
p24Rd2 - p15Rd1 - p71Rd1 - p23Rd2 + pro23Rd1 >= -2 
p15Rd1 - p72Rd1 - p71Rd1 - p23Rd2 + pro23Rd1 >= -2 
p71Rd1 - p72Rd1 - p15Rd1 - p23Rd2 + pro23Rd1 >= -2 
p23Rd2 - p72Rd1 - p15Rd1 - p71Rd1 + pro23Rd1 >= -2 
p73Rd1 - p25Rd2 + pro24Rd1 >= 0 
p17Rd1 - p73Rd1 + pro24Rd1 >= 0 
p25Rd2 - p17Rd1 + pro24Rd1 >= 0 
p17Rd1 + p73Rd1 + p25Rd2 + pro24Rd1 <= 3 
p17Rd1 + p73Rd1 + p25Rd2 - pro24Rd1 >= 0 
p16Rd1 + p72Rd1 + p24Rd2 + pro24Rd1 - p73Rd1 >= 0 
p73Rd1 + p16Rd1 - p72Rd1 + p24Rd2 + pro24Rd1 >= 0 
p73Rd1 - p16Rd1 + p72Rd1 + p24Rd2 + pro24Rd1 >= 0 
p17Rd1 + p16Rd1 + p72Rd1 - p24Rd2 + pro24Rd1 >= 0 
p25Rd2 - p16Rd1 - p72Rd1 - p24Rd2 + pro24Rd1 >= -2 
p16Rd1 - p73Rd1 - p72Rd1 - p24Rd2 + pro24Rd1 >= -2 
p72Rd1 - p73Rd1 - p16Rd1 - p24Rd2 + pro24Rd1 >= -2 
p24Rd2 - p73Rd1 - p16Rd1 - p72Rd1 + pro24Rd1 >= -2 
p74Rd1 - p26Rd2 + pro25Rd1 >= 0 
p18Rd1 - p74Rd1 + pro25Rd1 >= 0 
p26Rd2 - p18Rd1 + pro25Rd1 >= 0 
p18Rd1 + p74Rd1 + p26Rd2 + pro25Rd1 <= 3 
p18Rd1 + p74Rd1 + p26Rd2 - pro25Rd1 >= 0 
p17Rd1 + p73Rd1 + p25Rd2 + pro25Rd1 - p74Rd1 >= 0 
p74Rd1 + p17Rd1 - p73Rd1 + p25Rd2 + pro25Rd1 >= 0 
p74Rd1 - p17Rd1 + p73Rd1 + p25Rd2 + pro25Rd1 >= 0 
p18Rd1 + p17Rd1 + p73Rd1 - p25Rd2 + pro25Rd1 >= 0 
p26Rd2 - p17Rd1 - p73Rd1 - p25Rd2 + pro25Rd1 >= -2 
p17Rd1 - p74Rd1 - p73Rd1 - p25Rd2 + pro25Rd1 >= -2 
p73Rd1 - p74Rd1 - p17Rd1 - p25Rd2 + pro25Rd1 >= -2 
p25Rd2 - p74Rd1 - p17Rd1 - p73Rd1 + pro25Rd1 >= -2 
p75Rd1 - p27Rd2 + pro26Rd1 >= 0 
p19Rd1 - p75Rd1 + pro26Rd1 >= 0 
p27Rd2 - p19Rd1 + pro26Rd1 >= 0 
p19Rd1 + p75Rd1 + p27Rd2 + pro26Rd1 <= 3 
p19Rd1 + p75Rd1 + p27Rd2 - pro26Rd1 >= 0 
p18Rd1 + p74Rd1 + p26Rd2 + pro26Rd1 - p75Rd1 >= 0 
p75Rd1 + p18Rd1 - p74Rd1 + p26Rd2 + pro26Rd1 >= 0 
p75Rd1 - p18Rd1 + p74Rd1 + p26Rd2 + pro26Rd1 >= 0 
p19Rd1 + p18Rd1 + p74Rd1 - p26Rd2 + pro26Rd1 >= 0 
p27Rd2 - p18Rd1 - p74Rd1 - p26Rd2 + pro26Rd1 >= -2 
p18Rd1 - p75Rd1 - p74Rd1 - p26Rd2 + pro26Rd1 >= -2 
p74Rd1 - p75Rd1 - p18Rd1 - p26Rd2 + pro26Rd1 >= -2 
p26Rd2 - p75Rd1 - p18Rd1 - p74Rd1 + pro26Rd1 >= -2 
p76Rd1 - p28Rd2 + pro27Rd1 >= 0 
p20Rd1 - p76Rd1 + pro27Rd1 >= 0 
p28Rd2 - p20Rd1 + pro27Rd1 >= 0 
p20Rd1 + p76Rd1 + p28Rd2 + pro27Rd1 <= 3 
p20Rd1 + p76Rd1 + p28Rd2 - pro27Rd1 >= 0 
p19Rd1 + p75Rd1 + p27Rd2 + pro27Rd1 - p76Rd1 >= 0 
p76Rd1 + p19Rd1 - p75Rd1 + p27Rd2 + pro27Rd1 >= 0 
p76Rd1 - p19Rd1 + p75Rd1 + p27Rd2 + pro27Rd1 >= 0 
p20Rd1 + p19Rd1 + p75Rd1 - p27Rd2 + pro27Rd1 >= 0 
p28Rd2 - p19Rd1 - p75Rd1 - p27Rd2 + pro27Rd1 >= -2 
p19Rd1 - p76Rd1 - p75Rd1 - p27Rd2 + pro27Rd1 >= -2 
p75Rd1 - p76Rd1 - p19Rd1 - p27Rd2 + pro27Rd1 >= -2 
p27Rd2 - p76Rd1 - p19Rd1 - p75Rd1 + pro27Rd1 >= -2 
p77Rd1 - p29Rd2 + pro28Rd1 >= 0 
p21Rd1 - p77Rd1 + pro28Rd1 >= 0 
p29Rd2 - p21Rd1 + pro28Rd1 >= 0 
p21Rd1 + p77Rd1 + p29Rd2 + pro28Rd1 <= 3 
p21Rd1 + p77Rd1 + p29Rd2 - pro28Rd1 >= 0 
p20Rd1 + p76Rd1 + p28Rd2 + pro28Rd1 - p77Rd1 >= 0 
p77Rd1 + p20Rd1 - p76Rd1 + p28Rd2 + pro28Rd1 >= 0 
p77Rd1 - p20Rd1 + p76Rd1 + p28Rd2 + pro28Rd1 >= 0 
p21Rd1 + p20Rd1 + p76Rd1 - p28Rd2 + pro28Rd1 >= 0 
p29Rd2 - p20Rd1 - p76Rd1 - p28Rd2 + pro28Rd1 >= -2 
p20Rd1 - p77Rd1 - p76Rd1 - p28Rd2 + pro28Rd1 >= -2 
p76Rd1 - p77Rd1 - p20Rd1 - p28Rd2 + pro28Rd1 >= -2 
p28Rd2 - p77Rd1 - p20Rd1 - p76Rd1 + pro28Rd1 >= -2 
p78Rd1 - p30Rd2 + pro29Rd1 >= 0 
p22Rd1 - p78Rd1 + pro29Rd1 >= 0 
p30Rd2 - p22Rd1 + pro29Rd1 >= 0 
p22Rd1 + p78Rd1 + p30Rd2 + pro29Rd1 <= 3 
p22Rd1 + p78Rd1 + p30Rd2 - pro29Rd1 >= 0 
p21Rd1 + p77Rd1 + p29Rd2 + pro29Rd1 - p78Rd1 >= 0 
p78Rd1 + p21Rd1 - p77Rd1 + p29Rd2 + pro29Rd1 >= 0 
p78Rd1 - p21Rd1 + p77Rd1 + p29Rd2 + pro29Rd1 >= 0 
p22Rd1 + p21Rd1 + p77Rd1 - p29Rd2 + pro29Rd1 >= 0 
p30Rd2 - p21Rd1 - p77Rd1 - p29Rd2 + pro29Rd1 >= -2 
p21Rd1 - p78Rd1 - p77Rd1 - p29Rd2 + pro29Rd1 >= -2 
p77Rd1 - p78Rd1 - p21Rd1 - p29Rd2 + pro29Rd1 >= -2 
p29Rd2 - p78Rd1 - p21Rd1 - p77Rd1 + pro29Rd1 >= -2 
p79Rd1 - p31Rd2 + pro30Rd1 >= 0 
p23Rd1 - p79Rd1 + pro30Rd1 >= 0 
p31Rd2 - p23Rd1 + pro30Rd1 >= 0 
p23Rd1 + p79Rd1 + p31Rd2 + pro30Rd1 <= 3 
p23Rd1 + p79Rd1 + p31Rd2 - pro30Rd1 >= 0 
p22Rd1 + p78Rd1 + p30Rd2 + pro30Rd1 - p79Rd1 >= 0 
p79Rd1 + p22Rd1 - p78Rd1 + p30Rd2 + pro30Rd1 >= 0 
p79Rd1 - p22Rd1 + p78Rd1 + p30Rd2 + pro30Rd1 >= 0 
p23Rd1 + p22Rd1 + p78Rd1 - p30Rd2 + pro30Rd1 >= 0 
p31Rd2 - p22Rd1 - p78Rd1 - p30Rd2 + pro30Rd1 >= -2 
p22Rd1 - p79Rd1 - p78Rd1 - p30Rd2 + pro30Rd1 >= -2 
p78Rd1 - p79Rd1 - p22Rd1 - p30Rd2 + pro30Rd1 >= -2 
p30Rd2 - p79Rd1 - p22Rd1 - p78Rd1 + pro30Rd1 >= -2 
p80Rd1 - p32Rd2 + pro31Rd1 >= 0 
p24Rd1 - p80Rd1 + pro31Rd1 >= 0 
p32Rd2 - p24Rd1 + pro31Rd1 >= 0 
p24Rd1 + p80Rd1 + p32Rd2 + pro31Rd1 <= 3 
p24Rd1 + p80Rd1 + p32Rd2 - pro31Rd1 >= 0 
p23Rd1 + p79Rd1 + p31Rd2 + pro31Rd1 - p80Rd1 >= 0 
p80Rd1 + p23Rd1 - p79Rd1 + p31Rd2 + pro31Rd1 >= 0 
p80Rd1 - p23Rd1 + p79Rd1 + p31Rd2 + pro31Rd1 >= 0 
p24Rd1 + p23Rd1 + p79Rd1 - p31Rd2 + pro31Rd1 >= 0 
p32Rd2 - p23Rd1 - p79Rd1 - p31Rd2 + pro31Rd1 >= -2 
p23Rd1 - p80Rd1 - p79Rd1 - p31Rd2 + pro31Rd1 >= -2 
p79Rd1 - p80Rd1 - p23Rd1 - p31Rd2 + pro31Rd1 >= -2 
p31Rd2 - p80Rd1 - p23Rd1 - p79Rd1 + pro31Rd1 >= -2 
p81Rd1 - p33Rd2 + pro32Rd1 >= 0 
p25Rd1 - p81Rd1 + pro32Rd1 >= 0 
p33Rd2 - p25Rd1 + pro32Rd1 >= 0 
p25Rd1 + p81Rd1 + p33Rd2 + pro32Rd1 <= 3 
p25Rd1 + p81Rd1 + p33Rd2 - pro32Rd1 >= 0 
p24Rd1 + p80Rd1 + p32Rd2 + pro32Rd1 - p81Rd1 >= 0 
p81Rd1 + p24Rd1 - p80Rd1 + p32Rd2 + pro32Rd1 >= 0 
p81Rd1 - p24Rd1 + p80Rd1 + p32Rd2 + pro32Rd1 >= 0 
p25Rd1 + p24Rd1 + p80Rd1 - p32Rd2 + pro32Rd1 >= 0 
p33Rd2 - p24Rd1 - p80Rd1 - p32Rd2 + pro32Rd1 >= -2 
p24Rd1 - p81Rd1 - p80Rd1 - p32Rd2 + pro32Rd1 >= -2 
p80Rd1 - p81Rd1 - p24Rd1 - p32Rd2 + pro32Rd1 >= -2 
p32Rd2 - p81Rd1 - p24Rd1 - p80Rd1 + pro32Rd1 >= -2 
p82Rd1 - p34Rd2 + pro33Rd1 >= 0 
p26Rd1 - p82Rd1 + pro33Rd1 >= 0 
p34Rd2 - p26Rd1 + pro33Rd1 >= 0 
p26Rd1 + p82Rd1 + p34Rd2 + pro33Rd1 <= 3 
p26Rd1 + p82Rd1 + p34Rd2 - pro33Rd1 >= 0 
p25Rd1 + p81Rd1 + p33Rd2 + pro33Rd1 - p82Rd1 >= 0 
p82Rd1 + p25Rd1 - p81Rd1 + p33Rd2 + pro33Rd1 >= 0 
p82Rd1 - p25Rd1 + p81Rd1 + p33Rd2 + pro33Rd1 >= 0 
p26Rd1 + p25Rd1 + p81Rd1 - p33Rd2 + pro33Rd1 >= 0 
p34Rd2 - p25Rd1 - p81Rd1 - p33Rd2 + pro33Rd1 >= -2 
p25Rd1 - p82Rd1 - p81Rd1 - p33Rd2 + pro33Rd1 >= -2 
p81Rd1 - p82Rd1 - p25Rd1 - p33Rd2 + pro33Rd1 >= -2 
p33Rd2 - p82Rd1 - p25Rd1 - p81Rd1 + pro33Rd1 >= -2 
p83Rd1 - p35Rd2 + pro34Rd1 >= 0 
p27Rd1 - p83Rd1 + pro34Rd1 >= 0 
p35Rd2 - p27Rd1 + pro34Rd1 >= 0 
p27Rd1 + p83Rd1 + p35Rd2 + pro34Rd1 <= 3 
p27Rd1 + p83Rd1 + p35Rd2 - pro34Rd1 >= 0 
p26Rd1 + p82Rd1 + p34Rd2 + pro34Rd1 - p83Rd1 >= 0 
p83Rd1 + p26Rd1 - p82Rd1 + p34Rd2 + pro34Rd1 >= 0 
p83Rd1 - p26Rd1 + p82Rd1 + p34Rd2 + pro34Rd1 >= 0 
p27Rd1 + p26Rd1 + p82Rd1 - p34Rd2 + pro34Rd1 >= 0 
p35Rd2 - p26Rd1 - p82Rd1 - p34Rd2 + pro34Rd1 >= -2 
p26Rd1 - p83Rd1 - p82Rd1 - p34Rd2 + pro34Rd1 >= -2 
p82Rd1 - p83Rd1 - p26Rd1 - p34Rd2 + pro34Rd1 >= -2 
p34Rd2 - p83Rd1 - p26Rd1 - p82Rd1 + pro34Rd1 >= -2 
p84Rd1 - p36Rd2 + pro35Rd1 >= 0 
p28Rd1 - p84Rd1 + pro35Rd1 >= 0 
p36Rd2 - p28Rd1 + pro35Rd1 >= 0 
p28Rd1 + p84Rd1 + p36Rd2 + pro35Rd1 <= 3 
p28Rd1 + p84Rd1 + p36Rd2 - pro35Rd1 >= 0 
p27Rd1 + p83Rd1 + p35Rd2 + pro35Rd1 - p84Rd1 >= 0 
p84Rd1 + p27Rd1 - p83Rd1 + p35Rd2 + pro35Rd1 >= 0 
p84Rd1 - p27Rd1 + p83Rd1 + p35Rd2 + pro35Rd1 >= 0 
p28Rd1 + p27Rd1 + p83Rd1 - p35Rd2 + pro35Rd1 >= 0 
p36Rd2 - p27Rd1 - p83Rd1 - p35Rd2 + pro35Rd1 >= -2 
p27Rd1 - p84Rd1 - p83Rd1 - p35Rd2 + pro35Rd1 >= -2 
p83Rd1 - p84Rd1 - p27Rd1 - p35Rd2 + pro35Rd1 >= -2 
p35Rd2 - p84Rd1 - p27Rd1 - p83Rd1 + pro35Rd1 >= -2 
p85Rd1 - p37Rd2 + pro36Rd1 >= 0 
p29Rd1 - p85Rd1 + pro36Rd1 >= 0 
p37Rd2 - p29Rd1 + pro36Rd1 >= 0 
p29Rd1 + p85Rd1 + p37Rd2 + pro36Rd1 <= 3 
p29Rd1 + p85Rd1 + p37Rd2 - pro36Rd1 >= 0 
p28Rd1 + p84Rd1 + p36Rd2 + pro36Rd1 - p85Rd1 >= 0 
p85Rd1 + p28Rd1 - p84Rd1 + p36Rd2 + pro36Rd1 >= 0 
p85Rd1 - p28Rd1 + p84Rd1 + p36Rd2 + pro36Rd1 >= 0 
p29Rd1 + p28Rd1 + p84Rd1 - p36Rd2 + pro36Rd1 >= 0 
p37Rd2 - p28Rd1 - p84Rd1 - p36Rd2 + pro36Rd1 >= -2 
p28Rd1 - p85Rd1 - p84Rd1 - p36Rd2 + pro36Rd1 >= -2 
p84Rd1 - p85Rd1 - p28Rd1 - p36Rd2 + pro36Rd1 >= -2 
p36Rd2 - p85Rd1 - p28Rd1 - p84Rd1 + pro36Rd1 >= -2 
p86Rd1 - p38Rd2 + pro37Rd1 >= 0 
p30Rd1 - p86Rd1 + pro37Rd1 >= 0 
p38Rd2 - p30Rd1 + pro37Rd1 >= 0 
p30Rd1 + p86Rd1 + p38Rd2 + pro37Rd1 <= 3 
p30Rd1 + p86Rd1 + p38Rd2 - pro37Rd1 >= 0 
p29Rd1 + p85Rd1 + p37Rd2 + pro37Rd1 - p86Rd1 >= 0 
p86Rd1 + p29Rd1 - p85Rd1 + p37Rd2 + pro37Rd1 >= 0 
p86Rd1 - p29Rd1 + p85Rd1 + p37Rd2 + pro37Rd1 >= 0 
p30Rd1 + p29Rd1 + p85Rd1 - p37Rd2 + pro37Rd1 >= 0 
p38Rd2 - p29Rd1 - p85Rd1 - p37Rd2 + pro37Rd1 >= -2 
p29Rd1 - p86Rd1 - p85Rd1 - p37Rd2 + pro37Rd1 >= -2 
p85Rd1 - p86Rd1 - p29Rd1 - p37Rd2 + pro37Rd1 >= -2 
p37Rd2 - p86Rd1 - p29Rd1 - p85Rd1 + pro37Rd1 >= -2 
p87Rd1 - p39Rd2 + pro38Rd1 >= 0 
p31Rd1 - p87Rd1 + pro38Rd1 >= 0 
p39Rd2 - p31Rd1 + pro38Rd1 >= 0 
p31Rd1 + p87Rd1 + p39Rd2 + pro38Rd1 <= 3 
p31Rd1 + p87Rd1 + p39Rd2 - pro38Rd1 >= 0 
p30Rd1 + p86Rd1 + p38Rd2 + pro38Rd1 - p87Rd1 >= 0 
p87Rd1 + p30Rd1 - p86Rd1 + p38Rd2 + pro38Rd1 >= 0 
p87Rd1 - p30Rd1 + p86Rd1 + p38Rd2 + pro38Rd1 >= 0 
p31Rd1 + p30Rd1 + p86Rd1 - p38Rd2 + pro38Rd1 >= 0 
p39Rd2 - p30Rd1 - p86Rd1 - p38Rd2 + pro38Rd1 >= -2 
p30Rd1 - p87Rd1 - p86Rd1 - p38Rd2 + pro38Rd1 >= -2 
p86Rd1 - p87Rd1 - p30Rd1 - p38Rd2 + pro38Rd1 >= -2 
p38Rd2 - p87Rd1 - p30Rd1 - p86Rd1 + pro38Rd1 >= -2 
p88Rd1 - p40Rd2 + pro39Rd1 >= 0 
p32Rd1 - p88Rd1 + pro39Rd1 >= 0 
p40Rd2 - p32Rd1 + pro39Rd1 >= 0 
p32Rd1 + p88Rd1 + p40Rd2 + pro39Rd1 <= 3 
p32Rd1 + p88Rd1 + p40Rd2 - pro39Rd1 >= 0 
p31Rd1 + p87Rd1 + p39Rd2 + pro39Rd1 - p88Rd1 >= 0 
p88Rd1 + p31Rd1 - p87Rd1 + p39Rd2 + pro39Rd1 >= 0 
p88Rd1 - p31Rd1 + p87Rd1 + p39Rd2 + pro39Rd1 >= 0 
p32Rd1 + p31Rd1 + p87Rd1 - p39Rd2 + pro39Rd1 >= 0 
p40Rd2 - p31Rd1 - p87Rd1 - p39Rd2 + pro39Rd1 >= -2 
p31Rd1 - p88Rd1 - p87Rd1 - p39Rd2 + pro39Rd1 >= -2 
p87Rd1 - p88Rd1 - p31Rd1 - p39Rd2 + pro39Rd1 >= -2 
p39Rd2 - p88Rd1 - p31Rd1 - p87Rd1 + pro39Rd1 >= -2 
p89Rd1 - p41Rd2 + pro40Rd1 >= 0 
p33Rd1 - p89Rd1 + pro40Rd1 >= 0 
p41Rd2 - p33Rd1 + pro40Rd1 >= 0 
p33Rd1 + p89Rd1 + p41Rd2 + pro40Rd1 <= 3 
p33Rd1 + p89Rd1 + p41Rd2 - pro40Rd1 >= 0 
p32Rd1 + p88Rd1 + p40Rd2 + pro40Rd1 - p89Rd1 >= 0 
p89Rd1 + p32Rd1 - p88Rd1 + p40Rd2 + pro40Rd1 >= 0 
p89Rd1 - p32Rd1 + p88Rd1 + p40Rd2 + pro40Rd1 >= 0 
p33Rd1 + p32Rd1 + p88Rd1 - p40Rd2 + pro40Rd1 >= 0 
p41Rd2 - p32Rd1 - p88Rd1 - p40Rd2 + pro40Rd1 >= -2 
p32Rd1 - p89Rd1 - p88Rd1 - p40Rd2 + pro40Rd1 >= -2 
p88Rd1 - p89Rd1 - p32Rd1 - p40Rd2 + pro40Rd1 >= -2 
p40Rd2 - p89Rd1 - p32Rd1 - p88Rd1 + pro40Rd1 >= -2 
p90Rd1 - p42Rd2 + pro41Rd1 >= 0 
p34Rd1 - p90Rd1 + pro41Rd1 >= 0 
p42Rd2 - p34Rd1 + pro41Rd1 >= 0 
p34Rd1 + p90Rd1 + p42Rd2 + pro41Rd1 <= 3 
p34Rd1 + p90Rd1 + p42Rd2 - pro41Rd1 >= 0 
p33Rd1 + p89Rd1 + p41Rd2 + pro41Rd1 - p90Rd1 >= 0 
p90Rd1 + p33Rd1 - p89Rd1 + p41Rd2 + pro41Rd1 >= 0 
p90Rd1 - p33Rd1 + p89Rd1 + p41Rd2 + pro41Rd1 >= 0 
p34Rd1 + p33Rd1 + p89Rd1 - p41Rd2 + pro41Rd1 >= 0 
p42Rd2 - p33Rd1 - p89Rd1 - p41Rd2 + pro41Rd1 >= -2 
p33Rd1 - p90Rd1 - p89Rd1 - p41Rd2 + pro41Rd1 >= -2 
p89Rd1 - p90Rd1 - p33Rd1 - p41Rd2 + pro41Rd1 >= -2 
p41Rd2 - p90Rd1 - p33Rd1 - p89Rd1 + pro41Rd1 >= -2 
p91Rd1 - p43Rd2 + pro42Rd1 >= 0 
p35Rd1 - p91Rd1 + pro42Rd1 >= 0 
p43Rd2 - p35Rd1 + pro42Rd1 >= 0 
p35Rd1 + p91Rd1 + p43Rd2 + pro42Rd1 <= 3 
p35Rd1 + p91Rd1 + p43Rd2 - pro42Rd1 >= 0 
p34Rd1 + p90Rd1 + p42Rd2 + pro42Rd1 - p91Rd1 >= 0 
p91Rd1 + p34Rd1 - p90Rd1 + p42Rd2 + pro42Rd1 >= 0 
p91Rd1 - p34Rd1 + p90Rd1 + p42Rd2 + pro42Rd1 >= 0 
p35Rd1 + p34Rd1 + p90Rd1 - p42Rd2 + pro42Rd1 >= 0 
p43Rd2 - p34Rd1 - p90Rd1 - p42Rd2 + pro42Rd1 >= -2 
p34Rd1 - p91Rd1 - p90Rd1 - p42Rd2 + pro42Rd1 >= -2 
p90Rd1 - p91Rd1 - p34Rd1 - p42Rd2 + pro42Rd1 >= -2 
p42Rd2 - p91Rd1 - p34Rd1 - p90Rd1 + pro42Rd1 >= -2 
p92Rd1 - p44Rd2 + pro43Rd1 >= 0 
p36Rd1 - p92Rd1 + pro43Rd1 >= 0 
p44Rd2 - p36Rd1 + pro43Rd1 >= 0 
p36Rd1 + p92Rd1 + p44Rd2 + pro43Rd1 <= 3 
p36Rd1 + p92Rd1 + p44Rd2 - pro43Rd1 >= 0 
p35Rd1 + p91Rd1 + p43Rd2 + pro43Rd1 - p92Rd1 >= 0 
p92Rd1 + p35Rd1 - p91Rd1 + p43Rd2 + pro43Rd1 >= 0 
p92Rd1 - p35Rd1 + p91Rd1 + p43Rd2 + pro43Rd1 >= 0 
p36Rd1 + p35Rd1 + p91Rd1 - p43Rd2 + pro43Rd1 >= 0 
p44Rd2 - p35Rd1 - p91Rd1 - p43Rd2 + pro43Rd1 >= -2 
p35Rd1 - p92Rd1 - p91Rd1 - p43Rd2 + pro43Rd1 >= -2 
p91Rd1 - p92Rd1 - p35Rd1 - p43Rd2 + pro43Rd1 >= -2 
p43Rd2 - p92Rd1 - p35Rd1 - p91Rd1 + pro43Rd1 >= -2 
p93Rd1 - p45Rd2 + pro44Rd1 >= 0 
p37Rd1 - p93Rd1 + pro44Rd1 >= 0 
p45Rd2 - p37Rd1 + pro44Rd1 >= 0 
p37Rd1 + p93Rd1 + p45Rd2 + pro44Rd1 <= 3 
p37Rd1 + p93Rd1 + p45Rd2 - pro44Rd1 >= 0 
p36Rd1 + p92Rd1 + p44Rd2 + pro44Rd1 - p93Rd1 >= 0 
p93Rd1 + p36Rd1 - p92Rd1 + p44Rd2 + pro44Rd1 >= 0 
p93Rd1 - p36Rd1 + p92Rd1 + p44Rd2 + pro44Rd1 >= 0 
p37Rd1 + p36Rd1 + p92Rd1 - p44Rd2 + pro44Rd1 >= 0 
p45Rd2 - p36Rd1 - p92Rd1 - p44Rd2 + pro44Rd1 >= -2 
p36Rd1 - p93Rd1 - p92Rd1 - p44Rd2 + pro44Rd1 >= -2 
p92Rd1 - p93Rd1 - p36Rd1 - p44Rd2 + pro44Rd1 >= -2 
p44Rd2 - p93Rd1 - p36Rd1 - p92Rd1 + pro44Rd1 >= -2 
p94Rd1 - p46Rd2 + pro45Rd1 >= 0 
p38Rd1 - p94Rd1 + pro45Rd1 >= 0 
p46Rd2 - p38Rd1 + pro45Rd1 >= 0 
p38Rd1 + p94Rd1 + p46Rd2 + pro45Rd1 <= 3 
p38Rd1 + p94Rd1 + p46Rd2 - pro45Rd1 >= 0 
p37Rd1 + p93Rd1 + p45Rd2 + pro45Rd1 - p94Rd1 >= 0 
p94Rd1 + p37Rd1 - p93Rd1 + p45Rd2 + pro45Rd1 >= 0 
p94Rd1 - p37Rd1 + p93Rd1 + p45Rd2 + pro45Rd1 >= 0 
p38Rd1 + p37Rd1 + p93Rd1 - p45Rd2 + pro45Rd1 >= 0 
p46Rd2 - p37Rd1 - p93Rd1 - p45Rd2 + pro45Rd1 >= -2 
p37Rd1 - p94Rd1 - p93Rd1 - p45Rd2 + pro45Rd1 >= -2 
p93Rd1 - p94Rd1 - p37Rd1 - p45Rd2 + pro45Rd1 >= -2 
p45Rd2 - p94Rd1 - p37Rd1 - p93Rd1 + pro45Rd1 >= -2 
p95Rd1 - p47Rd2 + pro46Rd1 >= 0 
p39Rd1 - p95Rd1 + pro46Rd1 >= 0 
p47Rd2 - p39Rd1 + pro46Rd1 >= 0 
p39Rd1 + p95Rd1 + p47Rd2 + pro46Rd1 <= 3 
p39Rd1 + p95Rd1 + p47Rd2 - pro46Rd1 >= 0 
p38Rd1 + p94Rd1 + p46Rd2 + pro46Rd1 - p95Rd1 >= 0 
p95Rd1 + p38Rd1 - p94Rd1 + p46Rd2 + pro46Rd1 >= 0 
p95Rd1 - p38Rd1 + p94Rd1 + p46Rd2 + pro46Rd1 >= 0 
p39Rd1 + p38Rd1 + p94Rd1 - p46Rd2 + pro46Rd1 >= 0 
p47Rd2 - p38Rd1 - p94Rd1 - p46Rd2 + pro46Rd1 >= -2 
p38Rd1 - p95Rd1 - p94Rd1 - p46Rd2 + pro46Rd1 >= -2 
p94Rd1 - p95Rd1 - p38Rd1 - p46Rd2 + pro46Rd1 >= -2 
p46Rd2 - p95Rd1 - p38Rd1 - p94Rd1 + pro46Rd1 >= -2 
p39Rd1 + p95Rd1 + p47Rd2 <= 2 
p39Rd1 + p95Rd1 + p47Rd2 - 2 temp1 >= 0 
temp1 - p39Rd1 >= 0 
temp1 - p95Rd1 >= 0 
temp1 - p47Rd2 >= 0 
p51Rd2 + p48Rd3 - p0Rd3 >= 0
p51Rd2 - p48Rd3 + p0Rd3 >= 0
- p51Rd2 + p48Rd3 + p0Rd3 >= 0
p51Rd2 + p48Rd3 + p0Rd3 <= 2
p52Rd2 + p49Rd3 - p1Rd3 >= 0
p52Rd2 - p49Rd3 + p1Rd3 >= 0
- p52Rd2 + p49Rd3 + p1Rd3 >= 0
p52Rd2 + p49Rd3 + p1Rd3 <= 2
p53Rd2 + p50Rd3 - p2Rd3 >= 0
p53Rd2 - p50Rd3 + p2Rd3 >= 0
- p53Rd2 + p50Rd3 + p2Rd3 >= 0
p53Rd2 + p50Rd3 + p2Rd3 <= 2
p54Rd2 + p51Rd3 - p3Rd3 >= 0
p54Rd2 - p51Rd3 + p3Rd3 >= 0
- p54Rd2 + p51Rd3 + p3Rd3 >= 0
p54Rd2 + p51Rd3 + p3Rd3 <= 2
p55Rd2 + p52Rd3 - p4Rd3 >= 0
p55Rd2 - p52Rd3 + p4Rd3 >= 0
- p55Rd2 + p52Rd3 + p4Rd3 >= 0
p55Rd2 + p52Rd3 + p4Rd3 <= 2
p56Rd2 + p53Rd3 - p5Rd3 >= 0
p56Rd2 - p53Rd3 + p5Rd3 >= 0
- p56Rd2 + p53Rd3 + p5Rd3 >= 0
p56Rd2 + p53Rd3 + p5Rd3 <= 2
p57Rd2 + p54Rd3 - p6Rd3 >= 0
p57Rd2 - p54Rd3 + p6Rd3 >= 0
- p57Rd2 + p54Rd3 + p6Rd3 >= 0
p57Rd2 + p54Rd3 + p6Rd3 <= 2
p58Rd2 + p55Rd3 - p7Rd3 >= 0
p58Rd2 - p55Rd3 + p7Rd3 >= 0
- p58Rd2 + p55Rd3 + p7Rd3 >= 0
p58Rd2 + p55Rd3 + p7Rd3 <= 2
p59Rd2 + p56Rd3 - p8Rd3 >= 0
p59Rd2 - p56Rd3 + p8Rd3 >= 0
- p59Rd2 + p56Rd3 + p8Rd3 >= 0
p59Rd2 + p56Rd3 + p8Rd3 <= 2
p60Rd2 + p57Rd3 - p9Rd3 >= 0
p60Rd2 - p57Rd3 + p9Rd3 >= 0
- p60Rd2 + p57Rd3 + p9Rd3 >= 0
p60Rd2 + p57Rd3 + p9Rd3 <= 2
p61Rd2 + p58Rd3 - p10Rd3 >= 0
p61Rd2 - p58Rd3 + p10Rd3 >= 0
- p61Rd2 + p58Rd3 + p10Rd3 >= 0
p61Rd2 + p58Rd3 + p10Rd3 <= 2
p62Rd2 + p59Rd3 - p11Rd3 >= 0
p62Rd2 - p59Rd3 + p11Rd3 >= 0
- p62Rd2 + p59Rd3 + p11Rd3 >= 0
p62Rd2 + p59Rd3 + p11Rd3 <= 2
p63Rd2 + p60Rd3 - p12Rd3 >= 0
p63Rd2 - p60Rd3 + p12Rd3 >= 0
- p63Rd2 + p60Rd3 + p12Rd3 >= 0
p63Rd2 + p60Rd3 + p12Rd3 <= 2
p64Rd2 + p61Rd3 - p13Rd3 >= 0
p64Rd2 - p61Rd3 + p13Rd3 >= 0
- p64Rd2 + p61Rd3 + p13Rd3 >= 0
p64Rd2 + p61Rd3 + p13Rd3 <= 2
p65Rd2 + p62Rd3 - p14Rd3 >= 0
p65Rd2 - p62Rd3 + p14Rd3 >= 0
- p65Rd2 + p62Rd3 + p14Rd3 >= 0
p65Rd2 + p62Rd3 + p14Rd3 <= 2
p66Rd2 + p63Rd3 - p15Rd3 >= 0
p66Rd2 - p63Rd3 + p15Rd3 >= 0
- p66Rd2 + p63Rd3 + p15Rd3 >= 0
p66Rd2 + p63Rd3 + p15Rd3 <= 2
p67Rd2 + p64Rd3 - p16Rd3 >= 0
p67Rd2 - p64Rd3 + p16Rd3 >= 0
- p67Rd2 + p64Rd3 + p16Rd3 >= 0
p67Rd2 + p64Rd3 + p16Rd3 <= 2
p68Rd2 + p65Rd3 - p17Rd3 >= 0
p68Rd2 - p65Rd3 + p17Rd3 >= 0
- p68Rd2 + p65Rd3 + p17Rd3 >= 0
p68Rd2 + p65Rd3 + p17Rd3 <= 2
p69Rd2 + p66Rd3 - p18Rd3 >= 0
p69Rd2 - p66Rd3 + p18Rd3 >= 0
- p69Rd2 + p66Rd3 + p18Rd3 >= 0
p69Rd2 + p66Rd3 + p18Rd3 <= 2
p70Rd2 + p67Rd3 - p19Rd3 >= 0
p70Rd2 - p67Rd3 + p19Rd3 >= 0
- p70Rd2 + p67Rd3 + p19Rd3 >= 0
p70Rd2 + p67Rd3 + p19Rd3 <= 2
p71Rd2 + p68Rd3 - p20Rd3 >= 0
p71Rd2 - p68Rd3 + p20Rd3 >= 0
- p71Rd2 + p68Rd3 + p20Rd3 >= 0
p71Rd2 + p68Rd3 + p20Rd3 <= 2
p72Rd2 + p69Rd3 - p21Rd3 >= 0
p72Rd2 - p69Rd3 + p21Rd3 >= 0
- p72Rd2 + p69Rd3 + p21Rd3 >= 0
p72Rd2 + p69Rd3 + p21Rd3 <= 2
p73Rd2 + p70Rd3 - p22Rd3 >= 0
p73Rd2 - p70Rd3 + p22Rd3 >= 0
- p73Rd2 + p70Rd3 + p22Rd3 >= 0
p73Rd2 + p70Rd3 + p22Rd3 <= 2
p74Rd2 + p71Rd3 - p23Rd3 >= 0
p74Rd2 - p71Rd3 + p23Rd3 >= 0
- p74Rd2 + p71Rd3 + p23Rd3 >= 0
p74Rd2 + p71Rd3 + p23Rd3 <= 2
p75Rd2 + p72Rd3 - p24Rd3 >= 0
p75Rd2 - p72Rd3 + p24Rd3 >= 0
- p75Rd2 + p72Rd3 + p24Rd3 >= 0
p75Rd2 + p72Rd3 + p24Rd3 <= 2
p76Rd2 + p73Rd3 - p25Rd3 >= 0
p76Rd2 - p73Rd3 + p25Rd3 >= 0
- p76Rd2 + p73Rd3 + p25Rd3 >= 0
p76Rd2 + p73Rd3 + p25Rd3 <= 2
p77Rd2 + p74Rd3 - p26Rd3 >= 0
p77Rd2 - p74Rd3 + p26Rd3 >= 0
- p77Rd2 + p74Rd3 + p26Rd3 >= 0
p77Rd2 + p74Rd3 + p26Rd3 <= 2
p78Rd2 + p75Rd3 - p27Rd3 >= 0
p78Rd2 - p75Rd3 + p27Rd3 >= 0
- p78Rd2 + p75Rd3 + p27Rd3 >= 0
p78Rd2 + p75Rd3 + p27Rd3 <= 2
p79Rd2 + p76Rd3 - p28Rd3 >= 0
p79Rd2 - p76Rd3 + p28Rd3 >= 0
- p79Rd2 + p76Rd3 + p28Rd3 >= 0
p79Rd2 + p76Rd3 + p28Rd3 <= 2
p80Rd2 + p77Rd3 - p29Rd3 >= 0
p80Rd2 - p77Rd3 + p29Rd3 >= 0
- p80Rd2 + p77Rd3 + p29Rd3 >= 0
p80Rd2 + p77Rd3 + p29Rd3 <= 2
p81Rd2 + p78Rd3 - p30Rd3 >= 0
p81Rd2 - p78Rd3 + p30Rd3 >= 0
- p81Rd2 + p78Rd3 + p30Rd3 >= 0
p81Rd2 + p78Rd3 + p30Rd3 <= 2
p82Rd2 + p79Rd3 - p31Rd3 >= 0
p82Rd2 - p79Rd3 + p31Rd3 >= 0
- p82Rd2 + p79Rd3 + p31Rd3 >= 0
p82Rd2 + p79Rd3 + p31Rd3 <= 2
p83Rd2 + p80Rd3 - p32Rd3 >= 0
p83Rd2 - p80Rd3 + p32Rd3 >= 0
- p83Rd2 + p80Rd3 + p32Rd3 >= 0
p83Rd2 + p80Rd3 + p32Rd3 <= 2
p84Rd2 + p81Rd3 - p33Rd3 >= 0
p84Rd2 - p81Rd3 + p33Rd3 >= 0
- p84Rd2 + p81Rd3 + p33Rd3 >= 0
p84Rd2 + p81Rd3 + p33Rd3 <= 2
p85Rd2 + p82Rd3 - p34Rd3 >= 0
p85Rd2 - p82Rd3 + p34Rd3 >= 0
- p85Rd2 + p82Rd3 + p34Rd3 >= 0
p85Rd2 + p82Rd3 + p34Rd3 <= 2
p86Rd2 + p83Rd3 - p35Rd3 >= 0
p86Rd2 - p83Rd3 + p35Rd3 >= 0
- p86Rd2 + p83Rd3 + p35Rd3 >= 0
p86Rd2 + p83Rd3 + p35Rd3 <= 2
p87Rd2 + p84Rd3 - p36Rd3 >= 0
p87Rd2 - p84Rd3 + p36Rd3 >= 0
- p87Rd2 + p84Rd3 + p36Rd3 >= 0
p87Rd2 + p84Rd3 + p36Rd3 <= 2
p88Rd2 + p85Rd3 - p37Rd3 >= 0
p88Rd2 - p85Rd3 + p37Rd3 >= 0
- p88Rd2 + p85Rd3 + p37Rd3 >= 0
p88Rd2 + p85Rd3 + p37Rd3 <= 2
p89Rd2 + p86Rd3 - p38Rd3 >= 0
p89Rd2 - p86Rd3 + p38Rd3 >= 0
- p89Rd2 + p86Rd3 + p38Rd3 >= 0
p89Rd2 + p86Rd3 + p38Rd3 <= 2
p90Rd2 + p87Rd3 - p39Rd3 >= 0
p90Rd2 - p87Rd3 + p39Rd3 >= 0
- p90Rd2 + p87Rd3 + p39Rd3 >= 0
p90Rd2 + p87Rd3 + p39Rd3 <= 2
p91Rd2 + p88Rd3 - p40Rd3 >= 0
p91Rd2 - p88Rd3 + p40Rd3 >= 0
- p91Rd2 + p88Rd3 + p40Rd3 >= 0
p91Rd2 + p88Rd3 + p40Rd3 <= 2
p92Rd2 + p89Rd3 - p41Rd3 >= 0
p92Rd2 - p89Rd3 + p41Rd3 >= 0
- p92Rd2 + p89Rd3 + p41Rd3 >= 0
p92Rd2 + p89Rd3 + p41Rd3 <= 2
p93Rd2 + p90Rd3 - p42Rd3 >= 0
p93Rd2 - p90Rd3 + p42Rd3 >= 0
- p93Rd2 + p90Rd3 + p42Rd3 >= 0
p93Rd2 + p90Rd3 + p42Rd3 <= 2
p94Rd2 + p91Rd3 - p43Rd3 >= 0
p94Rd2 - p91Rd3 + p43Rd3 >= 0
- p94Rd2 + p91Rd3 + p43Rd3 >= 0
p94Rd2 + p91Rd3 + p43Rd3 <= 2
p95Rd2 + p92Rd3 - p44Rd3 >= 0
p95Rd2 - p92Rd3 + p44Rd3 >= 0
- p95Rd2 + p92Rd3 + p44Rd3 >= 0
p95Rd2 + p92Rd3 + p44Rd3 <= 2
p48Rd2 + p93Rd3 - p45Rd3 >= 0
p48Rd2 - p93Rd3 + p45Rd3 >= 0
- p48Rd2 + p93Rd3 + p45Rd3 >= 0
p48Rd2 + p93Rd3 + p45Rd3 <= 2
p49Rd2 + p94Rd3 - p46Rd3 >= 0
p49Rd2 - p94Rd3 + p46Rd3 >= 0
- p49Rd2 + p94Rd3 + p46Rd3 >= 0
p49Rd2 + p94Rd3 + p46Rd3 <= 2
p50Rd2 + p95Rd3 - p47Rd3 >= 0
p50Rd2 - p95Rd3 + p47Rd3 >= 0
- p50Rd2 + p95Rd3 + p47Rd3 >= 0
p50Rd2 + p95Rd3 + p47Rd3 <= 2
p49Rd2 - p1Rd3 + pro0Rd2 >= 0 
p41Rd2 - p49Rd2 + pro0Rd2 >= 0 
p1Rd3 - p41Rd2 + pro0Rd2 >= 0 
p41Rd2 + p49Rd2 + p1Rd3 + pro0Rd2 <= 3 
p41Rd2 + p49Rd2 + p1Rd3 - pro0Rd2 >= 0 
p40Rd2 + p48Rd2 + p0Rd3 + pro0Rd2 - p49Rd2 >= 0 
p49Rd2 + p40Rd2 - p48Rd2 + p0Rd3 + pro0Rd2 >= 0 
p49Rd2 - p40Rd2 + p48Rd2 + p0Rd3 + pro0Rd2 >= 0 
p41Rd2 + p40Rd2 + p48Rd2 - p0Rd3 + pro0Rd2 >= 0 
p1Rd3 - p40Rd2 - p48Rd2 - p0Rd3 + pro0Rd2 >= -2 
p40Rd2 - p49Rd2 - p48Rd2 - p0Rd3 + pro0Rd2 >= -2 
p48Rd2 - p49Rd2 - p40Rd2 - p0Rd3 + pro0Rd2 >= -2 
p0Rd3 - p49Rd2 - p40Rd2 - p48Rd2 + pro0Rd2 >= -2 
p50Rd2 - p2Rd3 + pro1Rd2 >= 0 
p42Rd2 - p50Rd2 + pro1Rd2 >= 0 
p2Rd3 - p42Rd2 + pro1Rd2 >= 0 
p42Rd2 + p50Rd2 + p2Rd3 + pro1Rd2 <= 3 
p42Rd2 + p50Rd2 + p2Rd3 - pro1Rd2 >= 0 
p41Rd2 + p49Rd2 + p1Rd3 + pro1Rd2 - p50Rd2 >= 0 
p50Rd2 + p41Rd2 - p49Rd2 + p1Rd3 + pro1Rd2 >= 0 
p50Rd2 - p41Rd2 + p49Rd2 + p1Rd3 + pro1Rd2 >= 0 
p42Rd2 + p41Rd2 + p49Rd2 - p1Rd3 + pro1Rd2 >= 0 
p2Rd3 - p41Rd2 - p49Rd2 - p1Rd3 + pro1Rd2 >= -2 
p41Rd2 - p50Rd2 - p49Rd2 - p1Rd3 + pro1Rd2 >= -2 
p49Rd2 - p50Rd2 - p41Rd2 - p1Rd3 + pro1Rd2 >= -2 
p1Rd3 - p50Rd2 - p41Rd2 - p49Rd2 + pro1Rd2 >= -2 
p51Rd2 - p3Rd3 + pro2Rd2 >= 0 
p43Rd2 - p51Rd2 + pro2Rd2 >= 0 
p3Rd3 - p43Rd2 + pro2Rd2 >= 0 
p43Rd2 + p51Rd2 + p3Rd3 + pro2Rd2 <= 3 
p43Rd2 + p51Rd2 + p3Rd3 - pro2Rd2 >= 0 
p42Rd2 + p50Rd2 + p2Rd3 + pro2Rd2 - p51Rd2 >= 0 
p51Rd2 + p42Rd2 - p50Rd2 + p2Rd3 + pro2Rd2 >= 0 
p51Rd2 - p42Rd2 + p50Rd2 + p2Rd3 + pro2Rd2 >= 0 
p43Rd2 + p42Rd2 + p50Rd2 - p2Rd3 + pro2Rd2 >= 0 
p3Rd3 - p42Rd2 - p50Rd2 - p2Rd3 + pro2Rd2 >= -2 
p42Rd2 - p51Rd2 - p50Rd2 - p2Rd3 + pro2Rd2 >= -2 
p50Rd2 - p51Rd2 - p42Rd2 - p2Rd3 + pro2Rd2 >= -2 
p2Rd3 - p51Rd2 - p42Rd2 - p50Rd2 + pro2Rd2 >= -2 
p52Rd2 - p4Rd3 + pro3Rd2 >= 0 
p44Rd2 - p52Rd2 + pro3Rd2 >= 0 
p4Rd3 - p44Rd2 + pro3Rd2 >= 0 
p44Rd2 + p52Rd2 + p4Rd3 + pro3Rd2 <= 3 
p44Rd2 + p52Rd2 + p4Rd3 - pro3Rd2 >= 0 
p43Rd2 + p51Rd2 + p3Rd3 + pro3Rd2 - p52Rd2 >= 0 
p52Rd2 + p43Rd2 - p51Rd2 + p3Rd3 + pro3Rd2 >= 0 
p52Rd2 - p43Rd2 + p51Rd2 + p3Rd3 + pro3Rd2 >= 0 
p44Rd2 + p43Rd2 + p51Rd2 - p3Rd3 + pro3Rd2 >= 0 
p4Rd3 - p43Rd2 - p51Rd2 - p3Rd3 + pro3Rd2 >= -2 
p43Rd2 - p52Rd2 - p51Rd2 - p3Rd3 + pro3Rd2 >= -2 
p51Rd2 - p52Rd2 - p43Rd2 - p3Rd3 + pro3Rd2 >= -2 
p3Rd3 - p52Rd2 - p43Rd2 - p51Rd2 + pro3Rd2 >= -2 
p53Rd2 - p5Rd3 + pro4Rd2 >= 0 
p45Rd2 - p53Rd2 + pro4Rd2 >= 0 
p5Rd3 - p45Rd2 + pro4Rd2 >= 0 
p45Rd2 + p53Rd2 + p5Rd3 + pro4Rd2 <= 3 
p45Rd2 + p53Rd2 + p5Rd3 - pro4Rd2 >= 0 
p44Rd2 + p52Rd2 + p4Rd3 + pro4Rd2 - p53Rd2 >= 0 
p53Rd2 + p44Rd2 - p52Rd2 + p4Rd3 + pro4Rd2 >= 0 
p53Rd2 - p44Rd2 + p52Rd2 + p4Rd3 + pro4Rd2 >= 0 
p45Rd2 + p44Rd2 + p52Rd2 - p4Rd3 + pro4Rd2 >= 0 
p5Rd3 - p44Rd2 - p52Rd2 - p4Rd3 + pro4Rd2 >= -2 
p44Rd2 - p53Rd2 - p52Rd2 - p4Rd3 + pro4Rd2 >= -2 
p52Rd2 - p53Rd2 - p44Rd2 - p4Rd3 + pro4Rd2 >= -2 
p4Rd3 - p53Rd2 - p44Rd2 - p52Rd2 + pro4Rd2 >= -2 
p54Rd2 - p6Rd3 + pro5Rd2 >= 0 
p46Rd2 - p54Rd2 + pro5Rd2 >= 0 
p6Rd3 - p46Rd2 + pro5Rd2 >= 0 
p46Rd2 + p54Rd2 + p6Rd3 + pro5Rd2 <= 3 
p46Rd2 + p54Rd2 + p6Rd3 - pro5Rd2 >= 0 
p45Rd2 + p53Rd2 + p5Rd3 + pro5Rd2 - p54Rd2 >= 0 
p54Rd2 + p45Rd2 - p53Rd2 + p5Rd3 + pro5Rd2 >= 0 
p54Rd2 - p45Rd2 + p53Rd2 + p5Rd3 + pro5Rd2 >= 0 
p46Rd2 + p45Rd2 + p53Rd2 - p5Rd3 + pro5Rd2 >= 0 
p6Rd3 - p45Rd2 - p53Rd2 - p5Rd3 + pro5Rd2 >= -2 
p45Rd2 - p54Rd2 - p53Rd2 - p5Rd3 + pro5Rd2 >= -2 
p53Rd2 - p54Rd2 - p45Rd2 - p5Rd3 + pro5Rd2 >= -2 
p5Rd3 - p54Rd2 - p45Rd2 - p53Rd2 + pro5Rd2 >= -2 
p55Rd2 - p7Rd3 + pro6Rd2 >= 0 
p47Rd2 - p55Rd2 + pro6Rd2 >= 0 
p7Rd3 - p47Rd2 + pro6Rd2 >= 0 
p47Rd2 + p55Rd2 + p7Rd3 + pro6Rd2 <= 3 
p47Rd2 + p55Rd2 + p7Rd3 - pro6Rd2 >= 0 
p46Rd2 + p54Rd2 + p6Rd3 + pro6Rd2 - p55Rd2 >= 0 
p55Rd2 + p46Rd2 - p54Rd2 + p6Rd3 + pro6Rd2 >= 0 
p55Rd2 - p46Rd2 + p54Rd2 + p6Rd3 + pro6Rd2 >= 0 
p47Rd2 + p46Rd2 + p54Rd2 - p6Rd3 + pro6Rd2 >= 0 
p7Rd3 - p46Rd2 - p54Rd2 - p6Rd3 + pro6Rd2 >= -2 
p46Rd2 - p55Rd2 - p54Rd2 - p6Rd3 + pro6Rd2 >= -2 
p54Rd2 - p55Rd2 - p46Rd2 - p6Rd3 + pro6Rd2 >= -2 
p6Rd3 - p55Rd2 - p46Rd2 - p54Rd2 + pro6Rd2 >= -2 
p56Rd2 - p8Rd3 + pro7Rd2 >= 0 
p0Rd2 - p56Rd2 + pro7Rd2 >= 0 
p8Rd3 - p0Rd2 + pro7Rd2 >= 0 
p0Rd2 + p56Rd2 + p8Rd3 + pro7Rd2 <= 3 
p0Rd2 + p56Rd2 + p8Rd3 - pro7Rd2 >= 0 
p47Rd2 + p55Rd2 + p7Rd3 + pro7Rd2 - p56Rd2 >= 0 
p56Rd2 + p47Rd2 - p55Rd2 + p7Rd3 + pro7Rd2 >= 0 
p56Rd2 - p47Rd2 + p55Rd2 + p7Rd3 + pro7Rd2 >= 0 
p0Rd2 + p47Rd2 + p55Rd2 - p7Rd3 + pro7Rd2 >= 0 
p8Rd3 - p47Rd2 - p55Rd2 - p7Rd3 + pro7Rd2 >= -2 
p47Rd2 - p56Rd2 - p55Rd2 - p7Rd3 + pro7Rd2 >= -2 
p55Rd2 - p56Rd2 - p47Rd2 - p7Rd3 + pro7Rd2 >= -2 
p7Rd3 - p56Rd2 - p47Rd2 - p55Rd2 + pro7Rd2 >= -2 
p57Rd2 - p9Rd3 + pro8Rd2 >= 0 
p1Rd2 - p57Rd2 + pro8Rd2 >= 0 
p9Rd3 - p1Rd2 + pro8Rd2 >= 0 
p1Rd2 + p57Rd2 + p9Rd3 + pro8Rd2 <= 3 
p1Rd2 + p57Rd2 + p9Rd3 - pro8Rd2 >= 0 
p0Rd2 + p56Rd2 + p8Rd3 + pro8Rd2 - p57Rd2 >= 0 
p57Rd2 + p0Rd2 - p56Rd2 + p8Rd3 + pro8Rd2 >= 0 
p57Rd2 - p0Rd2 + p56Rd2 + p8Rd3 + pro8Rd2 >= 0 
p1Rd2 + p0Rd2 + p56Rd2 - p8Rd3 + pro8Rd2 >= 0 
p9Rd3 - p0Rd2 - p56Rd2 - p8Rd3 + pro8Rd2 >= -2 
p0Rd2 - p57Rd2 - p56Rd2 - p8Rd3 + pro8Rd2 >= -2 
p56Rd2 - p57Rd2 - p0Rd2 - p8Rd3 + pro8Rd2 >= -2 
p8Rd3 - p57Rd2 - p0Rd2 - p56Rd2 + pro8Rd2 >= -2 
p58Rd2 - p10Rd3 + pro9Rd2 >= 0 
p2Rd2 - p58Rd2 + pro9Rd2 >= 0 
p10Rd3 - p2Rd2 + pro9Rd2 >= 0 
p2Rd2 + p58Rd2 + p10Rd3 + pro9Rd2 <= 3 
p2Rd2 + p58Rd2 + p10Rd3 - pro9Rd2 >= 0 
p1Rd2 + p57Rd2 + p9Rd3 + pro9Rd2 - p58Rd2 >= 0 
p58Rd2 + p1Rd2 - p57Rd2 + p9Rd3 + pro9Rd2 >= 0 
p58Rd2 - p1Rd2 + p57Rd2 + p9Rd3 + pro9Rd2 >= 0 
p2Rd2 + p1Rd2 + p57Rd2 - p9Rd3 + pro9Rd2 >= 0 
p10Rd3 - p1Rd2 - p57Rd2 - p9Rd3 + pro9Rd2 >= -2 
p1Rd2 - p58Rd2 - p57Rd2 - p9Rd3 + pro9Rd2 >= -2 
p57Rd2 - p58Rd2 - p1Rd2 - p9Rd3 + pro9Rd2 >= -2 
p9Rd3 - p58Rd2 - p1Rd2 - p57Rd2 + pro9Rd2 >= -2 
p59Rd2 - p11Rd3 + pro10Rd2 >= 0 
p3Rd2 - p59Rd2 + pro10Rd2 >= 0 
p11Rd3 - p3Rd2 + pro10Rd2 >= 0 
p3Rd2 + p59Rd2 + p11Rd3 + pro10Rd2 <= 3 
p3Rd2 + p59Rd2 + p11Rd3 - pro10Rd2 >= 0 
p2Rd2 + p58Rd2 + p10Rd3 + pro10Rd2 - p59Rd2 >= 0 
p59Rd2 + p2Rd2 - p58Rd2 + p10Rd3 + pro10Rd2 >= 0 
p59Rd2 - p2Rd2 + p58Rd2 + p10Rd3 + pro10Rd2 >= 0 
p3Rd2 + p2Rd2 + p58Rd2 - p10Rd3 + pro10Rd2 >= 0 
p11Rd3 - p2Rd2 - p58Rd2 - p10Rd3 + pro10Rd2 >= -2 
p2Rd2 - p59Rd2 - p58Rd2 - p10Rd3 + pro10Rd2 >= -2 
p58Rd2 - p59Rd2 - p2Rd2 - p10Rd3 + pro10Rd2 >= -2 
p10Rd3 - p59Rd2 - p2Rd2 - p58Rd2 + pro10Rd2 >= -2 
p60Rd2 - p12Rd3 + pro11Rd2 >= 0 
p4Rd2 - p60Rd2 + pro11Rd2 >= 0 
p12Rd3 - p4Rd2 + pro11Rd2 >= 0 
p4Rd2 + p60Rd2 + p12Rd3 + pro11Rd2 <= 3 
p4Rd2 + p60Rd2 + p12Rd3 - pro11Rd2 >= 0 
p3Rd2 + p59Rd2 + p11Rd3 + pro11Rd2 - p60Rd2 >= 0 
p60Rd2 + p3Rd2 - p59Rd2 + p11Rd3 + pro11Rd2 >= 0 
p60Rd2 - p3Rd2 + p59Rd2 + p11Rd3 + pro11Rd2 >= 0 
p4Rd2 + p3Rd2 + p59Rd2 - p11Rd3 + pro11Rd2 >= 0 
p12Rd3 - p3Rd2 - p59Rd2 - p11Rd3 + pro11Rd2 >= -2 
p3Rd2 - p60Rd2 - p59Rd2 - p11Rd3 + pro11Rd2 >= -2 
p59Rd2 - p60Rd2 - p3Rd2 - p11Rd3 + pro11Rd2 >= -2 
p11Rd3 - p60Rd2 - p3Rd2 - p59Rd2 + pro11Rd2 >= -2 
p61Rd2 - p13Rd3 + pro12Rd2 >= 0 
p5Rd2 - p61Rd2 + pro12Rd2 >= 0 
p13Rd3 - p5Rd2 + pro12Rd2 >= 0 
p5Rd2 + p61Rd2 + p13Rd3 + pro12Rd2 <= 3 
p5Rd2 + p61Rd2 + p13Rd3 - pro12Rd2 >= 0 
p4Rd2 + p60Rd2 + p12Rd3 + pro12Rd2 - p61Rd2 >= 0 
p61Rd2 + p4Rd2 - p60Rd2 + p12Rd3 + pro12Rd2 >= 0 
p61Rd2 - p4Rd2 + p60Rd2 + p12Rd3 + pro12Rd2 >= 0 
p5Rd2 + p4Rd2 + p60Rd2 - p12Rd3 + pro12Rd2 >= 0 
p13Rd3 - p4Rd2 - p60Rd2 - p12Rd3 + pro12Rd2 >= -2 
p4Rd2 - p61Rd2 - p60Rd2 - p12Rd3 + pro12Rd2 >= -2 
p60Rd2 - p61Rd2 - p4Rd2 - p12Rd3 + pro12Rd2 >= -2 
p12Rd3 - p61Rd2 - p4Rd2 - p60Rd2 + pro12Rd2 >= -2 
p62Rd2 - p14Rd3 + pro13Rd2 >= 0 
p6Rd2 - p62Rd2 + pro13Rd2 >= 0 
p14Rd3 - p6Rd2 + pro13Rd2 >= 0 
p6Rd2 + p62Rd2 + p14Rd3 + pro13Rd2 <= 3 
p6Rd2 + p62Rd2 + p14Rd3 - pro13Rd2 >= 0 
p5Rd2 + p61Rd2 + p13Rd3 + pro13Rd2 - p62Rd2 >= 0 
p62Rd2 + p5Rd2 - p61Rd2 + p13Rd3 + pro13Rd2 >= 0 
p62Rd2 - p5Rd2 + p61Rd2 + p13Rd3 + pro13Rd2 >= 0 
p6Rd2 + p5Rd2 + p61Rd2 - p13Rd3 + pro13Rd2 >= 0 
p14Rd3 - p5Rd2 - p61Rd2 - p13Rd3 + pro13Rd2 >= -2 
p5Rd2 - p62Rd2 - p61Rd2 - p13Rd3 + pro13Rd2 >= -2 
p61Rd2 - p62Rd2 - p5Rd2 - p13Rd3 + pro13Rd2 >= -2 
p13Rd3 - p62Rd2 - p5Rd2 - p61Rd2 + pro13Rd2 >= -2 
p63Rd2 - p15Rd3 + pro14Rd2 >= 0 
p7Rd2 - p63Rd2 + pro14Rd2 >= 0 
p15Rd3 - p7Rd2 + pro14Rd2 >= 0 
p7Rd2 + p63Rd2 + p15Rd3 + pro14Rd2 <= 3 
p7Rd2 + p63Rd2 + p15Rd3 - pro14Rd2 >= 0 
p6Rd2 + p62Rd2 + p14Rd3 + pro14Rd2 - p63Rd2 >= 0 
p63Rd2 + p6Rd2 - p62Rd2 + p14Rd3 + pro14Rd2 >= 0 
p63Rd2 - p6Rd2 + p62Rd2 + p14Rd3 + pro14Rd2 >= 0 
p7Rd2 + p6Rd2 + p62Rd2 - p14Rd3 + pro14Rd2 >= 0 
p15Rd3 - p6Rd2 - p62Rd2 - p14Rd3 + pro14Rd2 >= -2 
p6Rd2 - p63Rd2 - p62Rd2 - p14Rd3 + pro14Rd2 >= -2 
p62Rd2 - p63Rd2 - p6Rd2 - p14Rd3 + pro14Rd2 >= -2 
p14Rd3 - p63Rd2 - p6Rd2 - p62Rd2 + pro14Rd2 >= -2 
p64Rd2 - p16Rd3 + pro15Rd2 >= 0 
p8Rd2 - p64Rd2 + pro15Rd2 >= 0 
p16Rd3 - p8Rd2 + pro15Rd2 >= 0 
p8Rd2 + p64Rd2 + p16Rd3 + pro15Rd2 <= 3 
p8Rd2 + p64Rd2 + p16Rd3 - pro15Rd2 >= 0 
p7Rd2 + p63Rd2 + p15Rd3 + pro15Rd2 - p64Rd2 >= 0 
p64Rd2 + p7Rd2 - p63Rd2 + p15Rd3 + pro15Rd2 >= 0 
p64Rd2 - p7Rd2 + p63Rd2 + p15Rd3 + pro15Rd2 >= 0 
p8Rd2 + p7Rd2 + p63Rd2 - p15Rd3 + pro15Rd2 >= 0 
p16Rd3 - p7Rd2 - p63Rd2 - p15Rd3 + pro15Rd2 >= -2 
p7Rd2 - p64Rd2 - p63Rd2 - p15Rd3 + pro15Rd2 >= -2 
p63Rd2 - p64Rd2 - p7Rd2 - p15Rd3 + pro15Rd2 >= -2 
p15Rd3 - p64Rd2 - p7Rd2 - p63Rd2 + pro15Rd2 >= -2 
p65Rd2 - p17Rd3 + pro16Rd2 >= 0 
p9Rd2 - p65Rd2 + pro16Rd2 >= 0 
p17Rd3 - p9Rd2 + pro16Rd2 >= 0 
p9Rd2 + p65Rd2 + p17Rd3 + pro16Rd2 <= 3 
p9Rd2 + p65Rd2 + p17Rd3 - pro16Rd2 >= 0 
p8Rd2 + p64Rd2 + p16Rd3 + pro16Rd2 - p65Rd2 >= 0 
p65Rd2 + p8Rd2 - p64Rd2 + p16Rd3 + pro16Rd2 >= 0 
p65Rd2 - p8Rd2 + p64Rd2 + p16Rd3 + pro16Rd2 >= 0 
p9Rd2 + p8Rd2 + p64Rd2 - p16Rd3 + pro16Rd2 >= 0 
p17Rd3 - p8Rd2 - p64Rd2 - p16Rd3 + pro16Rd2 >= -2 
p8Rd2 - p65Rd2 - p64Rd2 - p16Rd3 + pro16Rd2 >= -2 
p64Rd2 - p65Rd2 - p8Rd2 - p16Rd3 + pro16Rd2 >= -2 
p16Rd3 - p65Rd2 - p8Rd2 - p64Rd2 + pro16Rd2 >= -2 
p66Rd2 - p18Rd3 + pro17Rd2 >= 0 
p10Rd2 - p66Rd2 + pro17Rd2 >= 0 
p18Rd3 - p10Rd2 + pro17Rd2 >= 0 
p10Rd2 + p66Rd2 + p18Rd3 + pro17Rd2 <= 3 
p10Rd2 + p66Rd2 + p18Rd3 - pro17Rd2 >= 0 
p9Rd2 + p65Rd2 + p17Rd3 + pro17Rd2 - p66Rd2 >= 0 
p66Rd2 + p9Rd2 - p65Rd2 + p17Rd3 + pro17Rd2 >= 0 
p66Rd2 - p9Rd2 + p65Rd2 + p17Rd3 + pro17Rd2 >= 0 
p10Rd2 + p9Rd2 + p65Rd2 - p17Rd3 + pro17Rd2 >= 0 
p18Rd3 - p9Rd2 - p65Rd2 - p17Rd3 + pro17Rd2 >= -2 
p9Rd2 - p66Rd2 - p65Rd2 - p17Rd3 + pro17Rd2 >= -2 
p65Rd2 - p66Rd2 - p9Rd2 - p17Rd3 + pro17Rd2 >= -2 
p17Rd3 - p66Rd2 - p9Rd2 - p65Rd2 + pro17Rd2 >= -2 
p67Rd2 - p19Rd3 + pro18Rd2 >= 0 
p11Rd2 - p67Rd2 + pro18Rd2 >= 0 
p19Rd3 - p11Rd2 + pro18Rd2 >= 0 
p11Rd2 + p67Rd2 + p19Rd3 + pro18Rd2 <= 3 
p11Rd2 + p67Rd2 + p19Rd3 - pro18Rd2 >= 0 
p10Rd2 + p66Rd2 + p18Rd3 + pro18Rd2 - p67Rd2 >= 0 
p67Rd2 + p10Rd2 - p66Rd2 + p18Rd3 + pro18Rd2 >= 0 
p67Rd2 - p10Rd2 + p66Rd2 + p18Rd3 + pro18Rd2 >= 0 
p11Rd2 + p10Rd2 + p66Rd2 - p18Rd3 + pro18Rd2 >= 0 
p19Rd3 - p10Rd2 - p66Rd2 - p18Rd3 + pro18Rd2 >= -2 
p10Rd2 - p67Rd2 - p66Rd2 - p18Rd3 + pro18Rd2 >= -2 
p66Rd2 - p67Rd2 - p10Rd2 - p18Rd3 + pro18Rd2 >= -2 
p18Rd3 - p67Rd2 - p10Rd2 - p66Rd2 + pro18Rd2 >= -2 
p68Rd2 - p20Rd3 + pro19Rd2 >= 0 
p12Rd2 - p68Rd2 + pro19Rd2 >= 0 
p20Rd3 - p12Rd2 + pro19Rd2 >= 0 
p12Rd2 + p68Rd2 + p20Rd3 + pro19Rd2 <= 3 
p12Rd2 + p68Rd2 + p20Rd3 - pro19Rd2 >= 0 
p11Rd2 + p67Rd2 + p19Rd3 + pro19Rd2 - p68Rd2 >= 0 
p68Rd2 + p11Rd2 - p67Rd2 + p19Rd3 + pro19Rd2 >= 0 
p68Rd2 - p11Rd2 + p67Rd2 + p19Rd3 + pro19Rd2 >= 0 
p12Rd2 + p11Rd2 + p67Rd2 - p19Rd3 + pro19Rd2 >= 0 
p20Rd3 - p11Rd2 - p67Rd2 - p19Rd3 + pro19Rd2 >= -2 
p11Rd2 - p68Rd2 - p67Rd2 - p19Rd3 + pro19Rd2 >= -2 
p67Rd2 - p68Rd2 - p11Rd2 - p19Rd3 + pro19Rd2 >= -2 
p19Rd3 - p68Rd2 - p11Rd2 - p67Rd2 + pro19Rd2 >= -2 
p69Rd2 - p21Rd3 + pro20Rd2 >= 0 
p13Rd2 - p69Rd2 + pro20Rd2 >= 0 
p21Rd3 - p13Rd2 + pro20Rd2 >= 0 
p13Rd2 + p69Rd2 + p21Rd3 + pro20Rd2 <= 3 
p13Rd2 + p69Rd2 + p21Rd3 - pro20Rd2 >= 0 
p12Rd2 + p68Rd2 + p20Rd3 + pro20Rd2 - p69Rd2 >= 0 
p69Rd2 + p12Rd2 - p68Rd2 + p20Rd3 + pro20Rd2 >= 0 
p69Rd2 - p12Rd2 + p68Rd2 + p20Rd3 + pro20Rd2 >= 0 
p13Rd2 + p12Rd2 + p68Rd2 - p20Rd3 + pro20Rd2 >= 0 
p21Rd3 - p12Rd2 - p68Rd2 - p20Rd3 + pro20Rd2 >= -2 
p12Rd2 - p69Rd2 - p68Rd2 - p20Rd3 + pro20Rd2 >= -2 
p68Rd2 - p69Rd2 - p12Rd2 - p20Rd3 + pro20Rd2 >= -2 
p20Rd3 - p69Rd2 - p12Rd2 - p68Rd2 + pro20Rd2 >= -2 
p70Rd2 - p22Rd3 + pro21Rd2 >= 0 
p14Rd2 - p70Rd2 + pro21Rd2 >= 0 
p22Rd3 - p14Rd2 + pro21Rd2 >= 0 
p14Rd2 + p70Rd2 + p22Rd3 + pro21Rd2 <= 3 
p14Rd2 + p70Rd2 + p22Rd3 - pro21Rd2 >= 0 
p13Rd2 + p69Rd2 + p21Rd3 + pro21Rd2 - p70Rd2 >= 0 
p70Rd2 + p13Rd2 - p69Rd2 + p21Rd3 + pro21Rd2 >= 0 
p70Rd2 - p13Rd2 + p69Rd2 + p21Rd3 + pro21Rd2 >= 0 
p14Rd2 + p13Rd2 + p69Rd2 - p21Rd3 + pro21Rd2 >= 0 
p22Rd3 - p13Rd2 - p69Rd2 - p21Rd3 + pro21Rd2 >= -2 
p13Rd2 - p70Rd2 - p69Rd2 - p21Rd3 + pro21Rd2 >= -2 
p69Rd2 - p70Rd2 - p13Rd2 - p21Rd3 + pro21Rd2 >= -2 
p21Rd3 - p70Rd2 - p13Rd2 - p69Rd2 + pro21Rd2 >= -2 
p71Rd2 - p23Rd3 + pro22Rd2 >= 0 
p15Rd2 - p71Rd2 + pro22Rd2 >= 0 
p23Rd3 - p15Rd2 + pro22Rd2 >= 0 
p15Rd2 + p71Rd2 + p23Rd3 + pro22Rd2 <= 3 
p15Rd2 + p71Rd2 + p23Rd3 - pro22Rd2 >= 0 
p14Rd2 + p70Rd2 + p22Rd3 + pro22Rd2 - p71Rd2 >= 0 
p71Rd2 + p14Rd2 - p70Rd2 + p22Rd3 + pro22Rd2 >= 0 
p71Rd2 - p14Rd2 + p70Rd2 + p22Rd3 + pro22Rd2 >= 0 
p15Rd2 + p14Rd2 + p70Rd2 - p22Rd3 + pro22Rd2 >= 0 
p23Rd3 - p14Rd2 - p70Rd2 - p22Rd3 + pro22Rd2 >= -2 
p14Rd2 - p71Rd2 - p70Rd2 - p22Rd3 + pro22Rd2 >= -2 
p70Rd2 - p71Rd2 - p14Rd2 - p22Rd3 + pro22Rd2 >= -2 
p22Rd3 - p71Rd2 - p14Rd2 - p70Rd2 + pro22Rd2 >= -2 
p72Rd2 - p24Rd3 + pro23Rd2 >= 0 
p16Rd2 - p72Rd2 + pro23Rd2 >= 0 
p24Rd3 - p16Rd2 + pro23Rd2 >= 0 
p16Rd2 + p72Rd2 + p24Rd3 + pro23Rd2 <= 3 
p16Rd2 + p72Rd2 + p24Rd3 - pro23Rd2 >= 0 
p15Rd2 + p71Rd2 + p23Rd3 + pro23Rd2 - p72Rd2 >= 0 
p72Rd2 + p15Rd2 - p71Rd2 + p23Rd3 + pro23Rd2 >= 0 
p72Rd2 - p15Rd2 + p71Rd2 + p23Rd3 + pro23Rd2 >= 0 
p16Rd2 + p15Rd2 + p71Rd2 - p23Rd3 + pro23Rd2 >= 0 
p24Rd3 - p15Rd2 - p71Rd2 - p23Rd3 + pro23Rd2 >= -2 
p15Rd2 - p72Rd2 - p71Rd2 - p23Rd3 + pro23Rd2 >= -2 
p71Rd2 - p72Rd2 - p15Rd2 - p23Rd3 + pro23Rd2 >= -2 
p23Rd3 - p72Rd2 - p15Rd2 - p71Rd2 + pro23Rd2 >= -2 
p73Rd2 - p25Rd3 + pro24Rd2 >= 0 
p17Rd2 - p73Rd2 + pro24Rd2 >= 0 
p25Rd3 - p17Rd2 + pro24Rd2 >= 0 
p17Rd2 + p73Rd2 + p25Rd3 + pro24Rd2 <= 3 
p17Rd2 + p73Rd2 + p25Rd3 - pro24Rd2 >= 0 
p16Rd2 + p72Rd2 + p24Rd3 + pro24Rd2 - p73Rd2 >= 0 
p73Rd2 + p16Rd2 - p72Rd2 + p24Rd3 + pro24Rd2 >= 0 
p73Rd2 - p16Rd2 + p72Rd2 + p24Rd3 + pro24Rd2 >= 0 
p17Rd2 + p16Rd2 + p72Rd2 - p24Rd3 + pro24Rd2 >= 0 
p25Rd3 - p16Rd2 - p72Rd2 - p24Rd3 + pro24Rd2 >= -2 
p16Rd2 - p73Rd2 - p72Rd2 - p24Rd3 + pro24Rd2 >= -2 
p72Rd2 - p73Rd2 - p16Rd2 - p24Rd3 + pro24Rd2 >= -2 
p24Rd3 - p73Rd2 - p16Rd2 - p72Rd2 + pro24Rd2 >= -2 
p74Rd2 - p26Rd3 + pro25Rd2 >= 0 
p18Rd2 - p74Rd2 + pro25Rd2 >= 0 
p26Rd3 - p18Rd2 + pro25Rd2 >= 0 
p18Rd2 + p74Rd2 + p26Rd3 + pro25Rd2 <= 3 
p18Rd2 + p74Rd2 + p26Rd3 - pro25Rd2 >= 0 
p17Rd2 + p73Rd2 + p25Rd3 + pro25Rd2 - p74Rd2 >= 0 
p74Rd2 + p17Rd2 - p73Rd2 + p25Rd3 + pro25Rd2 >= 0 
p74Rd2 - p17Rd2 + p73Rd2 + p25Rd3 + pro25Rd2 >= 0 
p18Rd2 + p17Rd2 + p73Rd2 - p25Rd3 + pro25Rd2 >= 0 
p26Rd3 - p17Rd2 - p73Rd2 - p25Rd3 + pro25Rd2 >= -2 
p17Rd2 - p74Rd2 - p73Rd2 - p25Rd3 + pro25Rd2 >= -2 
p73Rd2 - p74Rd2 - p17Rd2 - p25Rd3 + pro25Rd2 >= -2 
p25Rd3 - p74Rd2 - p17Rd2 - p73Rd2 + pro25Rd2 >= -2 
p75Rd2 - p27Rd3 + pro26Rd2 >= 0 
p19Rd2 - p75Rd2 + pro26Rd2 >= 0 
p27Rd3 - p19Rd2 + pro26Rd2 >= 0 
p19Rd2 + p75Rd2 + p27Rd3 + pro26Rd2 <= 3 
p19Rd2 + p75Rd2 + p27Rd3 - pro26Rd2 >= 0 
p18Rd2 + p74Rd2 + p26Rd3 + pro26Rd2 - p75Rd2 >= 0 
p75Rd2 + p18Rd2 - p74Rd2 + p26Rd3 + pro26Rd2 >= 0 
p75Rd2 - p18Rd2 + p74Rd2 + p26Rd3 + pro26Rd2 >= 0 
p19Rd2 + p18Rd2 + p74Rd2 - p26Rd3 + pro26Rd2 >= 0 
p27Rd3 - p18Rd2 - p74Rd2 - p26Rd3 + pro26Rd2 >= -2 
p18Rd2 - p75Rd2 - p74Rd2 - p26Rd3 + pro26Rd2 >= -2 
p74Rd2 - p75Rd2 - p18Rd2 - p26Rd3 + pro26Rd2 >= -2 
p26Rd3 - p75Rd2 - p18Rd2 - p74Rd2 + pro26Rd2 >= -2 
p76Rd2 - p28Rd3 + pro27Rd2 >= 0 
p20Rd2 - p76Rd2 + pro27Rd2 >= 0 
p28Rd3 - p20Rd2 + pro27Rd2 >= 0 
p20Rd2 + p76Rd2 + p28Rd3 + pro27Rd2 <= 3 
p20Rd2 + p76Rd2 + p28Rd3 - pro27Rd2 >= 0 
p19Rd2 + p75Rd2 + p27Rd3 + pro27Rd2 - p76Rd2 >= 0 
p76Rd2 + p19Rd2 - p75Rd2 + p27Rd3 + pro27Rd2 >= 0 
p76Rd2 - p19Rd2 + p75Rd2 + p27Rd3 + pro27Rd2 >= 0 
p20Rd2 + p19Rd2 + p75Rd2 - p27Rd3 + pro27Rd2 >= 0 
p28Rd3 - p19Rd2 - p75Rd2 - p27Rd3 + pro27Rd2 >= -2 
p19Rd2 - p76Rd2 - p75Rd2 - p27Rd3 + pro27Rd2 >= -2 
p75Rd2 - p76Rd2 - p19Rd2 - p27Rd3 + pro27Rd2 >= -2 
p27Rd3 - p76Rd2 - p19Rd2 - p75Rd2 + pro27Rd2 >= -2 
p77Rd2 - p29Rd3 + pro28Rd2 >= 0 
p21Rd2 - p77Rd2 + pro28Rd2 >= 0 
p29Rd3 - p21Rd2 + pro28Rd2 >= 0 
p21Rd2 + p77Rd2 + p29Rd3 + pro28Rd2 <= 3 
p21Rd2 + p77Rd2 + p29Rd3 - pro28Rd2 >= 0 
p20Rd2 + p76Rd2 + p28Rd3 + pro28Rd2 - p77Rd2 >= 0 
p77Rd2 + p20Rd2 - p76Rd2 + p28Rd3 + pro28Rd2 >= 0 
p77Rd2 - p20Rd2 + p76Rd2 + p28Rd3 + pro28Rd2 >= 0 
p21Rd2 + p20Rd2 + p76Rd2 - p28Rd3 + pro28Rd2 >= 0 
p29Rd3 - p20Rd2 - p76Rd2 - p28Rd3 + pro28Rd2 >= -2 
p20Rd2 - p77Rd2 - p76Rd2 - p28Rd3 + pro28Rd2 >= -2 
p76Rd2 - p77Rd2 - p20Rd2 - p28Rd3 + pro28Rd2 >= -2 
p28Rd3 - p77Rd2 - p20Rd2 - p76Rd2 + pro28Rd2 >= -2 
p78Rd2 - p30Rd3 + pro29Rd2 >= 0 
p22Rd2 - p78Rd2 + pro29Rd2 >= 0 
p30Rd3 - p22Rd2 + pro29Rd2 >= 0 
p22Rd2 + p78Rd2 + p30Rd3 + pro29Rd2 <= 3 
p22Rd2 + p78Rd2 + p30Rd3 - pro29Rd2 >= 0 
p21Rd2 + p77Rd2 + p29Rd3 + pro29Rd2 - p78Rd2 >= 0 
p78Rd2 + p21Rd2 - p77Rd2 + p29Rd3 + pro29Rd2 >= 0 
p78Rd2 - p21Rd2 + p77Rd2 + p29Rd3 + pro29Rd2 >= 0 
p22Rd2 + p21Rd2 + p77Rd2 - p29Rd3 + pro29Rd2 >= 0 
p30Rd3 - p21Rd2 - p77Rd2 - p29Rd3 + pro29Rd2 >= -2 
p21Rd2 - p78Rd2 - p77Rd2 - p29Rd3 + pro29Rd2 >= -2 
p77Rd2 - p78Rd2 - p21Rd2 - p29Rd3 + pro29Rd2 >= -2 
p29Rd3 - p78Rd2 - p21Rd2 - p77Rd2 + pro29Rd2 >= -2 
p79Rd2 - p31Rd3 + pro30Rd2 >= 0 
p23Rd2 - p79Rd2 + pro30Rd2 >= 0 
p31Rd3 - p23Rd2 + pro30Rd2 >= 0 
p23Rd2 + p79Rd2 + p31Rd3 + pro30Rd2 <= 3 
p23Rd2 + p79Rd2 + p31Rd3 - pro30Rd2 >= 0 
p22Rd2 + p78Rd2 + p30Rd3 + pro30Rd2 - p79Rd2 >= 0 
p79Rd2 + p22Rd2 - p78Rd2 + p30Rd3 + pro30Rd2 >= 0 
p79Rd2 - p22Rd2 + p78Rd2 + p30Rd3 + pro30Rd2 >= 0 
p23Rd2 + p22Rd2 + p78Rd2 - p30Rd3 + pro30Rd2 >= 0 
p31Rd3 - p22Rd2 - p78Rd2 - p30Rd3 + pro30Rd2 >= -2 
p22Rd2 - p79Rd2 - p78Rd2 - p30Rd3 + pro30Rd2 >= -2 
p78Rd2 - p79Rd2 - p22Rd2 - p30Rd3 + pro30Rd2 >= -2 
p30Rd3 - p79Rd2 - p22Rd2 - p78Rd2 + pro30Rd2 >= -2 
p80Rd2 - p32Rd3 + pro31Rd2 >= 0 
p24Rd2 - p80Rd2 + pro31Rd2 >= 0 
p32Rd3 - p24Rd2 + pro31Rd2 >= 0 
p24Rd2 + p80Rd2 + p32Rd3 + pro31Rd2 <= 3 
p24Rd2 + p80Rd2 + p32Rd3 - pro31Rd2 >= 0 
p23Rd2 + p79Rd2 + p31Rd3 + pro31Rd2 - p80Rd2 >= 0 
p80Rd2 + p23Rd2 - p79Rd2 + p31Rd3 + pro31Rd2 >= 0 
p80Rd2 - p23Rd2 + p79Rd2 + p31Rd3 + pro31Rd2 >= 0 
p24Rd2 + p23Rd2 + p79Rd2 - p31Rd3 + pro31Rd2 >= 0 
p32Rd3 - p23Rd2 - p79Rd2 - p31Rd3 + pro31Rd2 >= -2 
p23Rd2 - p80Rd2 - p79Rd2 - p31Rd3 + pro31Rd2 >= -2 
p79Rd2 - p80Rd2 - p23Rd2 - p31Rd3 + pro31Rd2 >= -2 
p31Rd3 - p80Rd2 - p23Rd2 - p79Rd2 + pro31Rd2 >= -2 
p81Rd2 - p33Rd3 + pro32Rd2 >= 0 
p25Rd2 - p81Rd2 + pro32Rd2 >= 0 
p33Rd3 - p25Rd2 + pro32Rd2 >= 0 
p25Rd2 + p81Rd2 + p33Rd3 + pro32Rd2 <= 3 
p25Rd2 + p81Rd2 + p33Rd3 - pro32Rd2 >= 0 
p24Rd2 + p80Rd2 + p32Rd3 + pro32Rd2 - p81Rd2 >= 0 
p81Rd2 + p24Rd2 - p80Rd2 + p32Rd3 + pro32Rd2 >= 0 
p81Rd2 - p24Rd2 + p80Rd2 + p32Rd3 + pro32Rd2 >= 0 
p25Rd2 + p24Rd2 + p80Rd2 - p32Rd3 + pro32Rd2 >= 0 
p33Rd3 - p24Rd2 - p80Rd2 - p32Rd3 + pro32Rd2 >= -2 
p24Rd2 - p81Rd2 - p80Rd2 - p32Rd3 + pro32Rd2 >= -2 
p80Rd2 - p81Rd2 - p24Rd2 - p32Rd3 + pro32Rd2 >= -2 
p32Rd3 - p81Rd2 - p24Rd2 - p80Rd2 + pro32Rd2 >= -2 
p82Rd2 - p34Rd3 + pro33Rd2 >= 0 
p26Rd2 - p82Rd2 + pro33Rd2 >= 0 
p34Rd3 - p26Rd2 + pro33Rd2 >= 0 
p26Rd2 + p82Rd2 + p34Rd3 + pro33Rd2 <= 3 
p26Rd2 + p82Rd2 + p34Rd3 - pro33Rd2 >= 0 
p25Rd2 + p81Rd2 + p33Rd3 + pro33Rd2 - p82Rd2 >= 0 
p82Rd2 + p25Rd2 - p81Rd2 + p33Rd3 + pro33Rd2 >= 0 
p82Rd2 - p25Rd2 + p81Rd2 + p33Rd3 + pro33Rd2 >= 0 
p26Rd2 + p25Rd2 + p81Rd2 - p33Rd3 + pro33Rd2 >= 0 
p34Rd3 - p25Rd2 - p81Rd2 - p33Rd3 + pro33Rd2 >= -2 
p25Rd2 - p82Rd2 - p81Rd2 - p33Rd3 + pro33Rd2 >= -2 
p81Rd2 - p82Rd2 - p25Rd2 - p33Rd3 + pro33Rd2 >= -2 
p33Rd3 - p82Rd2 - p25Rd2 - p81Rd2 + pro33Rd2 >= -2 
p83Rd2 - p35Rd3 + pro34Rd2 >= 0 
p27Rd2 - p83Rd2 + pro34Rd2 >= 0 
p35Rd3 - p27Rd2 + pro34Rd2 >= 0 
p27Rd2 + p83Rd2 + p35Rd3 + pro34Rd2 <= 3 
p27Rd2 + p83Rd2 + p35Rd3 - pro34Rd2 >= 0 
p26Rd2 + p82Rd2 + p34Rd3 + pro34Rd2 - p83Rd2 >= 0 
p83Rd2 + p26Rd2 - p82Rd2 + p34Rd3 + pro34Rd2 >= 0 
p83Rd2 - p26Rd2 + p82Rd2 + p34Rd3 + pro34Rd2 >= 0 
p27Rd2 + p26Rd2 + p82Rd2 - p34Rd3 + pro34Rd2 >= 0 
p35Rd3 - p26Rd2 - p82Rd2 - p34Rd3 + pro34Rd2 >= -2 
p26Rd2 - p83Rd2 - p82Rd2 - p34Rd3 + pro34Rd2 >= -2 
p82Rd2 - p83Rd2 - p26Rd2 - p34Rd3 + pro34Rd2 >= -2 
p34Rd3 - p83Rd2 - p26Rd2 - p82Rd2 + pro34Rd2 >= -2 
p84Rd2 - p36Rd3 + pro35Rd2 >= 0 
p28Rd2 - p84Rd2 + pro35Rd2 >= 0 
p36Rd3 - p28Rd2 + pro35Rd2 >= 0 
p28Rd2 + p84Rd2 + p36Rd3 + pro35Rd2 <= 3 
p28Rd2 + p84Rd2 + p36Rd3 - pro35Rd2 >= 0 
p27Rd2 + p83Rd2 + p35Rd3 + pro35Rd2 - p84Rd2 >= 0 
p84Rd2 + p27Rd2 - p83Rd2 + p35Rd3 + pro35Rd2 >= 0 
p84Rd2 - p27Rd2 + p83Rd2 + p35Rd3 + pro35Rd2 >= 0 
p28Rd2 + p27Rd2 + p83Rd2 - p35Rd3 + pro35Rd2 >= 0 
p36Rd3 - p27Rd2 - p83Rd2 - p35Rd3 + pro35Rd2 >= -2 
p27Rd2 - p84Rd2 - p83Rd2 - p35Rd3 + pro35Rd2 >= -2 
p83Rd2 - p84Rd2 - p27Rd2 - p35Rd3 + pro35Rd2 >= -2 
p35Rd3 - p84Rd2 - p27Rd2 - p83Rd2 + pro35Rd2 >= -2 
p85Rd2 - p37Rd3 + pro36Rd2 >= 0 
p29Rd2 - p85Rd2 + pro36Rd2 >= 0 
p37Rd3 - p29Rd2 + pro36Rd2 >= 0 
p29Rd2 + p85Rd2 + p37Rd3 + pro36Rd2 <= 3 
p29Rd2 + p85Rd2 + p37Rd3 - pro36Rd2 >= 0 
p28Rd2 + p84Rd2 + p36Rd3 + pro36Rd2 - p85Rd2 >= 0 
p85Rd2 + p28Rd2 - p84Rd2 + p36Rd3 + pro36Rd2 >= 0 
p85Rd2 - p28Rd2 + p84Rd2 + p36Rd3 + pro36Rd2 >= 0 
p29Rd2 + p28Rd2 + p84Rd2 - p36Rd3 + pro36Rd2 >= 0 
p37Rd3 - p28Rd2 - p84Rd2 - p36Rd3 + pro36Rd2 >= -2 
p28Rd2 - p85Rd2 - p84Rd2 - p36Rd3 + pro36Rd2 >= -2 
p84Rd2 - p85Rd2 - p28Rd2 - p36Rd3 + pro36Rd2 >= -2 
p36Rd3 - p85Rd2 - p28Rd2 - p84Rd2 + pro36Rd2 >= -2 
p86Rd2 - p38Rd3 + pro37Rd2 >= 0 
p30Rd2 - p86Rd2 + pro37Rd2 >= 0 
p38Rd3 - p30Rd2 + pro37Rd2 >= 0 
p30Rd2 + p86Rd2 + p38Rd3 + pro37Rd2 <= 3 
p30Rd2 + p86Rd2 + p38Rd3 - pro37Rd2 >= 0 
p29Rd2 + p85Rd2 + p37Rd3 + pro37Rd2 - p86Rd2 >= 0 
p86Rd2 + p29Rd2 - p85Rd2 + p37Rd3 + pro37Rd2 >= 0 
p86Rd2 - p29Rd2 + p85Rd2 + p37Rd3 + pro37Rd2 >= 0 
p30Rd2 + p29Rd2 + p85Rd2 - p37Rd3 + pro37Rd2 >= 0 
p38Rd3 - p29Rd2 - p85Rd2 - p37Rd3 + pro37Rd2 >= -2 
p29Rd2 - p86Rd2 - p85Rd2 - p37Rd3 + pro37Rd2 >= -2 
p85Rd2 - p86Rd2 - p29Rd2 - p37Rd3 + pro37Rd2 >= -2 
p37Rd3 - p86Rd2 - p29Rd2 - p85Rd2 + pro37Rd2 >= -2 
p87Rd2 - p39Rd3 + pro38Rd2 >= 0 
p31Rd2 - p87Rd2 + pro38Rd2 >= 0 
p39Rd3 - p31Rd2 + pro38Rd2 >= 0 
p31Rd2 + p87Rd2 + p39Rd3 + pro38Rd2 <= 3 
p31Rd2 + p87Rd2 + p39Rd3 - pro38Rd2 >= 0 
p30Rd2 + p86Rd2 + p38Rd3 + pro38Rd2 - p87Rd2 >= 0 
p87Rd2 + p30Rd2 - p86Rd2 + p38Rd3 + pro38Rd2 >= 0 
p87Rd2 - p30Rd2 + p86Rd2 + p38Rd3 + pro38Rd2 >= 0 
p31Rd2 + p30Rd2 + p86Rd2 - p38Rd3 + pro38Rd2 >= 0 
p39Rd3 - p30Rd2 - p86Rd2 - p38Rd3 + pro38Rd2 >= -2 
p30Rd2 - p87Rd2 - p86Rd2 - p38Rd3 + pro38Rd2 >= -2 
p86Rd2 - p87Rd2 - p30Rd2 - p38Rd3 + pro38Rd2 >= -2 
p38Rd3 - p87Rd2 - p30Rd2 - p86Rd2 + pro38Rd2 >= -2 
p88Rd2 - p40Rd3 + pro39Rd2 >= 0 
p32Rd2 - p88Rd2 + pro39Rd2 >= 0 
p40Rd3 - p32Rd2 + pro39Rd2 >= 0 
p32Rd2 + p88Rd2 + p40Rd3 + pro39Rd2 <= 3 
p32Rd2 + p88Rd2 + p40Rd3 - pro39Rd2 >= 0 
p31Rd2 + p87Rd2 + p39Rd3 + pro39Rd2 - p88Rd2 >= 0 
p88Rd2 + p31Rd2 - p87Rd2 + p39Rd3 + pro39Rd2 >= 0 
p88Rd2 - p31Rd2 + p87Rd2 + p39Rd3 + pro39Rd2 >= 0 
p32Rd2 + p31Rd2 + p87Rd2 - p39Rd3 + pro39Rd2 >= 0 
p40Rd3 - p31Rd2 - p87Rd2 - p39Rd3 + pro39Rd2 >= -2 
p31Rd2 - p88Rd2 - p87Rd2 - p39Rd3 + pro39Rd2 >= -2 
p87Rd2 - p88Rd2 - p31Rd2 - p39Rd3 + pro39Rd2 >= -2 
p39Rd3 - p88Rd2 - p31Rd2 - p87Rd2 + pro39Rd2 >= -2 
p89Rd2 - p41Rd3 + pro40Rd2 >= 0 
p33Rd2 - p89Rd2 + pro40Rd2 >= 0 
p41Rd3 - p33Rd2 + pro40Rd2 >= 0 
p33Rd2 + p89Rd2 + p41Rd3 + pro40Rd2 <= 3 
p33Rd2 + p89Rd2 + p41Rd3 - pro40Rd2 >= 0 
p32Rd2 + p88Rd2 + p40Rd3 + pro40Rd2 - p89Rd2 >= 0 
p89Rd2 + p32Rd2 - p88Rd2 + p40Rd3 + pro40Rd2 >= 0 
p89Rd2 - p32Rd2 + p88Rd2 + p40Rd3 + pro40Rd2 >= 0 
p33Rd2 + p32Rd2 + p88Rd2 - p40Rd3 + pro40Rd2 >= 0 
p41Rd3 - p32Rd2 - p88Rd2 - p40Rd3 + pro40Rd2 >= -2 
p32Rd2 - p89Rd2 - p88Rd2 - p40Rd3 + pro40Rd2 >= -2 
p88Rd2 - p89Rd2 - p32Rd2 - p40Rd3 + pro40Rd2 >= -2 
p40Rd3 - p89Rd2 - p32Rd2 - p88Rd2 + pro40Rd2 >= -2 
p90Rd2 - p42Rd3 + pro41Rd2 >= 0 
p34Rd2 - p90Rd2 + pro41Rd2 >= 0 
p42Rd3 - p34Rd2 + pro41Rd2 >= 0 
p34Rd2 + p90Rd2 + p42Rd3 + pro41Rd2 <= 3 
p34Rd2 + p90Rd2 + p42Rd3 - pro41Rd2 >= 0 
p33Rd2 + p89Rd2 + p41Rd3 + pro41Rd2 - p90Rd2 >= 0 
p90Rd2 + p33Rd2 - p89Rd2 + p41Rd3 + pro41Rd2 >= 0 
p90Rd2 - p33Rd2 + p89Rd2 + p41Rd3 + pro41Rd2 >= 0 
p34Rd2 + p33Rd2 + p89Rd2 - p41Rd3 + pro41Rd2 >= 0 
p42Rd3 - p33Rd2 - p89Rd2 - p41Rd3 + pro41Rd2 >= -2 
p33Rd2 - p90Rd2 - p89Rd2 - p41Rd3 + pro41Rd2 >= -2 
p89Rd2 - p90Rd2 - p33Rd2 - p41Rd3 + pro41Rd2 >= -2 
p41Rd3 - p90Rd2 - p33Rd2 - p89Rd2 + pro41Rd2 >= -2 
p91Rd2 - p43Rd3 + pro42Rd2 >= 0 
p35Rd2 - p91Rd2 + pro42Rd2 >= 0 
p43Rd3 - p35Rd2 + pro42Rd2 >= 0 
p35Rd2 + p91Rd2 + p43Rd3 + pro42Rd2 <= 3 
p35Rd2 + p91Rd2 + p43Rd3 - pro42Rd2 >= 0 
p34Rd2 + p90Rd2 + p42Rd3 + pro42Rd2 - p91Rd2 >= 0 
p91Rd2 + p34Rd2 - p90Rd2 + p42Rd3 + pro42Rd2 >= 0 
p91Rd2 - p34Rd2 + p90Rd2 + p42Rd3 + pro42Rd2 >= 0 
p35Rd2 + p34Rd2 + p90Rd2 - p42Rd3 + pro42Rd2 >= 0 
p43Rd3 - p34Rd2 - p90Rd2 - p42Rd3 + pro42Rd2 >= -2 
p34Rd2 - p91Rd2 - p90Rd2 - p42Rd3 + pro42Rd2 >= -2 
p90Rd2 - p91Rd2 - p34Rd2 - p42Rd3 + pro42Rd2 >= -2 
p42Rd3 - p91Rd2 - p34Rd2 - p90Rd2 + pro42Rd2 >= -2 
p92Rd2 - p44Rd3 + pro43Rd2 >= 0 
p36Rd2 - p92Rd2 + pro43Rd2 >= 0 
p44Rd3 - p36Rd2 + pro43Rd2 >= 0 
p36Rd2 + p92Rd2 + p44Rd3 + pro43Rd2 <= 3 
p36Rd2 + p92Rd2 + p44Rd3 - pro43Rd2 >= 0 
p35Rd2 + p91Rd2 + p43Rd3 + pro43Rd2 - p92Rd2 >= 0 
p92Rd2 + p35Rd2 - p91Rd2 + p43Rd3 + pro43Rd2 >= 0 
p92Rd2 - p35Rd2 + p91Rd2 + p43Rd3 + pro43Rd2 >= 0 
p36Rd2 + p35Rd2 + p91Rd2 - p43Rd3 + pro43Rd2 >= 0 
p44Rd3 - p35Rd2 - p91Rd2 - p43Rd3 + pro43Rd2 >= -2 
p35Rd2 - p92Rd2 - p91Rd2 - p43Rd3 + pro43Rd2 >= -2 
p91Rd2 - p92Rd2 - p35Rd2 - p43Rd3 + pro43Rd2 >= -2 
p43Rd3 - p92Rd2 - p35Rd2 - p91Rd2 + pro43Rd2 >= -2 
p93Rd2 - p45Rd3 + pro44Rd2 >= 0 
p37Rd2 - p93Rd2 + pro44Rd2 >= 0 
p45Rd3 - p37Rd2 + pro44Rd2 >= 0 
p37Rd2 + p93Rd2 + p45Rd3 + pro44Rd2 <= 3 
p37Rd2 + p93Rd2 + p45Rd3 - pro44Rd2 >= 0 
p36Rd2 + p92Rd2 + p44Rd3 + pro44Rd2 - p93Rd2 >= 0 
p93Rd2 + p36Rd2 - p92Rd2 + p44Rd3 + pro44Rd2 >= 0 
p93Rd2 - p36Rd2 + p92Rd2 + p44Rd3 + pro44Rd2 >= 0 
p37Rd2 + p36Rd2 + p92Rd2 - p44Rd3 + pro44Rd2 >= 0 
p45Rd3 - p36Rd2 - p92Rd2 - p44Rd3 + pro44Rd2 >= -2 
p36Rd2 - p93Rd2 - p92Rd2 - p44Rd3 + pro44Rd2 >= -2 
p92Rd2 - p93Rd2 - p36Rd2 - p44Rd3 + pro44Rd2 >= -2 
p44Rd3 - p93Rd2 - p36Rd2 - p92Rd2 + pro44Rd2 >= -2 
p94Rd2 - p46Rd3 + pro45Rd2 >= 0 
p38Rd2 - p94Rd2 + pro45Rd2 >= 0 
p46Rd3 - p38Rd2 + pro45Rd2 >= 0 
p38Rd2 + p94Rd2 + p46Rd3 + pro45Rd2 <= 3 
p38Rd2 + p94Rd2 + p46Rd3 - pro45Rd2 >= 0 
p37Rd2 + p93Rd2 + p45Rd3 + pro45Rd2 - p94Rd2 >= 0 
p94Rd2 + p37Rd2 - p93Rd2 + p45Rd3 + pro45Rd2 >= 0 
p94Rd2 - p37Rd2 + p93Rd2 + p45Rd3 + pro45Rd2 >= 0 
p38Rd2 + p37Rd2 + p93Rd2 - p45Rd3 + pro45Rd2 >= 0 
p46Rd3 - p37Rd2 - p93Rd2 - p45Rd3 + pro45Rd2 >= -2 
p37Rd2 - p94Rd2 - p93Rd2 - p45Rd3 + pro45Rd2 >= -2 
p93Rd2 - p94Rd2 - p37Rd2 - p45Rd3 + pro45Rd2 >= -2 
p45Rd3 - p94Rd2 - p37Rd2 - p93Rd2 + pro45Rd2 >= -2 
p95Rd2 - p47Rd3 + pro46Rd2 >= 0 
p39Rd2 - p95Rd2 + pro46Rd2 >= 0 
p47Rd3 - p39Rd2 + pro46Rd2 >= 0 
p39Rd2 + p95Rd2 + p47Rd3 + pro46Rd2 <= 3 
p39Rd2 + p95Rd2 + p47Rd3 - pro46Rd2 >= 0 
p38Rd2 + p94Rd2 + p46Rd3 + pro46Rd2 - p95Rd2 >= 0 
p95Rd2 + p38Rd2 - p94Rd2 + p46Rd3 + pro46Rd2 >= 0 
p95Rd2 - p38Rd2 + p94Rd2 + p46Rd3 + pro46Rd2 >= 0 
p39Rd2 + p38Rd2 + p94Rd2 - p46Rd3 + pro46Rd2 >= 0 
p47Rd3 - p38Rd2 - p94Rd2 - p46Rd3 + pro46Rd2 >= -2 
p38Rd2 - p95Rd2 - p94Rd2 - p46Rd3 + pro46Rd2 >= -2 
p94Rd2 - p95Rd2 - p38Rd2 - p46Rd3 + pro46Rd2 >= -2 
p46Rd3 - p95Rd2 - p38Rd2 - p94Rd2 + pro46Rd2 >= -2 
p39Rd2 + p95Rd2 + p47Rd3 <= 2 
p39Rd2 + p95Rd2 + p47Rd3 - 2 temp2 >= 0 
temp2 - p39Rd2 >= 0 
temp2 - p95Rd2 >= 0 
temp2 - p47Rd3 >= 0 
p51Rd3 + p48Rd4 - p0Rd4 >= 0
p51Rd3 - p48Rd4 + p0Rd4 >= 0
- p51Rd3 + p48Rd4 + p0Rd4 >= 0
p51Rd3 + p48Rd4 + p0Rd4 <= 2
p52Rd3 + p49Rd4 - p1Rd4 >= 0
p52Rd3 - p49Rd4 + p1Rd4 >= 0
- p52Rd3 + p49Rd4 + p1Rd4 >= 0
p52Rd3 + p49Rd4 + p1Rd4 <= 2
p53Rd3 + p50Rd4 - p2Rd4 >= 0
p53Rd3 - p50Rd4 + p2Rd4 >= 0
- p53Rd3 + p50Rd4 + p2Rd4 >= 0
p53Rd3 + p50Rd4 + p2Rd4 <= 2
p54Rd3 + p51Rd4 - p3Rd4 >= 0
p54Rd3 - p51Rd4 + p3Rd4 >= 0
- p54Rd3 + p51Rd4 + p3Rd4 >= 0
p54Rd3 + p51Rd4 + p3Rd4 <= 2
p55Rd3 + p52Rd4 - p4Rd4 >= 0
p55Rd3 - p52Rd4 + p4Rd4 >= 0
- p55Rd3 + p52Rd4 + p4Rd4 >= 0
p55Rd3 + p52Rd4 + p4Rd4 <= 2
p56Rd3 + p53Rd4 - p5Rd4 >= 0
p56Rd3 - p53Rd4 + p5Rd4 >= 0
- p56Rd3 + p53Rd4 + p5Rd4 >= 0
p56Rd3 + p53Rd4 + p5Rd4 <= 2
p57Rd3 + p54Rd4 - p6Rd4 >= 0
p57Rd3 - p54Rd4 + p6Rd4 >= 0
- p57Rd3 + p54Rd4 + p6Rd4 >= 0
p57Rd3 + p54Rd4 + p6Rd4 <= 2
p58Rd3 + p55Rd4 - p7Rd4 >= 0
p58Rd3 - p55Rd4 + p7Rd4 >= 0
- p58Rd3 + p55Rd4 + p7Rd4 >= 0
p58Rd3 + p55Rd4 + p7Rd4 <= 2
p59Rd3 + p56Rd4 - p8Rd4 >= 0
p59Rd3 - p56Rd4 + p8Rd4 >= 0
- p59Rd3 + p56Rd4 + p8Rd4 >= 0
p59Rd3 + p56Rd4 + p8Rd4 <= 2
p60Rd3 + p57Rd4 - p9Rd4 >= 0
p60Rd3 - p57Rd4 + p9Rd4 >= 0
- p60Rd3 + p57Rd4 + p9Rd4 >= 0
p60Rd3 + p57Rd4 + p9Rd4 <= 2
p61Rd3 + p58Rd4 - p10Rd4 >= 0
p61Rd3 - p58Rd4 + p10Rd4 >= 0
- p61Rd3 + p58Rd4 + p10Rd4 >= 0
p61Rd3 + p58Rd4 + p10Rd4 <= 2
p62Rd3 + p59Rd4 - p11Rd4 >= 0
p62Rd3 - p59Rd4 + p11Rd4 >= 0
- p62Rd3 + p59Rd4 + p11Rd4 >= 0
p62Rd3 + p59Rd4 + p11Rd4 <= 2
p63Rd3 + p60Rd4 - p12Rd4 >= 0
p63Rd3 - p60Rd4 + p12Rd4 >= 0
- p63Rd3 + p60Rd4 + p12Rd4 >= 0
p63Rd3 + p60Rd4 + p12Rd4 <= 2
p64Rd3 + p61Rd4 - p13Rd4 >= 0
p64Rd3 - p61Rd4 + p13Rd4 >= 0
- p64Rd3 + p61Rd4 + p13Rd4 >= 0
p64Rd3 + p61Rd4 + p13Rd4 <= 2
p65Rd3 + p62Rd4 - p14Rd4 >= 0
p65Rd3 - p62Rd4 + p14Rd4 >= 0
- p65Rd3 + p62Rd4 + p14Rd4 >= 0
p65Rd3 + p62Rd4 + p14Rd4 <= 2
p66Rd3 + p63Rd4 - p15Rd4 >= 0
p66Rd3 - p63Rd4 + p15Rd4 >= 0
- p66Rd3 + p63Rd4 + p15Rd4 >= 0
p66Rd3 + p63Rd4 + p15Rd4 <= 2
p67Rd3 + p64Rd4 - p16Rd4 >= 0
p67Rd3 - p64Rd4 + p16Rd4 >= 0
- p67Rd3 + p64Rd4 + p16Rd4 >= 0
p67Rd3 + p64Rd4 + p16Rd4 <= 2
p68Rd3 + p65Rd4 - p17Rd4 >= 0
p68Rd3 - p65Rd4 + p17Rd4 >= 0
- p68Rd3 + p65Rd4 + p17Rd4 >= 0
p68Rd3 + p65Rd4 + p17Rd4 <= 2
p69Rd3 + p66Rd4 - p18Rd4 >= 0
p69Rd3 - p66Rd4 + p18Rd4 >= 0
- p69Rd3 + p66Rd4 + p18Rd4 >= 0
p69Rd3 + p66Rd4 + p18Rd4 <= 2
p70Rd3 + p67Rd4 - p19Rd4 >= 0
p70Rd3 - p67Rd4 + p19Rd4 >= 0
- p70Rd3 + p67Rd4 + p19Rd4 >= 0
p70Rd3 + p67Rd4 + p19Rd4 <= 2
p71Rd3 + p68Rd4 - p20Rd4 >= 0
p71Rd3 - p68Rd4 + p20Rd4 >= 0
- p71Rd3 + p68Rd4 + p20Rd4 >= 0
p71Rd3 + p68Rd4 + p20Rd4 <= 2
p72Rd3 + p69Rd4 - p21Rd4 >= 0
p72Rd3 - p69Rd4 + p21Rd4 >= 0
- p72Rd3 + p69Rd4 + p21Rd4 >= 0
p72Rd3 + p69Rd4 + p21Rd4 <= 2
p73Rd3 + p70Rd4 - p22Rd4 >= 0
p73Rd3 - p70Rd4 + p22Rd4 >= 0
- p73Rd3 + p70Rd4 + p22Rd4 >= 0
p73Rd3 + p70Rd4 + p22Rd4 <= 2
p74Rd3 + p71Rd4 - p23Rd4 >= 0
p74Rd3 - p71Rd4 + p23Rd4 >= 0
- p74Rd3 + p71Rd4 + p23Rd4 >= 0
p74Rd3 + p71Rd4 + p23Rd4 <= 2
p75Rd3 + p72Rd4 - p24Rd4 >= 0
p75Rd3 - p72Rd4 + p24Rd4 >= 0
- p75Rd3 + p72Rd4 + p24Rd4 >= 0
p75Rd3 + p72Rd4 + p24Rd4 <= 2
p76Rd3 + p73Rd4 - p25Rd4 >= 0
p76Rd3 - p73Rd4 + p25Rd4 >= 0
- p76Rd3 + p73Rd4 + p25Rd4 >= 0
p76Rd3 + p73Rd4 + p25Rd4 <= 2
p77Rd3 + p74Rd4 - p26Rd4 >= 0
p77Rd3 - p74Rd4 + p26Rd4 >= 0
- p77Rd3 + p74Rd4 + p26Rd4 >= 0
p77Rd3 + p74Rd4 + p26Rd4 <= 2
p78Rd3 + p75Rd4 - p27Rd4 >= 0
p78Rd3 - p75Rd4 + p27Rd4 >= 0
- p78Rd3 + p75Rd4 + p27Rd4 >= 0
p78Rd3 + p75Rd4 + p27Rd4 <= 2
p79Rd3 + p76Rd4 - p28Rd4 >= 0
p79Rd3 - p76Rd4 + p28Rd4 >= 0
- p79Rd3 + p76Rd4 + p28Rd4 >= 0
p79Rd3 + p76Rd4 + p28Rd4 <= 2
p80Rd3 + p77Rd4 - p29Rd4 >= 0
p80Rd3 - p77Rd4 + p29Rd4 >= 0
- p80Rd3 + p77Rd4 + p29Rd4 >= 0
p80Rd3 + p77Rd4 + p29Rd4 <= 2
p81Rd3 + p78Rd4 - p30Rd4 >= 0
p81Rd3 - p78Rd4 + p30Rd4 >= 0
- p81Rd3 + p78Rd4 + p30Rd4 >= 0
p81Rd3 + p78Rd4 + p30Rd4 <= 2
p82Rd3 + p79Rd4 - p31Rd4 >= 0
p82Rd3 - p79Rd4 + p31Rd4 >= 0
- p82Rd3 + p79Rd4 + p31Rd4 >= 0
p82Rd3 + p79Rd4 + p31Rd4 <= 2
p83Rd3 + p80Rd4 - p32Rd4 >= 0
p83Rd3 - p80Rd4 + p32Rd4 >= 0
- p83Rd3 + p80Rd4 + p32Rd4 >= 0
p83Rd3 + p80Rd4 + p32Rd4 <= 2
p84Rd3 + p81Rd4 - p33Rd4 >= 0
p84Rd3 - p81Rd4 + p33Rd4 >= 0
- p84Rd3 + p81Rd4 + p33Rd4 >= 0
p84Rd3 + p81Rd4 + p33Rd4 <= 2
p85Rd3 + p82Rd4 - p34Rd4 >= 0
p85Rd3 - p82Rd4 + p34Rd4 >= 0
- p85Rd3 + p82Rd4 + p34Rd4 >= 0
p85Rd3 + p82Rd4 + p34Rd4 <= 2
p86Rd3 + p83Rd4 - p35Rd4 >= 0
p86Rd3 - p83Rd4 + p35Rd4 >= 0
- p86Rd3 + p83Rd4 + p35Rd4 >= 0
p86Rd3 + p83Rd4 + p35Rd4 <= 2
p87Rd3 + p84Rd4 - p36Rd4 >= 0
p87Rd3 - p84Rd4 + p36Rd4 >= 0
- p87Rd3 + p84Rd4 + p36Rd4 >= 0
p87Rd3 + p84Rd4 + p36Rd4 <= 2
p88Rd3 + p85Rd4 - p37Rd4 >= 0
p88Rd3 - p85Rd4 + p37Rd4 >= 0
- p88Rd3 + p85Rd4 + p37Rd4 >= 0
p88Rd3 + p85Rd4 + p37Rd4 <= 2
p89Rd3 + p86Rd4 - p38Rd4 >= 0
p89Rd3 - p86Rd4 + p38Rd4 >= 0
- p89Rd3 + p86Rd4 + p38Rd4 >= 0
p89Rd3 + p86Rd4 + p38Rd4 <= 2
p90Rd3 + p87Rd4 - p39Rd4 >= 0
p90Rd3 - p87Rd4 + p39Rd4 >= 0
- p90Rd3 + p87Rd4 + p39Rd4 >= 0
p90Rd3 + p87Rd4 + p39Rd4 <= 2
p91Rd3 + p88Rd4 - p40Rd4 >= 0
p91Rd3 - p88Rd4 + p40Rd4 >= 0
- p91Rd3 + p88Rd4 + p40Rd4 >= 0
p91Rd3 + p88Rd4 + p40Rd4 <= 2
p92Rd3 + p89Rd4 - p41Rd4 >= 0
p92Rd3 - p89Rd4 + p41Rd4 >= 0
- p92Rd3 + p89Rd4 + p41Rd4 >= 0
p92Rd3 + p89Rd4 + p41Rd4 <= 2
p93Rd3 + p90Rd4 - p42Rd4 >= 0
p93Rd3 - p90Rd4 + p42Rd4 >= 0
- p93Rd3 + p90Rd4 + p42Rd4 >= 0
p93Rd3 + p90Rd4 + p42Rd4 <= 2
p94Rd3 + p91Rd4 - p43Rd4 >= 0
p94Rd3 - p91Rd4 + p43Rd4 >= 0
- p94Rd3 + p91Rd4 + p43Rd4 >= 0
p94Rd3 + p91Rd4 + p43Rd4 <= 2
p95Rd3 + p92Rd4 - p44Rd4 >= 0
p95Rd3 - p92Rd4 + p44Rd4 >= 0
- p95Rd3 + p92Rd4 + p44Rd4 >= 0
p95Rd3 + p92Rd4 + p44Rd4 <= 2
p48Rd3 + p93Rd4 - p45Rd4 >= 0
p48Rd3 - p93Rd4 + p45Rd4 >= 0
- p48Rd3 + p93Rd4 + p45Rd4 >= 0
p48Rd3 + p93Rd4 + p45Rd4 <= 2
p49Rd3 + p94Rd4 - p46Rd4 >= 0
p49Rd3 - p94Rd4 + p46Rd4 >= 0
- p49Rd3 + p94Rd4 + p46Rd4 >= 0
p49Rd3 + p94Rd4 + p46Rd4 <= 2
p50Rd3 + p95Rd4 - p47Rd4 >= 0
p50Rd3 - p95Rd4 + p47Rd4 >= 0
- p50Rd3 + p95Rd4 + p47Rd4 >= 0
p50Rd3 + p95Rd4 + p47Rd4 <= 2
p49Rd3 - p1Rd4 + pro0Rd3 >= 0 
p41Rd3 - p49Rd3 + pro0Rd3 >= 0 
p1Rd4 - p41Rd3 + pro0Rd3 >= 0 
p41Rd3 + p49Rd3 + p1Rd4 + pro0Rd3 <= 3 
p41Rd3 + p49Rd3 + p1Rd4 - pro0Rd3 >= 0 
p40Rd3 + p48Rd3 + p0Rd4 + pro0Rd3 - p49Rd3 >= 0 
p49Rd3 + p40Rd3 - p48Rd3 + p0Rd4 + pro0Rd3 >= 0 
p49Rd3 - p40Rd3 + p48Rd3 + p0Rd4 + pro0Rd3 >= 0 
p41Rd3 + p40Rd3 + p48Rd3 - p0Rd4 + pro0Rd3 >= 0 
p1Rd4 - p40Rd3 - p48Rd3 - p0Rd4 + pro0Rd3 >= -2 
p40Rd3 - p49Rd3 - p48Rd3 - p0Rd4 + pro0Rd3 >= -2 
p48Rd3 - p49Rd3 - p40Rd3 - p0Rd4 + pro0Rd3 >= -2 
p0Rd4 - p49Rd3 - p40Rd3 - p48Rd3 + pro0Rd3 >= -2 
p50Rd3 - p2Rd4 + pro1Rd3 >= 0 
p42Rd3 - p50Rd3 + pro1Rd3 >= 0 
p2Rd4 - p42Rd3 + pro1Rd3 >= 0 
p42Rd3 + p50Rd3 + p2Rd4 + pro1Rd3 <= 3 
p42Rd3 + p50Rd3 + p2Rd4 - pro1Rd3 >= 0 
p41Rd3 + p49Rd3 + p1Rd4 + pro1Rd3 - p50Rd3 >= 0 
p50Rd3 + p41Rd3 - p49Rd3 + p1Rd4 + pro1Rd3 >= 0 
p50Rd3 - p41Rd3 + p49Rd3 + p1Rd4 + pro1Rd3 >= 0 
p42Rd3 + p41Rd3 + p49Rd3 - p1Rd4 + pro1Rd3 >= 0 
p2Rd4 - p41Rd3 - p49Rd3 - p1Rd4 + pro1Rd3 >= -2 
p41Rd3 - p50Rd3 - p49Rd3 - p1Rd4 + pro1Rd3 >= -2 
p49Rd3 - p50Rd3 - p41Rd3 - p1Rd4 + pro1Rd3 >= -2 
p1Rd4 - p50Rd3 - p41Rd3 - p49Rd3 + pro1Rd3 >= -2 
p51Rd3 - p3Rd4 + pro2Rd3 >= 0 
p43Rd3 - p51Rd3 + pro2Rd3 >= 0 
p3Rd4 - p43Rd3 + pro2Rd3 >= 0 
p43Rd3 + p51Rd3 + p3Rd4 + pro2Rd3 <= 3 
p43Rd3 + p51Rd3 + p3Rd4 - pro2Rd3 >= 0 
p42Rd3 + p50Rd3 + p2Rd4 + pro2Rd3 - p51Rd3 >= 0 
p51Rd3 + p42Rd3 - p50Rd3 + p2Rd4 + pro2Rd3 >= 0 
p51Rd3 - p42Rd3 + p50Rd3 + p2Rd4 + pro2Rd3 >= 0 
p43Rd3 + p42Rd3 + p50Rd3 - p2Rd4 + pro2Rd3 >= 0 
p3Rd4 - p42Rd3 - p50Rd3 - p2Rd4 + pro2Rd3 >= -2 
p42Rd3 - p51Rd3 - p50Rd3 - p2Rd4 + pro2Rd3 >= -2 
p50Rd3 - p51Rd3 - p42Rd3 - p2Rd4 + pro2Rd3 >= -2 
p2Rd4 - p51Rd3 - p42Rd3 - p50Rd3 + pro2Rd3 >= -2 
p52Rd3 - p4Rd4 + pro3Rd3 >= 0 
p44Rd3 - p52Rd3 + pro3Rd3 >= 0 
p4Rd4 - p44Rd3 + pro3Rd3 >= 0 
p44Rd3 + p52Rd3 + p4Rd4 + pro3Rd3 <= 3 
p44Rd3 + p52Rd3 + p4Rd4 - pro3Rd3 >= 0 
p43Rd3 + p51Rd3 + p3Rd4 + pro3Rd3 - p52Rd3 >= 0 
p52Rd3 + p43Rd3 - p51Rd3 + p3Rd4 + pro3Rd3 >= 0 
p52Rd3 - p43Rd3 + p51Rd3 + p3Rd4 + pro3Rd3 >= 0 
p44Rd3 + p43Rd3 + p51Rd3 - p3Rd4 + pro3Rd3 >= 0 
p4Rd4 - p43Rd3 - p51Rd3 - p3Rd4 + pro3Rd3 >= -2 
p43Rd3 - p52Rd3 - p51Rd3 - p3Rd4 + pro3Rd3 >= -2 
p51Rd3 - p52Rd3 - p43Rd3 - p3Rd4 + pro3Rd3 >= -2 
p3Rd4 - p52Rd3 - p43Rd3 - p51Rd3 + pro3Rd3 >= -2 
p53Rd3 - p5Rd4 + pro4Rd3 >= 0 
p45Rd3 - p53Rd3 + pro4Rd3 >= 0 
p5Rd4 - p45Rd3 + pro4Rd3 >= 0 
p45Rd3 + p53Rd3 + p5Rd4 + pro4Rd3 <= 3 
p45Rd3 + p53Rd3 + p5Rd4 - pro4Rd3 >= 0 
p44Rd3 + p52Rd3 + p4Rd4 + pro4Rd3 - p53Rd3 >= 0 
p53Rd3 + p44Rd3 - p52Rd3 + p4Rd4 + pro4Rd3 >= 0 
p53Rd3 - p44Rd3 + p52Rd3 + p4Rd4 + pro4Rd3 >= 0 
p45Rd3 + p44Rd3 + p52Rd3 - p4Rd4 + pro4Rd3 >= 0 
p5Rd4 - p44Rd3 - p52Rd3 - p4Rd4 + pro4Rd3 >= -2 
p44Rd3 - p53Rd3 - p52Rd3 - p4Rd4 + pro4Rd3 >= -2 
p52Rd3 - p53Rd3 - p44Rd3 - p4Rd4 + pro4Rd3 >= -2 
p4Rd4 - p53Rd3 - p44Rd3 - p52Rd3 + pro4Rd3 >= -2 
p54Rd3 - p6Rd4 + pro5Rd3 >= 0 
p46Rd3 - p54Rd3 + pro5Rd3 >= 0 
p6Rd4 - p46Rd3 + pro5Rd3 >= 0 
p46Rd3 + p54Rd3 + p6Rd4 + pro5Rd3 <= 3 
p46Rd3 + p54Rd3 + p6Rd4 - pro5Rd3 >= 0 
p45Rd3 + p53Rd3 + p5Rd4 + pro5Rd3 - p54Rd3 >= 0 
p54Rd3 + p45Rd3 - p53Rd3 + p5Rd4 + pro5Rd3 >= 0 
p54Rd3 - p45Rd3 + p53Rd3 + p5Rd4 + pro5Rd3 >= 0 
p46Rd3 + p45Rd3 + p53Rd3 - p5Rd4 + pro5Rd3 >= 0 
p6Rd4 - p45Rd3 - p53Rd3 - p5Rd4 + pro5Rd3 >= -2 
p45Rd3 - p54Rd3 - p53Rd3 - p5Rd4 + pro5Rd3 >= -2 
p53Rd3 - p54Rd3 - p45Rd3 - p5Rd4 + pro5Rd3 >= -2 
p5Rd4 - p54Rd3 - p45Rd3 - p53Rd3 + pro5Rd3 >= -2 
p55Rd3 - p7Rd4 + pro6Rd3 >= 0 
p47Rd3 - p55Rd3 + pro6Rd3 >= 0 
p7Rd4 - p47Rd3 + pro6Rd3 >= 0 
p47Rd3 + p55Rd3 + p7Rd4 + pro6Rd3 <= 3 
p47Rd3 + p55Rd3 + p7Rd4 - pro6Rd3 >= 0 
p46Rd3 + p54Rd3 + p6Rd4 + pro6Rd3 - p55Rd3 >= 0 
p55Rd3 + p46Rd3 - p54Rd3 + p6Rd4 + pro6Rd3 >= 0 
p55Rd3 - p46Rd3 + p54Rd3 + p6Rd4 + pro6Rd3 >= 0 
p47Rd3 + p46Rd3 + p54Rd3 - p6Rd4 + pro6Rd3 >= 0 
p7Rd4 - p46Rd3 - p54Rd3 - p6Rd4 + pro6Rd3 >= -2 
p46Rd3 - p55Rd3 - p54Rd3 - p6Rd4 + pro6Rd3 >= -2 
p54Rd3 - p55Rd3 - p46Rd3 - p6Rd4 + pro6Rd3 >= -2 
p6Rd4 - p55Rd3 - p46Rd3 - p54Rd3 + pro6Rd3 >= -2 
p56Rd3 - p8Rd4 + pro7Rd3 >= 0 
p0Rd3 - p56Rd3 + pro7Rd3 >= 0 
p8Rd4 - p0Rd3 + pro7Rd3 >= 0 
p0Rd3 + p56Rd3 + p8Rd4 + pro7Rd3 <= 3 
p0Rd3 + p56Rd3 + p8Rd4 - pro7Rd3 >= 0 
p47Rd3 + p55Rd3 + p7Rd4 + pro7Rd3 - p56Rd3 >= 0 
p56Rd3 + p47Rd3 - p55Rd3 + p7Rd4 + pro7Rd3 >= 0 
p56Rd3 - p47Rd3 + p55Rd3 + p7Rd4 + pro7Rd3 >= 0 
p0Rd3 + p47Rd3 + p55Rd3 - p7Rd4 + pro7Rd3 >= 0 
p8Rd4 - p47Rd3 - p55Rd3 - p7Rd4 + pro7Rd3 >= -2 
p47Rd3 - p56Rd3 - p55Rd3 - p7Rd4 + pro7Rd3 >= -2 
p55Rd3 - p56Rd3 - p47Rd3 - p7Rd4 + pro7Rd3 >= -2 
p7Rd4 - p56Rd3 - p47Rd3 - p55Rd3 + pro7Rd3 >= -2 
p57Rd3 - p9Rd4 + pro8Rd3 >= 0 
p1Rd3 - p57Rd3 + pro8Rd3 >= 0 
p9Rd4 - p1Rd3 + pro8Rd3 >= 0 
p1Rd3 + p57Rd3 + p9Rd4 + pro8Rd3 <= 3 
p1Rd3 + p57Rd3 + p9Rd4 - pro8Rd3 >= 0 
p0Rd3 + p56Rd3 + p8Rd4 + pro8Rd3 - p57Rd3 >= 0 
p57Rd3 + p0Rd3 - p56Rd3 + p8Rd4 + pro8Rd3 >= 0 
p57Rd3 - p0Rd3 + p56Rd3 + p8Rd4 + pro8Rd3 >= 0 
p1Rd3 + p0Rd3 + p56Rd3 - p8Rd4 + pro8Rd3 >= 0 
p9Rd4 - p0Rd3 - p56Rd3 - p8Rd4 + pro8Rd3 >= -2 
p0Rd3 - p57Rd3 - p56Rd3 - p8Rd4 + pro8Rd3 >= -2 
p56Rd3 - p57Rd3 - p0Rd3 - p8Rd4 + pro8Rd3 >= -2 
p8Rd4 - p57Rd3 - p0Rd3 - p56Rd3 + pro8Rd3 >= -2 
p58Rd3 - p10Rd4 + pro9Rd3 >= 0 
p2Rd3 - p58Rd3 + pro9Rd3 >= 0 
p10Rd4 - p2Rd3 + pro9Rd3 >= 0 
p2Rd3 + p58Rd3 + p10Rd4 + pro9Rd3 <= 3 
p2Rd3 + p58Rd3 + p10Rd4 - pro9Rd3 >= 0 
p1Rd3 + p57Rd3 + p9Rd4 + pro9Rd3 - p58Rd3 >= 0 
p58Rd3 + p1Rd3 - p57Rd3 + p9Rd4 + pro9Rd3 >= 0 
p58Rd3 - p1Rd3 + p57Rd3 + p9Rd4 + pro9Rd3 >= 0 
p2Rd3 + p1Rd3 + p57Rd3 - p9Rd4 + pro9Rd3 >= 0 
p10Rd4 - p1Rd3 - p57Rd3 - p9Rd4 + pro9Rd3 >= -2 
p1Rd3 - p58Rd3 - p57Rd3 - p9Rd4 + pro9Rd3 >= -2 
p57Rd3 - p58Rd3 - p1Rd3 - p9Rd4 + pro9Rd3 >= -2 
p9Rd4 - p58Rd3 - p1Rd3 - p57Rd3 + pro9Rd3 >= -2 
p59Rd3 - p11Rd4 + pro10Rd3 >= 0 
p3Rd3 - p59Rd3 + pro10Rd3 >= 0 
p11Rd4 - p3Rd3 + pro10Rd3 >= 0 
p3Rd3 + p59Rd3 + p11Rd4 + pro10Rd3 <= 3 
p3Rd3 + p59Rd3 + p11Rd4 - pro10Rd3 >= 0 
p2Rd3 + p58Rd3 + p10Rd4 + pro10Rd3 - p59Rd3 >= 0 
p59Rd3 + p2Rd3 - p58Rd3 + p10Rd4 + pro10Rd3 >= 0 
p59Rd3 - p2Rd3 + p58Rd3 + p10Rd4 + pro10Rd3 >= 0 
p3Rd3 + p2Rd3 + p58Rd3 - p10Rd4 + pro10Rd3 >= 0 
p11Rd4 - p2Rd3 - p58Rd3 - p10Rd4 + pro10Rd3 >= -2 
p2Rd3 - p59Rd3 - p58Rd3 - p10Rd4 + pro10Rd3 >= -2 
p58Rd3 - p59Rd3 - p2Rd3 - p10Rd4 + pro10Rd3 >= -2 
p10Rd4 - p59Rd3 - p2Rd3 - p58Rd3 + pro10Rd3 >= -2 
p60Rd3 - p12Rd4 + pro11Rd3 >= 0 
p4Rd3 - p60Rd3 + pro11Rd3 >= 0 
p12Rd4 - p4Rd3 + pro11Rd3 >= 0 
p4Rd3 + p60Rd3 + p12Rd4 + pro11Rd3 <= 3 
p4Rd3 + p60Rd3 + p12Rd4 - pro11Rd3 >= 0 
p3Rd3 + p59Rd3 + p11Rd4 + pro11Rd3 - p60Rd3 >= 0 
p60Rd3 + p3Rd3 - p59Rd3 + p11Rd4 + pro11Rd3 >= 0 
p60Rd3 - p3Rd3 + p59Rd3 + p11Rd4 + pro11Rd3 >= 0 
p4Rd3 + p3Rd3 + p59Rd3 - p11Rd4 + pro11Rd3 >= 0 
p12Rd4 - p3Rd3 - p59Rd3 - p11Rd4 + pro11Rd3 >= -2 
p3Rd3 - p60Rd3 - p59Rd3 - p11Rd4 + pro11Rd3 >= -2 
p59Rd3 - p60Rd3 - p3Rd3 - p11Rd4 + pro11Rd3 >= -2 
p11Rd4 - p60Rd3 - p3Rd3 - p59Rd3 + pro11Rd3 >= -2 
p61Rd3 - p13Rd4 + pro12Rd3 >= 0 
p5Rd3 - p61Rd3 + pro12Rd3 >= 0 
p13Rd4 - p5Rd3 + pro12Rd3 >= 0 
p5Rd3 + p61Rd3 + p13Rd4 + pro12Rd3 <= 3 
p5Rd3 + p61Rd3 + p13Rd4 - pro12Rd3 >= 0 
p4Rd3 + p60Rd3 + p12Rd4 + pro12Rd3 - p61Rd3 >= 0 
p61Rd3 + p4Rd3 - p60Rd3 + p12Rd4 + pro12Rd3 >= 0 
p61Rd3 - p4Rd3 + p60Rd3 + p12Rd4 + pro12Rd3 >= 0 
p5Rd3 + p4Rd3 + p60Rd3 - p12Rd4 + pro12Rd3 >= 0 
p13Rd4 - p4Rd3 - p60Rd3 - p12Rd4 + pro12Rd3 >= -2 
p4Rd3 - p61Rd3 - p60Rd3 - p12Rd4 + pro12Rd3 >= -2 
p60Rd3 - p61Rd3 - p4Rd3 - p12Rd4 + pro12Rd3 >= -2 
p12Rd4 - p61Rd3 - p4Rd3 - p60Rd3 + pro12Rd3 >= -2 
p62Rd3 - p14Rd4 + pro13Rd3 >= 0 
p6Rd3 - p62Rd3 + pro13Rd3 >= 0 
p14Rd4 - p6Rd3 + pro13Rd3 >= 0 
p6Rd3 + p62Rd3 + p14Rd4 + pro13Rd3 <= 3 
p6Rd3 + p62Rd3 + p14Rd4 - pro13Rd3 >= 0 
p5Rd3 + p61Rd3 + p13Rd4 + pro13Rd3 - p62Rd3 >= 0 
p62Rd3 + p5Rd3 - p61Rd3 + p13Rd4 + pro13Rd3 >= 0 
p62Rd3 - p5Rd3 + p61Rd3 + p13Rd4 + pro13Rd3 >= 0 
p6Rd3 + p5Rd3 + p61Rd3 - p13Rd4 + pro13Rd3 >= 0 
p14Rd4 - p5Rd3 - p61Rd3 - p13Rd4 + pro13Rd3 >= -2 
p5Rd3 - p62Rd3 - p61Rd3 - p13Rd4 + pro13Rd3 >= -2 
p61Rd3 - p62Rd3 - p5Rd3 - p13Rd4 + pro13Rd3 >= -2 
p13Rd4 - p62Rd3 - p5Rd3 - p61Rd3 + pro13Rd3 >= -2 
p63Rd3 - p15Rd4 + pro14Rd3 >= 0 
p7Rd3 - p63Rd3 + pro14Rd3 >= 0 
p15Rd4 - p7Rd3 + pro14Rd3 >= 0 
p7Rd3 + p63Rd3 + p15Rd4 + pro14Rd3 <= 3 
p7Rd3 + p63Rd3 + p15Rd4 - pro14Rd3 >= 0 
p6Rd3 + p62Rd3 + p14Rd4 + pro14Rd3 - p63Rd3 >= 0 
p63Rd3 + p6Rd3 - p62Rd3 + p14Rd4 + pro14Rd3 >= 0 
p63Rd3 - p6Rd3 + p62Rd3 + p14Rd4 + pro14Rd3 >= 0 
p7Rd3 + p6Rd3 + p62Rd3 - p14Rd4 + pro14Rd3 >= 0 
p15Rd4 - p6Rd3 - p62Rd3 - p14Rd4 + pro14Rd3 >= -2 
p6Rd3 - p63Rd3 - p62Rd3 - p14Rd4 + pro14Rd3 >= -2 
p62Rd3 - p63Rd3 - p6Rd3 - p14Rd4 + pro14Rd3 >= -2 
p14Rd4 - p63Rd3 - p6Rd3 - p62Rd3 + pro14Rd3 >= -2 
p64Rd3 - p16Rd4 + pro15Rd3 >= 0 
p8Rd3 - p64Rd3 + pro15Rd3 >= 0 
p16Rd4 - p8Rd3 + pro15Rd3 >= 0 
p8Rd3 + p64Rd3 + p16Rd4 + pro15Rd3 <= 3 
p8Rd3 + p64Rd3 + p16Rd4 - pro15Rd3 >= 0 
p7Rd3 + p63Rd3 + p15Rd4 + pro15Rd3 - p64Rd3 >= 0 
p64Rd3 + p7Rd3 - p63Rd3 + p15Rd4 + pro15Rd3 >= 0 
p64Rd3 - p7Rd3 + p63Rd3 + p15Rd4 + pro15Rd3 >= 0 
p8Rd3 + p7Rd3 + p63Rd3 - p15Rd4 + pro15Rd3 >= 0 
p16Rd4 - p7Rd3 - p63Rd3 - p15Rd4 + pro15Rd3 >= -2 
p7Rd3 - p64Rd3 - p63Rd3 - p15Rd4 + pro15Rd3 >= -2 
p63Rd3 - p64Rd3 - p7Rd3 - p15Rd4 + pro15Rd3 >= -2 
p15Rd4 - p64Rd3 - p7Rd3 - p63Rd3 + pro15Rd3 >= -2 
p65Rd3 - p17Rd4 + pro16Rd3 >= 0 
p9Rd3 - p65Rd3 + pro16Rd3 >= 0 
p17Rd4 - p9Rd3 + pro16Rd3 >= 0 
p9Rd3 + p65Rd3 + p17Rd4 + pro16Rd3 <= 3 
p9Rd3 + p65Rd3 + p17Rd4 - pro16Rd3 >= 0 
p8Rd3 + p64Rd3 + p16Rd4 + pro16Rd3 - p65Rd3 >= 0 
p65Rd3 + p8Rd3 - p64Rd3 + p16Rd4 + pro16Rd3 >= 0 
p65Rd3 - p8Rd3 + p64Rd3 + p16Rd4 + pro16Rd3 >= 0 
p9Rd3 + p8Rd3 + p64Rd3 - p16Rd4 + pro16Rd3 >= 0 
p17Rd4 - p8Rd3 - p64Rd3 - p16Rd4 + pro16Rd3 >= -2 
p8Rd3 - p65Rd3 - p64Rd3 - p16Rd4 + pro16Rd3 >= -2 
p64Rd3 - p65Rd3 - p8Rd3 - p16Rd4 + pro16Rd3 >= -2 
p16Rd4 - p65Rd3 - p8Rd3 - p64Rd3 + pro16Rd3 >= -2 
p66Rd3 - p18Rd4 + pro17Rd3 >= 0 
p10Rd3 - p66Rd3 + pro17Rd3 >= 0 
p18Rd4 - p10Rd3 + pro17Rd3 >= 0 
p10Rd3 + p66Rd3 + p18Rd4 + pro17Rd3 <= 3 
p10Rd3 + p66Rd3 + p18Rd4 - pro17Rd3 >= 0 
p9Rd3 + p65Rd3 + p17Rd4 + pro17Rd3 - p66Rd3 >= 0 
p66Rd3 + p9Rd3 - p65Rd3 + p17Rd4 + pro17Rd3 >= 0 
p66Rd3 - p9Rd3 + p65Rd3 + p17Rd4 + pro17Rd3 >= 0 
p10Rd3 + p9Rd3 + p65Rd3 - p17Rd4 + pro17Rd3 >= 0 
p18Rd4 - p9Rd3 - p65Rd3 - p17Rd4 + pro17Rd3 >= -2 
p9Rd3 - p66Rd3 - p65Rd3 - p17Rd4 + pro17Rd3 >= -2 
p65Rd3 - p66Rd3 - p9Rd3 - p17Rd4 + pro17Rd3 >= -2 
p17Rd4 - p66Rd3 - p9Rd3 - p65Rd3 + pro17Rd3 >= -2 
p67Rd3 - p19Rd4 + pro18Rd3 >= 0 
p11Rd3 - p67Rd3 + pro18Rd3 >= 0 
p19Rd4 - p11Rd3 + pro18Rd3 >= 0 
p11Rd3 + p67Rd3 + p19Rd4 + pro18Rd3 <= 3 
p11Rd3 + p67Rd3 + p19Rd4 - pro18Rd3 >= 0 
p10Rd3 + p66Rd3 + p18Rd4 + pro18Rd3 - p67Rd3 >= 0 
p67Rd3 + p10Rd3 - p66Rd3 + p18Rd4 + pro18Rd3 >= 0 
p67Rd3 - p10Rd3 + p66Rd3 + p18Rd4 + pro18Rd3 >= 0 
p11Rd3 + p10Rd3 + p66Rd3 - p18Rd4 + pro18Rd3 >= 0 
p19Rd4 - p10Rd3 - p66Rd3 - p18Rd4 + pro18Rd3 >= -2 
p10Rd3 - p67Rd3 - p66Rd3 - p18Rd4 + pro18Rd3 >= -2 
p66Rd3 - p67Rd3 - p10Rd3 - p18Rd4 + pro18Rd3 >= -2 
p18Rd4 - p67Rd3 - p10Rd3 - p66Rd3 + pro18Rd3 >= -2 
p68Rd3 - p20Rd4 + pro19Rd3 >= 0 
p12Rd3 - p68Rd3 + pro19Rd3 >= 0 
p20Rd4 - p12Rd3 + pro19Rd3 >= 0 
p12Rd3 + p68Rd3 + p20Rd4 + pro19Rd3 <= 3 
p12Rd3 + p68Rd3 + p20Rd4 - pro19Rd3 >= 0 
p11Rd3 + p67Rd3 + p19Rd4 + pro19Rd3 - p68Rd3 >= 0 
p68Rd3 + p11Rd3 - p67Rd3 + p19Rd4 + pro19Rd3 >= 0 
p68Rd3 - p11Rd3 + p67Rd3 + p19Rd4 + pro19Rd3 >= 0 
p12Rd3 + p11Rd3 + p67Rd3 - p19Rd4 + pro19Rd3 >= 0 
p20Rd4 - p11Rd3 - p67Rd3 - p19Rd4 + pro19Rd3 >= -2 
p11Rd3 - p68Rd3 - p67Rd3 - p19Rd4 + pro19Rd3 >= -2 
p67Rd3 - p68Rd3 - p11Rd3 - p19Rd4 + pro19Rd3 >= -2 
p19Rd4 - p68Rd3 - p11Rd3 - p67Rd3 + pro19Rd3 >= -2 
p69Rd3 - p21Rd4 + pro20Rd3 >= 0 
p13Rd3 - p69Rd3 + pro20Rd3 >= 0 
p21Rd4 - p13Rd3 + pro20Rd3 >= 0 
p13Rd3 + p69Rd3 + p21Rd4 + pro20Rd3 <= 3 
p13Rd3 + p69Rd3 + p21Rd4 - pro20Rd3 >= 0 
p12Rd3 + p68Rd3 + p20Rd4 + pro20Rd3 - p69Rd3 >= 0 
p69Rd3 + p12Rd3 - p68Rd3 + p20Rd4 + pro20Rd3 >= 0 
p69Rd3 - p12Rd3 + p68Rd3 + p20Rd4 + pro20Rd3 >= 0 
p13Rd3 + p12Rd3 + p68Rd3 - p20Rd4 + pro20Rd3 >= 0 
p21Rd4 - p12Rd3 - p68Rd3 - p20Rd4 + pro20Rd3 >= -2 
p12Rd3 - p69Rd3 - p68Rd3 - p20Rd4 + pro20Rd3 >= -2 
p68Rd3 - p69Rd3 - p12Rd3 - p20Rd4 + pro20Rd3 >= -2 
p20Rd4 - p69Rd3 - p12Rd3 - p68Rd3 + pro20Rd3 >= -2 
p70Rd3 - p22Rd4 + pro21Rd3 >= 0 
p14Rd3 - p70Rd3 + pro21Rd3 >= 0 
p22Rd4 - p14Rd3 + pro21Rd3 >= 0 
p14Rd3 + p70Rd3 + p22Rd4 + pro21Rd3 <= 3 
p14Rd3 + p70Rd3 + p22Rd4 - pro21Rd3 >= 0 
p13Rd3 + p69Rd3 + p21Rd4 + pro21Rd3 - p70Rd3 >= 0 
p70Rd3 + p13Rd3 - p69Rd3 + p21Rd4 + pro21Rd3 >= 0 
p70Rd3 - p13Rd3 + p69Rd3 + p21Rd4 + pro21Rd3 >= 0 
p14Rd3 + p13Rd3 + p69Rd3 - p21Rd4 + pro21Rd3 >= 0 
p22Rd4 - p13Rd3 - p69Rd3 - p21Rd4 + pro21Rd3 >= -2 
p13Rd3 - p70Rd3 - p69Rd3 - p21Rd4 + pro21Rd3 >= -2 
p69Rd3 - p70Rd3 - p13Rd3 - p21Rd4 + pro21Rd3 >= -2 
p21Rd4 - p70Rd3 - p13Rd3 - p69Rd3 + pro21Rd3 >= -2 
p71Rd3 - p23Rd4 + pro22Rd3 >= 0 
p15Rd3 - p71Rd3 + pro22Rd3 >= 0 
p23Rd4 - p15Rd3 + pro22Rd3 >= 0 
p15Rd3 + p71Rd3 + p23Rd4 + pro22Rd3 <= 3 
p15Rd3 + p71Rd3 + p23Rd4 - pro22Rd3 >= 0 
p14Rd3 + p70Rd3 + p22Rd4 + pro22Rd3 - p71Rd3 >= 0 
p71Rd3 + p14Rd3 - p70Rd3 + p22Rd4 + pro22Rd3 >= 0 
p71Rd3 - p14Rd3 + p70Rd3 + p22Rd4 + pro22Rd3 >= 0 
p15Rd3 + p14Rd3 + p70Rd3 - p22Rd4 + pro22Rd3 >= 0 
p23Rd4 - p14Rd3 - p70Rd3 - p22Rd4 + pro22Rd3 >= -2 
p14Rd3 - p71Rd3 - p70Rd3 - p22Rd4 + pro22Rd3 >= -2 
p70Rd3 - p71Rd3 - p14Rd3 - p22Rd4 + pro22Rd3 >= -2 
p22Rd4 - p71Rd3 - p14Rd3 - p70Rd3 + pro22Rd3 >= -2 
p72Rd3 - p24Rd4 + pro23Rd3 >= 0 
p16Rd3 - p72Rd3 + pro23Rd3 >= 0 
p24Rd4 - p16Rd3 + pro23Rd3 >= 0 
p16Rd3 + p72Rd3 + p24Rd4 + pro23Rd3 <= 3 
p16Rd3 + p72Rd3 + p24Rd4 - pro23Rd3 >= 0 
p15Rd3 + p71Rd3 + p23Rd4 + pro23Rd3 - p72Rd3 >= 0 
p72Rd3 + p15Rd3 - p71Rd3 + p23Rd4 + pro23Rd3 >= 0 
p72Rd3 - p15Rd3 + p71Rd3 + p23Rd4 + pro23Rd3 >= 0 
p16Rd3 + p15Rd3 + p71Rd3 - p23Rd4 + pro23Rd3 >= 0 
p24Rd4 - p15Rd3 - p71Rd3 - p23Rd4 + pro23Rd3 >= -2 
p15Rd3 - p72Rd3 - p71Rd3 - p23Rd4 + pro23Rd3 >= -2 
p71Rd3 - p72Rd3 - p15Rd3 - p23Rd4 + pro23Rd3 >= -2 
p23Rd4 - p72Rd3 - p15Rd3 - p71Rd3 + pro23Rd3 >= -2 
p73Rd3 - p25Rd4 + pro24Rd3 >= 0 
p17Rd3 - p73Rd3 + pro24Rd3 >= 0 
p25Rd4 - p17Rd3 + pro24Rd3 >= 0 
p17Rd3 + p73Rd3 + p25Rd4 + pro24Rd3 <= 3 
p17Rd3 + p73Rd3 + p25Rd4 - pro24Rd3 >= 0 
p16Rd3 + p72Rd3 + p24Rd4 + pro24Rd3 - p73Rd3 >= 0 
p73Rd3 + p16Rd3 - p72Rd3 + p24Rd4 + pro24Rd3 >= 0 
p73Rd3 - p16Rd3 + p72Rd3 + p24Rd4 + pro24Rd3 >= 0 
p17Rd3 + p16Rd3 + p72Rd3 - p24Rd4 + pro24Rd3 >= 0 
p25Rd4 - p16Rd3 - p72Rd3 - p24Rd4 + pro24Rd3 >= -2 
p16Rd3 - p73Rd3 - p72Rd3 - p24Rd4 + pro24Rd3 >= -2 
p72Rd3 - p73Rd3 - p16Rd3 - p24Rd4 + pro24Rd3 >= -2 
p24Rd4 - p73Rd3 - p16Rd3 - p72Rd3 + pro24Rd3 >= -2 
p74Rd3 - p26Rd4 + pro25Rd3 >= 0 
p18Rd3 - p74Rd3 + pro25Rd3 >= 0 
p26Rd4 - p18Rd3 + pro25Rd3 >= 0 
p18Rd3 + p74Rd3 + p26Rd4 + pro25Rd3 <= 3 
p18Rd3 + p74Rd3 + p26Rd4 - pro25Rd3 >= 0 
p17Rd3 + p73Rd3 + p25Rd4 + pro25Rd3 - p74Rd3 >= 0 
p74Rd3 + p17Rd3 - p73Rd3 + p25Rd4 + pro25Rd3 >= 0 
p74Rd3 - p17Rd3 + p73Rd3 + p25Rd4 + pro25Rd3 >= 0 
p18Rd3 + p17Rd3 + p73Rd3 - p25Rd4 + pro25Rd3 >= 0 
p26Rd4 - p17Rd3 - p73Rd3 - p25Rd4 + pro25Rd3 >= -2 
p17Rd3 - p74Rd3 - p73Rd3 - p25Rd4 + pro25Rd3 >= -2 
p73Rd3 - p74Rd3 - p17Rd3 - p25Rd4 + pro25Rd3 >= -2 
p25Rd4 - p74Rd3 - p17Rd3 - p73Rd3 + pro25Rd3 >= -2 
p75Rd3 - p27Rd4 + pro26Rd3 >= 0 
p19Rd3 - p75Rd3 + pro26Rd3 >= 0 
p27Rd4 - p19Rd3 + pro26Rd3 >= 0 
p19Rd3 + p75Rd3 + p27Rd4 + pro26Rd3 <= 3 
p19Rd3 + p75Rd3 + p27Rd4 - pro26Rd3 >= 0 
p18Rd3 + p74Rd3 + p26Rd4 + pro26Rd3 - p75Rd3 >= 0 
p75Rd3 + p18Rd3 - p74Rd3 + p26Rd4 + pro26Rd3 >= 0 
p75Rd3 - p18Rd3 + p74Rd3 + p26Rd4 + pro26Rd3 >= 0 
p19Rd3 + p18Rd3 + p74Rd3 - p26Rd4 + pro26Rd3 >= 0 
p27Rd4 - p18Rd3 - p74Rd3 - p26Rd4 + pro26Rd3 >= -2 
p18Rd3 - p75Rd3 - p74Rd3 - p26Rd4 + pro26Rd3 >= -2 
p74Rd3 - p75Rd3 - p18Rd3 - p26Rd4 + pro26Rd3 >= -2 
p26Rd4 - p75Rd3 - p18Rd3 - p74Rd3 + pro26Rd3 >= -2 
p76Rd3 - p28Rd4 + pro27Rd3 >= 0 
p20Rd3 - p76Rd3 + pro27Rd3 >= 0 
p28Rd4 - p20Rd3 + pro27Rd3 >= 0 
p20Rd3 + p76Rd3 + p28Rd4 + pro27Rd3 <= 3 
p20Rd3 + p76Rd3 + p28Rd4 - pro27Rd3 >= 0 
p19Rd3 + p75Rd3 + p27Rd4 + pro27Rd3 - p76Rd3 >= 0 
p76Rd3 + p19Rd3 - p75Rd3 + p27Rd4 + pro27Rd3 >= 0 
p76Rd3 - p19Rd3 + p75Rd3 + p27Rd4 + pro27Rd3 >= 0 
p20Rd3 + p19Rd3 + p75Rd3 - p27Rd4 + pro27Rd3 >= 0 
p28Rd4 - p19Rd3 - p75Rd3 - p27Rd4 + pro27Rd3 >= -2 
p19Rd3 - p76Rd3 - p75Rd3 - p27Rd4 + pro27Rd3 >= -2 
p75Rd3 - p76Rd3 - p19Rd3 - p27Rd4 + pro27Rd3 >= -2 
p27Rd4 - p76Rd3 - p19Rd3 - p75Rd3 + pro27Rd3 >= -2 
p77Rd3 - p29Rd4 + pro28Rd3 >= 0 
p21Rd3 - p77Rd3 + pro28Rd3 >= 0 
p29Rd4 - p21Rd3 + pro28Rd3 >= 0 
p21Rd3 + p77Rd3 + p29Rd4 + pro28Rd3 <= 3 
p21Rd3 + p77Rd3 + p29Rd4 - pro28Rd3 >= 0 
p20Rd3 + p76Rd3 + p28Rd4 + pro28Rd3 - p77Rd3 >= 0 
p77Rd3 + p20Rd3 - p76Rd3 + p28Rd4 + pro28Rd3 >= 0 
p77Rd3 - p20Rd3 + p76Rd3 + p28Rd4 + pro28Rd3 >= 0 
p21Rd3 + p20Rd3 + p76Rd3 - p28Rd4 + pro28Rd3 >= 0 
p29Rd4 - p20Rd3 - p76Rd3 - p28Rd4 + pro28Rd3 >= -2 
p20Rd3 - p77Rd3 - p76Rd3 - p28Rd4 + pro28Rd3 >= -2 
p76Rd3 - p77Rd3 - p20Rd3 - p28Rd4 + pro28Rd3 >= -2 
p28Rd4 - p77Rd3 - p20Rd3 - p76Rd3 + pro28Rd3 >= -2 
p78Rd3 - p30Rd4 + pro29Rd3 >= 0 
p22Rd3 - p78Rd3 + pro29Rd3 >= 0 
p30Rd4 - p22Rd3 + pro29Rd3 >= 0 
p22Rd3 + p78Rd3 + p30Rd4 + pro29Rd3 <= 3 
p22Rd3 + p78Rd3 + p30Rd4 - pro29Rd3 >= 0 
p21Rd3 + p77Rd3 + p29Rd4 + pro29Rd3 - p78Rd3 >= 0 
p78Rd3 + p21Rd3 - p77Rd3 + p29Rd4 + pro29Rd3 >= 0 
p78Rd3 - p21Rd3 + p77Rd3 + p29Rd4 + pro29Rd3 >= 0 
p22Rd3 + p21Rd3 + p77Rd3 - p29Rd4 + pro29Rd3 >= 0 
p30Rd4 - p21Rd3 - p77Rd3 - p29Rd4 + pro29Rd3 >= -2 
p21Rd3 - p78Rd3 - p77Rd3 - p29Rd4 + pro29Rd3 >= -2 
p77Rd3 - p78Rd3 - p21Rd3 - p29Rd4 + pro29Rd3 >= -2 
p29Rd4 - p78Rd3 - p21Rd3 - p77Rd3 + pro29Rd3 >= -2 
p79Rd3 - p31Rd4 + pro30Rd3 >= 0 
p23Rd3 - p79Rd3 + pro30Rd3 >= 0 
p31Rd4 - p23Rd3 + pro30Rd3 >= 0 
p23Rd3 + p79Rd3 + p31Rd4 + pro30Rd3 <= 3 
p23Rd3 + p79Rd3 + p31Rd4 - pro30Rd3 >= 0 
p22Rd3 + p78Rd3 + p30Rd4 + pro30Rd3 - p79Rd3 >= 0 
p79Rd3 + p22Rd3 - p78Rd3 + p30Rd4 + pro30Rd3 >= 0 
p79Rd3 - p22Rd3 + p78Rd3 + p30Rd4 + pro30Rd3 >= 0 
p23Rd3 + p22Rd3 + p78Rd3 - p30Rd4 + pro30Rd3 >= 0 
p31Rd4 - p22Rd3 - p78Rd3 - p30Rd4 + pro30Rd3 >= -2 
p22Rd3 - p79Rd3 - p78Rd3 - p30Rd4 + pro30Rd3 >= -2 
p78Rd3 - p79Rd3 - p22Rd3 - p30Rd4 + pro30Rd3 >= -2 
p30Rd4 - p79Rd3 - p22Rd3 - p78Rd3 + pro30Rd3 >= -2 
p80Rd3 - p32Rd4 + pro31Rd3 >= 0 
p24Rd3 - p80Rd3 + pro31Rd3 >= 0 
p32Rd4 - p24Rd3 + pro31Rd3 >= 0 
p24Rd3 + p80Rd3 + p32Rd4 + pro31Rd3 <= 3 
p24Rd3 + p80Rd3 + p32Rd4 - pro31Rd3 >= 0 
p23Rd3 + p79Rd3 + p31Rd4 + pro31Rd3 - p80Rd3 >= 0 
p80Rd3 + p23Rd3 - p79Rd3 + p31Rd4 + pro31Rd3 >= 0 
p80Rd3 - p23Rd3 + p79Rd3 + p31Rd4 + pro31Rd3 >= 0 
p24Rd3 + p23Rd3 + p79Rd3 - p31Rd4 + pro31Rd3 >= 0 
p32Rd4 - p23Rd3 - p79Rd3 - p31Rd4 + pro31Rd3 >= -2 
p23Rd3 - p80Rd3 - p79Rd3 - p31Rd4 + pro31Rd3 >= -2 
p79Rd3 - p80Rd3 - p23Rd3 - p31Rd4 + pro31Rd3 >= -2 
p31Rd4 - p80Rd3 - p23Rd3 - p79Rd3 + pro31Rd3 >= -2 
p81Rd3 - p33Rd4 + pro32Rd3 >= 0 
p25Rd3 - p81Rd3 + pro32Rd3 >= 0 
p33Rd4 - p25Rd3 + pro32Rd3 >= 0 
p25Rd3 + p81Rd3 + p33Rd4 + pro32Rd3 <= 3 
p25Rd3 + p81Rd3 + p33Rd4 - pro32Rd3 >= 0 
p24Rd3 + p80Rd3 + p32Rd4 + pro32Rd3 - p81Rd3 >= 0 
p81Rd3 + p24Rd3 - p80Rd3 + p32Rd4 + pro32Rd3 >= 0 
p81Rd3 - p24Rd3 + p80Rd3 + p32Rd4 + pro32Rd3 >= 0 
p25Rd3 + p24Rd3 + p80Rd3 - p32Rd4 + pro32Rd3 >= 0 
p33Rd4 - p24Rd3 - p80Rd3 - p32Rd4 + pro32Rd3 >= -2 
p24Rd3 - p81Rd3 - p80Rd3 - p32Rd4 + pro32Rd3 >= -2 
p80Rd3 - p81Rd3 - p24Rd3 - p32Rd4 + pro32Rd3 >= -2 
p32Rd4 - p81Rd3 - p24Rd3 - p80Rd3 + pro32Rd3 >= -2 
p82Rd3 - p34Rd4 + pro33Rd3 >= 0 
p26Rd3 - p82Rd3 + pro33Rd3 >= 0 
p34Rd4 - p26Rd3 + pro33Rd3 >= 0 
p26Rd3 + p82Rd3 + p34Rd4 + pro33Rd3 <= 3 
p26Rd3 + p82Rd3 + p34Rd4 - pro33Rd3 >= 0 
p25Rd3 + p81Rd3 + p33Rd4 + pro33Rd3 - p82Rd3 >= 0 
p82Rd3 + p25Rd3 - p81Rd3 + p33Rd4 + pro33Rd3 >= 0 
p82Rd3 - p25Rd3 + p81Rd3 + p33Rd4 + pro33Rd3 >= 0 
p26Rd3 + p25Rd3 + p81Rd3 - p33Rd4 + pro33Rd3 >= 0 
p34Rd4 - p25Rd3 - p81Rd3 - p33Rd4 + pro33Rd3 >= -2 
p25Rd3 - p82Rd3 - p81Rd3 - p33Rd4 + pro33Rd3 >= -2 
p81Rd3 - p82Rd3 - p25Rd3 - p33Rd4 + pro33Rd3 >= -2 
p33Rd4 - p82Rd3 - p25Rd3 - p81Rd3 + pro33Rd3 >= -2 
p83Rd3 - p35Rd4 + pro34Rd3 >= 0 
p27Rd3 - p83Rd3 + pro34Rd3 >= 0 
p35Rd4 - p27Rd3 + pro34Rd3 >= 0 
p27Rd3 + p83Rd3 + p35Rd4 + pro34Rd3 <= 3 
p27Rd3 + p83Rd3 + p35Rd4 - pro34Rd3 >= 0 
p26Rd3 + p82Rd3 + p34Rd4 + pro34Rd3 - p83Rd3 >= 0 
p83Rd3 + p26Rd3 - p82Rd3 + p34Rd4 + pro34Rd3 >= 0 
p83Rd3 - p26Rd3 + p82Rd3 + p34Rd4 + pro34Rd3 >= 0 
p27Rd3 + p26Rd3 + p82Rd3 - p34Rd4 + pro34Rd3 >= 0 
p35Rd4 - p26Rd3 - p82Rd3 - p34Rd4 + pro34Rd3 >= -2 
p26Rd3 - p83Rd3 - p82Rd3 - p34Rd4 + pro34Rd3 >= -2 
p82Rd3 - p83Rd3 - p26Rd3 - p34Rd4 + pro34Rd3 >= -2 
p34Rd4 - p83Rd3 - p26Rd3 - p82Rd3 + pro34Rd3 >= -2 
p84Rd3 - p36Rd4 + pro35Rd3 >= 0 
p28Rd3 - p84Rd3 + pro35Rd3 >= 0 
p36Rd4 - p28Rd3 + pro35Rd3 >= 0 
p28Rd3 + p84Rd3 + p36Rd4 + pro35Rd3 <= 3 
p28Rd3 + p84Rd3 + p36Rd4 - pro35Rd3 >= 0 
p27Rd3 + p83Rd3 + p35Rd4 + pro35Rd3 - p84Rd3 >= 0 
p84Rd3 + p27Rd3 - p83Rd3 + p35Rd4 + pro35Rd3 >= 0 
p84Rd3 - p27Rd3 + p83Rd3 + p35Rd4 + pro35Rd3 >= 0 
p28Rd3 + p27Rd3 + p83Rd3 - p35Rd4 + pro35Rd3 >= 0 
p36Rd4 - p27Rd3 - p83Rd3 - p35Rd4 + pro35Rd3 >= -2 
p27Rd3 - p84Rd3 - p83Rd3 - p35Rd4 + pro35Rd3 >= -2 
p83Rd3 - p84Rd3 - p27Rd3 - p35Rd4 + pro35Rd3 >= -2 
p35Rd4 - p84Rd3 - p27Rd3 - p83Rd3 + pro35Rd3 >= -2 
p85Rd3 - p37Rd4 + pro36Rd3 >= 0 
p29Rd3 - p85Rd3 + pro36Rd3 >= 0 
p37Rd4 - p29Rd3 + pro36Rd3 >= 0 
p29Rd3 + p85Rd3 + p37Rd4 + pro36Rd3 <= 3 
p29Rd3 + p85Rd3 + p37Rd4 - pro36Rd3 >= 0 
p28Rd3 + p84Rd3 + p36Rd4 + pro36Rd3 - p85Rd3 >= 0 
p85Rd3 + p28Rd3 - p84Rd3 + p36Rd4 + pro36Rd3 >= 0 
p85Rd3 - p28Rd3 + p84Rd3 + p36Rd4 + pro36Rd3 >= 0 
p29Rd3 + p28Rd3 + p84Rd3 - p36Rd4 + pro36Rd3 >= 0 
p37Rd4 - p28Rd3 - p84Rd3 - p36Rd4 + pro36Rd3 >= -2 
p28Rd3 - p85Rd3 - p84Rd3 - p36Rd4 + pro36Rd3 >= -2 
p84Rd3 - p85Rd3 - p28Rd3 - p36Rd4 + pro36Rd3 >= -2 
p36Rd4 - p85Rd3 - p28Rd3 - p84Rd3 + pro36Rd3 >= -2 
p86Rd3 - p38Rd4 + pro37Rd3 >= 0 
p30Rd3 - p86Rd3 + pro37Rd3 >= 0 
p38Rd4 - p30Rd3 + pro37Rd3 >= 0 
p30Rd3 + p86Rd3 + p38Rd4 + pro37Rd3 <= 3 
p30Rd3 + p86Rd3 + p38Rd4 - pro37Rd3 >= 0 
p29Rd3 + p85Rd3 + p37Rd4 + pro37Rd3 - p86Rd3 >= 0 
p86Rd3 + p29Rd3 - p85Rd3 + p37Rd4 + pro37Rd3 >= 0 
p86Rd3 - p29Rd3 + p85Rd3 + p37Rd4 + pro37Rd3 >= 0 
p30Rd3 + p29Rd3 + p85Rd3 - p37Rd4 + pro37Rd3 >= 0 
p38Rd4 - p29Rd3 - p85Rd3 - p37Rd4 + pro37Rd3 >= -2 
p29Rd3 - p86Rd3 - p85Rd3 - p37Rd4 + pro37Rd3 >= -2 
p85Rd3 - p86Rd3 - p29Rd3 - p37Rd4 + pro37Rd3 >= -2 
p37Rd4 - p86Rd3 - p29Rd3 - p85Rd3 + pro37Rd3 >= -2 
p87Rd3 - p39Rd4 + pro38Rd3 >= 0 
p31Rd3 - p87Rd3 + pro38Rd3 >= 0 
p39Rd4 - p31Rd3 + pro38Rd3 >= 0 
p31Rd3 + p87Rd3 + p39Rd4 + pro38Rd3 <= 3 
p31Rd3 + p87Rd3 + p39Rd4 - pro38Rd3 >= 0 
p30Rd3 + p86Rd3 + p38Rd4 + pro38Rd3 - p87Rd3 >= 0 
p87Rd3 + p30Rd3 - p86Rd3 + p38Rd4 + pro38Rd3 >= 0 
p87Rd3 - p30Rd3 + p86Rd3 + p38Rd4 + pro38Rd3 >= 0 
p31Rd3 + p30Rd3 + p86Rd3 - p38Rd4 + pro38Rd3 >= 0 
p39Rd4 - p30Rd3 - p86Rd3 - p38Rd4 + pro38Rd3 >= -2 
p30Rd3 - p87Rd3 - p86Rd3 - p38Rd4 + pro38Rd3 >= -2 
p86Rd3 - p87Rd3 - p30Rd3 - p38Rd4 + pro38Rd3 >= -2 
p38Rd4 - p87Rd3 - p30Rd3 - p86Rd3 + pro38Rd3 >= -2 
p88Rd3 - p40Rd4 + pro39Rd3 >= 0 
p32Rd3 - p88Rd3 + pro39Rd3 >= 0 
p40Rd4 - p32Rd3 + pro39Rd3 >= 0 
p32Rd3 + p88Rd3 + p40Rd4 + pro39Rd3 <= 3 
p32Rd3 + p88Rd3 + p40Rd4 - pro39Rd3 >= 0 
p31Rd3 + p87Rd3 + p39Rd4 + pro39Rd3 - p88Rd3 >= 0 
p88Rd3 + p31Rd3 - p87Rd3 + p39Rd4 + pro39Rd3 >= 0 
p88Rd3 - p31Rd3 + p87Rd3 + p39Rd4 + pro39Rd3 >= 0 
p32Rd3 + p31Rd3 + p87Rd3 - p39Rd4 + pro39Rd3 >= 0 
p40Rd4 - p31Rd3 - p87Rd3 - p39Rd4 + pro39Rd3 >= -2 
p31Rd3 - p88Rd3 - p87Rd3 - p39Rd4 + pro39Rd3 >= -2 
p87Rd3 - p88Rd3 - p31Rd3 - p39Rd4 + pro39Rd3 >= -2 
p39Rd4 - p88Rd3 - p31Rd3 - p87Rd3 + pro39Rd3 >= -2 
p89Rd3 - p41Rd4 + pro40Rd3 >= 0 
p33Rd3 - p89Rd3 + pro40Rd3 >= 0 
p41Rd4 - p33Rd3 + pro40Rd3 >= 0 
p33Rd3 + p89Rd3 + p41Rd4 + pro40Rd3 <= 3 
p33Rd3 + p89Rd3 + p41Rd4 - pro40Rd3 >= 0 
p32Rd3 + p88Rd3 + p40Rd4 + pro40Rd3 - p89Rd3 >= 0 
p89Rd3 + p32Rd3 - p88Rd3 + p40Rd4 + pro40Rd3 >= 0 
p89Rd3 - p32Rd3 + p88Rd3 + p40Rd4 + pro40Rd3 >= 0 
p33Rd3 + p32Rd3 + p88Rd3 - p40Rd4 + pro40Rd3 >= 0 
p41Rd4 - p32Rd3 - p88Rd3 - p40Rd4 + pro40Rd3 >= -2 
p32Rd3 - p89Rd3 - p88Rd3 - p40Rd4 + pro40Rd3 >= -2 
p88Rd3 - p89Rd3 - p32Rd3 - p40Rd4 + pro40Rd3 >= -2 
p40Rd4 - p89Rd3 - p32Rd3 - p88Rd3 + pro40Rd3 >= -2 
p90Rd3 - p42Rd4 + pro41Rd3 >= 0 
p34Rd3 - p90Rd3 + pro41Rd3 >= 0 
p42Rd4 - p34Rd3 + pro41Rd3 >= 0 
p34Rd3 + p90Rd3 + p42Rd4 + pro41Rd3 <= 3 
p34Rd3 + p90Rd3 + p42Rd4 - pro41Rd3 >= 0 
p33Rd3 + p89Rd3 + p41Rd4 + pro41Rd3 - p90Rd3 >= 0 
p90Rd3 + p33Rd3 - p89Rd3 + p41Rd4 + pro41Rd3 >= 0 
p90Rd3 - p33Rd3 + p89Rd3 + p41Rd4 + pro41Rd3 >= 0 
p34Rd3 + p33Rd3 + p89Rd3 - p41Rd4 + pro41Rd3 >= 0 
p42Rd4 - p33Rd3 - p89Rd3 - p41Rd4 + pro41Rd3 >= -2 
p33Rd3 - p90Rd3 - p89Rd3 - p41Rd4 + pro41Rd3 >= -2 
p89Rd3 - p90Rd3 - p33Rd3 - p41Rd4 + pro41Rd3 >= -2 
p41Rd4 - p90Rd3 - p33Rd3 - p89Rd3 + pro41Rd3 >= -2 
p91Rd3 - p43Rd4 + pro42Rd3 >= 0 
p35Rd3 - p91Rd3 + pro42Rd3 >= 0 
p43Rd4 - p35Rd3 + pro42Rd3 >= 0 
p35Rd3 + p91Rd3 + p43Rd4 + pro42Rd3 <= 3 
p35Rd3 + p91Rd3 + p43Rd4 - pro42Rd3 >= 0 
p34Rd3 + p90Rd3 + p42Rd4 + pro42Rd3 - p91Rd3 >= 0 
p91Rd3 + p34Rd3 - p90Rd3 + p42Rd4 + pro42Rd3 >= 0 
p91Rd3 - p34Rd3 + p90Rd3 + p42Rd4 + pro42Rd3 >= 0 
p35Rd3 + p34Rd3 + p90Rd3 - p42Rd4 + pro42Rd3 >= 0 
p43Rd4 - p34Rd3 - p90Rd3 - p42Rd4 + pro42Rd3 >= -2 
p34Rd3 - p91Rd3 - p90Rd3 - p42Rd4 + pro42Rd3 >= -2 
p90Rd3 - p91Rd3 - p34Rd3 - p42Rd4 + pro42Rd3 >= -2 
p42Rd4 - p91Rd3 - p34Rd3 - p90Rd3 + pro42Rd3 >= -2 
p92Rd3 - p44Rd4 + pro43Rd3 >= 0 
p36Rd3 - p92Rd3 + pro43Rd3 >= 0 
p44Rd4 - p36Rd3 + pro43Rd3 >= 0 
p36Rd3 + p92Rd3 + p44Rd4 + pro43Rd3 <= 3 
p36Rd3 + p92Rd3 + p44Rd4 - pro43Rd3 >= 0 
p35Rd3 + p91Rd3 + p43Rd4 + pro43Rd3 - p92Rd3 >= 0 
p92Rd3 + p35Rd3 - p91Rd3 + p43Rd4 + pro43Rd3 >= 0 
p92Rd3 - p35Rd3 + p91Rd3 + p43Rd4 + pro43Rd3 >= 0 
p36Rd3 + p35Rd3 + p91Rd3 - p43Rd4 + pro43Rd3 >= 0 
p44Rd4 - p35Rd3 - p91Rd3 - p43Rd4 + pro43Rd3 >= -2 
p35Rd3 - p92Rd3 - p91Rd3 - p43Rd4 + pro43Rd3 >= -2 
p91Rd3 - p92Rd3 - p35Rd3 - p43Rd4 + pro43Rd3 >= -2 
p43Rd4 - p92Rd3 - p35Rd3 - p91Rd3 + pro43Rd3 >= -2 
p93Rd3 - p45Rd4 + pro44Rd3 >= 0 
p37Rd3 - p93Rd3 + pro44Rd3 >= 0 
p45Rd4 - p37Rd3 + pro44Rd3 >= 0 
p37Rd3 + p93Rd3 + p45Rd4 + pro44Rd3 <= 3 
p37Rd3 + p93Rd3 + p45Rd4 - pro44Rd3 >= 0 
p36Rd3 + p92Rd3 + p44Rd4 + pro44Rd3 - p93Rd3 >= 0 
p93Rd3 + p36Rd3 - p92Rd3 + p44Rd4 + pro44Rd3 >= 0 
p93Rd3 - p36Rd3 + p92Rd3 + p44Rd4 + pro44Rd3 >= 0 
p37Rd3 + p36Rd3 + p92Rd3 - p44Rd4 + pro44Rd3 >= 0 
p45Rd4 - p36Rd3 - p92Rd3 - p44Rd4 + pro44Rd3 >= -2 
p36Rd3 - p93Rd3 - p92Rd3 - p44Rd4 + pro44Rd3 >= -2 
p92Rd3 - p93Rd3 - p36Rd3 - p44Rd4 + pro44Rd3 >= -2 
p44Rd4 - p93Rd3 - p36Rd3 - p92Rd3 + pro44Rd3 >= -2 
p94Rd3 - p46Rd4 + pro45Rd3 >= 0 
p38Rd3 - p94Rd3 + pro45Rd3 >= 0 
p46Rd4 - p38Rd3 + pro45Rd3 >= 0 
p38Rd3 + p94Rd3 + p46Rd4 + pro45Rd3 <= 3 
p38Rd3 + p94Rd3 + p46Rd4 - pro45Rd3 >= 0 
p37Rd3 + p93Rd3 + p45Rd4 + pro45Rd3 - p94Rd3 >= 0 
p94Rd3 + p37Rd3 - p93Rd3 + p45Rd4 + pro45Rd3 >= 0 
p94Rd3 - p37Rd3 + p93Rd3 + p45Rd4 + pro45Rd3 >= 0 
p38Rd3 + p37Rd3 + p93Rd3 - p45Rd4 + pro45Rd3 >= 0 
p46Rd4 - p37Rd3 - p93Rd3 - p45Rd4 + pro45Rd3 >= -2 
p37Rd3 - p94Rd3 - p93Rd3 - p45Rd4 + pro45Rd3 >= -2 
p93Rd3 - p94Rd3 - p37Rd3 - p45Rd4 + pro45Rd3 >= -2 
p45Rd4 - p94Rd3 - p37Rd3 - p93Rd3 + pro45Rd3 >= -2 
p95Rd3 - p47Rd4 + pro46Rd3 >= 0 
p39Rd3 - p95Rd3 + pro46Rd3 >= 0 
p47Rd4 - p39Rd3 + pro46Rd3 >= 0 
p39Rd3 + p95Rd3 + p47Rd4 + pro46Rd3 <= 3 
p39Rd3 + p95Rd3 + p47Rd4 - pro46Rd3 >= 0 
p38Rd3 + p94Rd3 + p46Rd4 + pro46Rd3 - p95Rd3 >= 0 
p95Rd3 + p38Rd3 - p94Rd3 + p46Rd4 + pro46Rd3 >= 0 
p95Rd3 - p38Rd3 + p94Rd3 + p46Rd4 + pro46Rd3 >= 0 
p39Rd3 + p38Rd3 + p94Rd3 - p46Rd4 + pro46Rd3 >= 0 
p47Rd4 - p38Rd3 - p94Rd3 - p46Rd4 + pro46Rd3 >= -2 
p38Rd3 - p95Rd3 - p94Rd3 - p46Rd4 + pro46Rd3 >= -2 
p94Rd3 - p95Rd3 - p38Rd3 - p46Rd4 + pro46Rd3 >= -2 
p46Rd4 - p95Rd3 - p38Rd3 - p94Rd3 + pro46Rd3 >= -2 
p39Rd3 + p95Rd3 + p47Rd4 <= 2 
p39Rd3 + p95Rd3 + p47Rd4 - 2 temp3 >= 0 
temp3 - p39Rd3 >= 0 
temp3 - p95Rd3 >= 0 
temp3 - p47Rd4 >= 0 
p51Rd4 + p48Rd5 - p0Rd5 >= 0
p51Rd4 - p48Rd5 + p0Rd5 >= 0
- p51Rd4 + p48Rd5 + p0Rd5 >= 0
p51Rd4 + p48Rd5 + p0Rd5 <= 2
p52Rd4 + p49Rd5 - p1Rd5 >= 0
p52Rd4 - p49Rd5 + p1Rd5 >= 0
- p52Rd4 + p49Rd5 + p1Rd5 >= 0
p52Rd4 + p49Rd5 + p1Rd5 <= 2
p53Rd4 + p50Rd5 - p2Rd5 >= 0
p53Rd4 - p50Rd5 + p2Rd5 >= 0
- p53Rd4 + p50Rd5 + p2Rd5 >= 0
p53Rd4 + p50Rd5 + p2Rd5 <= 2
p54Rd4 + p51Rd5 - p3Rd5 >= 0
p54Rd4 - p51Rd5 + p3Rd5 >= 0
- p54Rd4 + p51Rd5 + p3Rd5 >= 0
p54Rd4 + p51Rd5 + p3Rd5 <= 2
p55Rd4 + p52Rd5 - p4Rd5 >= 0
p55Rd4 - p52Rd5 + p4Rd5 >= 0
- p55Rd4 + p52Rd5 + p4Rd5 >= 0
p55Rd4 + p52Rd5 + p4Rd5 <= 2
p56Rd4 + p53Rd5 - p5Rd5 >= 0
p56Rd4 - p53Rd5 + p5Rd5 >= 0
- p56Rd4 + p53Rd5 + p5Rd5 >= 0
p56Rd4 + p53Rd5 + p5Rd5 <= 2
p57Rd4 + p54Rd5 - p6Rd5 >= 0
p57Rd4 - p54Rd5 + p6Rd5 >= 0
- p57Rd4 + p54Rd5 + p6Rd5 >= 0
p57Rd4 + p54Rd5 + p6Rd5 <= 2
p58Rd4 + p55Rd5 - p7Rd5 >= 0
p58Rd4 - p55Rd5 + p7Rd5 >= 0
- p58Rd4 + p55Rd5 + p7Rd5 >= 0
p58Rd4 + p55Rd5 + p7Rd5 <= 2
p59Rd4 + p56Rd5 - p8Rd5 >= 0
p59Rd4 - p56Rd5 + p8Rd5 >= 0
- p59Rd4 + p56Rd5 + p8Rd5 >= 0
p59Rd4 + p56Rd5 + p8Rd5 <= 2
p60Rd4 + p57Rd5 - p9Rd5 >= 0
p60Rd4 - p57Rd5 + p9Rd5 >= 0
- p60Rd4 + p57Rd5 + p9Rd5 >= 0
p60Rd4 + p57Rd5 + p9Rd5 <= 2
p61Rd4 + p58Rd5 - p10Rd5 >= 0
p61Rd4 - p58Rd5 + p10Rd5 >= 0
- p61Rd4 + p58Rd5 + p10Rd5 >= 0
p61Rd4 + p58Rd5 + p10Rd5 <= 2
p62Rd4 + p59Rd5 - p11Rd5 >= 0
p62Rd4 - p59Rd5 + p11Rd5 >= 0
- p62Rd4 + p59Rd5 + p11Rd5 >= 0
p62Rd4 + p59Rd5 + p11Rd5 <= 2
p63Rd4 + p60Rd5 - p12Rd5 >= 0
p63Rd4 - p60Rd5 + p12Rd5 >= 0
- p63Rd4 + p60Rd5 + p12Rd5 >= 0
p63Rd4 + p60Rd5 + p12Rd5 <= 2
p64Rd4 + p61Rd5 - p13Rd5 >= 0
p64Rd4 - p61Rd5 + p13Rd5 >= 0
- p64Rd4 + p61Rd5 + p13Rd5 >= 0
p64Rd4 + p61Rd5 + p13Rd5 <= 2
p65Rd4 + p62Rd5 - p14Rd5 >= 0
p65Rd4 - p62Rd5 + p14Rd5 >= 0
- p65Rd4 + p62Rd5 + p14Rd5 >= 0
p65Rd4 + p62Rd5 + p14Rd5 <= 2
p66Rd4 + p63Rd5 - p15Rd5 >= 0
p66Rd4 - p63Rd5 + p15Rd5 >= 0
- p66Rd4 + p63Rd5 + p15Rd5 >= 0
p66Rd4 + p63Rd5 + p15Rd5 <= 2
p67Rd4 + p64Rd5 - p16Rd5 >= 0
p67Rd4 - p64Rd5 + p16Rd5 >= 0
- p67Rd4 + p64Rd5 + p16Rd5 >= 0
p67Rd4 + p64Rd5 + p16Rd5 <= 2
p68Rd4 + p65Rd5 - p17Rd5 >= 0
p68Rd4 - p65Rd5 + p17Rd5 >= 0
- p68Rd4 + p65Rd5 + p17Rd5 >= 0
p68Rd4 + p65Rd5 + p17Rd5 <= 2
p69Rd4 + p66Rd5 - p18Rd5 >= 0
p69Rd4 - p66Rd5 + p18Rd5 >= 0
- p69Rd4 + p66Rd5 + p18Rd5 >= 0
p69Rd4 + p66Rd5 + p18Rd5 <= 2
p70Rd4 + p67Rd5 - p19Rd5 >= 0
p70Rd4 - p67Rd5 + p19Rd5 >= 0
- p70Rd4 + p67Rd5 + p19Rd5 >= 0
p70Rd4 + p67Rd5 + p19Rd5 <= 2
p71Rd4 + p68Rd5 - p20Rd5 >= 0
p71Rd4 - p68Rd5 + p20Rd5 >= 0
- p71Rd4 + p68Rd5 + p20Rd5 >= 0
p71Rd4 + p68Rd5 + p20Rd5 <= 2
p72Rd4 + p69Rd5 - p21Rd5 >= 0
p72Rd4 - p69Rd5 + p21Rd5 >= 0
- p72Rd4 + p69Rd5 + p21Rd5 >= 0
p72Rd4 + p69Rd5 + p21Rd5 <= 2
p73Rd4 + p70Rd5 - p22Rd5 >= 0
p73Rd4 - p70Rd5 + p22Rd5 >= 0
- p73Rd4 + p70Rd5 + p22Rd5 >= 0
p73Rd4 + p70Rd5 + p22Rd5 <= 2
p74Rd4 + p71Rd5 - p23Rd5 >= 0
p74Rd4 - p71Rd5 + p23Rd5 >= 0
- p74Rd4 + p71Rd5 + p23Rd5 >= 0
p74Rd4 + p71Rd5 + p23Rd5 <= 2
p75Rd4 + p72Rd5 - p24Rd5 >= 0
p75Rd4 - p72Rd5 + p24Rd5 >= 0
- p75Rd4 + p72Rd5 + p24Rd5 >= 0
p75Rd4 + p72Rd5 + p24Rd5 <= 2
p76Rd4 + p73Rd5 - p25Rd5 >= 0
p76Rd4 - p73Rd5 + p25Rd5 >= 0
- p76Rd4 + p73Rd5 + p25Rd5 >= 0
p76Rd4 + p73Rd5 + p25Rd5 <= 2
p77Rd4 + p74Rd5 - p26Rd5 >= 0
p77Rd4 - p74Rd5 + p26Rd5 >= 0
- p77Rd4 + p74Rd5 + p26Rd5 >= 0
p77Rd4 + p74Rd5 + p26Rd5 <= 2
p78Rd4 + p75Rd5 - p27Rd5 >= 0
p78Rd4 - p75Rd5 + p27Rd5 >= 0
- p78Rd4 + p75Rd5 + p27Rd5 >= 0
p78Rd4 + p75Rd5 + p27Rd5 <= 2
p79Rd4 + p76Rd5 - p28Rd5 >= 0
p79Rd4 - p76Rd5 + p28Rd5 >= 0
- p79Rd4 + p76Rd5 + p28Rd5 >= 0
p79Rd4 + p76Rd5 + p28Rd5 <= 2
p80Rd4 + p77Rd5 - p29Rd5 >= 0
p80Rd4 - p77Rd5 + p29Rd5 >= 0
- p80Rd4 + p77Rd5 + p29Rd5 >= 0
p80Rd4 + p77Rd5 + p29Rd5 <= 2
p81Rd4 + p78Rd5 - p30Rd5 >= 0
p81Rd4 - p78Rd5 + p30Rd5 >= 0
- p81Rd4 + p78Rd5 + p30Rd5 >= 0
p81Rd4 + p78Rd5 + p30Rd5 <= 2
p82Rd4 + p79Rd5 - p31Rd5 >= 0
p82Rd4 - p79Rd5 + p31Rd5 >= 0
- p82Rd4 + p79Rd5 + p31Rd5 >= 0
p82Rd4 + p79Rd5 + p31Rd5 <= 2
p83Rd4 + p80Rd5 - p32Rd5 >= 0
p83Rd4 - p80Rd5 + p32Rd5 >= 0
- p83Rd4 + p80Rd5 + p32Rd5 >= 0
p83Rd4 + p80Rd5 + p32Rd5 <= 2
p84Rd4 + p81Rd5 - p33Rd5 >= 0
p84Rd4 - p81Rd5 + p33Rd5 >= 0
- p84Rd4 + p81Rd5 + p33Rd5 >= 0
p84Rd4 + p81Rd5 + p33Rd5 <= 2
p85Rd4 + p82Rd5 - p34Rd5 >= 0
p85Rd4 - p82Rd5 + p34Rd5 >= 0
- p85Rd4 + p82Rd5 + p34Rd5 >= 0
p85Rd4 + p82Rd5 + p34Rd5 <= 2
p86Rd4 + p83Rd5 - p35Rd5 >= 0
p86Rd4 - p83Rd5 + p35Rd5 >= 0
- p86Rd4 + p83Rd5 + p35Rd5 >= 0
p86Rd4 + p83Rd5 + p35Rd5 <= 2
p87Rd4 + p84Rd5 - p36Rd5 >= 0
p87Rd4 - p84Rd5 + p36Rd5 >= 0
- p87Rd4 + p84Rd5 + p36Rd5 >= 0
p87Rd4 + p84Rd5 + p36Rd5 <= 2
p88Rd4 + p85Rd5 - p37Rd5 >= 0
p88Rd4 - p85Rd5 + p37Rd5 >= 0
- p88Rd4 + p85Rd5 + p37Rd5 >= 0
p88Rd4 + p85Rd5 + p37Rd5 <= 2
p89Rd4 + p86Rd5 - p38Rd5 >= 0
p89Rd4 - p86Rd5 + p38Rd5 >= 0
- p89Rd4 + p86Rd5 + p38Rd5 >= 0
p89Rd4 + p86Rd5 + p38Rd5 <= 2
p90Rd4 + p87Rd5 - p39Rd5 >= 0
p90Rd4 - p87Rd5 + p39Rd5 >= 0
- p90Rd4 + p87Rd5 + p39Rd5 >= 0
p90Rd4 + p87Rd5 + p39Rd5 <= 2
p91Rd4 + p88Rd5 - p40Rd5 >= 0
p91Rd4 - p88Rd5 + p40Rd5 >= 0
- p91Rd4 + p88Rd5 + p40Rd5 >= 0
p91Rd4 + p88Rd5 + p40Rd5 <= 2
p92Rd4 + p89Rd5 - p41Rd5 >= 0
p92Rd4 - p89Rd5 + p41Rd5 >= 0
- p92Rd4 + p89Rd5 + p41Rd5 >= 0
p92Rd4 + p89Rd5 + p41Rd5 <= 2
p93Rd4 + p90Rd5 - p42Rd5 >= 0
p93Rd4 - p90Rd5 + p42Rd5 >= 0
- p93Rd4 + p90Rd5 + p42Rd5 >= 0
p93Rd4 + p90Rd5 + p42Rd5 <= 2
p94Rd4 + p91Rd5 - p43Rd5 >= 0
p94Rd4 - p91Rd5 + p43Rd5 >= 0
- p94Rd4 + p91Rd5 + p43Rd5 >= 0
p94Rd4 + p91Rd5 + p43Rd5 <= 2
p95Rd4 + p92Rd5 - p44Rd5 >= 0
p95Rd4 - p92Rd5 + p44Rd5 >= 0
- p95Rd4 + p92Rd5 + p44Rd5 >= 0
p95Rd4 + p92Rd5 + p44Rd5 <= 2
p48Rd4 + p93Rd5 - p45Rd5 >= 0
p48Rd4 - p93Rd5 + p45Rd5 >= 0
- p48Rd4 + p93Rd5 + p45Rd5 >= 0
p48Rd4 + p93Rd5 + p45Rd5 <= 2
p49Rd4 + p94Rd5 - p46Rd5 >= 0
p49Rd4 - p94Rd5 + p46Rd5 >= 0
- p49Rd4 + p94Rd5 + p46Rd5 >= 0
p49Rd4 + p94Rd5 + p46Rd5 <= 2
p50Rd4 + p95Rd5 - p47Rd5 >= 0
p50Rd4 - p95Rd5 + p47Rd5 >= 0
- p50Rd4 + p95Rd5 + p47Rd5 >= 0
p50Rd4 + p95Rd5 + p47Rd5 <= 2
p49Rd4 - p1Rd5 + pro0Rd4 >= 0 
p41Rd4 - p49Rd4 + pro0Rd4 >= 0 
p1Rd5 - p41Rd4 + pro0Rd4 >= 0 
p41Rd4 + p49Rd4 + p1Rd5 + pro0Rd4 <= 3 
p41Rd4 + p49Rd4 + p1Rd5 - pro0Rd4 >= 0 
p40Rd4 + p48Rd4 + p0Rd5 + pro0Rd4 - p49Rd4 >= 0 
p49Rd4 + p40Rd4 - p48Rd4 + p0Rd5 + pro0Rd4 >= 0 
p49Rd4 - p40Rd4 + p48Rd4 + p0Rd5 + pro0Rd4 >= 0 
p41Rd4 + p40Rd4 + p48Rd4 - p0Rd5 + pro0Rd4 >= 0 
p1Rd5 - p40Rd4 - p48Rd4 - p0Rd5 + pro0Rd4 >= -2 
p40Rd4 - p49Rd4 - p48Rd4 - p0Rd5 + pro0Rd4 >= -2 
p48Rd4 - p49Rd4 - p40Rd4 - p0Rd5 + pro0Rd4 >= -2 
p0Rd5 - p49Rd4 - p40Rd4 - p48Rd4 + pro0Rd4 >= -2 
p50Rd4 - p2Rd5 + pro1Rd4 >= 0 
p42Rd4 - p50Rd4 + pro1Rd4 >= 0 
p2Rd5 - p42Rd4 + pro1Rd4 >= 0 
p42Rd4 + p50Rd4 + p2Rd5 + pro1Rd4 <= 3 
p42Rd4 + p50Rd4 + p2Rd5 - pro1Rd4 >= 0 
p41Rd4 + p49Rd4 + p1Rd5 + pro1Rd4 - p50Rd4 >= 0 
p50Rd4 + p41Rd4 - p49Rd4 + p1Rd5 + pro1Rd4 >= 0 
p50Rd4 - p41Rd4 + p49Rd4 + p1Rd5 + pro1Rd4 >= 0 
p42Rd4 + p41Rd4 + p49Rd4 - p1Rd5 + pro1Rd4 >= 0 
p2Rd5 - p41Rd4 - p49Rd4 - p1Rd5 + pro1Rd4 >= -2 
p41Rd4 - p50Rd4 - p49Rd4 - p1Rd5 + pro1Rd4 >= -2 
p49Rd4 - p50Rd4 - p41Rd4 - p1Rd5 + pro1Rd4 >= -2 
p1Rd5 - p50Rd4 - p41Rd4 - p49Rd4 + pro1Rd4 >= -2 
p51Rd4 - p3Rd5 + pro2Rd4 >= 0 
p43Rd4 - p51Rd4 + pro2Rd4 >= 0 
p3Rd5 - p43Rd4 + pro2Rd4 >= 0 
p43Rd4 + p51Rd4 + p3Rd5 + pro2Rd4 <= 3 
p43Rd4 + p51Rd4 + p3Rd5 - pro2Rd4 >= 0 
p42Rd4 + p50Rd4 + p2Rd5 + pro2Rd4 - p51Rd4 >= 0 
p51Rd4 + p42Rd4 - p50Rd4 + p2Rd5 + pro2Rd4 >= 0 
p51Rd4 - p42Rd4 + p50Rd4 + p2Rd5 + pro2Rd4 >= 0 
p43Rd4 + p42Rd4 + p50Rd4 - p2Rd5 + pro2Rd4 >= 0 
p3Rd5 - p42Rd4 - p50Rd4 - p2Rd5 + pro2Rd4 >= -2 
p42Rd4 - p51Rd4 - p50Rd4 - p2Rd5 + pro2Rd4 >= -2 
p50Rd4 - p51Rd4 - p42Rd4 - p2Rd5 + pro2Rd4 >= -2 
p2Rd5 - p51Rd4 - p42Rd4 - p50Rd4 + pro2Rd4 >= -2 
p52Rd4 - p4Rd5 + pro3Rd4 >= 0 
p44Rd4 - p52Rd4 + pro3Rd4 >= 0 
p4Rd5 - p44Rd4 + pro3Rd4 >= 0 
p44Rd4 + p52Rd4 + p4Rd5 + pro3Rd4 <= 3 
p44Rd4 + p52Rd4 + p4Rd5 - pro3Rd4 >= 0 
p43Rd4 + p51Rd4 + p3Rd5 + pro3Rd4 - p52Rd4 >= 0 
p52Rd4 + p43Rd4 - p51Rd4 + p3Rd5 + pro3Rd4 >= 0 
p52Rd4 - p43Rd4 + p51Rd4 + p3Rd5 + pro3Rd4 >= 0 
p44Rd4 + p43Rd4 + p51Rd4 - p3Rd5 + pro3Rd4 >= 0 
p4Rd5 - p43Rd4 - p51Rd4 - p3Rd5 + pro3Rd4 >= -2 
p43Rd4 - p52Rd4 - p51Rd4 - p3Rd5 + pro3Rd4 >= -2 
p51Rd4 - p52Rd4 - p43Rd4 - p3Rd5 + pro3Rd4 >= -2 
p3Rd5 - p52Rd4 - p43Rd4 - p51Rd4 + pro3Rd4 >= -2 
p53Rd4 - p5Rd5 + pro4Rd4 >= 0 
p45Rd4 - p53Rd4 + pro4Rd4 >= 0 
p5Rd5 - p45Rd4 + pro4Rd4 >= 0 
p45Rd4 + p53Rd4 + p5Rd5 + pro4Rd4 <= 3 
p45Rd4 + p53Rd4 + p5Rd5 - pro4Rd4 >= 0 
p44Rd4 + p52Rd4 + p4Rd5 + pro4Rd4 - p53Rd4 >= 0 
p53Rd4 + p44Rd4 - p52Rd4 + p4Rd5 + pro4Rd4 >= 0 
p53Rd4 - p44Rd4 + p52Rd4 + p4Rd5 + pro4Rd4 >= 0 
p45Rd4 + p44Rd4 + p52Rd4 - p4Rd5 + pro4Rd4 >= 0 
p5Rd5 - p44Rd4 - p52Rd4 - p4Rd5 + pro4Rd4 >= -2 
p44Rd4 - p53Rd4 - p52Rd4 - p4Rd5 + pro4Rd4 >= -2 
p52Rd4 - p53Rd4 - p44Rd4 - p4Rd5 + pro4Rd4 >= -2 
p4Rd5 - p53Rd4 - p44Rd4 - p52Rd4 + pro4Rd4 >= -2 
p54Rd4 - p6Rd5 + pro5Rd4 >= 0 
p46Rd4 - p54Rd4 + pro5Rd4 >= 0 
p6Rd5 - p46Rd4 + pro5Rd4 >= 0 
p46Rd4 + p54Rd4 + p6Rd5 + pro5Rd4 <= 3 
p46Rd4 + p54Rd4 + p6Rd5 - pro5Rd4 >= 0 
p45Rd4 + p53Rd4 + p5Rd5 + pro5Rd4 - p54Rd4 >= 0 
p54Rd4 + p45Rd4 - p53Rd4 + p5Rd5 + pro5Rd4 >= 0 
p54Rd4 - p45Rd4 + p53Rd4 + p5Rd5 + pro5Rd4 >= 0 
p46Rd4 + p45Rd4 + p53Rd4 - p5Rd5 + pro5Rd4 >= 0 
p6Rd5 - p45Rd4 - p53Rd4 - p5Rd5 + pro5Rd4 >= -2 
p45Rd4 - p54Rd4 - p53Rd4 - p5Rd5 + pro5Rd4 >= -2 
p53Rd4 - p54Rd4 - p45Rd4 - p5Rd5 + pro5Rd4 >= -2 
p5Rd5 - p54Rd4 - p45Rd4 - p53Rd4 + pro5Rd4 >= -2 
p55Rd4 - p7Rd5 + pro6Rd4 >= 0 
p47Rd4 - p55Rd4 + pro6Rd4 >= 0 
p7Rd5 - p47Rd4 + pro6Rd4 >= 0 
p47Rd4 + p55Rd4 + p7Rd5 + pro6Rd4 <= 3 
p47Rd4 + p55Rd4 + p7Rd5 - pro6Rd4 >= 0 
p46Rd4 + p54Rd4 + p6Rd5 + pro6Rd4 - p55Rd4 >= 0 
p55Rd4 + p46Rd4 - p54Rd4 + p6Rd5 + pro6Rd4 >= 0 
p55Rd4 - p46Rd4 + p54Rd4 + p6Rd5 + pro6Rd4 >= 0 
p47Rd4 + p46Rd4 + p54Rd4 - p6Rd5 + pro6Rd4 >= 0 
p7Rd5 - p46Rd4 - p54Rd4 - p6Rd5 + pro6Rd4 >= -2 
p46Rd4 - p55Rd4 - p54Rd4 - p6Rd5 + pro6Rd4 >= -2 
p54Rd4 - p55Rd4 - p46Rd4 - p6Rd5 + pro6Rd4 >= -2 
p6Rd5 - p55Rd4 - p46Rd4 - p54Rd4 + pro6Rd4 >= -2 
p56Rd4 - p8Rd5 + pro7Rd4 >= 0 
p0Rd4 - p56Rd4 + pro7Rd4 >= 0 
p8Rd5 - p0Rd4 + pro7Rd4 >= 0 
p0Rd4 + p56Rd4 + p8Rd5 + pro7Rd4 <= 3 
p0Rd4 + p56Rd4 + p8Rd5 - pro7Rd4 >= 0 
p47Rd4 + p55Rd4 + p7Rd5 + pro7Rd4 - p56Rd4 >= 0 
p56Rd4 + p47Rd4 - p55Rd4 + p7Rd5 + pro7Rd4 >= 0 
p56Rd4 - p47Rd4 + p55Rd4 + p7Rd5 + pro7Rd4 >= 0 
p0Rd4 + p47Rd4 + p55Rd4 - p7Rd5 + pro7Rd4 >= 0 
p8Rd5 - p47Rd4 - p55Rd4 - p7Rd5 + pro7Rd4 >= -2 
p47Rd4 - p56Rd4 - p55Rd4 - p7Rd5 + pro7Rd4 >= -2 
p55Rd4 - p56Rd4 - p47Rd4 - p7Rd5 + pro7Rd4 >= -2 
p7Rd5 - p56Rd4 - p47Rd4 - p55Rd4 + pro7Rd4 >= -2 
p57Rd4 - p9Rd5 + pro8Rd4 >= 0 
p1Rd4 - p57Rd4 + pro8Rd4 >= 0 
p9Rd5 - p1Rd4 + pro8Rd4 >= 0 
p1Rd4 + p57Rd4 + p9Rd5 + pro8Rd4 <= 3 
p1Rd4 + p57Rd4 + p9Rd5 - pro8Rd4 >= 0 
p0Rd4 + p56Rd4 + p8Rd5 + pro8Rd4 - p57Rd4 >= 0 
p57Rd4 + p0Rd4 - p56Rd4 + p8Rd5 + pro8Rd4 >= 0 
p57Rd4 - p0Rd4 + p56Rd4 + p8Rd5 + pro8Rd4 >= 0 
p1Rd4 + p0Rd4 + p56Rd4 - p8Rd5 + pro8Rd4 >= 0 
p9Rd5 - p0Rd4 - p56Rd4 - p8Rd5 + pro8Rd4 >= -2 
p0Rd4 - p57Rd4 - p56Rd4 - p8Rd5 + pro8Rd4 >= -2 
p56Rd4 - p57Rd4 - p0Rd4 - p8Rd5 + pro8Rd4 >= -2 
p8Rd5 - p57Rd4 - p0Rd4 - p56Rd4 + pro8Rd4 >= -2 
p58Rd4 - p10Rd5 + pro9Rd4 >= 0 
p2Rd4 - p58Rd4 + pro9Rd4 >= 0 
p10Rd5 - p2Rd4 + pro9Rd4 >= 0 
p2Rd4 + p58Rd4 + p10Rd5 + pro9Rd4 <= 3 
p2Rd4 + p58Rd4 + p10Rd5 - pro9Rd4 >= 0 
p1Rd4 + p57Rd4 + p9Rd5 + pro9Rd4 - p58Rd4 >= 0 
p58Rd4 + p1Rd4 - p57Rd4 + p9Rd5 + pro9Rd4 >= 0 
p58Rd4 - p1Rd4 + p57Rd4 + p9Rd5 + pro9Rd4 >= 0 
p2Rd4 + p1Rd4 + p57Rd4 - p9Rd5 + pro9Rd4 >= 0 
p10Rd5 - p1Rd4 - p57Rd4 - p9Rd5 + pro9Rd4 >= -2 
p1Rd4 - p58Rd4 - p57Rd4 - p9Rd5 + pro9Rd4 >= -2 
p57Rd4 - p58Rd4 - p1Rd4 - p9Rd5 + pro9Rd4 >= -2 
p9Rd5 - p58Rd4 - p1Rd4 - p57Rd4 + pro9Rd4 >= -2 
p59Rd4 - p11Rd5 + pro10Rd4 >= 0 
p3Rd4 - p59Rd4 + pro10Rd4 >= 0 
p11Rd5 - p3Rd4 + pro10Rd4 >= 0 
p3Rd4 + p59Rd4 + p11Rd5 + pro10Rd4 <= 3 
p3Rd4 + p59Rd4 + p11Rd5 - pro10Rd4 >= 0 
p2Rd4 + p58Rd4 + p10Rd5 + pro10Rd4 - p59Rd4 >= 0 
p59Rd4 + p2Rd4 - p58Rd4 + p10Rd5 + pro10Rd4 >= 0 
p59Rd4 - p2Rd4 + p58Rd4 + p10Rd5 + pro10Rd4 >= 0 
p3Rd4 + p2Rd4 + p58Rd4 - p10Rd5 + pro10Rd4 >= 0 
p11Rd5 - p2Rd4 - p58Rd4 - p10Rd5 + pro10Rd4 >= -2 
p2Rd4 - p59Rd4 - p58Rd4 - p10Rd5 + pro10Rd4 >= -2 
p58Rd4 - p59Rd4 - p2Rd4 - p10Rd5 + pro10Rd4 >= -2 
p10Rd5 - p59Rd4 - p2Rd4 - p58Rd4 + pro10Rd4 >= -2 
p60Rd4 - p12Rd5 + pro11Rd4 >= 0 
p4Rd4 - p60Rd4 + pro11Rd4 >= 0 
p12Rd5 - p4Rd4 + pro11Rd4 >= 0 
p4Rd4 + p60Rd4 + p12Rd5 + pro11Rd4 <= 3 
p4Rd4 + p60Rd4 + p12Rd5 - pro11Rd4 >= 0 
p3Rd4 + p59Rd4 + p11Rd5 + pro11Rd4 - p60Rd4 >= 0 
p60Rd4 + p3Rd4 - p59Rd4 + p11Rd5 + pro11Rd4 >= 0 
p60Rd4 - p3Rd4 + p59Rd4 + p11Rd5 + pro11Rd4 >= 0 
p4Rd4 + p3Rd4 + p59Rd4 - p11Rd5 + pro11Rd4 >= 0 
p12Rd5 - p3Rd4 - p59Rd4 - p11Rd5 + pro11Rd4 >= -2 
p3Rd4 - p60Rd4 - p59Rd4 - p11Rd5 + pro11Rd4 >= -2 
p59Rd4 - p60Rd4 - p3Rd4 - p11Rd5 + pro11Rd4 >= -2 
p11Rd5 - p60Rd4 - p3Rd4 - p59Rd4 + pro11Rd4 >= -2 
p61Rd4 - p13Rd5 + pro12Rd4 >= 0 
p5Rd4 - p61Rd4 + pro12Rd4 >= 0 
p13Rd5 - p5Rd4 + pro12Rd4 >= 0 
p5Rd4 + p61Rd4 + p13Rd5 + pro12Rd4 <= 3 
p5Rd4 + p61Rd4 + p13Rd5 - pro12Rd4 >= 0 
p4Rd4 + p60Rd4 + p12Rd5 + pro12Rd4 - p61Rd4 >= 0 
p61Rd4 + p4Rd4 - p60Rd4 + p12Rd5 + pro12Rd4 >= 0 
p61Rd4 - p4Rd4 + p60Rd4 + p12Rd5 + pro12Rd4 >= 0 
p5Rd4 + p4Rd4 + p60Rd4 - p12Rd5 + pro12Rd4 >= 0 
p13Rd5 - p4Rd4 - p60Rd4 - p12Rd5 + pro12Rd4 >= -2 
p4Rd4 - p61Rd4 - p60Rd4 - p12Rd5 + pro12Rd4 >= -2 
p60Rd4 - p61Rd4 - p4Rd4 - p12Rd5 + pro12Rd4 >= -2 
p12Rd5 - p61Rd4 - p4Rd4 - p60Rd4 + pro12Rd4 >= -2 
p62Rd4 - p14Rd5 + pro13Rd4 >= 0 
p6Rd4 - p62Rd4 + pro13Rd4 >= 0 
p14Rd5 - p6Rd4 + pro13Rd4 >= 0 
p6Rd4 + p62Rd4 + p14Rd5 + pro13Rd4 <= 3 
p6Rd4 + p62Rd4 + p14Rd5 - pro13Rd4 >= 0 
p5Rd4 + p61Rd4 + p13Rd5 + pro13Rd4 - p62Rd4 >= 0 
p62Rd4 + p5Rd4 - p61Rd4 + p13Rd5 + pro13Rd4 >= 0 
p62Rd4 - p5Rd4 + p61Rd4 + p13Rd5 + pro13Rd4 >= 0 
p6Rd4 + p5Rd4 + p61Rd4 - p13Rd5 + pro13Rd4 >= 0 
p14Rd5 - p5Rd4 - p61Rd4 - p13Rd5 + pro13Rd4 >= -2 
p5Rd4 - p62Rd4 - p61Rd4 - p13Rd5 + pro13Rd4 >= -2 
p61Rd4 - p62Rd4 - p5Rd4 - p13Rd5 + pro13Rd4 >= -2 
p13Rd5 - p62Rd4 - p5Rd4 - p61Rd4 + pro13Rd4 >= -2 
p63Rd4 - p15Rd5 + pro14Rd4 >= 0 
p7Rd4 - p63Rd4 + pro14Rd4 >= 0 
p15Rd5 - p7Rd4 + pro14Rd4 >= 0 
p7Rd4 + p63Rd4 + p15Rd5 + pro14Rd4 <= 3 
p7Rd4 + p63Rd4 + p15Rd5 - pro14Rd4 >= 0 
p6Rd4 + p62Rd4 + p14Rd5 + pro14Rd4 - p63Rd4 >= 0 
p63Rd4 + p6Rd4 - p62Rd4 + p14Rd5 + pro14Rd4 >= 0 
p63Rd4 - p6Rd4 + p62Rd4 + p14Rd5 + pro14Rd4 >= 0 
p7Rd4 + p6Rd4 + p62Rd4 - p14Rd5 + pro14Rd4 >= 0 
p15Rd5 - p6Rd4 - p62Rd4 - p14Rd5 + pro14Rd4 >= -2 
p6Rd4 - p63Rd4 - p62Rd4 - p14Rd5 + pro14Rd4 >= -2 
p62Rd4 - p63Rd4 - p6Rd4 - p14Rd5 + pro14Rd4 >= -2 
p14Rd5 - p63Rd4 - p6Rd4 - p62Rd4 + pro14Rd4 >= -2 
p64Rd4 - p16Rd5 + pro15Rd4 >= 0 
p8Rd4 - p64Rd4 + pro15Rd4 >= 0 
p16Rd5 - p8Rd4 + pro15Rd4 >= 0 
p8Rd4 + p64Rd4 + p16Rd5 + pro15Rd4 <= 3 
p8Rd4 + p64Rd4 + p16Rd5 - pro15Rd4 >= 0 
p7Rd4 + p63Rd4 + p15Rd5 + pro15Rd4 - p64Rd4 >= 0 
p64Rd4 + p7Rd4 - p63Rd4 + p15Rd5 + pro15Rd4 >= 0 
p64Rd4 - p7Rd4 + p63Rd4 + p15Rd5 + pro15Rd4 >= 0 
p8Rd4 + p7Rd4 + p63Rd4 - p15Rd5 + pro15Rd4 >= 0 
p16Rd5 - p7Rd4 - p63Rd4 - p15Rd5 + pro15Rd4 >= -2 
p7Rd4 - p64Rd4 - p63Rd4 - p15Rd5 + pro15Rd4 >= -2 
p63Rd4 - p64Rd4 - p7Rd4 - p15Rd5 + pro15Rd4 >= -2 
p15Rd5 - p64Rd4 - p7Rd4 - p63Rd4 + pro15Rd4 >= -2 
p65Rd4 - p17Rd5 + pro16Rd4 >= 0 
p9Rd4 - p65Rd4 + pro16Rd4 >= 0 
p17Rd5 - p9Rd4 + pro16Rd4 >= 0 
p9Rd4 + p65Rd4 + p17Rd5 + pro16Rd4 <= 3 
p9Rd4 + p65Rd4 + p17Rd5 - pro16Rd4 >= 0 
p8Rd4 + p64Rd4 + p16Rd5 + pro16Rd4 - p65Rd4 >= 0 
p65Rd4 + p8Rd4 - p64Rd4 + p16Rd5 + pro16Rd4 >= 0 
p65Rd4 - p8Rd4 + p64Rd4 + p16Rd5 + pro16Rd4 >= 0 
p9Rd4 + p8Rd4 + p64Rd4 - p16Rd5 + pro16Rd4 >= 0 
p17Rd5 - p8Rd4 - p64Rd4 - p16Rd5 + pro16Rd4 >= -2 
p8Rd4 - p65Rd4 - p64Rd4 - p16Rd5 + pro16Rd4 >= -2 
p64Rd4 - p65Rd4 - p8Rd4 - p16Rd5 + pro16Rd4 >= -2 
p16Rd5 - p65Rd4 - p8Rd4 - p64Rd4 + pro16Rd4 >= -2 
p66Rd4 - p18Rd5 + pro17Rd4 >= 0 
p10Rd4 - p66Rd4 + pro17Rd4 >= 0 
p18Rd5 - p10Rd4 + pro17Rd4 >= 0 
p10Rd4 + p66Rd4 + p18Rd5 + pro17Rd4 <= 3 
p10Rd4 + p66Rd4 + p18Rd5 - pro17Rd4 >= 0 
p9Rd4 + p65Rd4 + p17Rd5 + pro17Rd4 - p66Rd4 >= 0 
p66Rd4 + p9Rd4 - p65Rd4 + p17Rd5 + pro17Rd4 >= 0 
p66Rd4 - p9Rd4 + p65Rd4 + p17Rd5 + pro17Rd4 >= 0 
p10Rd4 + p9Rd4 + p65Rd4 - p17Rd5 + pro17Rd4 >= 0 
p18Rd5 - p9Rd4 - p65Rd4 - p17Rd5 + pro17Rd4 >= -2 
p9Rd4 - p66Rd4 - p65Rd4 - p17Rd5 + pro17Rd4 >= -2 
p65Rd4 - p66Rd4 - p9Rd4 - p17Rd5 + pro17Rd4 >= -2 
p17Rd5 - p66Rd4 - p9Rd4 - p65Rd4 + pro17Rd4 >= -2 
p67Rd4 - p19Rd5 + pro18Rd4 >= 0 
p11Rd4 - p67Rd4 + pro18Rd4 >= 0 
p19Rd5 - p11Rd4 + pro18Rd4 >= 0 
p11Rd4 + p67Rd4 + p19Rd5 + pro18Rd4 <= 3 
p11Rd4 + p67Rd4 + p19Rd5 - pro18Rd4 >= 0 
p10Rd4 + p66Rd4 + p18Rd5 + pro18Rd4 - p67Rd4 >= 0 
p67Rd4 + p10Rd4 - p66Rd4 + p18Rd5 + pro18Rd4 >= 0 
p67Rd4 - p10Rd4 + p66Rd4 + p18Rd5 + pro18Rd4 >= 0 
p11Rd4 + p10Rd4 + p66Rd4 - p18Rd5 + pro18Rd4 >= 0 
p19Rd5 - p10Rd4 - p66Rd4 - p18Rd5 + pro18Rd4 >= -2 
p10Rd4 - p67Rd4 - p66Rd4 - p18Rd5 + pro18Rd4 >= -2 
p66Rd4 - p67Rd4 - p10Rd4 - p18Rd5 + pro18Rd4 >= -2 
p18Rd5 - p67Rd4 - p10Rd4 - p66Rd4 + pro18Rd4 >= -2 
p68Rd4 - p20Rd5 + pro19Rd4 >= 0 
p12Rd4 - p68Rd4 + pro19Rd4 >= 0 
p20Rd5 - p12Rd4 + pro19Rd4 >= 0 
p12Rd4 + p68Rd4 + p20Rd5 + pro19Rd4 <= 3 
p12Rd4 + p68Rd4 + p20Rd5 - pro19Rd4 >= 0 
p11Rd4 + p67Rd4 + p19Rd5 + pro19Rd4 - p68Rd4 >= 0 
p68Rd4 + p11Rd4 - p67Rd4 + p19Rd5 + pro19Rd4 >= 0 
p68Rd4 - p11Rd4 + p67Rd4 + p19Rd5 + pro19Rd4 >= 0 
p12Rd4 + p11Rd4 + p67Rd4 - p19Rd5 + pro19Rd4 >= 0 
p20Rd5 - p11Rd4 - p67Rd4 - p19Rd5 + pro19Rd4 >= -2 
p11Rd4 - p68Rd4 - p67Rd4 - p19Rd5 + pro19Rd4 >= -2 
p67Rd4 - p68Rd4 - p11Rd4 - p19Rd5 + pro19Rd4 >= -2 
p19Rd5 - p68Rd4 - p11Rd4 - p67Rd4 + pro19Rd4 >= -2 
p69Rd4 - p21Rd5 + pro20Rd4 >= 0 
p13Rd4 - p69Rd4 + pro20Rd4 >= 0 
p21Rd5 - p13Rd4 + pro20Rd4 >= 0 
p13Rd4 + p69Rd4 + p21Rd5 + pro20Rd4 <= 3 
p13Rd4 + p69Rd4 + p21Rd5 - pro20Rd4 >= 0 
p12Rd4 + p68Rd4 + p20Rd5 + pro20Rd4 - p69Rd4 >= 0 
p69Rd4 + p12Rd4 - p68Rd4 + p20Rd5 + pro20Rd4 >= 0 
p69Rd4 - p12Rd4 + p68Rd4 + p20Rd5 + pro20Rd4 >= 0 
p13Rd4 + p12Rd4 + p68Rd4 - p20Rd5 + pro20Rd4 >= 0 
p21Rd5 - p12Rd4 - p68Rd4 - p20Rd5 + pro20Rd4 >= -2 
p12Rd4 - p69Rd4 - p68Rd4 - p20Rd5 + pro20Rd4 >= -2 
p68Rd4 - p69Rd4 - p12Rd4 - p20Rd5 + pro20Rd4 >= -2 
p20Rd5 - p69Rd4 - p12Rd4 - p68Rd4 + pro20Rd4 >= -2 
p70Rd4 - p22Rd5 + pro21Rd4 >= 0 
p14Rd4 - p70Rd4 + pro21Rd4 >= 0 
p22Rd5 - p14Rd4 + pro21Rd4 >= 0 
p14Rd4 + p70Rd4 + p22Rd5 + pro21Rd4 <= 3 
p14Rd4 + p70Rd4 + p22Rd5 - pro21Rd4 >= 0 
p13Rd4 + p69Rd4 + p21Rd5 + pro21Rd4 - p70Rd4 >= 0 
p70Rd4 + p13Rd4 - p69Rd4 + p21Rd5 + pro21Rd4 >= 0 
p70Rd4 - p13Rd4 + p69Rd4 + p21Rd5 + pro21Rd4 >= 0 
p14Rd4 + p13Rd4 + p69Rd4 - p21Rd5 + pro21Rd4 >= 0 
p22Rd5 - p13Rd4 - p69Rd4 - p21Rd5 + pro21Rd4 >= -2 
p13Rd4 - p70Rd4 - p69Rd4 - p21Rd5 + pro21Rd4 >= -2 
p69Rd4 - p70Rd4 - p13Rd4 - p21Rd5 + pro21Rd4 >= -2 
p21Rd5 - p70Rd4 - p13Rd4 - p69Rd4 + pro21Rd4 >= -2 
p71Rd4 - p23Rd5 + pro22Rd4 >= 0 
p15Rd4 - p71Rd4 + pro22Rd4 >= 0 
p23Rd5 - p15Rd4 + pro22Rd4 >= 0 
p15Rd4 + p71Rd4 + p23Rd5 + pro22Rd4 <= 3 
p15Rd4 + p71Rd4 + p23Rd5 - pro22Rd4 >= 0 
p14Rd4 + p70Rd4 + p22Rd5 + pro22Rd4 - p71Rd4 >= 0 
p71Rd4 + p14Rd4 - p70Rd4 + p22Rd5 + pro22Rd4 >= 0 
p71Rd4 - p14Rd4 + p70Rd4 + p22Rd5 + pro22Rd4 >= 0 
p15Rd4 + p14Rd4 + p70Rd4 - p22Rd5 + pro22Rd4 >= 0 
p23Rd5 - p14Rd4 - p70Rd4 - p22Rd5 + pro22Rd4 >= -2 
p14Rd4 - p71Rd4 - p70Rd4 - p22Rd5 + pro22Rd4 >= -2 
p70Rd4 - p71Rd4 - p14Rd4 - p22Rd5 + pro22Rd4 >= -2 
p22Rd5 - p71Rd4 - p14Rd4 - p70Rd4 + pro22Rd4 >= -2 
p72Rd4 - p24Rd5 + pro23Rd4 >= 0 
p16Rd4 - p72Rd4 + pro23Rd4 >= 0 
p24Rd5 - p16Rd4 + pro23Rd4 >= 0 
p16Rd4 + p72Rd4 + p24Rd5 + pro23Rd4 <= 3 
p16Rd4 + p72Rd4 + p24Rd5 - pro23Rd4 >= 0 
p15Rd4 + p71Rd4 + p23Rd5 + pro23Rd4 - p72Rd4 >= 0 
p72Rd4 + p15Rd4 - p71Rd4 + p23Rd5 + pro23Rd4 >= 0 
p72Rd4 - p15Rd4 + p71Rd4 + p23Rd5 + pro23Rd4 >= 0 
p16Rd4 + p15Rd4 + p71Rd4 - p23Rd5 + pro23Rd4 >= 0 
p24Rd5 - p15Rd4 - p71Rd4 - p23Rd5 + pro23Rd4 >= -2 
p15Rd4 - p72Rd4 - p71Rd4 - p23Rd5 + pro23Rd4 >= -2 
p71Rd4 - p72Rd4 - p15Rd4 - p23Rd5 + pro23Rd4 >= -2 
p23Rd5 - p72Rd4 - p15Rd4 - p71Rd4 + pro23Rd4 >= -2 
p73Rd4 - p25Rd5 + pro24Rd4 >= 0 
p17Rd4 - p73Rd4 + pro24Rd4 >= 0 
p25Rd5 - p17Rd4 + pro24Rd4 >= 0 
p17Rd4 + p73Rd4 + p25Rd5 + pro24Rd4 <= 3 
p17Rd4 + p73Rd4 + p25Rd5 - pro24Rd4 >= 0 
p16Rd4 + p72Rd4 + p24Rd5 + pro24Rd4 - p73Rd4 >= 0 
p73Rd4 + p16Rd4 - p72Rd4 + p24Rd5 + pro24Rd4 >= 0 
p73Rd4 - p16Rd4 + p72Rd4 + p24Rd5 + pro24Rd4 >= 0 
p17Rd4 + p16Rd4 + p72Rd4 - p24Rd5 + pro24Rd4 >= 0 
p25Rd5 - p16Rd4 - p72Rd4 - p24Rd5 + pro24Rd4 >= -2 
p16Rd4 - p73Rd4 - p72Rd4 - p24Rd5 + pro24Rd4 >= -2 
p72Rd4 - p73Rd4 - p16Rd4 - p24Rd5 + pro24Rd4 >= -2 
p24Rd5 - p73Rd4 - p16Rd4 - p72Rd4 + pro24Rd4 >= -2 
p74Rd4 - p26Rd5 + pro25Rd4 >= 0 
p18Rd4 - p74Rd4 + pro25Rd4 >= 0 
p26Rd5 - p18Rd4 + pro25Rd4 >= 0 
p18Rd4 + p74Rd4 + p26Rd5 + pro25Rd4 <= 3 
p18Rd4 + p74Rd4 + p26Rd5 - pro25Rd4 >= 0 
p17Rd4 + p73Rd4 + p25Rd5 + pro25Rd4 - p74Rd4 >= 0 
p74Rd4 + p17Rd4 - p73Rd4 + p25Rd5 + pro25Rd4 >= 0 
p74Rd4 - p17Rd4 + p73Rd4 + p25Rd5 + pro25Rd4 >= 0 
p18Rd4 + p17Rd4 + p73Rd4 - p25Rd5 + pro25Rd4 >= 0 
p26Rd5 - p17Rd4 - p73Rd4 - p25Rd5 + pro25Rd4 >= -2 
p17Rd4 - p74Rd4 - p73Rd4 - p25Rd5 + pro25Rd4 >= -2 
p73Rd4 - p74Rd4 - p17Rd4 - p25Rd5 + pro25Rd4 >= -2 
p25Rd5 - p74Rd4 - p17Rd4 - p73Rd4 + pro25Rd4 >= -2 
p75Rd4 - p27Rd5 + pro26Rd4 >= 0 
p19Rd4 - p75Rd4 + pro26Rd4 >= 0 
p27Rd5 - p19Rd4 + pro26Rd4 >= 0 
p19Rd4 + p75Rd4 + p27Rd5 + pro26Rd4 <= 3 
p19Rd4 + p75Rd4 + p27Rd5 - pro26Rd4 >= 0 
p18Rd4 + p74Rd4 + p26Rd5 + pro26Rd4 - p75Rd4 >= 0 
p75Rd4 + p18Rd4 - p74Rd4 + p26Rd5 + pro26Rd4 >= 0 
p75Rd4 - p18Rd4 + p74Rd4 + p26Rd5 + pro26Rd4 >= 0 
p19Rd4 + p18Rd4 + p74Rd4 - p26Rd5 + pro26Rd4 >= 0 
p27Rd5 - p18Rd4 - p74Rd4 - p26Rd5 + pro26Rd4 >= -2 
p18Rd4 - p75Rd4 - p74Rd4 - p26Rd5 + pro26Rd4 >= -2 
p74Rd4 - p75Rd4 - p18Rd4 - p26Rd5 + pro26Rd4 >= -2 
p26Rd5 - p75Rd4 - p18Rd4 - p74Rd4 + pro26Rd4 >= -2 
p76Rd4 - p28Rd5 + pro27Rd4 >= 0 
p20Rd4 - p76Rd4 + pro27Rd4 >= 0 
p28Rd5 - p20Rd4 + pro27Rd4 >= 0 
p20Rd4 + p76Rd4 + p28Rd5 + pro27Rd4 <= 3 
p20Rd4 + p76Rd4 + p28Rd5 - pro27Rd4 >= 0 
p19Rd4 + p75Rd4 + p27Rd5 + pro27Rd4 - p76Rd4 >= 0 
p76Rd4 + p19Rd4 - p75Rd4 + p27Rd5 + pro27Rd4 >= 0 
p76Rd4 - p19Rd4 + p75Rd4 + p27Rd5 + pro27Rd4 >= 0 
p20Rd4 + p19Rd4 + p75Rd4 - p27Rd5 + pro27Rd4 >= 0 
p28Rd5 - p19Rd4 - p75Rd4 - p27Rd5 + pro27Rd4 >= -2 
p19Rd4 - p76Rd4 - p75Rd4 - p27Rd5 + pro27Rd4 >= -2 
p75Rd4 - p76Rd4 - p19Rd4 - p27Rd5 + pro27Rd4 >= -2 
p27Rd5 - p76Rd4 - p19Rd4 - p75Rd4 + pro27Rd4 >= -2 
p77Rd4 - p29Rd5 + pro28Rd4 >= 0 
p21Rd4 - p77Rd4 + pro28Rd4 >= 0 
p29Rd5 - p21Rd4 + pro28Rd4 >= 0 
p21Rd4 + p77Rd4 + p29Rd5 + pro28Rd4 <= 3 
p21Rd4 + p77Rd4 + p29Rd5 - pro28Rd4 >= 0 
p20Rd4 + p76Rd4 + p28Rd5 + pro28Rd4 - p77Rd4 >= 0 
p77Rd4 + p20Rd4 - p76Rd4 + p28Rd5 + pro28Rd4 >= 0 
p77Rd4 - p20Rd4 + p76Rd4 + p28Rd5 + pro28Rd4 >= 0 
p21Rd4 + p20Rd4 + p76Rd4 - p28Rd5 + pro28Rd4 >= 0 
p29Rd5 - p20Rd4 - p76Rd4 - p28Rd5 + pro28Rd4 >= -2 
p20Rd4 - p77Rd4 - p76Rd4 - p28Rd5 + pro28Rd4 >= -2 
p76Rd4 - p77Rd4 - p20Rd4 - p28Rd5 + pro28Rd4 >= -2 
p28Rd5 - p77Rd4 - p20Rd4 - p76Rd4 + pro28Rd4 >= -2 
p78Rd4 - p30Rd5 + pro29Rd4 >= 0 
p22Rd4 - p78Rd4 + pro29Rd4 >= 0 
p30Rd5 - p22Rd4 + pro29Rd4 >= 0 
p22Rd4 + p78Rd4 + p30Rd5 + pro29Rd4 <= 3 
p22Rd4 + p78Rd4 + p30Rd5 - pro29Rd4 >= 0 
p21Rd4 + p77Rd4 + p29Rd5 + pro29Rd4 - p78Rd4 >= 0 
p78Rd4 + p21Rd4 - p77Rd4 + p29Rd5 + pro29Rd4 >= 0 
p78Rd4 - p21Rd4 + p77Rd4 + p29Rd5 + pro29Rd4 >= 0 
p22Rd4 + p21Rd4 + p77Rd4 - p29Rd5 + pro29Rd4 >= 0 
p30Rd5 - p21Rd4 - p77Rd4 - p29Rd5 + pro29Rd4 >= -2 
p21Rd4 - p78Rd4 - p77Rd4 - p29Rd5 + pro29Rd4 >= -2 
p77Rd4 - p78Rd4 - p21Rd4 - p29Rd5 + pro29Rd4 >= -2 
p29Rd5 - p78Rd4 - p21Rd4 - p77Rd4 + pro29Rd4 >= -2 
p79Rd4 - p31Rd5 + pro30Rd4 >= 0 
p23Rd4 - p79Rd4 + pro30Rd4 >= 0 
p31Rd5 - p23Rd4 + pro30Rd4 >= 0 
p23Rd4 + p79Rd4 + p31Rd5 + pro30Rd4 <= 3 
p23Rd4 + p79Rd4 + p31Rd5 - pro30Rd4 >= 0 
p22Rd4 + p78Rd4 + p30Rd5 + pro30Rd4 - p79Rd4 >= 0 
p79Rd4 + p22Rd4 - p78Rd4 + p30Rd5 + pro30Rd4 >= 0 
p79Rd4 - p22Rd4 + p78Rd4 + p30Rd5 + pro30Rd4 >= 0 
p23Rd4 + p22Rd4 + p78Rd4 - p30Rd5 + pro30Rd4 >= 0 
p31Rd5 - p22Rd4 - p78Rd4 - p30Rd5 + pro30Rd4 >= -2 
p22Rd4 - p79Rd4 - p78Rd4 - p30Rd5 + pro30Rd4 >= -2 
p78Rd4 - p79Rd4 - p22Rd4 - p30Rd5 + pro30Rd4 >= -2 
p30Rd5 - p79Rd4 - p22Rd4 - p78Rd4 + pro30Rd4 >= -2 
p80Rd4 - p32Rd5 + pro31Rd4 >= 0 
p24Rd4 - p80Rd4 + pro31Rd4 >= 0 
p32Rd5 - p24Rd4 + pro31Rd4 >= 0 
p24Rd4 + p80Rd4 + p32Rd5 + pro31Rd4 <= 3 
p24Rd4 + p80Rd4 + p32Rd5 - pro31Rd4 >= 0 
p23Rd4 + p79Rd4 + p31Rd5 + pro31Rd4 - p80Rd4 >= 0 
p80Rd4 + p23Rd4 - p79Rd4 + p31Rd5 + pro31Rd4 >= 0 
p80Rd4 - p23Rd4 + p79Rd4 + p31Rd5 + pro31Rd4 >= 0 
p24Rd4 + p23Rd4 + p79Rd4 - p31Rd5 + pro31Rd4 >= 0 
p32Rd5 - p23Rd4 - p79Rd4 - p31Rd5 + pro31Rd4 >= -2 
p23Rd4 - p80Rd4 - p79Rd4 - p31Rd5 + pro31Rd4 >= -2 
p79Rd4 - p80Rd4 - p23Rd4 - p31Rd5 + pro31Rd4 >= -2 
p31Rd5 - p80Rd4 - p23Rd4 - p79Rd4 + pro31Rd4 >= -2 
p81Rd4 - p33Rd5 + pro32Rd4 >= 0 
p25Rd4 - p81Rd4 + pro32Rd4 >= 0 
p33Rd5 - p25Rd4 + pro32Rd4 >= 0 
p25Rd4 + p81Rd4 + p33Rd5 + pro32Rd4 <= 3 
p25Rd4 + p81Rd4 + p33Rd5 - pro32Rd4 >= 0 
p24Rd4 + p80Rd4 + p32Rd5 + pro32Rd4 - p81Rd4 >= 0 
p81Rd4 + p24Rd4 - p80Rd4 + p32Rd5 + pro32Rd4 >= 0 
p81Rd4 - p24Rd4 + p80Rd4 + p32Rd5 + pro32Rd4 >= 0 
p25Rd4 + p24Rd4 + p80Rd4 - p32Rd5 + pro32Rd4 >= 0 
p33Rd5 - p24Rd4 - p80Rd4 - p32Rd5 + pro32Rd4 >= -2 
p24Rd4 - p81Rd4 - p80Rd4 - p32Rd5 + pro32Rd4 >= -2 
p80Rd4 - p81Rd4 - p24Rd4 - p32Rd5 + pro32Rd4 >= -2 
p32Rd5 - p81Rd4 - p24Rd4 - p80Rd4 + pro32Rd4 >= -2 
p82Rd4 - p34Rd5 + pro33Rd4 >= 0 
p26Rd4 - p82Rd4 + pro33Rd4 >= 0 
p34Rd5 - p26Rd4 + pro33Rd4 >= 0 
p26Rd4 + p82Rd4 + p34Rd5 + pro33Rd4 <= 3 
p26Rd4 + p82Rd4 + p34Rd5 - pro33Rd4 >= 0 
p25Rd4 + p81Rd4 + p33Rd5 + pro33Rd4 - p82Rd4 >= 0 
p82Rd4 + p25Rd4 - p81Rd4 + p33Rd5 + pro33Rd4 >= 0 
p82Rd4 - p25Rd4 + p81Rd4 + p33Rd5 + pro33Rd4 >= 0 
p26Rd4 + p25Rd4 + p81Rd4 - p33Rd5 + pro33Rd4 >= 0 
p34Rd5 - p25Rd4 - p81Rd4 - p33Rd5 + pro33Rd4 >= -2 
p25Rd4 - p82Rd4 - p81Rd4 - p33Rd5 + pro33Rd4 >= -2 
p81Rd4 - p82Rd4 - p25Rd4 - p33Rd5 + pro33Rd4 >= -2 
p33Rd5 - p82Rd4 - p25Rd4 - p81Rd4 + pro33Rd4 >= -2 
p83Rd4 - p35Rd5 + pro34Rd4 >= 0 
p27Rd4 - p83Rd4 + pro34Rd4 >= 0 
p35Rd5 - p27Rd4 + pro34Rd4 >= 0 
p27Rd4 + p83Rd4 + p35Rd5 + pro34Rd4 <= 3 
p27Rd4 + p83Rd4 + p35Rd5 - pro34Rd4 >= 0 
p26Rd4 + p82Rd4 + p34Rd5 + pro34Rd4 - p83Rd4 >= 0 
p83Rd4 + p26Rd4 - p82Rd4 + p34Rd5 + pro34Rd4 >= 0 
p83Rd4 - p26Rd4 + p82Rd4 + p34Rd5 + pro34Rd4 >= 0 
p27Rd4 + p26Rd4 + p82Rd4 - p34Rd5 + pro34Rd4 >= 0 
p35Rd5 - p26Rd4 - p82Rd4 - p34Rd5 + pro34Rd4 >= -2 
p26Rd4 - p83Rd4 - p82Rd4 - p34Rd5 + pro34Rd4 >= -2 
p82Rd4 - p83Rd4 - p26Rd4 - p34Rd5 + pro34Rd4 >= -2 
p34Rd5 - p83Rd4 - p26Rd4 - p82Rd4 + pro34Rd4 >= -2 
p84Rd4 - p36Rd5 + pro35Rd4 >= 0 
p28Rd4 - p84Rd4 + pro35Rd4 >= 0 
p36Rd5 - p28Rd4 + pro35Rd4 >= 0 
p28Rd4 + p84Rd4 + p36Rd5 + pro35Rd4 <= 3 
p28Rd4 + p84Rd4 + p36Rd5 - pro35Rd4 >= 0 
p27Rd4 + p83Rd4 + p35Rd5 + pro35Rd4 - p84Rd4 >= 0 
p84Rd4 + p27Rd4 - p83Rd4 + p35Rd5 + pro35Rd4 >= 0 
p84Rd4 - p27Rd4 + p83Rd4 + p35Rd5 + pro35Rd4 >= 0 
p28Rd4 + p27Rd4 + p83Rd4 - p35Rd5 + pro35Rd4 >= 0 
p36Rd5 - p27Rd4 - p83Rd4 - p35Rd5 + pro35Rd4 >= -2 
p27Rd4 - p84Rd4 - p83Rd4 - p35Rd5 + pro35Rd4 >= -2 
p83Rd4 - p84Rd4 - p27Rd4 - p35Rd5 + pro35Rd4 >= -2 
p35Rd5 - p84Rd4 - p27Rd4 - p83Rd4 + pro35Rd4 >= -2 
p85Rd4 - p37Rd5 + pro36Rd4 >= 0 
p29Rd4 - p85Rd4 + pro36Rd4 >= 0 
p37Rd5 - p29Rd4 + pro36Rd4 >= 0 
p29Rd4 + p85Rd4 + p37Rd5 + pro36Rd4 <= 3 
p29Rd4 + p85Rd4 + p37Rd5 - pro36Rd4 >= 0 
p28Rd4 + p84Rd4 + p36Rd5 + pro36Rd4 - p85Rd4 >= 0 
p85Rd4 + p28Rd4 - p84Rd4 + p36Rd5 + pro36Rd4 >= 0 
p85Rd4 - p28Rd4 + p84Rd4 + p36Rd5 + pro36Rd4 >= 0 
p29Rd4 + p28Rd4 + p84Rd4 - p36Rd5 + pro36Rd4 >= 0 
p37Rd5 - p28Rd4 - p84Rd4 - p36Rd5 + pro36Rd4 >= -2 
p28Rd4 - p85Rd4 - p84Rd4 - p36Rd5 + pro36Rd4 >= -2 
p84Rd4 - p85Rd4 - p28Rd4 - p36Rd5 + pro36Rd4 >= -2 
p36Rd5 - p85Rd4 - p28Rd4 - p84Rd4 + pro36Rd4 >= -2 
p86Rd4 - p38Rd5 + pro37Rd4 >= 0 
p30Rd4 - p86Rd4 + pro37Rd4 >= 0 
p38Rd5 - p30Rd4 + pro37Rd4 >= 0 
p30Rd4 + p86Rd4 + p38Rd5 + pro37Rd4 <= 3 
p30Rd4 + p86Rd4 + p38Rd5 - pro37Rd4 >= 0 
p29Rd4 + p85Rd4 + p37Rd5 + pro37Rd4 - p86Rd4 >= 0 
p86Rd4 + p29Rd4 - p85Rd4 + p37Rd5 + pro37Rd4 >= 0 
p86Rd4 - p29Rd4 + p85Rd4 + p37Rd5 + pro37Rd4 >= 0 
p30Rd4 + p29Rd4 + p85Rd4 - p37Rd5 + pro37Rd4 >= 0 
p38Rd5 - p29Rd4 - p85Rd4 - p37Rd5 + pro37Rd4 >= -2 
p29Rd4 - p86Rd4 - p85Rd4 - p37Rd5 + pro37Rd4 >= -2 
p85Rd4 - p86Rd4 - p29Rd4 - p37Rd5 + pro37Rd4 >= -2 
p37Rd5 - p86Rd4 - p29Rd4 - p85Rd4 + pro37Rd4 >= -2 
p87Rd4 - p39Rd5 + pro38Rd4 >= 0 
p31Rd4 - p87Rd4 + pro38Rd4 >= 0 
p39Rd5 - p31Rd4 + pro38Rd4 >= 0 
p31Rd4 + p87Rd4 + p39Rd5 + pro38Rd4 <= 3 
p31Rd4 + p87Rd4 + p39Rd5 - pro38Rd4 >= 0 
p30Rd4 + p86Rd4 + p38Rd5 + pro38Rd4 - p87Rd4 >= 0 
p87Rd4 + p30Rd4 - p86Rd4 + p38Rd5 + pro38Rd4 >= 0 
p87Rd4 - p30Rd4 + p86Rd4 + p38Rd5 + pro38Rd4 >= 0 
p31Rd4 + p30Rd4 + p86Rd4 - p38Rd5 + pro38Rd4 >= 0 
p39Rd5 - p30Rd4 - p86Rd4 - p38Rd5 + pro38Rd4 >= -2 
p30Rd4 - p87Rd4 - p86Rd4 - p38Rd5 + pro38Rd4 >= -2 
p86Rd4 - p87Rd4 - p30Rd4 - p38Rd5 + pro38Rd4 >= -2 
p38Rd5 - p87Rd4 - p30Rd4 - p86Rd4 + pro38Rd4 >= -2 
p88Rd4 - p40Rd5 + pro39Rd4 >= 0 
p32Rd4 - p88Rd4 + pro39Rd4 >= 0 
p40Rd5 - p32Rd4 + pro39Rd4 >= 0 
p32Rd4 + p88Rd4 + p40Rd5 + pro39Rd4 <= 3 
p32Rd4 + p88Rd4 + p40Rd5 - pro39Rd4 >= 0 
p31Rd4 + p87Rd4 + p39Rd5 + pro39Rd4 - p88Rd4 >= 0 
p88Rd4 + p31Rd4 - p87Rd4 + p39Rd5 + pro39Rd4 >= 0 
p88Rd4 - p31Rd4 + p87Rd4 + p39Rd5 + pro39Rd4 >= 0 
p32Rd4 + p31Rd4 + p87Rd4 - p39Rd5 + pro39Rd4 >= 0 
p40Rd5 - p31Rd4 - p87Rd4 - p39Rd5 + pro39Rd4 >= -2 
p31Rd4 - p88Rd4 - p87Rd4 - p39Rd5 + pro39Rd4 >= -2 
p87Rd4 - p88Rd4 - p31Rd4 - p39Rd5 + pro39Rd4 >= -2 
p39Rd5 - p88Rd4 - p31Rd4 - p87Rd4 + pro39Rd4 >= -2 
p89Rd4 - p41Rd5 + pro40Rd4 >= 0 
p33Rd4 - p89Rd4 + pro40Rd4 >= 0 
p41Rd5 - p33Rd4 + pro40Rd4 >= 0 
p33Rd4 + p89Rd4 + p41Rd5 + pro40Rd4 <= 3 
p33Rd4 + p89Rd4 + p41Rd5 - pro40Rd4 >= 0 
p32Rd4 + p88Rd4 + p40Rd5 + pro40Rd4 - p89Rd4 >= 0 
p89Rd4 + p32Rd4 - p88Rd4 + p40Rd5 + pro40Rd4 >= 0 
p89Rd4 - p32Rd4 + p88Rd4 + p40Rd5 + pro40Rd4 >= 0 
p33Rd4 + p32Rd4 + p88Rd4 - p40Rd5 + pro40Rd4 >= 0 
p41Rd5 - p32Rd4 - p88Rd4 - p40Rd5 + pro40Rd4 >= -2 
p32Rd4 - p89Rd4 - p88Rd4 - p40Rd5 + pro40Rd4 >= -2 
p88Rd4 - p89Rd4 - p32Rd4 - p40Rd5 + pro40Rd4 >= -2 
p40Rd5 - p89Rd4 - p32Rd4 - p88Rd4 + pro40Rd4 >= -2 
p90Rd4 - p42Rd5 + pro41Rd4 >= 0 
p34Rd4 - p90Rd4 + pro41Rd4 >= 0 
p42Rd5 - p34Rd4 + pro41Rd4 >= 0 
p34Rd4 + p90Rd4 + p42Rd5 + pro41Rd4 <= 3 
p34Rd4 + p90Rd4 + p42Rd5 - pro41Rd4 >= 0 
p33Rd4 + p89Rd4 + p41Rd5 + pro41Rd4 - p90Rd4 >= 0 
p90Rd4 + p33Rd4 - p89Rd4 + p41Rd5 + pro41Rd4 >= 0 
p90Rd4 - p33Rd4 + p89Rd4 + p41Rd5 + pro41Rd4 >= 0 
p34Rd4 + p33Rd4 + p89Rd4 - p41Rd5 + pro41Rd4 >= 0 
p42Rd5 - p33Rd4 - p89Rd4 - p41Rd5 + pro41Rd4 >= -2 
p33Rd4 - p90Rd4 - p89Rd4 - p41Rd5 + pro41Rd4 >= -2 
p89Rd4 - p90Rd4 - p33Rd4 - p41Rd5 + pro41Rd4 >= -2 
p41Rd5 - p90Rd4 - p33Rd4 - p89Rd4 + pro41Rd4 >= -2 
p91Rd4 - p43Rd5 + pro42Rd4 >= 0 
p35Rd4 - p91Rd4 + pro42Rd4 >= 0 
p43Rd5 - p35Rd4 + pro42Rd4 >= 0 
p35Rd4 + p91Rd4 + p43Rd5 + pro42Rd4 <= 3 
p35Rd4 + p91Rd4 + p43Rd5 - pro42Rd4 >= 0 
p34Rd4 + p90Rd4 + p42Rd5 + pro42Rd4 - p91Rd4 >= 0 
p91Rd4 + p34Rd4 - p90Rd4 + p42Rd5 + pro42Rd4 >= 0 
p91Rd4 - p34Rd4 + p90Rd4 + p42Rd5 + pro42Rd4 >= 0 
p35Rd4 + p34Rd4 + p90Rd4 - p42Rd5 + pro42Rd4 >= 0 
p43Rd5 - p34Rd4 - p90Rd4 - p42Rd5 + pro42Rd4 >= -2 
p34Rd4 - p91Rd4 - p90Rd4 - p42Rd5 + pro42Rd4 >= -2 
p90Rd4 - p91Rd4 - p34Rd4 - p42Rd5 + pro42Rd4 >= -2 
p42Rd5 - p91Rd4 - p34Rd4 - p90Rd4 + pro42Rd4 >= -2 
p92Rd4 - p44Rd5 + pro43Rd4 >= 0 
p36Rd4 - p92Rd4 + pro43Rd4 >= 0 
p44Rd5 - p36Rd4 + pro43Rd4 >= 0 
p36Rd4 + p92Rd4 + p44Rd5 + pro43Rd4 <= 3 
p36Rd4 + p92Rd4 + p44Rd5 - pro43Rd4 >= 0 
p35Rd4 + p91Rd4 + p43Rd5 + pro43Rd4 - p92Rd4 >= 0 
p92Rd4 + p35Rd4 - p91Rd4 + p43Rd5 + pro43Rd4 >= 0 
p92Rd4 - p35Rd4 + p91Rd4 + p43Rd5 + pro43Rd4 >= 0 
p36Rd4 + p35Rd4 + p91Rd4 - p43Rd5 + pro43Rd4 >= 0 
p44Rd5 - p35Rd4 - p91Rd4 - p43Rd5 + pro43Rd4 >= -2 
p35Rd4 - p92Rd4 - p91Rd4 - p43Rd5 + pro43Rd4 >= -2 
p91Rd4 - p92Rd4 - p35Rd4 - p43Rd5 + pro43Rd4 >= -2 
p43Rd5 - p92Rd4 - p35Rd4 - p91Rd4 + pro43Rd4 >= -2 
p93Rd4 - p45Rd5 + pro44Rd4 >= 0 
p37Rd4 - p93Rd4 + pro44Rd4 >= 0 
p45Rd5 - p37Rd4 + pro44Rd4 >= 0 
p37Rd4 + p93Rd4 + p45Rd5 + pro44Rd4 <= 3 
p37Rd4 + p93Rd4 + p45Rd5 - pro44Rd4 >= 0 
p36Rd4 + p92Rd4 + p44Rd5 + pro44Rd4 - p93Rd4 >= 0 
p93Rd4 + p36Rd4 - p92Rd4 + p44Rd5 + pro44Rd4 >= 0 
p93Rd4 - p36Rd4 + p92Rd4 + p44Rd5 + pro44Rd4 >= 0 
p37Rd4 + p36Rd4 + p92Rd4 - p44Rd5 + pro44Rd4 >= 0 
p45Rd5 - p36Rd4 - p92Rd4 - p44Rd5 + pro44Rd4 >= -2 
p36Rd4 - p93Rd4 - p92Rd4 - p44Rd5 + pro44Rd4 >= -2 
p92Rd4 - p93Rd4 - p36Rd4 - p44Rd5 + pro44Rd4 >= -2 
p44Rd5 - p93Rd4 - p36Rd4 - p92Rd4 + pro44Rd4 >= -2 
p94Rd4 - p46Rd5 + pro45Rd4 >= 0 
p38Rd4 - p94Rd4 + pro45Rd4 >= 0 
p46Rd5 - p38Rd4 + pro45Rd4 >= 0 
p38Rd4 + p94Rd4 + p46Rd5 + pro45Rd4 <= 3 
p38Rd4 + p94Rd4 + p46Rd5 - pro45Rd4 >= 0 
p37Rd4 + p93Rd4 + p45Rd5 + pro45Rd4 - p94Rd4 >= 0 
p94Rd4 + p37Rd4 - p93Rd4 + p45Rd5 + pro45Rd4 >= 0 
p94Rd4 - p37Rd4 + p93Rd4 + p45Rd5 + pro45Rd4 >= 0 
p38Rd4 + p37Rd4 + p93Rd4 - p45Rd5 + pro45Rd4 >= 0 
p46Rd5 - p37Rd4 - p93Rd4 - p45Rd5 + pro45Rd4 >= -2 
p37Rd4 - p94Rd4 - p93Rd4 - p45Rd5 + pro45Rd4 >= -2 
p93Rd4 - p94Rd4 - p37Rd4 - p45Rd5 + pro45Rd4 >= -2 
p45Rd5 - p94Rd4 - p37Rd4 - p93Rd4 + pro45Rd4 >= -2 
p95Rd4 - p47Rd5 + pro46Rd4 >= 0 
p39Rd4 - p95Rd4 + pro46Rd4 >= 0 
p47Rd5 - p39Rd4 + pro46Rd4 >= 0 
p39Rd4 + p95Rd4 + p47Rd5 + pro46Rd4 <= 3 
p39Rd4 + p95Rd4 + p47Rd5 - pro46Rd4 >= 0 
p38Rd4 + p94Rd4 + p46Rd5 + pro46Rd4 - p95Rd4 >= 0 
p95Rd4 + p38Rd4 - p94Rd4 + p46Rd5 + pro46Rd4 >= 0 
p95Rd4 - p38Rd4 + p94Rd4 + p46Rd5 + pro46Rd4 >= 0 
p39Rd4 + p38Rd4 + p94Rd4 - p46Rd5 + pro46Rd4 >= 0 
p47Rd5 - p38Rd4 - p94Rd4 - p46Rd5 + pro46Rd4 >= -2 
p38Rd4 - p95Rd4 - p94Rd4 - p46Rd5 + pro46Rd4 >= -2 
p94Rd4 - p95Rd4 - p38Rd4 - p46Rd5 + pro46Rd4 >= -2 
p46Rd5 - p95Rd4 - p38Rd4 - p94Rd4 + pro46Rd4 >= -2 
p39Rd4 + p95Rd4 + p47Rd5 <= 2 
p39Rd4 + p95Rd4 + p47Rd5 - 2 temp4 >= 0 
temp4 - p39Rd4 >= 0 
temp4 - p95Rd4 >= 0 
temp4 - p47Rd5 >= 0 
p51Rd5 + p48Rd6 - p0Rd6 >= 0
p51Rd5 - p48Rd6 + p0Rd6 >= 0
- p51Rd5 + p48Rd6 + p0Rd6 >= 0
p51Rd5 + p48Rd6 + p0Rd6 <= 2
p52Rd5 + p49Rd6 - p1Rd6 >= 0
p52Rd5 - p49Rd6 + p1Rd6 >= 0
- p52Rd5 + p49Rd6 + p1Rd6 >= 0
p52Rd5 + p49Rd6 + p1Rd6 <= 2
p53Rd5 + p50Rd6 - p2Rd6 >= 0
p53Rd5 - p50Rd6 + p2Rd6 >= 0
- p53Rd5 + p50Rd6 + p2Rd6 >= 0
p53Rd5 + p50Rd6 + p2Rd6 <= 2
p54Rd5 + p51Rd6 - p3Rd6 >= 0
p54Rd5 - p51Rd6 + p3Rd6 >= 0
- p54Rd5 + p51Rd6 + p3Rd6 >= 0
p54Rd5 + p51Rd6 + p3Rd6 <= 2
p55Rd5 + p52Rd6 - p4Rd6 >= 0
p55Rd5 - p52Rd6 + p4Rd6 >= 0
- p55Rd5 + p52Rd6 + p4Rd6 >= 0
p55Rd5 + p52Rd6 + p4Rd6 <= 2
p56Rd5 + p53Rd6 - p5Rd6 >= 0
p56Rd5 - p53Rd6 + p5Rd6 >= 0
- p56Rd5 + p53Rd6 + p5Rd6 >= 0
p56Rd5 + p53Rd6 + p5Rd6 <= 2
p57Rd5 + p54Rd6 - p6Rd6 >= 0
p57Rd5 - p54Rd6 + p6Rd6 >= 0
- p57Rd5 + p54Rd6 + p6Rd6 >= 0
p57Rd5 + p54Rd6 + p6Rd6 <= 2
p58Rd5 + p55Rd6 - p7Rd6 >= 0
p58Rd5 - p55Rd6 + p7Rd6 >= 0
- p58Rd5 + p55Rd6 + p7Rd6 >= 0
p58Rd5 + p55Rd6 + p7Rd6 <= 2
p59Rd5 + p56Rd6 - p8Rd6 >= 0
p59Rd5 - p56Rd6 + p8Rd6 >= 0
- p59Rd5 + p56Rd6 + p8Rd6 >= 0
p59Rd5 + p56Rd6 + p8Rd6 <= 2
p60Rd5 + p57Rd6 - p9Rd6 >= 0
p60Rd5 - p57Rd6 + p9Rd6 >= 0
- p60Rd5 + p57Rd6 + p9Rd6 >= 0
p60Rd5 + p57Rd6 + p9Rd6 <= 2
p61Rd5 + p58Rd6 - p10Rd6 >= 0
p61Rd5 - p58Rd6 + p10Rd6 >= 0
- p61Rd5 + p58Rd6 + p10Rd6 >= 0
p61Rd5 + p58Rd6 + p10Rd6 <= 2
p62Rd5 + p59Rd6 - p11Rd6 >= 0
p62Rd5 - p59Rd6 + p11Rd6 >= 0
- p62Rd5 + p59Rd6 + p11Rd6 >= 0
p62Rd5 + p59Rd6 + p11Rd6 <= 2
p63Rd5 + p60Rd6 - p12Rd6 >= 0
p63Rd5 - p60Rd6 + p12Rd6 >= 0
- p63Rd5 + p60Rd6 + p12Rd6 >= 0
p63Rd5 + p60Rd6 + p12Rd6 <= 2
p64Rd5 + p61Rd6 - p13Rd6 >= 0
p64Rd5 - p61Rd6 + p13Rd6 >= 0
- p64Rd5 + p61Rd6 + p13Rd6 >= 0
p64Rd5 + p61Rd6 + p13Rd6 <= 2
p65Rd5 + p62Rd6 - p14Rd6 >= 0
p65Rd5 - p62Rd6 + p14Rd6 >= 0
- p65Rd5 + p62Rd6 + p14Rd6 >= 0
p65Rd5 + p62Rd6 + p14Rd6 <= 2
p66Rd5 + p63Rd6 - p15Rd6 >= 0
p66Rd5 - p63Rd6 + p15Rd6 >= 0
- p66Rd5 + p63Rd6 + p15Rd6 >= 0
p66Rd5 + p63Rd6 + p15Rd6 <= 2
p67Rd5 + p64Rd6 - p16Rd6 >= 0
p67Rd5 - p64Rd6 + p16Rd6 >= 0
- p67Rd5 + p64Rd6 + p16Rd6 >= 0
p67Rd5 + p64Rd6 + p16Rd6 <= 2
p68Rd5 + p65Rd6 - p17Rd6 >= 0
p68Rd5 - p65Rd6 + p17Rd6 >= 0
- p68Rd5 + p65Rd6 + p17Rd6 >= 0
p68Rd5 + p65Rd6 + p17Rd6 <= 2
p69Rd5 + p66Rd6 - p18Rd6 >= 0
p69Rd5 - p66Rd6 + p18Rd6 >= 0
- p69Rd5 + p66Rd6 + p18Rd6 >= 0
p69Rd5 + p66Rd6 + p18Rd6 <= 2
p70Rd5 + p67Rd6 - p19Rd6 >= 0
p70Rd5 - p67Rd6 + p19Rd6 >= 0
- p70Rd5 + p67Rd6 + p19Rd6 >= 0
p70Rd5 + p67Rd6 + p19Rd6 <= 2
p71Rd5 + p68Rd6 - p20Rd6 >= 0
p71Rd5 - p68Rd6 + p20Rd6 >= 0
- p71Rd5 + p68Rd6 + p20Rd6 >= 0
p71Rd5 + p68Rd6 + p20Rd6 <= 2
p72Rd5 + p69Rd6 - p21Rd6 >= 0
p72Rd5 - p69Rd6 + p21Rd6 >= 0
- p72Rd5 + p69Rd6 + p21Rd6 >= 0
p72Rd5 + p69Rd6 + p21Rd6 <= 2
p73Rd5 + p70Rd6 - p22Rd6 >= 0
p73Rd5 - p70Rd6 + p22Rd6 >= 0
- p73Rd5 + p70Rd6 + p22Rd6 >= 0
p73Rd5 + p70Rd6 + p22Rd6 <= 2
p74Rd5 + p71Rd6 - p23Rd6 >= 0
p74Rd5 - p71Rd6 + p23Rd6 >= 0
- p74Rd5 + p71Rd6 + p23Rd6 >= 0
p74Rd5 + p71Rd6 + p23Rd6 <= 2
p75Rd5 + p72Rd6 - p24Rd6 >= 0
p75Rd5 - p72Rd6 + p24Rd6 >= 0
- p75Rd5 + p72Rd6 + p24Rd6 >= 0
p75Rd5 + p72Rd6 + p24Rd6 <= 2
p76Rd5 + p73Rd6 - p25Rd6 >= 0
p76Rd5 - p73Rd6 + p25Rd6 >= 0
- p76Rd5 + p73Rd6 + p25Rd6 >= 0
p76Rd5 + p73Rd6 + p25Rd6 <= 2
p77Rd5 + p74Rd6 - p26Rd6 >= 0
p77Rd5 - p74Rd6 + p26Rd6 >= 0
- p77Rd5 + p74Rd6 + p26Rd6 >= 0
p77Rd5 + p74Rd6 + p26Rd6 <= 2
p78Rd5 + p75Rd6 - p27Rd6 >= 0
p78Rd5 - p75Rd6 + p27Rd6 >= 0
- p78Rd5 + p75Rd6 + p27Rd6 >= 0
p78Rd5 + p75Rd6 + p27Rd6 <= 2
p79Rd5 + p76Rd6 - p28Rd6 >= 0
p79Rd5 - p76Rd6 + p28Rd6 >= 0
- p79Rd5 + p76Rd6 + p28Rd6 >= 0
p79Rd5 + p76Rd6 + p28Rd6 <= 2
p80Rd5 + p77Rd6 - p29Rd6 >= 0
p80Rd5 - p77Rd6 + p29Rd6 >= 0
- p80Rd5 + p77Rd6 + p29Rd6 >= 0
p80Rd5 + p77Rd6 + p29Rd6 <= 2
p81Rd5 + p78Rd6 - p30Rd6 >= 0
p81Rd5 - p78Rd6 + p30Rd6 >= 0
- p81Rd5 + p78Rd6 + p30Rd6 >= 0
p81Rd5 + p78Rd6 + p30Rd6 <= 2
p82Rd5 + p79Rd6 - p31Rd6 >= 0
p82Rd5 - p79Rd6 + p31Rd6 >= 0
- p82Rd5 + p79Rd6 + p31Rd6 >= 0
p82Rd5 + p79Rd6 + p31Rd6 <= 2
p83Rd5 + p80Rd6 - p32Rd6 >= 0
p83Rd5 - p80Rd6 + p32Rd6 >= 0
- p83Rd5 + p80Rd6 + p32Rd6 >= 0
p83Rd5 + p80Rd6 + p32Rd6 <= 2
p84Rd5 + p81Rd6 - p33Rd6 >= 0
p84Rd5 - p81Rd6 + p33Rd6 >= 0
- p84Rd5 + p81Rd6 + p33Rd6 >= 0
p84Rd5 + p81Rd6 + p33Rd6 <= 2
p85Rd5 + p82Rd6 - p34Rd6 >= 0
p85Rd5 - p82Rd6 + p34Rd6 >= 0
- p85Rd5 + p82Rd6 + p34Rd6 >= 0
p85Rd5 + p82Rd6 + p34Rd6 <= 2
p86Rd5 + p83Rd6 - p35Rd6 >= 0
p86Rd5 - p83Rd6 + p35Rd6 >= 0
- p86Rd5 + p83Rd6 + p35Rd6 >= 0
p86Rd5 + p83Rd6 + p35Rd6 <= 2
p87Rd5 + p84Rd6 - p36Rd6 >= 0
p87Rd5 - p84Rd6 + p36Rd6 >= 0
- p87Rd5 + p84Rd6 + p36Rd6 >= 0
p87Rd5 + p84Rd6 + p36Rd6 <= 2
p88Rd5 + p85Rd6 - p37Rd6 >= 0
p88Rd5 - p85Rd6 + p37Rd6 >= 0
- p88Rd5 + p85Rd6 + p37Rd6 >= 0
p88Rd5 + p85Rd6 + p37Rd6 <= 2
p89Rd5 + p86Rd6 - p38Rd6 >= 0
p89Rd5 - p86Rd6 + p38Rd6 >= 0
- p89Rd5 + p86Rd6 + p38Rd6 >= 0
p89Rd5 + p86Rd6 + p38Rd6 <= 2
p90Rd5 + p87Rd6 - p39Rd6 >= 0
p90Rd5 - p87Rd6 + p39Rd6 >= 0
- p90Rd5 + p87Rd6 + p39Rd6 >= 0
p90Rd5 + p87Rd6 + p39Rd6 <= 2
p91Rd5 + p88Rd6 - p40Rd6 >= 0
p91Rd5 - p88Rd6 + p40Rd6 >= 0
- p91Rd5 + p88Rd6 + p40Rd6 >= 0
p91Rd5 + p88Rd6 + p40Rd6 <= 2
p92Rd5 + p89Rd6 - p41Rd6 >= 0
p92Rd5 - p89Rd6 + p41Rd6 >= 0
- p92Rd5 + p89Rd6 + p41Rd6 >= 0
p92Rd5 + p89Rd6 + p41Rd6 <= 2
p93Rd5 + p90Rd6 - p42Rd6 >= 0
p93Rd5 - p90Rd6 + p42Rd6 >= 0
- p93Rd5 + p90Rd6 + p42Rd6 >= 0
p93Rd5 + p90Rd6 + p42Rd6 <= 2
p94Rd5 + p91Rd6 - p43Rd6 >= 0
p94Rd5 - p91Rd6 + p43Rd6 >= 0
- p94Rd5 + p91Rd6 + p43Rd6 >= 0
p94Rd5 + p91Rd6 + p43Rd6 <= 2
p95Rd5 + p92Rd6 - p44Rd6 >= 0
p95Rd5 - p92Rd6 + p44Rd6 >= 0
- p95Rd5 + p92Rd6 + p44Rd6 >= 0
p95Rd5 + p92Rd6 + p44Rd6 <= 2
p48Rd5 + p93Rd6 - p45Rd6 >= 0
p48Rd5 - p93Rd6 + p45Rd6 >= 0
- p48Rd5 + p93Rd6 + p45Rd6 >= 0
p48Rd5 + p93Rd6 + p45Rd6 <= 2
p49Rd5 + p94Rd6 - p46Rd6 >= 0
p49Rd5 - p94Rd6 + p46Rd6 >= 0
- p49Rd5 + p94Rd6 + p46Rd6 >= 0
p49Rd5 + p94Rd6 + p46Rd6 <= 2
p50Rd5 + p95Rd6 - p47Rd6 >= 0
p50Rd5 - p95Rd6 + p47Rd6 >= 0
- p50Rd5 + p95Rd6 + p47Rd6 >= 0
p50Rd5 + p95Rd6 + p47Rd6 <= 2
p49Rd5 - p1Rd6 + pro0Rd5 >= 0 
p41Rd5 - p49Rd5 + pro0Rd5 >= 0 
p1Rd6 - p41Rd5 + pro0Rd5 >= 0 
p41Rd5 + p49Rd5 + p1Rd6 + pro0Rd5 <= 3 
p41Rd5 + p49Rd5 + p1Rd6 - pro0Rd5 >= 0 
p40Rd5 + p48Rd5 + p0Rd6 + pro0Rd5 - p49Rd5 >= 0 
p49Rd5 + p40Rd5 - p48Rd5 + p0Rd6 + pro0Rd5 >= 0 
p49Rd5 - p40Rd5 + p48Rd5 + p0Rd6 + pro0Rd5 >= 0 
p41Rd5 + p40Rd5 + p48Rd5 - p0Rd6 + pro0Rd5 >= 0 
p1Rd6 - p40Rd5 - p48Rd5 - p0Rd6 + pro0Rd5 >= -2 
p40Rd5 - p49Rd5 - p48Rd5 - p0Rd6 + pro0Rd5 >= -2 
p48Rd5 - p49Rd5 - p40Rd5 - p0Rd6 + pro0Rd5 >= -2 
p0Rd6 - p49Rd5 - p40Rd5 - p48Rd5 + pro0Rd5 >= -2 
p50Rd5 - p2Rd6 + pro1Rd5 >= 0 
p42Rd5 - p50Rd5 + pro1Rd5 >= 0 
p2Rd6 - p42Rd5 + pro1Rd5 >= 0 
p42Rd5 + p50Rd5 + p2Rd6 + pro1Rd5 <= 3 
p42Rd5 + p50Rd5 + p2Rd6 - pro1Rd5 >= 0 
p41Rd5 + p49Rd5 + p1Rd6 + pro1Rd5 - p50Rd5 >= 0 
p50Rd5 + p41Rd5 - p49Rd5 + p1Rd6 + pro1Rd5 >= 0 
p50Rd5 - p41Rd5 + p49Rd5 + p1Rd6 + pro1Rd5 >= 0 
p42Rd5 + p41Rd5 + p49Rd5 - p1Rd6 + pro1Rd5 >= 0 
p2Rd6 - p41Rd5 - p49Rd5 - p1Rd6 + pro1Rd5 >= -2 
p41Rd5 - p50Rd5 - p49Rd5 - p1Rd6 + pro1Rd5 >= -2 
p49Rd5 - p50Rd5 - p41Rd5 - p1Rd6 + pro1Rd5 >= -2 
p1Rd6 - p50Rd5 - p41Rd5 - p49Rd5 + pro1Rd5 >= -2 
p51Rd5 - p3Rd6 + pro2Rd5 >= 0 
p43Rd5 - p51Rd5 + pro2Rd5 >= 0 
p3Rd6 - p43Rd5 + pro2Rd5 >= 0 
p43Rd5 + p51Rd5 + p3Rd6 + pro2Rd5 <= 3 
p43Rd5 + p51Rd5 + p3Rd6 - pro2Rd5 >= 0 
p42Rd5 + p50Rd5 + p2Rd6 + pro2Rd5 - p51Rd5 >= 0 
p51Rd5 + p42Rd5 - p50Rd5 + p2Rd6 + pro2Rd5 >= 0 
p51Rd5 - p42Rd5 + p50Rd5 + p2Rd6 + pro2Rd5 >= 0 
p43Rd5 + p42Rd5 + p50Rd5 - p2Rd6 + pro2Rd5 >= 0 
p3Rd6 - p42Rd5 - p50Rd5 - p2Rd6 + pro2Rd5 >= -2 
p42Rd5 - p51Rd5 - p50Rd5 - p2Rd6 + pro2Rd5 >= -2 
p50Rd5 - p51Rd5 - p42Rd5 - p2Rd6 + pro2Rd5 >= -2 
p2Rd6 - p51Rd5 - p42Rd5 - p50Rd5 + pro2Rd5 >= -2 
p52Rd5 - p4Rd6 + pro3Rd5 >= 0 
p44Rd5 - p52Rd5 + pro3Rd5 >= 0 
p4Rd6 - p44Rd5 + pro3Rd5 >= 0 
p44Rd5 + p52Rd5 + p4Rd6 + pro3Rd5 <= 3 
p44Rd5 + p52Rd5 + p4Rd6 - pro3Rd5 >= 0 
p43Rd5 + p51Rd5 + p3Rd6 + pro3Rd5 - p52Rd5 >= 0 
p52Rd5 + p43Rd5 - p51Rd5 + p3Rd6 + pro3Rd5 >= 0 
p52Rd5 - p43Rd5 + p51Rd5 + p3Rd6 + pro3Rd5 >= 0 
p44Rd5 + p43Rd5 + p51Rd5 - p3Rd6 + pro3Rd5 >= 0 
p4Rd6 - p43Rd5 - p51Rd5 - p3Rd6 + pro3Rd5 >= -2 
p43Rd5 - p52Rd5 - p51Rd5 - p3Rd6 + pro3Rd5 >= -2 
p51Rd5 - p52Rd5 - p43Rd5 - p3Rd6 + pro3Rd5 >= -2 
p3Rd6 - p52Rd5 - p43Rd5 - p51Rd5 + pro3Rd5 >= -2 
p53Rd5 - p5Rd6 + pro4Rd5 >= 0 
p45Rd5 - p53Rd5 + pro4Rd5 >= 0 
p5Rd6 - p45Rd5 + pro4Rd5 >= 0 
p45Rd5 + p53Rd5 + p5Rd6 + pro4Rd5 <= 3 
p45Rd5 + p53Rd5 + p5Rd6 - pro4Rd5 >= 0 
p44Rd5 + p52Rd5 + p4Rd6 + pro4Rd5 - p53Rd5 >= 0 
p53Rd5 + p44Rd5 - p52Rd5 + p4Rd6 + pro4Rd5 >= 0 
p53Rd5 - p44Rd5 + p52Rd5 + p4Rd6 + pro4Rd5 >= 0 
p45Rd5 + p44Rd5 + p52Rd5 - p4Rd6 + pro4Rd5 >= 0 
p5Rd6 - p44Rd5 - p52Rd5 - p4Rd6 + pro4Rd5 >= -2 
p44Rd5 - p53Rd5 - p52Rd5 - p4Rd6 + pro4Rd5 >= -2 
p52Rd5 - p53Rd5 - p44Rd5 - p4Rd6 + pro4Rd5 >= -2 
p4Rd6 - p53Rd5 - p44Rd5 - p52Rd5 + pro4Rd5 >= -2 
p54Rd5 - p6Rd6 + pro5Rd5 >= 0 
p46Rd5 - p54Rd5 + pro5Rd5 >= 0 
p6Rd6 - p46Rd5 + pro5Rd5 >= 0 
p46Rd5 + p54Rd5 + p6Rd6 + pro5Rd5 <= 3 
p46Rd5 + p54Rd5 + p6Rd6 - pro5Rd5 >= 0 
p45Rd5 + p53Rd5 + p5Rd6 + pro5Rd5 - p54Rd5 >= 0 
p54Rd5 + p45Rd5 - p53Rd5 + p5Rd6 + pro5Rd5 >= 0 
p54Rd5 - p45Rd5 + p53Rd5 + p5Rd6 + pro5Rd5 >= 0 
p46Rd5 + p45Rd5 + p53Rd5 - p5Rd6 + pro5Rd5 >= 0 
p6Rd6 - p45Rd5 - p53Rd5 - p5Rd6 + pro5Rd5 >= -2 
p45Rd5 - p54Rd5 - p53Rd5 - p5Rd6 + pro5Rd5 >= -2 
p53Rd5 - p54Rd5 - p45Rd5 - p5Rd6 + pro5Rd5 >= -2 
p5Rd6 - p54Rd5 - p45Rd5 - p53Rd5 + pro5Rd5 >= -2 
p55Rd5 - p7Rd6 + pro6Rd5 >= 0 
p47Rd5 - p55Rd5 + pro6Rd5 >= 0 
p7Rd6 - p47Rd5 + pro6Rd5 >= 0 
p47Rd5 + p55Rd5 + p7Rd6 + pro6Rd5 <= 3 
p47Rd5 + p55Rd5 + p7Rd6 - pro6Rd5 >= 0 
p46Rd5 + p54Rd5 + p6Rd6 + pro6Rd5 - p55Rd5 >= 0 
p55Rd5 + p46Rd5 - p54Rd5 + p6Rd6 + pro6Rd5 >= 0 
p55Rd5 - p46Rd5 + p54Rd5 + p6Rd6 + pro6Rd5 >= 0 
p47Rd5 + p46Rd5 + p54Rd5 - p6Rd6 + pro6Rd5 >= 0 
p7Rd6 - p46Rd5 - p54Rd5 - p6Rd6 + pro6Rd5 >= -2 
p46Rd5 - p55Rd5 - p54Rd5 - p6Rd6 + pro6Rd5 >= -2 
p54Rd5 - p55Rd5 - p46Rd5 - p6Rd6 + pro6Rd5 >= -2 
p6Rd6 - p55Rd5 - p46Rd5 - p54Rd5 + pro6Rd5 >= -2 
p56Rd5 - p8Rd6 + pro7Rd5 >= 0 
p0Rd5 - p56Rd5 + pro7Rd5 >= 0 
p8Rd6 - p0Rd5 + pro7Rd5 >= 0 
p0Rd5 + p56Rd5 + p8Rd6 + pro7Rd5 <= 3 
p0Rd5 + p56Rd5 + p8Rd6 - pro7Rd5 >= 0 
p47Rd5 + p55Rd5 + p7Rd6 + pro7Rd5 - p56Rd5 >= 0 
p56Rd5 + p47Rd5 - p55Rd5 + p7Rd6 + pro7Rd5 >= 0 
p56Rd5 - p47Rd5 + p55Rd5 + p7Rd6 + pro7Rd5 >= 0 
p0Rd5 + p47Rd5 + p55Rd5 - p7Rd6 + pro7Rd5 >= 0 
p8Rd6 - p47Rd5 - p55Rd5 - p7Rd6 + pro7Rd5 >= -2 
p47Rd5 - p56Rd5 - p55Rd5 - p7Rd6 + pro7Rd5 >= -2 
p55Rd5 - p56Rd5 - p47Rd5 - p7Rd6 + pro7Rd5 >= -2 
p7Rd6 - p56Rd5 - p47Rd5 - p55Rd5 + pro7Rd5 >= -2 
p57Rd5 - p9Rd6 + pro8Rd5 >= 0 
p1Rd5 - p57Rd5 + pro8Rd5 >= 0 
p9Rd6 - p1Rd5 + pro8Rd5 >= 0 
p1Rd5 + p57Rd5 + p9Rd6 + pro8Rd5 <= 3 
p1Rd5 + p57Rd5 + p9Rd6 - pro8Rd5 >= 0 
p0Rd5 + p56Rd5 + p8Rd6 + pro8Rd5 - p57Rd5 >= 0 
p57Rd5 + p0Rd5 - p56Rd5 + p8Rd6 + pro8Rd5 >= 0 
p57Rd5 - p0Rd5 + p56Rd5 + p8Rd6 + pro8Rd5 >= 0 
p1Rd5 + p0Rd5 + p56Rd5 - p8Rd6 + pro8Rd5 >= 0 
p9Rd6 - p0Rd5 - p56Rd5 - p8Rd6 + pro8Rd5 >= -2 
p0Rd5 - p57Rd5 - p56Rd5 - p8Rd6 + pro8Rd5 >= -2 
p56Rd5 - p57Rd5 - p0Rd5 - p8Rd6 + pro8Rd5 >= -2 
p8Rd6 - p57Rd5 - p0Rd5 - p56Rd5 + pro8Rd5 >= -2 
p58Rd5 - p10Rd6 + pro9Rd5 >= 0 
p2Rd5 - p58Rd5 + pro9Rd5 >= 0 
p10Rd6 - p2Rd5 + pro9Rd5 >= 0 
p2Rd5 + p58Rd5 + p10Rd6 + pro9Rd5 <= 3 
p2Rd5 + p58Rd5 + p10Rd6 - pro9Rd5 >= 0 
p1Rd5 + p57Rd5 + p9Rd6 + pro9Rd5 - p58Rd5 >= 0 
p58Rd5 + p1Rd5 - p57Rd5 + p9Rd6 + pro9Rd5 >= 0 
p58Rd5 - p1Rd5 + p57Rd5 + p9Rd6 + pro9Rd5 >= 0 
p2Rd5 + p1Rd5 + p57Rd5 - p9Rd6 + pro9Rd5 >= 0 
p10Rd6 - p1Rd5 - p57Rd5 - p9Rd6 + pro9Rd5 >= -2 
p1Rd5 - p58Rd5 - p57Rd5 - p9Rd6 + pro9Rd5 >= -2 
p57Rd5 - p58Rd5 - p1Rd5 - p9Rd6 + pro9Rd5 >= -2 
p9Rd6 - p58Rd5 - p1Rd5 - p57Rd5 + pro9Rd5 >= -2 
p59Rd5 - p11Rd6 + pro10Rd5 >= 0 
p3Rd5 - p59Rd5 + pro10Rd5 >= 0 
p11Rd6 - p3Rd5 + pro10Rd5 >= 0 
p3Rd5 + p59Rd5 + p11Rd6 + pro10Rd5 <= 3 
p3Rd5 + p59Rd5 + p11Rd6 - pro10Rd5 >= 0 
p2Rd5 + p58Rd5 + p10Rd6 + pro10Rd5 - p59Rd5 >= 0 
p59Rd5 + p2Rd5 - p58Rd5 + p10Rd6 + pro10Rd5 >= 0 
p59Rd5 - p2Rd5 + p58Rd5 + p10Rd6 + pro10Rd5 >= 0 
p3Rd5 + p2Rd5 + p58Rd5 - p10Rd6 + pro10Rd5 >= 0 
p11Rd6 - p2Rd5 - p58Rd5 - p10Rd6 + pro10Rd5 >= -2 
p2Rd5 - p59Rd5 - p58Rd5 - p10Rd6 + pro10Rd5 >= -2 
p58Rd5 - p59Rd5 - p2Rd5 - p10Rd6 + pro10Rd5 >= -2 
p10Rd6 - p59Rd5 - p2Rd5 - p58Rd5 + pro10Rd5 >= -2 
p60Rd5 - p12Rd6 + pro11Rd5 >= 0 
p4Rd5 - p60Rd5 + pro11Rd5 >= 0 
p12Rd6 - p4Rd5 + pro11Rd5 >= 0 
p4Rd5 + p60Rd5 + p12Rd6 + pro11Rd5 <= 3 
p4Rd5 + p60Rd5 + p12Rd6 - pro11Rd5 >= 0 
p3Rd5 + p59Rd5 + p11Rd6 + pro11Rd5 - p60Rd5 >= 0 
p60Rd5 + p3Rd5 - p59Rd5 + p11Rd6 + pro11Rd5 >= 0 
p60Rd5 - p3Rd5 + p59Rd5 + p11Rd6 + pro11Rd5 >= 0 
p4Rd5 + p3Rd5 + p59Rd5 - p11Rd6 + pro11Rd5 >= 0 
p12Rd6 - p3Rd5 - p59Rd5 - p11Rd6 + pro11Rd5 >= -2 
p3Rd5 - p60Rd5 - p59Rd5 - p11Rd6 + pro11Rd5 >= -2 
p59Rd5 - p60Rd5 - p3Rd5 - p11Rd6 + pro11Rd5 >= -2 
p11Rd6 - p60Rd5 - p3Rd5 - p59Rd5 + pro11Rd5 >= -2 
p61Rd5 - p13Rd6 + pro12Rd5 >= 0 
p5Rd5 - p61Rd5 + pro12Rd5 >= 0 
p13Rd6 - p5Rd5 + pro12Rd5 >= 0 
p5Rd5 + p61Rd5 + p13Rd6 + pro12Rd5 <= 3 
p5Rd5 + p61Rd5 + p13Rd6 - pro12Rd5 >= 0 
p4Rd5 + p60Rd5 + p12Rd6 + pro12Rd5 - p61Rd5 >= 0 
p61Rd5 + p4Rd5 - p60Rd5 + p12Rd6 + pro12Rd5 >= 0 
p61Rd5 - p4Rd5 + p60Rd5 + p12Rd6 + pro12Rd5 >= 0 
p5Rd5 + p4Rd5 + p60Rd5 - p12Rd6 + pro12Rd5 >= 0 
p13Rd6 - p4Rd5 - p60Rd5 - p12Rd6 + pro12Rd5 >= -2 
p4Rd5 - p61Rd5 - p60Rd5 - p12Rd6 + pro12Rd5 >= -2 
p60Rd5 - p61Rd5 - p4Rd5 - p12Rd6 + pro12Rd5 >= -2 
p12Rd6 - p61Rd5 - p4Rd5 - p60Rd5 + pro12Rd5 >= -2 
p62Rd5 - p14Rd6 + pro13Rd5 >= 0 
p6Rd5 - p62Rd5 + pro13Rd5 >= 0 
p14Rd6 - p6Rd5 + pro13Rd5 >= 0 
p6Rd5 + p62Rd5 + p14Rd6 + pro13Rd5 <= 3 
p6Rd5 + p62Rd5 + p14Rd6 - pro13Rd5 >= 0 
p5Rd5 + p61Rd5 + p13Rd6 + pro13Rd5 - p62Rd5 >= 0 
p62Rd5 + p5Rd5 - p61Rd5 + p13Rd6 + pro13Rd5 >= 0 
p62Rd5 - p5Rd5 + p61Rd5 + p13Rd6 + pro13Rd5 >= 0 
p6Rd5 + p5Rd5 + p61Rd5 - p13Rd6 + pro13Rd5 >= 0 
p14Rd6 - p5Rd5 - p61Rd5 - p13Rd6 + pro13Rd5 >= -2 
p5Rd5 - p62Rd5 - p61Rd5 - p13Rd6 + pro13Rd5 >= -2 
p61Rd5 - p62Rd5 - p5Rd5 - p13Rd6 + pro13Rd5 >= -2 
p13Rd6 - p62Rd5 - p5Rd5 - p61Rd5 + pro13Rd5 >= -2 
p63Rd5 - p15Rd6 + pro14Rd5 >= 0 
p7Rd5 - p63Rd5 + pro14Rd5 >= 0 
p15Rd6 - p7Rd5 + pro14Rd5 >= 0 
p7Rd5 + p63Rd5 + p15Rd6 + pro14Rd5 <= 3 
p7Rd5 + p63Rd5 + p15Rd6 - pro14Rd5 >= 0 
p6Rd5 + p62Rd5 + p14Rd6 + pro14Rd5 - p63Rd5 >= 0 
p63Rd5 + p6Rd5 - p62Rd5 + p14Rd6 + pro14Rd5 >= 0 
p63Rd5 - p6Rd5 + p62Rd5 + p14Rd6 + pro14Rd5 >= 0 
p7Rd5 + p6Rd5 + p62Rd5 - p14Rd6 + pro14Rd5 >= 0 
p15Rd6 - p6Rd5 - p62Rd5 - p14Rd6 + pro14Rd5 >= -2 
p6Rd5 - p63Rd5 - p62Rd5 - p14Rd6 + pro14Rd5 >= -2 
p62Rd5 - p63Rd5 - p6Rd5 - p14Rd6 + pro14Rd5 >= -2 
p14Rd6 - p63Rd5 - p6Rd5 - p62Rd5 + pro14Rd5 >= -2 
p64Rd5 - p16Rd6 + pro15Rd5 >= 0 
p8Rd5 - p64Rd5 + pro15Rd5 >= 0 
p16Rd6 - p8Rd5 + pro15Rd5 >= 0 
p8Rd5 + p64Rd5 + p16Rd6 + pro15Rd5 <= 3 
p8Rd5 + p64Rd5 + p16Rd6 - pro15Rd5 >= 0 
p7Rd5 + p63Rd5 + p15Rd6 + pro15Rd5 - p64Rd5 >= 0 
p64Rd5 + p7Rd5 - p63Rd5 + p15Rd6 + pro15Rd5 >= 0 
p64Rd5 - p7Rd5 + p63Rd5 + p15Rd6 + pro15Rd5 >= 0 
p8Rd5 + p7Rd5 + p63Rd5 - p15Rd6 + pro15Rd5 >= 0 
p16Rd6 - p7Rd5 - p63Rd5 - p15Rd6 + pro15Rd5 >= -2 
p7Rd5 - p64Rd5 - p63Rd5 - p15Rd6 + pro15Rd5 >= -2 
p63Rd5 - p64Rd5 - p7Rd5 - p15Rd6 + pro15Rd5 >= -2 
p15Rd6 - p64Rd5 - p7Rd5 - p63Rd5 + pro15Rd5 >= -2 
p65Rd5 - p17Rd6 + pro16Rd5 >= 0 
p9Rd5 - p65Rd5 + pro16Rd5 >= 0 
p17Rd6 - p9Rd5 + pro16Rd5 >= 0 
p9Rd5 + p65Rd5 + p17Rd6 + pro16Rd5 <= 3 
p9Rd5 + p65Rd5 + p17Rd6 - pro16Rd5 >= 0 
p8Rd5 + p64Rd5 + p16Rd6 + pro16Rd5 - p65Rd5 >= 0 
p65Rd5 + p8Rd5 - p64Rd5 + p16Rd6 + pro16Rd5 >= 0 
p65Rd5 - p8Rd5 + p64Rd5 + p16Rd6 + pro16Rd5 >= 0 
p9Rd5 + p8Rd5 + p64Rd5 - p16Rd6 + pro16Rd5 >= 0 
p17Rd6 - p8Rd5 - p64Rd5 - p16Rd6 + pro16Rd5 >= -2 
p8Rd5 - p65Rd5 - p64Rd5 - p16Rd6 + pro16Rd5 >= -2 
p64Rd5 - p65Rd5 - p8Rd5 - p16Rd6 + pro16Rd5 >= -2 
p16Rd6 - p65Rd5 - p8Rd5 - p64Rd5 + pro16Rd5 >= -2 
p66Rd5 - p18Rd6 + pro17Rd5 >= 0 
p10Rd5 - p66Rd5 + pro17Rd5 >= 0 
p18Rd6 - p10Rd5 + pro17Rd5 >= 0 
p10Rd5 + p66Rd5 + p18Rd6 + pro17Rd5 <= 3 
p10Rd5 + p66Rd5 + p18Rd6 - pro17Rd5 >= 0 
p9Rd5 + p65Rd5 + p17Rd6 + pro17Rd5 - p66Rd5 >= 0 
p66Rd5 + p9Rd5 - p65Rd5 + p17Rd6 + pro17Rd5 >= 0 
p66Rd5 - p9Rd5 + p65Rd5 + p17Rd6 + pro17Rd5 >= 0 
p10Rd5 + p9Rd5 + p65Rd5 - p17Rd6 + pro17Rd5 >= 0 
p18Rd6 - p9Rd5 - p65Rd5 - p17Rd6 + pro17Rd5 >= -2 
p9Rd5 - p66Rd5 - p65Rd5 - p17Rd6 + pro17Rd5 >= -2 
p65Rd5 - p66Rd5 - p9Rd5 - p17Rd6 + pro17Rd5 >= -2 
p17Rd6 - p66Rd5 - p9Rd5 - p65Rd5 + pro17Rd5 >= -2 
p67Rd5 - p19Rd6 + pro18Rd5 >= 0 
p11Rd5 - p67Rd5 + pro18Rd5 >= 0 
p19Rd6 - p11Rd5 + pro18Rd5 >= 0 
p11Rd5 + p67Rd5 + p19Rd6 + pro18Rd5 <= 3 
p11Rd5 + p67Rd5 + p19Rd6 - pro18Rd5 >= 0 
p10Rd5 + p66Rd5 + p18Rd6 + pro18Rd5 - p67Rd5 >= 0 
p67Rd5 + p10Rd5 - p66Rd5 + p18Rd6 + pro18Rd5 >= 0 
p67Rd5 - p10Rd5 + p66Rd5 + p18Rd6 + pro18Rd5 >= 0 
p11Rd5 + p10Rd5 + p66Rd5 - p18Rd6 + pro18Rd5 >= 0 
p19Rd6 - p10Rd5 - p66Rd5 - p18Rd6 + pro18Rd5 >= -2 
p10Rd5 - p67Rd5 - p66Rd5 - p18Rd6 + pro18Rd5 >= -2 
p66Rd5 - p67Rd5 - p10Rd5 - p18Rd6 + pro18Rd5 >= -2 
p18Rd6 - p67Rd5 - p10Rd5 - p66Rd5 + pro18Rd5 >= -2 
p68Rd5 - p20Rd6 + pro19Rd5 >= 0 
p12Rd5 - p68Rd5 + pro19Rd5 >= 0 
p20Rd6 - p12Rd5 + pro19Rd5 >= 0 
p12Rd5 + p68Rd5 + p20Rd6 + pro19Rd5 <= 3 
p12Rd5 + p68Rd5 + p20Rd6 - pro19Rd5 >= 0 
p11Rd5 + p67Rd5 + p19Rd6 + pro19Rd5 - p68Rd5 >= 0 
p68Rd5 + p11Rd5 - p67Rd5 + p19Rd6 + pro19Rd5 >= 0 
p68Rd5 - p11Rd5 + p67Rd5 + p19Rd6 + pro19Rd5 >= 0 
p12Rd5 + p11Rd5 + p67Rd5 - p19Rd6 + pro19Rd5 >= 0 
p20Rd6 - p11Rd5 - p67Rd5 - p19Rd6 + pro19Rd5 >= -2 
p11Rd5 - p68Rd5 - p67Rd5 - p19Rd6 + pro19Rd5 >= -2 
p67Rd5 - p68Rd5 - p11Rd5 - p19Rd6 + pro19Rd5 >= -2 
p19Rd6 - p68Rd5 - p11Rd5 - p67Rd5 + pro19Rd5 >= -2 
p69Rd5 - p21Rd6 + pro20Rd5 >= 0 
p13Rd5 - p69Rd5 + pro20Rd5 >= 0 
p21Rd6 - p13Rd5 + pro20Rd5 >= 0 
p13Rd5 + p69Rd5 + p21Rd6 + pro20Rd5 <= 3 
p13Rd5 + p69Rd5 + p21Rd6 - pro20Rd5 >= 0 
p12Rd5 + p68Rd5 + p20Rd6 + pro20Rd5 - p69Rd5 >= 0 
p69Rd5 + p12Rd5 - p68Rd5 + p20Rd6 + pro20Rd5 >= 0 
p69Rd5 - p12Rd5 + p68Rd5 + p20Rd6 + pro20Rd5 >= 0 
p13Rd5 + p12Rd5 + p68Rd5 - p20Rd6 + pro20Rd5 >= 0 
p21Rd6 - p12Rd5 - p68Rd5 - p20Rd6 + pro20Rd5 >= -2 
p12Rd5 - p69Rd5 - p68Rd5 - p20Rd6 + pro20Rd5 >= -2 
p68Rd5 - p69Rd5 - p12Rd5 - p20Rd6 + pro20Rd5 >= -2 
p20Rd6 - p69Rd5 - p12Rd5 - p68Rd5 + pro20Rd5 >= -2 
p70Rd5 - p22Rd6 + pro21Rd5 >= 0 
p14Rd5 - p70Rd5 + pro21Rd5 >= 0 
p22Rd6 - p14Rd5 + pro21Rd5 >= 0 
p14Rd5 + p70Rd5 + p22Rd6 + pro21Rd5 <= 3 
p14Rd5 + p70Rd5 + p22Rd6 - pro21Rd5 >= 0 
p13Rd5 + p69Rd5 + p21Rd6 + pro21Rd5 - p70Rd5 >= 0 
p70Rd5 + p13Rd5 - p69Rd5 + p21Rd6 + pro21Rd5 >= 0 
p70Rd5 - p13Rd5 + p69Rd5 + p21Rd6 + pro21Rd5 >= 0 
p14Rd5 + p13Rd5 + p69Rd5 - p21Rd6 + pro21Rd5 >= 0 
p22Rd6 - p13Rd5 - p69Rd5 - p21Rd6 + pro21Rd5 >= -2 
p13Rd5 - p70Rd5 - p69Rd5 - p21Rd6 + pro21Rd5 >= -2 
p69Rd5 - p70Rd5 - p13Rd5 - p21Rd6 + pro21Rd5 >= -2 
p21Rd6 - p70Rd5 - p13Rd5 - p69Rd5 + pro21Rd5 >= -2 
p71Rd5 - p23Rd6 + pro22Rd5 >= 0 
p15Rd5 - p71Rd5 + pro22Rd5 >= 0 
p23Rd6 - p15Rd5 + pro22Rd5 >= 0 
p15Rd5 + p71Rd5 + p23Rd6 + pro22Rd5 <= 3 
p15Rd5 + p71Rd5 + p23Rd6 - pro22Rd5 >= 0 
p14Rd5 + p70Rd5 + p22Rd6 + pro22Rd5 - p71Rd5 >= 0 
p71Rd5 + p14Rd5 - p70Rd5 + p22Rd6 + pro22Rd5 >= 0 
p71Rd5 - p14Rd5 + p70Rd5 + p22Rd6 + pro22Rd5 >= 0 
p15Rd5 + p14Rd5 + p70Rd5 - p22Rd6 + pro22Rd5 >= 0 
p23Rd6 - p14Rd5 - p70Rd5 - p22Rd6 + pro22Rd5 >= -2 
p14Rd5 - p71Rd5 - p70Rd5 - p22Rd6 + pro22Rd5 >= -2 
p70Rd5 - p71Rd5 - p14Rd5 - p22Rd6 + pro22Rd5 >= -2 
p22Rd6 - p71Rd5 - p14Rd5 - p70Rd5 + pro22Rd5 >= -2 
p72Rd5 - p24Rd6 + pro23Rd5 >= 0 
p16Rd5 - p72Rd5 + pro23Rd5 >= 0 
p24Rd6 - p16Rd5 + pro23Rd5 >= 0 
p16Rd5 + p72Rd5 + p24Rd6 + pro23Rd5 <= 3 
p16Rd5 + p72Rd5 + p24Rd6 - pro23Rd5 >= 0 
p15Rd5 + p71Rd5 + p23Rd6 + pro23Rd5 - p72Rd5 >= 0 
p72Rd5 + p15Rd5 - p71Rd5 + p23Rd6 + pro23Rd5 >= 0 
p72Rd5 - p15Rd5 + p71Rd5 + p23Rd6 + pro23Rd5 >= 0 
p16Rd5 + p15Rd5 + p71Rd5 - p23Rd6 + pro23Rd5 >= 0 
p24Rd6 - p15Rd5 - p71Rd5 - p23Rd6 + pro23Rd5 >= -2 
p15Rd5 - p72Rd5 - p71Rd5 - p23Rd6 + pro23Rd5 >= -2 
p71Rd5 - p72Rd5 - p15Rd5 - p23Rd6 + pro23Rd5 >= -2 
p23Rd6 - p72Rd5 - p15Rd5 - p71Rd5 + pro23Rd5 >= -2 
p73Rd5 - p25Rd6 + pro24Rd5 >= 0 
p17Rd5 - p73Rd5 + pro24Rd5 >= 0 
p25Rd6 - p17Rd5 + pro24Rd5 >= 0 
p17Rd5 + p73Rd5 + p25Rd6 + pro24Rd5 <= 3 
p17Rd5 + p73Rd5 + p25Rd6 - pro24Rd5 >= 0 
p16Rd5 + p72Rd5 + p24Rd6 + pro24Rd5 - p73Rd5 >= 0 
p73Rd5 + p16Rd5 - p72Rd5 + p24Rd6 + pro24Rd5 >= 0 
p73Rd5 - p16Rd5 + p72Rd5 + p24Rd6 + pro24Rd5 >= 0 
p17Rd5 + p16Rd5 + p72Rd5 - p24Rd6 + pro24Rd5 >= 0 
p25Rd6 - p16Rd5 - p72Rd5 - p24Rd6 + pro24Rd5 >= -2 
p16Rd5 - p73Rd5 - p72Rd5 - p24Rd6 + pro24Rd5 >= -2 
p72Rd5 - p73Rd5 - p16Rd5 - p24Rd6 + pro24Rd5 >= -2 
p24Rd6 - p73Rd5 - p16Rd5 - p72Rd5 + pro24Rd5 >= -2 
p74Rd5 - p26Rd6 + pro25Rd5 >= 0 
p18Rd5 - p74Rd5 + pro25Rd5 >= 0 
p26Rd6 - p18Rd5 + pro25Rd5 >= 0 
p18Rd5 + p74Rd5 + p26Rd6 + pro25Rd5 <= 3 
p18Rd5 + p74Rd5 + p26Rd6 - pro25Rd5 >= 0 
p17Rd5 + p73Rd5 + p25Rd6 + pro25Rd5 - p74Rd5 >= 0 
p74Rd5 + p17Rd5 - p73Rd5 + p25Rd6 + pro25Rd5 >= 0 
p74Rd5 - p17Rd5 + p73Rd5 + p25Rd6 + pro25Rd5 >= 0 
p18Rd5 + p17Rd5 + p73Rd5 - p25Rd6 + pro25Rd5 >= 0 
p26Rd6 - p17Rd5 - p73Rd5 - p25Rd6 + pro25Rd5 >= -2 
p17Rd5 - p74Rd5 - p73Rd5 - p25Rd6 + pro25Rd5 >= -2 
p73Rd5 - p74Rd5 - p17Rd5 - p25Rd6 + pro25Rd5 >= -2 
p25Rd6 - p74Rd5 - p17Rd5 - p73Rd5 + pro25Rd5 >= -2 
p75Rd5 - p27Rd6 + pro26Rd5 >= 0 
p19Rd5 - p75Rd5 + pro26Rd5 >= 0 
p27Rd6 - p19Rd5 + pro26Rd5 >= 0 
p19Rd5 + p75Rd5 + p27Rd6 + pro26Rd5 <= 3 
p19Rd5 + p75Rd5 + p27Rd6 - pro26Rd5 >= 0 
p18Rd5 + p74Rd5 + p26Rd6 + pro26Rd5 - p75Rd5 >= 0 
p75Rd5 + p18Rd5 - p74Rd5 + p26Rd6 + pro26Rd5 >= 0 
p75Rd5 - p18Rd5 + p74Rd5 + p26Rd6 + pro26Rd5 >= 0 
p19Rd5 + p18Rd5 + p74Rd5 - p26Rd6 + pro26Rd5 >= 0 
p27Rd6 - p18Rd5 - p74Rd5 - p26Rd6 + pro26Rd5 >= -2 
p18Rd5 - p75Rd5 - p74Rd5 - p26Rd6 + pro26Rd5 >= -2 
p74Rd5 - p75Rd5 - p18Rd5 - p26Rd6 + pro26Rd5 >= -2 
p26Rd6 - p75Rd5 - p18Rd5 - p74Rd5 + pro26Rd5 >= -2 
p76Rd5 - p28Rd6 + pro27Rd5 >= 0 
p20Rd5 - p76Rd5 + pro27Rd5 >= 0 
p28Rd6 - p20Rd5 + pro27Rd5 >= 0 
p20Rd5 + p76Rd5 + p28Rd6 + pro27Rd5 <= 3 
p20Rd5 + p76Rd5 + p28Rd6 - pro27Rd5 >= 0 
p19Rd5 + p75Rd5 + p27Rd6 + pro27Rd5 - p76Rd5 >= 0 
p76Rd5 + p19Rd5 - p75Rd5 + p27Rd6 + pro27Rd5 >= 0 
p76Rd5 - p19Rd5 + p75Rd5 + p27Rd6 + pro27Rd5 >= 0 
p20Rd5 + p19Rd5 + p75Rd5 - p27Rd6 + pro27Rd5 >= 0 
p28Rd6 - p19Rd5 - p75Rd5 - p27Rd6 + pro27Rd5 >= -2 
p19Rd5 - p76Rd5 - p75Rd5 - p27Rd6 + pro27Rd5 >= -2 
p75Rd5 - p76Rd5 - p19Rd5 - p27Rd6 + pro27Rd5 >= -2 
p27Rd6 - p76Rd5 - p19Rd5 - p75Rd5 + pro27Rd5 >= -2 
p77Rd5 - p29Rd6 + pro28Rd5 >= 0 
p21Rd5 - p77Rd5 + pro28Rd5 >= 0 
p29Rd6 - p21Rd5 + pro28Rd5 >= 0 
p21Rd5 + p77Rd5 + p29Rd6 + pro28Rd5 <= 3 
p21Rd5 + p77Rd5 + p29Rd6 - pro28Rd5 >= 0 
p20Rd5 + p76Rd5 + p28Rd6 + pro28Rd5 - p77Rd5 >= 0 
p77Rd5 + p20Rd5 - p76Rd5 + p28Rd6 + pro28Rd5 >= 0 
p77Rd5 - p20Rd5 + p76Rd5 + p28Rd6 + pro28Rd5 >= 0 
p21Rd5 + p20Rd5 + p76Rd5 - p28Rd6 + pro28Rd5 >= 0 
p29Rd6 - p20Rd5 - p76Rd5 - p28Rd6 + pro28Rd5 >= -2 
p20Rd5 - p77Rd5 - p76Rd5 - p28Rd6 + pro28Rd5 >= -2 
p76Rd5 - p77Rd5 - p20Rd5 - p28Rd6 + pro28Rd5 >= -2 
p28Rd6 - p77Rd5 - p20Rd5 - p76Rd5 + pro28Rd5 >= -2 
p78Rd5 - p30Rd6 + pro29Rd5 >= 0 
p22Rd5 - p78Rd5 + pro29Rd5 >= 0 
p30Rd6 - p22Rd5 + pro29Rd5 >= 0 
p22Rd5 + p78Rd5 + p30Rd6 + pro29Rd5 <= 3 
p22Rd5 + p78Rd5 + p30Rd6 - pro29Rd5 >= 0 
p21Rd5 + p77Rd5 + p29Rd6 + pro29Rd5 - p78Rd5 >= 0 
p78Rd5 + p21Rd5 - p77Rd5 + p29Rd6 + pro29Rd5 >= 0 
p78Rd5 - p21Rd5 + p77Rd5 + p29Rd6 + pro29Rd5 >= 0 
p22Rd5 + p21Rd5 + p77Rd5 - p29Rd6 + pro29Rd5 >= 0 
p30Rd6 - p21Rd5 - p77Rd5 - p29Rd6 + pro29Rd5 >= -2 
p21Rd5 - p78Rd5 - p77Rd5 - p29Rd6 + pro29Rd5 >= -2 
p77Rd5 - p78Rd5 - p21Rd5 - p29Rd6 + pro29Rd5 >= -2 
p29Rd6 - p78Rd5 - p21Rd5 - p77Rd5 + pro29Rd5 >= -2 
p79Rd5 - p31Rd6 + pro30Rd5 >= 0 
p23Rd5 - p79Rd5 + pro30Rd5 >= 0 
p31Rd6 - p23Rd5 + pro30Rd5 >= 0 
p23Rd5 + p79Rd5 + p31Rd6 + pro30Rd5 <= 3 
p23Rd5 + p79Rd5 + p31Rd6 - pro30Rd5 >= 0 
p22Rd5 + p78Rd5 + p30Rd6 + pro30Rd5 - p79Rd5 >= 0 
p79Rd5 + p22Rd5 - p78Rd5 + p30Rd6 + pro30Rd5 >= 0 
p79Rd5 - p22Rd5 + p78Rd5 + p30Rd6 + pro30Rd5 >= 0 
p23Rd5 + p22Rd5 + p78Rd5 - p30Rd6 + pro30Rd5 >= 0 
p31Rd6 - p22Rd5 - p78Rd5 - p30Rd6 + pro30Rd5 >= -2 
p22Rd5 - p79Rd5 - p78Rd5 - p30Rd6 + pro30Rd5 >= -2 
p78Rd5 - p79Rd5 - p22Rd5 - p30Rd6 + pro30Rd5 >= -2 
p30Rd6 - p79Rd5 - p22Rd5 - p78Rd5 + pro30Rd5 >= -2 
p80Rd5 - p32Rd6 + pro31Rd5 >= 0 
p24Rd5 - p80Rd5 + pro31Rd5 >= 0 
p32Rd6 - p24Rd5 + pro31Rd5 >= 0 
p24Rd5 + p80Rd5 + p32Rd6 + pro31Rd5 <= 3 
p24Rd5 + p80Rd5 + p32Rd6 - pro31Rd5 >= 0 
p23Rd5 + p79Rd5 + p31Rd6 + pro31Rd5 - p80Rd5 >= 0 
p80Rd5 + p23Rd5 - p79Rd5 + p31Rd6 + pro31Rd5 >= 0 
p80Rd5 - p23Rd5 + p79Rd5 + p31Rd6 + pro31Rd5 >= 0 
p24Rd5 + p23Rd5 + p79Rd5 - p31Rd6 + pro31Rd5 >= 0 
p32Rd6 - p23Rd5 - p79Rd5 - p31Rd6 + pro31Rd5 >= -2 
p23Rd5 - p80Rd5 - p79Rd5 - p31Rd6 + pro31Rd5 >= -2 
p79Rd5 - p80Rd5 - p23Rd5 - p31Rd6 + pro31Rd5 >= -2 
p31Rd6 - p80Rd5 - p23Rd5 - p79Rd5 + pro31Rd5 >= -2 
p81Rd5 - p33Rd6 + pro32Rd5 >= 0 
p25Rd5 - p81Rd5 + pro32Rd5 >= 0 
p33Rd6 - p25Rd5 + pro32Rd5 >= 0 
p25Rd5 + p81Rd5 + p33Rd6 + pro32Rd5 <= 3 
p25Rd5 + p81Rd5 + p33Rd6 - pro32Rd5 >= 0 
p24Rd5 + p80Rd5 + p32Rd6 + pro32Rd5 - p81Rd5 >= 0 
p81Rd5 + p24Rd5 - p80Rd5 + p32Rd6 + pro32Rd5 >= 0 
p81Rd5 - p24Rd5 + p80Rd5 + p32Rd6 + pro32Rd5 >= 0 
p25Rd5 + p24Rd5 + p80Rd5 - p32Rd6 + pro32Rd5 >= 0 
p33Rd6 - p24Rd5 - p80Rd5 - p32Rd6 + pro32Rd5 >= -2 
p24Rd5 - p81Rd5 - p80Rd5 - p32Rd6 + pro32Rd5 >= -2 
p80Rd5 - p81Rd5 - p24Rd5 - p32Rd6 + pro32Rd5 >= -2 
p32Rd6 - p81Rd5 - p24Rd5 - p80Rd5 + pro32Rd5 >= -2 
p82Rd5 - p34Rd6 + pro33Rd5 >= 0 
p26Rd5 - p82Rd5 + pro33Rd5 >= 0 
p34Rd6 - p26Rd5 + pro33Rd5 >= 0 
p26Rd5 + p82Rd5 + p34Rd6 + pro33Rd5 <= 3 
p26Rd5 + p82Rd5 + p34Rd6 - pro33Rd5 >= 0 
p25Rd5 + p81Rd5 + p33Rd6 + pro33Rd5 - p82Rd5 >= 0 
p82Rd5 + p25Rd5 - p81Rd5 + p33Rd6 + pro33Rd5 >= 0 
p82Rd5 - p25Rd5 + p81Rd5 + p33Rd6 + pro33Rd5 >= 0 
p26Rd5 + p25Rd5 + p81Rd5 - p33Rd6 + pro33Rd5 >= 0 
p34Rd6 - p25Rd5 - p81Rd5 - p33Rd6 + pro33Rd5 >= -2 
p25Rd5 - p82Rd5 - p81Rd5 - p33Rd6 + pro33Rd5 >= -2 
p81Rd5 - p82Rd5 - p25Rd5 - p33Rd6 + pro33Rd5 >= -2 
p33Rd6 - p82Rd5 - p25Rd5 - p81Rd5 + pro33Rd5 >= -2 
p83Rd5 - p35Rd6 + pro34Rd5 >= 0 
p27Rd5 - p83Rd5 + pro34Rd5 >= 0 
p35Rd6 - p27Rd5 + pro34Rd5 >= 0 
p27Rd5 + p83Rd5 + p35Rd6 + pro34Rd5 <= 3 
p27Rd5 + p83Rd5 + p35Rd6 - pro34Rd5 >= 0 
p26Rd5 + p82Rd5 + p34Rd6 + pro34Rd5 - p83Rd5 >= 0 
p83Rd5 + p26Rd5 - p82Rd5 + p34Rd6 + pro34Rd5 >= 0 
p83Rd5 - p26Rd5 + p82Rd5 + p34Rd6 + pro34Rd5 >= 0 
p27Rd5 + p26Rd5 + p82Rd5 - p34Rd6 + pro34Rd5 >= 0 
p35Rd6 - p26Rd5 - p82Rd5 - p34Rd6 + pro34Rd5 >= -2 
p26Rd5 - p83Rd5 - p82Rd5 - p34Rd6 + pro34Rd5 >= -2 
p82Rd5 - p83Rd5 - p26Rd5 - p34Rd6 + pro34Rd5 >= -2 
p34Rd6 - p83Rd5 - p26Rd5 - p82Rd5 + pro34Rd5 >= -2 
p84Rd5 - p36Rd6 + pro35Rd5 >= 0 
p28Rd5 - p84Rd5 + pro35Rd5 >= 0 
p36Rd6 - p28Rd5 + pro35Rd5 >= 0 
p28Rd5 + p84Rd5 + p36Rd6 + pro35Rd5 <= 3 
p28Rd5 + p84Rd5 + p36Rd6 - pro35Rd5 >= 0 
p27Rd5 + p83Rd5 + p35Rd6 + pro35Rd5 - p84Rd5 >= 0 
p84Rd5 + p27Rd5 - p83Rd5 + p35Rd6 + pro35Rd5 >= 0 
p84Rd5 - p27Rd5 + p83Rd5 + p35Rd6 + pro35Rd5 >= 0 
p28Rd5 + p27Rd5 + p83Rd5 - p35Rd6 + pro35Rd5 >= 0 
p36Rd6 - p27Rd5 - p83Rd5 - p35Rd6 + pro35Rd5 >= -2 
p27Rd5 - p84Rd5 - p83Rd5 - p35Rd6 + pro35Rd5 >= -2 
p83Rd5 - p84Rd5 - p27Rd5 - p35Rd6 + pro35Rd5 >= -2 
p35Rd6 - p84Rd5 - p27Rd5 - p83Rd5 + pro35Rd5 >= -2 
p85Rd5 - p37Rd6 + pro36Rd5 >= 0 
p29Rd5 - p85Rd5 + pro36Rd5 >= 0 
p37Rd6 - p29Rd5 + pro36Rd5 >= 0 
p29Rd5 + p85Rd5 + p37Rd6 + pro36Rd5 <= 3 
p29Rd5 + p85Rd5 + p37Rd6 - pro36Rd5 >= 0 
p28Rd5 + p84Rd5 + p36Rd6 + pro36Rd5 - p85Rd5 >= 0 
p85Rd5 + p28Rd5 - p84Rd5 + p36Rd6 + pro36Rd5 >= 0 
p85Rd5 - p28Rd5 + p84Rd5 + p36Rd6 + pro36Rd5 >= 0 
p29Rd5 + p28Rd5 + p84Rd5 - p36Rd6 + pro36Rd5 >= 0 
p37Rd6 - p28Rd5 - p84Rd5 - p36Rd6 + pro36Rd5 >= -2 
p28Rd5 - p85Rd5 - p84Rd5 - p36Rd6 + pro36Rd5 >= -2 
p84Rd5 - p85Rd5 - p28Rd5 - p36Rd6 + pro36Rd5 >= -2 
p36Rd6 - p85Rd5 - p28Rd5 - p84Rd5 + pro36Rd5 >= -2 
p86Rd5 - p38Rd6 + pro37Rd5 >= 0 
p30Rd5 - p86Rd5 + pro37Rd5 >= 0 
p38Rd6 - p30Rd5 + pro37Rd5 >= 0 
p30Rd5 + p86Rd5 + p38Rd6 + pro37Rd5 <= 3 
p30Rd5 + p86Rd5 + p38Rd6 - pro37Rd5 >= 0 
p29Rd5 + p85Rd5 + p37Rd6 + pro37Rd5 - p86Rd5 >= 0 
p86Rd5 + p29Rd5 - p85Rd5 + p37Rd6 + pro37Rd5 >= 0 
p86Rd5 - p29Rd5 + p85Rd5 + p37Rd6 + pro37Rd5 >= 0 
p30Rd5 + p29Rd5 + p85Rd5 - p37Rd6 + pro37Rd5 >= 0 
p38Rd6 - p29Rd5 - p85Rd5 - p37Rd6 + pro37Rd5 >= -2 
p29Rd5 - p86Rd5 - p85Rd5 - p37Rd6 + pro37Rd5 >= -2 
p85Rd5 - p86Rd5 - p29Rd5 - p37Rd6 + pro37Rd5 >= -2 
p37Rd6 - p86Rd5 - p29Rd5 - p85Rd5 + pro37Rd5 >= -2 
p87Rd5 - p39Rd6 + pro38Rd5 >= 0 
p31Rd5 - p87Rd5 + pro38Rd5 >= 0 
p39Rd6 - p31Rd5 + pro38Rd5 >= 0 
p31Rd5 + p87Rd5 + p39Rd6 + pro38Rd5 <= 3 
p31Rd5 + p87Rd5 + p39Rd6 - pro38Rd5 >= 0 
p30Rd5 + p86Rd5 + p38Rd6 + pro38Rd5 - p87Rd5 >= 0 
p87Rd5 + p30Rd5 - p86Rd5 + p38Rd6 + pro38Rd5 >= 0 
p87Rd5 - p30Rd5 + p86Rd5 + p38Rd6 + pro38Rd5 >= 0 
p31Rd5 + p30Rd5 + p86Rd5 - p38Rd6 + pro38Rd5 >= 0 
p39Rd6 - p30Rd5 - p86Rd5 - p38Rd6 + pro38Rd5 >= -2 
p30Rd5 - p87Rd5 - p86Rd5 - p38Rd6 + pro38Rd5 >= -2 
p86Rd5 - p87Rd5 - p30Rd5 - p38Rd6 + pro38Rd5 >= -2 
p38Rd6 - p87Rd5 - p30Rd5 - p86Rd5 + pro38Rd5 >= -2 
p88Rd5 - p40Rd6 + pro39Rd5 >= 0 
p32Rd5 - p88Rd5 + pro39Rd5 >= 0 
p40Rd6 - p32Rd5 + pro39Rd5 >= 0 
p32Rd5 + p88Rd5 + p40Rd6 + pro39Rd5 <= 3 
p32Rd5 + p88Rd5 + p40Rd6 - pro39Rd5 >= 0 
p31Rd5 + p87Rd5 + p39Rd6 + pro39Rd5 - p88Rd5 >= 0 
p88Rd5 + p31Rd5 - p87Rd5 + p39Rd6 + pro39Rd5 >= 0 
p88Rd5 - p31Rd5 + p87Rd5 + p39Rd6 + pro39Rd5 >= 0 
p32Rd5 + p31Rd5 + p87Rd5 - p39Rd6 + pro39Rd5 >= 0 
p40Rd6 - p31Rd5 - p87Rd5 - p39Rd6 + pro39Rd5 >= -2 
p31Rd5 - p88Rd5 - p87Rd5 - p39Rd6 + pro39Rd5 >= -2 
p87Rd5 - p88Rd5 - p31Rd5 - p39Rd6 + pro39Rd5 >= -2 
p39Rd6 - p88Rd5 - p31Rd5 - p87Rd5 + pro39Rd5 >= -2 
p89Rd5 - p41Rd6 + pro40Rd5 >= 0 
p33Rd5 - p89Rd5 + pro40Rd5 >= 0 
p41Rd6 - p33Rd5 + pro40Rd5 >= 0 
p33Rd5 + p89Rd5 + p41Rd6 + pro40Rd5 <= 3 
p33Rd5 + p89Rd5 + p41Rd6 - pro40Rd5 >= 0 
p32Rd5 + p88Rd5 + p40Rd6 + pro40Rd5 - p89Rd5 >= 0 
p89Rd5 + p32Rd5 - p88Rd5 + p40Rd6 + pro40Rd5 >= 0 
p89Rd5 - p32Rd5 + p88Rd5 + p40Rd6 + pro40Rd5 >= 0 
p33Rd5 + p32Rd5 + p88Rd5 - p40Rd6 + pro40Rd5 >= 0 
p41Rd6 - p32Rd5 - p88Rd5 - p40Rd6 + pro40Rd5 >= -2 
p32Rd5 - p89Rd5 - p88Rd5 - p40Rd6 + pro40Rd5 >= -2 
p88Rd5 - p89Rd5 - p32Rd5 - p40Rd6 + pro40Rd5 >= -2 
p40Rd6 - p89Rd5 - p32Rd5 - p88Rd5 + pro40Rd5 >= -2 
p90Rd5 - p42Rd6 + pro41Rd5 >= 0 
p34Rd5 - p90Rd5 + pro41Rd5 >= 0 
p42Rd6 - p34Rd5 + pro41Rd5 >= 0 
p34Rd5 + p90Rd5 + p42Rd6 + pro41Rd5 <= 3 
p34Rd5 + p90Rd5 + p42Rd6 - pro41Rd5 >= 0 
p33Rd5 + p89Rd5 + p41Rd6 + pro41Rd5 - p90Rd5 >= 0 
p90Rd5 + p33Rd5 - p89Rd5 + p41Rd6 + pro41Rd5 >= 0 
p90Rd5 - p33Rd5 + p89Rd5 + p41Rd6 + pro41Rd5 >= 0 
p34Rd5 + p33Rd5 + p89Rd5 - p41Rd6 + pro41Rd5 >= 0 
p42Rd6 - p33Rd5 - p89Rd5 - p41Rd6 + pro41Rd5 >= -2 
p33Rd5 - p90Rd5 - p89Rd5 - p41Rd6 + pro41Rd5 >= -2 
p89Rd5 - p90Rd5 - p33Rd5 - p41Rd6 + pro41Rd5 >= -2 
p41Rd6 - p90Rd5 - p33Rd5 - p89Rd5 + pro41Rd5 >= -2 
p91Rd5 - p43Rd6 + pro42Rd5 >= 0 
p35Rd5 - p91Rd5 + pro42Rd5 >= 0 
p43Rd6 - p35Rd5 + pro42Rd5 >= 0 
p35Rd5 + p91Rd5 + p43Rd6 + pro42Rd5 <= 3 
p35Rd5 + p91Rd5 + p43Rd6 - pro42Rd5 >= 0 
p34Rd5 + p90Rd5 + p42Rd6 + pro42Rd5 - p91Rd5 >= 0 
p91Rd5 + p34Rd5 - p90Rd5 + p42Rd6 + pro42Rd5 >= 0 
p91Rd5 - p34Rd5 + p90Rd5 + p42Rd6 + pro42Rd5 >= 0 
p35Rd5 + p34Rd5 + p90Rd5 - p42Rd6 + pro42Rd5 >= 0 
p43Rd6 - p34Rd5 - p90Rd5 - p42Rd6 + pro42Rd5 >= -2 
p34Rd5 - p91Rd5 - p90Rd5 - p42Rd6 + pro42Rd5 >= -2 
p90Rd5 - p91Rd5 - p34Rd5 - p42Rd6 + pro42Rd5 >= -2 
p42Rd6 - p91Rd5 - p34Rd5 - p90Rd5 + pro42Rd5 >= -2 
p92Rd5 - p44Rd6 + pro43Rd5 >= 0 
p36Rd5 - p92Rd5 + pro43Rd5 >= 0 
p44Rd6 - p36Rd5 + pro43Rd5 >= 0 
p36Rd5 + p92Rd5 + p44Rd6 + pro43Rd5 <= 3 
p36Rd5 + p92Rd5 + p44Rd6 - pro43Rd5 >= 0 
p35Rd5 + p91Rd5 + p43Rd6 + pro43Rd5 - p92Rd5 >= 0 
p92Rd5 + p35Rd5 - p91Rd5 + p43Rd6 + pro43Rd5 >= 0 
p92Rd5 - p35Rd5 + p91Rd5 + p43Rd6 + pro43Rd5 >= 0 
p36Rd5 + p35Rd5 + p91Rd5 - p43Rd6 + pro43Rd5 >= 0 
p44Rd6 - p35Rd5 - p91Rd5 - p43Rd6 + pro43Rd5 >= -2 
p35Rd5 - p92Rd5 - p91Rd5 - p43Rd6 + pro43Rd5 >= -2 
p91Rd5 - p92Rd5 - p35Rd5 - p43Rd6 + pro43Rd5 >= -2 
p43Rd6 - p92Rd5 - p35Rd5 - p91Rd5 + pro43Rd5 >= -2 
p93Rd5 - p45Rd6 + pro44Rd5 >= 0 
p37Rd5 - p93Rd5 + pro44Rd5 >= 0 
p45Rd6 - p37Rd5 + pro44Rd5 >= 0 
p37Rd5 + p93Rd5 + p45Rd6 + pro44Rd5 <= 3 
p37Rd5 + p93Rd5 + p45Rd6 - pro44Rd5 >= 0 
p36Rd5 + p92Rd5 + p44Rd6 + pro44Rd5 - p93Rd5 >= 0 
p93Rd5 + p36Rd5 - p92Rd5 + p44Rd6 + pro44Rd5 >= 0 
p93Rd5 - p36Rd5 + p92Rd5 + p44Rd6 + pro44Rd5 >= 0 
p37Rd5 + p36Rd5 + p92Rd5 - p44Rd6 + pro44Rd5 >= 0 
p45Rd6 - p36Rd5 - p92Rd5 - p44Rd6 + pro44Rd5 >= -2 
p36Rd5 - p93Rd5 - p92Rd5 - p44Rd6 + pro44Rd5 >= -2 
p92Rd5 - p93Rd5 - p36Rd5 - p44Rd6 + pro44Rd5 >= -2 
p44Rd6 - p93Rd5 - p36Rd5 - p92Rd5 + pro44Rd5 >= -2 
p94Rd5 - p46Rd6 + pro45Rd5 >= 0 
p38Rd5 - p94Rd5 + pro45Rd5 >= 0 
p46Rd6 - p38Rd5 + pro45Rd5 >= 0 
p38Rd5 + p94Rd5 + p46Rd6 + pro45Rd5 <= 3 
p38Rd5 + p94Rd5 + p46Rd6 - pro45Rd5 >= 0 
p37Rd5 + p93Rd5 + p45Rd6 + pro45Rd5 - p94Rd5 >= 0 
p94Rd5 + p37Rd5 - p93Rd5 + p45Rd6 + pro45Rd5 >= 0 
p94Rd5 - p37Rd5 + p93Rd5 + p45Rd6 + pro45Rd5 >= 0 
p38Rd5 + p37Rd5 + p93Rd5 - p45Rd6 + pro45Rd5 >= 0 
p46Rd6 - p37Rd5 - p93Rd5 - p45Rd6 + pro45Rd5 >= -2 
p37Rd5 - p94Rd5 - p93Rd5 - p45Rd6 + pro45Rd5 >= -2 
p93Rd5 - p94Rd5 - p37Rd5 - p45Rd6 + pro45Rd5 >= -2 
p45Rd6 - p94Rd5 - p37Rd5 - p93Rd5 + pro45Rd5 >= -2 
p95Rd5 - p47Rd6 + pro46Rd5 >= 0 
p39Rd5 - p95Rd5 + pro46Rd5 >= 0 
p47Rd6 - p39Rd5 + pro46Rd5 >= 0 
p39Rd5 + p95Rd5 + p47Rd6 + pro46Rd5 <= 3 
p39Rd5 + p95Rd5 + p47Rd6 - pro46Rd5 >= 0 
p38Rd5 + p94Rd5 + p46Rd6 + pro46Rd5 - p95Rd5 >= 0 
p95Rd5 + p38Rd5 - p94Rd5 + p46Rd6 + pro46Rd5 >= 0 
p95Rd5 - p38Rd5 + p94Rd5 + p46Rd6 + pro46Rd5 >= 0 
p39Rd5 + p38Rd5 + p94Rd5 - p46Rd6 + pro46Rd5 >= 0 
p47Rd6 - p38Rd5 - p94Rd5 - p46Rd6 + pro46Rd5 >= -2 
p38Rd5 - p95Rd5 - p94Rd5 - p46Rd6 + pro46Rd5 >= -2 
p94Rd5 - p95Rd5 - p38Rd5 - p46Rd6 + pro46Rd5 >= -2 
p46Rd6 - p95Rd5 - p38Rd5 - p94Rd5 + pro46Rd5 >= -2 
p39Rd5 + p95Rd5 + p47Rd6 <= 2 
p39Rd5 + p95Rd5 + p47Rd6 - 2 temp5 >= 0 
temp5 - p39Rd5 >= 0 
temp5 - p95Rd5 >= 0 
temp5 - p47Rd6 >= 0 
p51Rd6 + p48Rd7 - p0Rd7 >= 0
p51Rd6 - p48Rd7 + p0Rd7 >= 0
- p51Rd6 + p48Rd7 + p0Rd7 >= 0
p51Rd6 + p48Rd7 + p0Rd7 <= 2
p52Rd6 + p49Rd7 - p1Rd7 >= 0
p52Rd6 - p49Rd7 + p1Rd7 >= 0
- p52Rd6 + p49Rd7 + p1Rd7 >= 0
p52Rd6 + p49Rd7 + p1Rd7 <= 2
p53Rd6 + p50Rd7 - p2Rd7 >= 0
p53Rd6 - p50Rd7 + p2Rd7 >= 0
- p53Rd6 + p50Rd7 + p2Rd7 >= 0
p53Rd6 + p50Rd7 + p2Rd7 <= 2
p54Rd6 + p51Rd7 - p3Rd7 >= 0
p54Rd6 - p51Rd7 + p3Rd7 >= 0
- p54Rd6 + p51Rd7 + p3Rd7 >= 0
p54Rd6 + p51Rd7 + p3Rd7 <= 2
p55Rd6 + p52Rd7 - p4Rd7 >= 0
p55Rd6 - p52Rd7 + p4Rd7 >= 0
- p55Rd6 + p52Rd7 + p4Rd7 >= 0
p55Rd6 + p52Rd7 + p4Rd7 <= 2
p56Rd6 + p53Rd7 - p5Rd7 >= 0
p56Rd6 - p53Rd7 + p5Rd7 >= 0
- p56Rd6 + p53Rd7 + p5Rd7 >= 0
p56Rd6 + p53Rd7 + p5Rd7 <= 2
p57Rd6 + p54Rd7 - p6Rd7 >= 0
p57Rd6 - p54Rd7 + p6Rd7 >= 0
- p57Rd6 + p54Rd7 + p6Rd7 >= 0
p57Rd6 + p54Rd7 + p6Rd7 <= 2
p58Rd6 + p55Rd7 - p7Rd7 >= 0
p58Rd6 - p55Rd7 + p7Rd7 >= 0
- p58Rd6 + p55Rd7 + p7Rd7 >= 0
p58Rd6 + p55Rd7 + p7Rd7 <= 2
p59Rd6 + p56Rd7 - p8Rd7 >= 0
p59Rd6 - p56Rd7 + p8Rd7 >= 0
- p59Rd6 + p56Rd7 + p8Rd7 >= 0
p59Rd6 + p56Rd7 + p8Rd7 <= 2
p60Rd6 + p57Rd7 - p9Rd7 >= 0
p60Rd6 - p57Rd7 + p9Rd7 >= 0
- p60Rd6 + p57Rd7 + p9Rd7 >= 0
p60Rd6 + p57Rd7 + p9Rd7 <= 2
p61Rd6 + p58Rd7 - p10Rd7 >= 0
p61Rd6 - p58Rd7 + p10Rd7 >= 0
- p61Rd6 + p58Rd7 + p10Rd7 >= 0
p61Rd6 + p58Rd7 + p10Rd7 <= 2
p62Rd6 + p59Rd7 - p11Rd7 >= 0
p62Rd6 - p59Rd7 + p11Rd7 >= 0
- p62Rd6 + p59Rd7 + p11Rd7 >= 0
p62Rd6 + p59Rd7 + p11Rd7 <= 2
p63Rd6 + p60Rd7 - p12Rd7 >= 0
p63Rd6 - p60Rd7 + p12Rd7 >= 0
- p63Rd6 + p60Rd7 + p12Rd7 >= 0
p63Rd6 + p60Rd7 + p12Rd7 <= 2
p64Rd6 + p61Rd7 - p13Rd7 >= 0
p64Rd6 - p61Rd7 + p13Rd7 >= 0
- p64Rd6 + p61Rd7 + p13Rd7 >= 0
p64Rd6 + p61Rd7 + p13Rd7 <= 2
p65Rd6 + p62Rd7 - p14Rd7 >= 0
p65Rd6 - p62Rd7 + p14Rd7 >= 0
- p65Rd6 + p62Rd7 + p14Rd7 >= 0
p65Rd6 + p62Rd7 + p14Rd7 <= 2
p66Rd6 + p63Rd7 - p15Rd7 >= 0
p66Rd6 - p63Rd7 + p15Rd7 >= 0
- p66Rd6 + p63Rd7 + p15Rd7 >= 0
p66Rd6 + p63Rd7 + p15Rd7 <= 2
p67Rd6 + p64Rd7 - p16Rd7 >= 0
p67Rd6 - p64Rd7 + p16Rd7 >= 0
- p67Rd6 + p64Rd7 + p16Rd7 >= 0
p67Rd6 + p64Rd7 + p16Rd7 <= 2
p68Rd6 + p65Rd7 - p17Rd7 >= 0
p68Rd6 - p65Rd7 + p17Rd7 >= 0
- p68Rd6 + p65Rd7 + p17Rd7 >= 0
p68Rd6 + p65Rd7 + p17Rd7 <= 2
p69Rd6 + p66Rd7 - p18Rd7 >= 0
p69Rd6 - p66Rd7 + p18Rd7 >= 0
- p69Rd6 + p66Rd7 + p18Rd7 >= 0
p69Rd6 + p66Rd7 + p18Rd7 <= 2
p70Rd6 + p67Rd7 - p19Rd7 >= 0
p70Rd6 - p67Rd7 + p19Rd7 >= 0
- p70Rd6 + p67Rd7 + p19Rd7 >= 0
p70Rd6 + p67Rd7 + p19Rd7 <= 2
p71Rd6 + p68Rd7 - p20Rd7 >= 0
p71Rd6 - p68Rd7 + p20Rd7 >= 0
- p71Rd6 + p68Rd7 + p20Rd7 >= 0
p71Rd6 + p68Rd7 + p20Rd7 <= 2
p72Rd6 + p69Rd7 - p21Rd7 >= 0
p72Rd6 - p69Rd7 + p21Rd7 >= 0
- p72Rd6 + p69Rd7 + p21Rd7 >= 0
p72Rd6 + p69Rd7 + p21Rd7 <= 2
p73Rd6 + p70Rd7 - p22Rd7 >= 0
p73Rd6 - p70Rd7 + p22Rd7 >= 0
- p73Rd6 + p70Rd7 + p22Rd7 >= 0
p73Rd6 + p70Rd7 + p22Rd7 <= 2
p74Rd6 + p71Rd7 - p23Rd7 >= 0
p74Rd6 - p71Rd7 + p23Rd7 >= 0
- p74Rd6 + p71Rd7 + p23Rd7 >= 0
p74Rd6 + p71Rd7 + p23Rd7 <= 2
p75Rd6 + p72Rd7 - p24Rd7 >= 0
p75Rd6 - p72Rd7 + p24Rd7 >= 0
- p75Rd6 + p72Rd7 + p24Rd7 >= 0
p75Rd6 + p72Rd7 + p24Rd7 <= 2
p76Rd6 + p73Rd7 - p25Rd7 >= 0
p76Rd6 - p73Rd7 + p25Rd7 >= 0
- p76Rd6 + p73Rd7 + p25Rd7 >= 0
p76Rd6 + p73Rd7 + p25Rd7 <= 2
p77Rd6 + p74Rd7 - p26Rd7 >= 0
p77Rd6 - p74Rd7 + p26Rd7 >= 0
- p77Rd6 + p74Rd7 + p26Rd7 >= 0
p77Rd6 + p74Rd7 + p26Rd7 <= 2
p78Rd6 + p75Rd7 - p27Rd7 >= 0
p78Rd6 - p75Rd7 + p27Rd7 >= 0
- p78Rd6 + p75Rd7 + p27Rd7 >= 0
p78Rd6 + p75Rd7 + p27Rd7 <= 2
p79Rd6 + p76Rd7 - p28Rd7 >= 0
p79Rd6 - p76Rd7 + p28Rd7 >= 0
- p79Rd6 + p76Rd7 + p28Rd7 >= 0
p79Rd6 + p76Rd7 + p28Rd7 <= 2
p80Rd6 + p77Rd7 - p29Rd7 >= 0
p80Rd6 - p77Rd7 + p29Rd7 >= 0
- p80Rd6 + p77Rd7 + p29Rd7 >= 0
p80Rd6 + p77Rd7 + p29Rd7 <= 2
p81Rd6 + p78Rd7 - p30Rd7 >= 0
p81Rd6 - p78Rd7 + p30Rd7 >= 0
- p81Rd6 + p78Rd7 + p30Rd7 >= 0
p81Rd6 + p78Rd7 + p30Rd7 <= 2
p82Rd6 + p79Rd7 - p31Rd7 >= 0
p82Rd6 - p79Rd7 + p31Rd7 >= 0
- p82Rd6 + p79Rd7 + p31Rd7 >= 0
p82Rd6 + p79Rd7 + p31Rd7 <= 2
p83Rd6 + p80Rd7 - p32Rd7 >= 0
p83Rd6 - p80Rd7 + p32Rd7 >= 0
- p83Rd6 + p80Rd7 + p32Rd7 >= 0
p83Rd6 + p80Rd7 + p32Rd7 <= 2
p84Rd6 + p81Rd7 - p33Rd7 >= 0
p84Rd6 - p81Rd7 + p33Rd7 >= 0
- p84Rd6 + p81Rd7 + p33Rd7 >= 0
p84Rd6 + p81Rd7 + p33Rd7 <= 2
p85Rd6 + p82Rd7 - p34Rd7 >= 0
p85Rd6 - p82Rd7 + p34Rd7 >= 0
- p85Rd6 + p82Rd7 + p34Rd7 >= 0
p85Rd6 + p82Rd7 + p34Rd7 <= 2
p86Rd6 + p83Rd7 - p35Rd7 >= 0
p86Rd6 - p83Rd7 + p35Rd7 >= 0
- p86Rd6 + p83Rd7 + p35Rd7 >= 0
p86Rd6 + p83Rd7 + p35Rd7 <= 2
p87Rd6 + p84Rd7 - p36Rd7 >= 0
p87Rd6 - p84Rd7 + p36Rd7 >= 0
- p87Rd6 + p84Rd7 + p36Rd7 >= 0
p87Rd6 + p84Rd7 + p36Rd7 <= 2
p88Rd6 + p85Rd7 - p37Rd7 >= 0
p88Rd6 - p85Rd7 + p37Rd7 >= 0
- p88Rd6 + p85Rd7 + p37Rd7 >= 0
p88Rd6 + p85Rd7 + p37Rd7 <= 2
p89Rd6 + p86Rd7 - p38Rd7 >= 0
p89Rd6 - p86Rd7 + p38Rd7 >= 0
- p89Rd6 + p86Rd7 + p38Rd7 >= 0
p89Rd6 + p86Rd7 + p38Rd7 <= 2
p90Rd6 + p87Rd7 - p39Rd7 >= 0
p90Rd6 - p87Rd7 + p39Rd7 >= 0
- p90Rd6 + p87Rd7 + p39Rd7 >= 0
p90Rd6 + p87Rd7 + p39Rd7 <= 2
p91Rd6 + p88Rd7 - p40Rd7 >= 0
p91Rd6 - p88Rd7 + p40Rd7 >= 0
- p91Rd6 + p88Rd7 + p40Rd7 >= 0
p91Rd6 + p88Rd7 + p40Rd7 <= 2
p92Rd6 + p89Rd7 - p41Rd7 >= 0
p92Rd6 - p89Rd7 + p41Rd7 >= 0
- p92Rd6 + p89Rd7 + p41Rd7 >= 0
p92Rd6 + p89Rd7 + p41Rd7 <= 2
p93Rd6 + p90Rd7 - p42Rd7 >= 0
p93Rd6 - p90Rd7 + p42Rd7 >= 0
- p93Rd6 + p90Rd7 + p42Rd7 >= 0
p93Rd6 + p90Rd7 + p42Rd7 <= 2
p94Rd6 + p91Rd7 - p43Rd7 >= 0
p94Rd6 - p91Rd7 + p43Rd7 >= 0
- p94Rd6 + p91Rd7 + p43Rd7 >= 0
p94Rd6 + p91Rd7 + p43Rd7 <= 2
p95Rd6 + p92Rd7 - p44Rd7 >= 0
p95Rd6 - p92Rd7 + p44Rd7 >= 0
- p95Rd6 + p92Rd7 + p44Rd7 >= 0
p95Rd6 + p92Rd7 + p44Rd7 <= 2
p48Rd6 + p93Rd7 - p45Rd7 >= 0
p48Rd6 - p93Rd7 + p45Rd7 >= 0
- p48Rd6 + p93Rd7 + p45Rd7 >= 0
p48Rd6 + p93Rd7 + p45Rd7 <= 2
p49Rd6 + p94Rd7 - p46Rd7 >= 0
p49Rd6 - p94Rd7 + p46Rd7 >= 0
- p49Rd6 + p94Rd7 + p46Rd7 >= 0
p49Rd6 + p94Rd7 + p46Rd7 <= 2
p50Rd6 + p95Rd7 - p47Rd7 >= 0
p50Rd6 - p95Rd7 + p47Rd7 >= 0
- p50Rd6 + p95Rd7 + p47Rd7 >= 0
p50Rd6 + p95Rd7 + p47Rd7 <= 2
p49Rd6 - p1Rd7 + pro0Rd6 >= 0 
p41Rd6 - p49Rd6 + pro0Rd6 >= 0 
p1Rd7 - p41Rd6 + pro0Rd6 >= 0 
p41Rd6 + p49Rd6 + p1Rd7 + pro0Rd6 <= 3 
p41Rd6 + p49Rd6 + p1Rd7 - pro0Rd6 >= 0 
p40Rd6 + p48Rd6 + p0Rd7 + pro0Rd6 - p49Rd6 >= 0 
p49Rd6 + p40Rd6 - p48Rd6 + p0Rd7 + pro0Rd6 >= 0 
p49Rd6 - p40Rd6 + p48Rd6 + p0Rd7 + pro0Rd6 >= 0 
p41Rd6 + p40Rd6 + p48Rd6 - p0Rd7 + pro0Rd6 >= 0 
p1Rd7 - p40Rd6 - p48Rd6 - p0Rd7 + pro0Rd6 >= -2 
p40Rd6 - p49Rd6 - p48Rd6 - p0Rd7 + pro0Rd6 >= -2 
p48Rd6 - p49Rd6 - p40Rd6 - p0Rd7 + pro0Rd6 >= -2 
p0Rd7 - p49Rd6 - p40Rd6 - p48Rd6 + pro0Rd6 >= -2 
p50Rd6 - p2Rd7 + pro1Rd6 >= 0 
p42Rd6 - p50Rd6 + pro1Rd6 >= 0 
p2Rd7 - p42Rd6 + pro1Rd6 >= 0 
p42Rd6 + p50Rd6 + p2Rd7 + pro1Rd6 <= 3 
p42Rd6 + p50Rd6 + p2Rd7 - pro1Rd6 >= 0 
p41Rd6 + p49Rd6 + p1Rd7 + pro1Rd6 - p50Rd6 >= 0 
p50Rd6 + p41Rd6 - p49Rd6 + p1Rd7 + pro1Rd6 >= 0 
p50Rd6 - p41Rd6 + p49Rd6 + p1Rd7 + pro1Rd6 >= 0 
p42Rd6 + p41Rd6 + p49Rd6 - p1Rd7 + pro1Rd6 >= 0 
p2Rd7 - p41Rd6 - p49Rd6 - p1Rd7 + pro1Rd6 >= -2 
p41Rd6 - p50Rd6 - p49Rd6 - p1Rd7 + pro1Rd6 >= -2 
p49Rd6 - p50Rd6 - p41Rd6 - p1Rd7 + pro1Rd6 >= -2 
p1Rd7 - p50Rd6 - p41Rd6 - p49Rd6 + pro1Rd6 >= -2 
p51Rd6 - p3Rd7 + pro2Rd6 >= 0 
p43Rd6 - p51Rd6 + pro2Rd6 >= 0 
p3Rd7 - p43Rd6 + pro2Rd6 >= 0 
p43Rd6 + p51Rd6 + p3Rd7 + pro2Rd6 <= 3 
p43Rd6 + p51Rd6 + p3Rd7 - pro2Rd6 >= 0 
p42Rd6 + p50Rd6 + p2Rd7 + pro2Rd6 - p51Rd6 >= 0 
p51Rd6 + p42Rd6 - p50Rd6 + p2Rd7 + pro2Rd6 >= 0 
p51Rd6 - p42Rd6 + p50Rd6 + p2Rd7 + pro2Rd6 >= 0 
p43Rd6 + p42Rd6 + p50Rd6 - p2Rd7 + pro2Rd6 >= 0 
p3Rd7 - p42Rd6 - p50Rd6 - p2Rd7 + pro2Rd6 >= -2 
p42Rd6 - p51Rd6 - p50Rd6 - p2Rd7 + pro2Rd6 >= -2 
p50Rd6 - p51Rd6 - p42Rd6 - p2Rd7 + pro2Rd6 >= -2 
p2Rd7 - p51Rd6 - p42Rd6 - p50Rd6 + pro2Rd6 >= -2 
p52Rd6 - p4Rd7 + pro3Rd6 >= 0 
p44Rd6 - p52Rd6 + pro3Rd6 >= 0 
p4Rd7 - p44Rd6 + pro3Rd6 >= 0 
p44Rd6 + p52Rd6 + p4Rd7 + pro3Rd6 <= 3 
p44Rd6 + p52Rd6 + p4Rd7 - pro3Rd6 >= 0 
p43Rd6 + p51Rd6 + p3Rd7 + pro3Rd6 - p52Rd6 >= 0 
p52Rd6 + p43Rd6 - p51Rd6 + p3Rd7 + pro3Rd6 >= 0 
p52Rd6 - p43Rd6 + p51Rd6 + p3Rd7 + pro3Rd6 >= 0 
p44Rd6 + p43Rd6 + p51Rd6 - p3Rd7 + pro3Rd6 >= 0 
p4Rd7 - p43Rd6 - p51Rd6 - p3Rd7 + pro3Rd6 >= -2 
p43Rd6 - p52Rd6 - p51Rd6 - p3Rd7 + pro3Rd6 >= -2 
p51Rd6 - p52Rd6 - p43Rd6 - p3Rd7 + pro3Rd6 >= -2 
p3Rd7 - p52Rd6 - p43Rd6 - p51Rd6 + pro3Rd6 >= -2 
p53Rd6 - p5Rd7 + pro4Rd6 >= 0 
p45Rd6 - p53Rd6 + pro4Rd6 >= 0 
p5Rd7 - p45Rd6 + pro4Rd6 >= 0 
p45Rd6 + p53Rd6 + p5Rd7 + pro4Rd6 <= 3 
p45Rd6 + p53Rd6 + p5Rd7 - pro4Rd6 >= 0 
p44Rd6 + p52Rd6 + p4Rd7 + pro4Rd6 - p53Rd6 >= 0 
p53Rd6 + p44Rd6 - p52Rd6 + p4Rd7 + pro4Rd6 >= 0 
p53Rd6 - p44Rd6 + p52Rd6 + p4Rd7 + pro4Rd6 >= 0 
p45Rd6 + p44Rd6 + p52Rd6 - p4Rd7 + pro4Rd6 >= 0 
p5Rd7 - p44Rd6 - p52Rd6 - p4Rd7 + pro4Rd6 >= -2 
p44Rd6 - p53Rd6 - p52Rd6 - p4Rd7 + pro4Rd6 >= -2 
p52Rd6 - p53Rd6 - p44Rd6 - p4Rd7 + pro4Rd6 >= -2 
p4Rd7 - p53Rd6 - p44Rd6 - p52Rd6 + pro4Rd6 >= -2 
p54Rd6 - p6Rd7 + pro5Rd6 >= 0 
p46Rd6 - p54Rd6 + pro5Rd6 >= 0 
p6Rd7 - p46Rd6 + pro5Rd6 >= 0 
p46Rd6 + p54Rd6 + p6Rd7 + pro5Rd6 <= 3 
p46Rd6 + p54Rd6 + p6Rd7 - pro5Rd6 >= 0 
p45Rd6 + p53Rd6 + p5Rd7 + pro5Rd6 - p54Rd6 >= 0 
p54Rd6 + p45Rd6 - p53Rd6 + p5Rd7 + pro5Rd6 >= 0 
p54Rd6 - p45Rd6 + p53Rd6 + p5Rd7 + pro5Rd6 >= 0 
p46Rd6 + p45Rd6 + p53Rd6 - p5Rd7 + pro5Rd6 >= 0 
p6Rd7 - p45Rd6 - p53Rd6 - p5Rd7 + pro5Rd6 >= -2 
p45Rd6 - p54Rd6 - p53Rd6 - p5Rd7 + pro5Rd6 >= -2 
p53Rd6 - p54Rd6 - p45Rd6 - p5Rd7 + pro5Rd6 >= -2 
p5Rd7 - p54Rd6 - p45Rd6 - p53Rd6 + pro5Rd6 >= -2 
p55Rd6 - p7Rd7 + pro6Rd6 >= 0 
p47Rd6 - p55Rd6 + pro6Rd6 >= 0 
p7Rd7 - p47Rd6 + pro6Rd6 >= 0 
p47Rd6 + p55Rd6 + p7Rd7 + pro6Rd6 <= 3 
p47Rd6 + p55Rd6 + p7Rd7 - pro6Rd6 >= 0 
p46Rd6 + p54Rd6 + p6Rd7 + pro6Rd6 - p55Rd6 >= 0 
p55Rd6 + p46Rd6 - p54Rd6 + p6Rd7 + pro6Rd6 >= 0 
p55Rd6 - p46Rd6 + p54Rd6 + p6Rd7 + pro6Rd6 >= 0 
p47Rd6 + p46Rd6 + p54Rd6 - p6Rd7 + pro6Rd6 >= 0 
p7Rd7 - p46Rd6 - p54Rd6 - p6Rd7 + pro6Rd6 >= -2 
p46Rd6 - p55Rd6 - p54Rd6 - p6Rd7 + pro6Rd6 >= -2 
p54Rd6 - p55Rd6 - p46Rd6 - p6Rd7 + pro6Rd6 >= -2 
p6Rd7 - p55Rd6 - p46Rd6 - p54Rd6 + pro6Rd6 >= -2 
p56Rd6 - p8Rd7 + pro7Rd6 >= 0 
p0Rd6 - p56Rd6 + pro7Rd6 >= 0 
p8Rd7 - p0Rd6 + pro7Rd6 >= 0 
p0Rd6 + p56Rd6 + p8Rd7 + pro7Rd6 <= 3 
p0Rd6 + p56Rd6 + p8Rd7 - pro7Rd6 >= 0 
p47Rd6 + p55Rd6 + p7Rd7 + pro7Rd6 - p56Rd6 >= 0 
p56Rd6 + p47Rd6 - p55Rd6 + p7Rd7 + pro7Rd6 >= 0 
p56Rd6 - p47Rd6 + p55Rd6 + p7Rd7 + pro7Rd6 >= 0 
p0Rd6 + p47Rd6 + p55Rd6 - p7Rd7 + pro7Rd6 >= 0 
p8Rd7 - p47Rd6 - p55Rd6 - p7Rd7 + pro7Rd6 >= -2 
p47Rd6 - p56Rd6 - p55Rd6 - p7Rd7 + pro7Rd6 >= -2 
p55Rd6 - p56Rd6 - p47Rd6 - p7Rd7 + pro7Rd6 >= -2 
p7Rd7 - p56Rd6 - p47Rd6 - p55Rd6 + pro7Rd6 >= -2 
p57Rd6 - p9Rd7 + pro8Rd6 >= 0 
p1Rd6 - p57Rd6 + pro8Rd6 >= 0 
p9Rd7 - p1Rd6 + pro8Rd6 >= 0 
p1Rd6 + p57Rd6 + p9Rd7 + pro8Rd6 <= 3 
p1Rd6 + p57Rd6 + p9Rd7 - pro8Rd6 >= 0 
p0Rd6 + p56Rd6 + p8Rd7 + pro8Rd6 - p57Rd6 >= 0 
p57Rd6 + p0Rd6 - p56Rd6 + p8Rd7 + pro8Rd6 >= 0 
p57Rd6 - p0Rd6 + p56Rd6 + p8Rd7 + pro8Rd6 >= 0 
p1Rd6 + p0Rd6 + p56Rd6 - p8Rd7 + pro8Rd6 >= 0 
p9Rd7 - p0Rd6 - p56Rd6 - p8Rd7 + pro8Rd6 >= -2 
p0Rd6 - p57Rd6 - p56Rd6 - p8Rd7 + pro8Rd6 >= -2 
p56Rd6 - p57Rd6 - p0Rd6 - p8Rd7 + pro8Rd6 >= -2 
p8Rd7 - p57Rd6 - p0Rd6 - p56Rd6 + pro8Rd6 >= -2 
p58Rd6 - p10Rd7 + pro9Rd6 >= 0 
p2Rd6 - p58Rd6 + pro9Rd6 >= 0 
p10Rd7 - p2Rd6 + pro9Rd6 >= 0 
p2Rd6 + p58Rd6 + p10Rd7 + pro9Rd6 <= 3 
p2Rd6 + p58Rd6 + p10Rd7 - pro9Rd6 >= 0 
p1Rd6 + p57Rd6 + p9Rd7 + pro9Rd6 - p58Rd6 >= 0 
p58Rd6 + p1Rd6 - p57Rd6 + p9Rd7 + pro9Rd6 >= 0 
p58Rd6 - p1Rd6 + p57Rd6 + p9Rd7 + pro9Rd6 >= 0 
p2Rd6 + p1Rd6 + p57Rd6 - p9Rd7 + pro9Rd6 >= 0 
p10Rd7 - p1Rd6 - p57Rd6 - p9Rd7 + pro9Rd6 >= -2 
p1Rd6 - p58Rd6 - p57Rd6 - p9Rd7 + pro9Rd6 >= -2 
p57Rd6 - p58Rd6 - p1Rd6 - p9Rd7 + pro9Rd6 >= -2 
p9Rd7 - p58Rd6 - p1Rd6 - p57Rd6 + pro9Rd6 >= -2 
p59Rd6 - p11Rd7 + pro10Rd6 >= 0 
p3Rd6 - p59Rd6 + pro10Rd6 >= 0 
p11Rd7 - p3Rd6 + pro10Rd6 >= 0 
p3Rd6 + p59Rd6 + p11Rd7 + pro10Rd6 <= 3 
p3Rd6 + p59Rd6 + p11Rd7 - pro10Rd6 >= 0 
p2Rd6 + p58Rd6 + p10Rd7 + pro10Rd6 - p59Rd6 >= 0 
p59Rd6 + p2Rd6 - p58Rd6 + p10Rd7 + pro10Rd6 >= 0 
p59Rd6 - p2Rd6 + p58Rd6 + p10Rd7 + pro10Rd6 >= 0 
p3Rd6 + p2Rd6 + p58Rd6 - p10Rd7 + pro10Rd6 >= 0 
p11Rd7 - p2Rd6 - p58Rd6 - p10Rd7 + pro10Rd6 >= -2 
p2Rd6 - p59Rd6 - p58Rd6 - p10Rd7 + pro10Rd6 >= -2 
p58Rd6 - p59Rd6 - p2Rd6 - p10Rd7 + pro10Rd6 >= -2 
p10Rd7 - p59Rd6 - p2Rd6 - p58Rd6 + pro10Rd6 >= -2 
p60Rd6 - p12Rd7 + pro11Rd6 >= 0 
p4Rd6 - p60Rd6 + pro11Rd6 >= 0 
p12Rd7 - p4Rd6 + pro11Rd6 >= 0 
p4Rd6 + p60Rd6 + p12Rd7 + pro11Rd6 <= 3 
p4Rd6 + p60Rd6 + p12Rd7 - pro11Rd6 >= 0 
p3Rd6 + p59Rd6 + p11Rd7 + pro11Rd6 - p60Rd6 >= 0 
p60Rd6 + p3Rd6 - p59Rd6 + p11Rd7 + pro11Rd6 >= 0 
p60Rd6 - p3Rd6 + p59Rd6 + p11Rd7 + pro11Rd6 >= 0 
p4Rd6 + p3Rd6 + p59Rd6 - p11Rd7 + pro11Rd6 >= 0 
p12Rd7 - p3Rd6 - p59Rd6 - p11Rd7 + pro11Rd6 >= -2 
p3Rd6 - p60Rd6 - p59Rd6 - p11Rd7 + pro11Rd6 >= -2 
p59Rd6 - p60Rd6 - p3Rd6 - p11Rd7 + pro11Rd6 >= -2 
p11Rd7 - p60Rd6 - p3Rd6 - p59Rd6 + pro11Rd6 >= -2 
p61Rd6 - p13Rd7 + pro12Rd6 >= 0 
p5Rd6 - p61Rd6 + pro12Rd6 >= 0 
p13Rd7 - p5Rd6 + pro12Rd6 >= 0 
p5Rd6 + p61Rd6 + p13Rd7 + pro12Rd6 <= 3 
p5Rd6 + p61Rd6 + p13Rd7 - pro12Rd6 >= 0 
p4Rd6 + p60Rd6 + p12Rd7 + pro12Rd6 - p61Rd6 >= 0 
p61Rd6 + p4Rd6 - p60Rd6 + p12Rd7 + pro12Rd6 >= 0 
p61Rd6 - p4Rd6 + p60Rd6 + p12Rd7 + pro12Rd6 >= 0 
p5Rd6 + p4Rd6 + p60Rd6 - p12Rd7 + pro12Rd6 >= 0 
p13Rd7 - p4Rd6 - p60Rd6 - p12Rd7 + pro12Rd6 >= -2 
p4Rd6 - p61Rd6 - p60Rd6 - p12Rd7 + pro12Rd6 >= -2 
p60Rd6 - p61Rd6 - p4Rd6 - p12Rd7 + pro12Rd6 >= -2 
p12Rd7 - p61Rd6 - p4Rd6 - p60Rd6 + pro12Rd6 >= -2 
p62Rd6 - p14Rd7 + pro13Rd6 >= 0 
p6Rd6 - p62Rd6 + pro13Rd6 >= 0 
p14Rd7 - p6Rd6 + pro13Rd6 >= 0 
p6Rd6 + p62Rd6 + p14Rd7 + pro13Rd6 <= 3 
p6Rd6 + p62Rd6 + p14Rd7 - pro13Rd6 >= 0 
p5Rd6 + p61Rd6 + p13Rd7 + pro13Rd6 - p62Rd6 >= 0 
p62Rd6 + p5Rd6 - p61Rd6 + p13Rd7 + pro13Rd6 >= 0 
p62Rd6 - p5Rd6 + p61Rd6 + p13Rd7 + pro13Rd6 >= 0 
p6Rd6 + p5Rd6 + p61Rd6 - p13Rd7 + pro13Rd6 >= 0 
p14Rd7 - p5Rd6 - p61Rd6 - p13Rd7 + pro13Rd6 >= -2 
p5Rd6 - p62Rd6 - p61Rd6 - p13Rd7 + pro13Rd6 >= -2 
p61Rd6 - p62Rd6 - p5Rd6 - p13Rd7 + pro13Rd6 >= -2 
p13Rd7 - p62Rd6 - p5Rd6 - p61Rd6 + pro13Rd6 >= -2 
p63Rd6 - p15Rd7 + pro14Rd6 >= 0 
p7Rd6 - p63Rd6 + pro14Rd6 >= 0 
p15Rd7 - p7Rd6 + pro14Rd6 >= 0 
p7Rd6 + p63Rd6 + p15Rd7 + pro14Rd6 <= 3 
p7Rd6 + p63Rd6 + p15Rd7 - pro14Rd6 >= 0 
p6Rd6 + p62Rd6 + p14Rd7 + pro14Rd6 - p63Rd6 >= 0 
p63Rd6 + p6Rd6 - p62Rd6 + p14Rd7 + pro14Rd6 >= 0 
p63Rd6 - p6Rd6 + p62Rd6 + p14Rd7 + pro14Rd6 >= 0 
p7Rd6 + p6Rd6 + p62Rd6 - p14Rd7 + pro14Rd6 >= 0 
p15Rd7 - p6Rd6 - p62Rd6 - p14Rd7 + pro14Rd6 >= -2 
p6Rd6 - p63Rd6 - p62Rd6 - p14Rd7 + pro14Rd6 >= -2 
p62Rd6 - p63Rd6 - p6Rd6 - p14Rd7 + pro14Rd6 >= -2 
p14Rd7 - p63Rd6 - p6Rd6 - p62Rd6 + pro14Rd6 >= -2 
p64Rd6 - p16Rd7 + pro15Rd6 >= 0 
p8Rd6 - p64Rd6 + pro15Rd6 >= 0 
p16Rd7 - p8Rd6 + pro15Rd6 >= 0 
p8Rd6 + p64Rd6 + p16Rd7 + pro15Rd6 <= 3 
p8Rd6 + p64Rd6 + p16Rd7 - pro15Rd6 >= 0 
p7Rd6 + p63Rd6 + p15Rd7 + pro15Rd6 - p64Rd6 >= 0 
p64Rd6 + p7Rd6 - p63Rd6 + p15Rd7 + pro15Rd6 >= 0 
p64Rd6 - p7Rd6 + p63Rd6 + p15Rd7 + pro15Rd6 >= 0 
p8Rd6 + p7Rd6 + p63Rd6 - p15Rd7 + pro15Rd6 >= 0 
p16Rd7 - p7Rd6 - p63Rd6 - p15Rd7 + pro15Rd6 >= -2 
p7Rd6 - p64Rd6 - p63Rd6 - p15Rd7 + pro15Rd6 >= -2 
p63Rd6 - p64Rd6 - p7Rd6 - p15Rd7 + pro15Rd6 >= -2 
p15Rd7 - p64Rd6 - p7Rd6 - p63Rd6 + pro15Rd6 >= -2 
p65Rd6 - p17Rd7 + pro16Rd6 >= 0 
p9Rd6 - p65Rd6 + pro16Rd6 >= 0 
p17Rd7 - p9Rd6 + pro16Rd6 >= 0 
p9Rd6 + p65Rd6 + p17Rd7 + pro16Rd6 <= 3 
p9Rd6 + p65Rd6 + p17Rd7 - pro16Rd6 >= 0 
p8Rd6 + p64Rd6 + p16Rd7 + pro16Rd6 - p65Rd6 >= 0 
p65Rd6 + p8Rd6 - p64Rd6 + p16Rd7 + pro16Rd6 >= 0 
p65Rd6 - p8Rd6 + p64Rd6 + p16Rd7 + pro16Rd6 >= 0 
p9Rd6 + p8Rd6 + p64Rd6 - p16Rd7 + pro16Rd6 >= 0 
p17Rd7 - p8Rd6 - p64Rd6 - p16Rd7 + pro16Rd6 >= -2 
p8Rd6 - p65Rd6 - p64Rd6 - p16Rd7 + pro16Rd6 >= -2 
p64Rd6 - p65Rd6 - p8Rd6 - p16Rd7 + pro16Rd6 >= -2 
p16Rd7 - p65Rd6 - p8Rd6 - p64Rd6 + pro16Rd6 >= -2 
p66Rd6 - p18Rd7 + pro17Rd6 >= 0 
p10Rd6 - p66Rd6 + pro17Rd6 >= 0 
p18Rd7 - p10Rd6 + pro17Rd6 >= 0 
p10Rd6 + p66Rd6 + p18Rd7 + pro17Rd6 <= 3 
p10Rd6 + p66Rd6 + p18Rd7 - pro17Rd6 >= 0 
p9Rd6 + p65Rd6 + p17Rd7 + pro17Rd6 - p66Rd6 >= 0 
p66Rd6 + p9Rd6 - p65Rd6 + p17Rd7 + pro17Rd6 >= 0 
p66Rd6 - p9Rd6 + p65Rd6 + p17Rd7 + pro17Rd6 >= 0 
p10Rd6 + p9Rd6 + p65Rd6 - p17Rd7 + pro17Rd6 >= 0 
p18Rd7 - p9Rd6 - p65Rd6 - p17Rd7 + pro17Rd6 >= -2 
p9Rd6 - p66Rd6 - p65Rd6 - p17Rd7 + pro17Rd6 >= -2 
p65Rd6 - p66Rd6 - p9Rd6 - p17Rd7 + pro17Rd6 >= -2 
p17Rd7 - p66Rd6 - p9Rd6 - p65Rd6 + pro17Rd6 >= -2 
p67Rd6 - p19Rd7 + pro18Rd6 >= 0 
p11Rd6 - p67Rd6 + pro18Rd6 >= 0 
p19Rd7 - p11Rd6 + pro18Rd6 >= 0 
p11Rd6 + p67Rd6 + p19Rd7 + pro18Rd6 <= 3 
p11Rd6 + p67Rd6 + p19Rd7 - pro18Rd6 >= 0 
p10Rd6 + p66Rd6 + p18Rd7 + pro18Rd6 - p67Rd6 >= 0 
p67Rd6 + p10Rd6 - p66Rd6 + p18Rd7 + pro18Rd6 >= 0 
p67Rd6 - p10Rd6 + p66Rd6 + p18Rd7 + pro18Rd6 >= 0 
p11Rd6 + p10Rd6 + p66Rd6 - p18Rd7 + pro18Rd6 >= 0 
p19Rd7 - p10Rd6 - p66Rd6 - p18Rd7 + pro18Rd6 >= -2 
p10Rd6 - p67Rd6 - p66Rd6 - p18Rd7 + pro18Rd6 >= -2 
p66Rd6 - p67Rd6 - p10Rd6 - p18Rd7 + pro18Rd6 >= -2 
p18Rd7 - p67Rd6 - p10Rd6 - p66Rd6 + pro18Rd6 >= -2 
p68Rd6 - p20Rd7 + pro19Rd6 >= 0 
p12Rd6 - p68Rd6 + pro19Rd6 >= 0 
p20Rd7 - p12Rd6 + pro19Rd6 >= 0 
p12Rd6 + p68Rd6 + p20Rd7 + pro19Rd6 <= 3 
p12Rd6 + p68Rd6 + p20Rd7 - pro19Rd6 >= 0 
p11Rd6 + p67Rd6 + p19Rd7 + pro19Rd6 - p68Rd6 >= 0 
p68Rd6 + p11Rd6 - p67Rd6 + p19Rd7 + pro19Rd6 >= 0 
p68Rd6 - p11Rd6 + p67Rd6 + p19Rd7 + pro19Rd6 >= 0 
p12Rd6 + p11Rd6 + p67Rd6 - p19Rd7 + pro19Rd6 >= 0 
p20Rd7 - p11Rd6 - p67Rd6 - p19Rd7 + pro19Rd6 >= -2 
p11Rd6 - p68Rd6 - p67Rd6 - p19Rd7 + pro19Rd6 >= -2 
p67Rd6 - p68Rd6 - p11Rd6 - p19Rd7 + pro19Rd6 >= -2 
p19Rd7 - p68Rd6 - p11Rd6 - p67Rd6 + pro19Rd6 >= -2 
p69Rd6 - p21Rd7 + pro20Rd6 >= 0 
p13Rd6 - p69Rd6 + pro20Rd6 >= 0 
p21Rd7 - p13Rd6 + pro20Rd6 >= 0 
p13Rd6 + p69Rd6 + p21Rd7 + pro20Rd6 <= 3 
p13Rd6 + p69Rd6 + p21Rd7 - pro20Rd6 >= 0 
p12Rd6 + p68Rd6 + p20Rd7 + pro20Rd6 - p69Rd6 >= 0 
p69Rd6 + p12Rd6 - p68Rd6 + p20Rd7 + pro20Rd6 >= 0 
p69Rd6 - p12Rd6 + p68Rd6 + p20Rd7 + pro20Rd6 >= 0 
p13Rd6 + p12Rd6 + p68Rd6 - p20Rd7 + pro20Rd6 >= 0 
p21Rd7 - p12Rd6 - p68Rd6 - p20Rd7 + pro20Rd6 >= -2 
p12Rd6 - p69Rd6 - p68Rd6 - p20Rd7 + pro20Rd6 >= -2 
p68Rd6 - p69Rd6 - p12Rd6 - p20Rd7 + pro20Rd6 >= -2 
p20Rd7 - p69Rd6 - p12Rd6 - p68Rd6 + pro20Rd6 >= -2 
p70Rd6 - p22Rd7 + pro21Rd6 >= 0 
p14Rd6 - p70Rd6 + pro21Rd6 >= 0 
p22Rd7 - p14Rd6 + pro21Rd6 >= 0 
p14Rd6 + p70Rd6 + p22Rd7 + pro21Rd6 <= 3 
p14Rd6 + p70Rd6 + p22Rd7 - pro21Rd6 >= 0 
p13Rd6 + p69Rd6 + p21Rd7 + pro21Rd6 - p70Rd6 >= 0 
p70Rd6 + p13Rd6 - p69Rd6 + p21Rd7 + pro21Rd6 >= 0 
p70Rd6 - p13Rd6 + p69Rd6 + p21Rd7 + pro21Rd6 >= 0 
p14Rd6 + p13Rd6 + p69Rd6 - p21Rd7 + pro21Rd6 >= 0 
p22Rd7 - p13Rd6 - p69Rd6 - p21Rd7 + pro21Rd6 >= -2 
p13Rd6 - p70Rd6 - p69Rd6 - p21Rd7 + pro21Rd6 >= -2 
p69Rd6 - p70Rd6 - p13Rd6 - p21Rd7 + pro21Rd6 >= -2 
p21Rd7 - p70Rd6 - p13Rd6 - p69Rd6 + pro21Rd6 >= -2 
p71Rd6 - p23Rd7 + pro22Rd6 >= 0 
p15Rd6 - p71Rd6 + pro22Rd6 >= 0 
p23Rd7 - p15Rd6 + pro22Rd6 >= 0 
p15Rd6 + p71Rd6 + p23Rd7 + pro22Rd6 <= 3 
p15Rd6 + p71Rd6 + p23Rd7 - pro22Rd6 >= 0 
p14Rd6 + p70Rd6 + p22Rd7 + pro22Rd6 - p71Rd6 >= 0 
p71Rd6 + p14Rd6 - p70Rd6 + p22Rd7 + pro22Rd6 >= 0 
p71Rd6 - p14Rd6 + p70Rd6 + p22Rd7 + pro22Rd6 >= 0 
p15Rd6 + p14Rd6 + p70Rd6 - p22Rd7 + pro22Rd6 >= 0 
p23Rd7 - p14Rd6 - p70Rd6 - p22Rd7 + pro22Rd6 >= -2 
p14Rd6 - p71Rd6 - p70Rd6 - p22Rd7 + pro22Rd6 >= -2 
p70Rd6 - p71Rd6 - p14Rd6 - p22Rd7 + pro22Rd6 >= -2 
p22Rd7 - p71Rd6 - p14Rd6 - p70Rd6 + pro22Rd6 >= -2 
p72Rd6 - p24Rd7 + pro23Rd6 >= 0 
p16Rd6 - p72Rd6 + pro23Rd6 >= 0 
p24Rd7 - p16Rd6 + pro23Rd6 >= 0 
p16Rd6 + p72Rd6 + p24Rd7 + pro23Rd6 <= 3 
p16Rd6 + p72Rd6 + p24Rd7 - pro23Rd6 >= 0 
p15Rd6 + p71Rd6 + p23Rd7 + pro23Rd6 - p72Rd6 >= 0 
p72Rd6 + p15Rd6 - p71Rd6 + p23Rd7 + pro23Rd6 >= 0 
p72Rd6 - p15Rd6 + p71Rd6 + p23Rd7 + pro23Rd6 >= 0 
p16Rd6 + p15Rd6 + p71Rd6 - p23Rd7 + pro23Rd6 >= 0 
p24Rd7 - p15Rd6 - p71Rd6 - p23Rd7 + pro23Rd6 >= -2 
p15Rd6 - p72Rd6 - p71Rd6 - p23Rd7 + pro23Rd6 >= -2 
p71Rd6 - p72Rd6 - p15Rd6 - p23Rd7 + pro23Rd6 >= -2 
p23Rd7 - p72Rd6 - p15Rd6 - p71Rd6 + pro23Rd6 >= -2 
p73Rd6 - p25Rd7 + pro24Rd6 >= 0 
p17Rd6 - p73Rd6 + pro24Rd6 >= 0 
p25Rd7 - p17Rd6 + pro24Rd6 >= 0 
p17Rd6 + p73Rd6 + p25Rd7 + pro24Rd6 <= 3 
p17Rd6 + p73Rd6 + p25Rd7 - pro24Rd6 >= 0 
p16Rd6 + p72Rd6 + p24Rd7 + pro24Rd6 - p73Rd6 >= 0 
p73Rd6 + p16Rd6 - p72Rd6 + p24Rd7 + pro24Rd6 >= 0 
p73Rd6 - p16Rd6 + p72Rd6 + p24Rd7 + pro24Rd6 >= 0 
p17Rd6 + p16Rd6 + p72Rd6 - p24Rd7 + pro24Rd6 >= 0 
p25Rd7 - p16Rd6 - p72Rd6 - p24Rd7 + pro24Rd6 >= -2 
p16Rd6 - p73Rd6 - p72Rd6 - p24Rd7 + pro24Rd6 >= -2 
p72Rd6 - p73Rd6 - p16Rd6 - p24Rd7 + pro24Rd6 >= -2 
p24Rd7 - p73Rd6 - p16Rd6 - p72Rd6 + pro24Rd6 >= -2 
p74Rd6 - p26Rd7 + pro25Rd6 >= 0 
p18Rd6 - p74Rd6 + pro25Rd6 >= 0 
p26Rd7 - p18Rd6 + pro25Rd6 >= 0 
p18Rd6 + p74Rd6 + p26Rd7 + pro25Rd6 <= 3 
p18Rd6 + p74Rd6 + p26Rd7 - pro25Rd6 >= 0 
p17Rd6 + p73Rd6 + p25Rd7 + pro25Rd6 - p74Rd6 >= 0 
p74Rd6 + p17Rd6 - p73Rd6 + p25Rd7 + pro25Rd6 >= 0 
p74Rd6 - p17Rd6 + p73Rd6 + p25Rd7 + pro25Rd6 >= 0 
p18Rd6 + p17Rd6 + p73Rd6 - p25Rd7 + pro25Rd6 >= 0 
p26Rd7 - p17Rd6 - p73Rd6 - p25Rd7 + pro25Rd6 >= -2 
p17Rd6 - p74Rd6 - p73Rd6 - p25Rd7 + pro25Rd6 >= -2 
p73Rd6 - p74Rd6 - p17Rd6 - p25Rd7 + pro25Rd6 >= -2 
p25Rd7 - p74Rd6 - p17Rd6 - p73Rd6 + pro25Rd6 >= -2 
p75Rd6 - p27Rd7 + pro26Rd6 >= 0 
p19Rd6 - p75Rd6 + pro26Rd6 >= 0 
p27Rd7 - p19Rd6 + pro26Rd6 >= 0 
p19Rd6 + p75Rd6 + p27Rd7 + pro26Rd6 <= 3 
p19Rd6 + p75Rd6 + p27Rd7 - pro26Rd6 >= 0 
p18Rd6 + p74Rd6 + p26Rd7 + pro26Rd6 - p75Rd6 >= 0 
p75Rd6 + p18Rd6 - p74Rd6 + p26Rd7 + pro26Rd6 >= 0 
p75Rd6 - p18Rd6 + p74Rd6 + p26Rd7 + pro26Rd6 >= 0 
p19Rd6 + p18Rd6 + p74Rd6 - p26Rd7 + pro26Rd6 >= 0 
p27Rd7 - p18Rd6 - p74Rd6 - p26Rd7 + pro26Rd6 >= -2 
p18Rd6 - p75Rd6 - p74Rd6 - p26Rd7 + pro26Rd6 >= -2 
p74Rd6 - p75Rd6 - p18Rd6 - p26Rd7 + pro26Rd6 >= -2 
p26Rd7 - p75Rd6 - p18Rd6 - p74Rd6 + pro26Rd6 >= -2 
p76Rd6 - p28Rd7 + pro27Rd6 >= 0 
p20Rd6 - p76Rd6 + pro27Rd6 >= 0 
p28Rd7 - p20Rd6 + pro27Rd6 >= 0 
p20Rd6 + p76Rd6 + p28Rd7 + pro27Rd6 <= 3 
p20Rd6 + p76Rd6 + p28Rd7 - pro27Rd6 >= 0 
p19Rd6 + p75Rd6 + p27Rd7 + pro27Rd6 - p76Rd6 >= 0 
p76Rd6 + p19Rd6 - p75Rd6 + p27Rd7 + pro27Rd6 >= 0 
p76Rd6 - p19Rd6 + p75Rd6 + p27Rd7 + pro27Rd6 >= 0 
p20Rd6 + p19Rd6 + p75Rd6 - p27Rd7 + pro27Rd6 >= 0 
p28Rd7 - p19Rd6 - p75Rd6 - p27Rd7 + pro27Rd6 >= -2 
p19Rd6 - p76Rd6 - p75Rd6 - p27Rd7 + pro27Rd6 >= -2 
p75Rd6 - p76Rd6 - p19Rd6 - p27Rd7 + pro27Rd6 >= -2 
p27Rd7 - p76Rd6 - p19Rd6 - p75Rd6 + pro27Rd6 >= -2 
p77Rd6 - p29Rd7 + pro28Rd6 >= 0 
p21Rd6 - p77Rd6 + pro28Rd6 >= 0 
p29Rd7 - p21Rd6 + pro28Rd6 >= 0 
p21Rd6 + p77Rd6 + p29Rd7 + pro28Rd6 <= 3 
p21Rd6 + p77Rd6 + p29Rd7 - pro28Rd6 >= 0 
p20Rd6 + p76Rd6 + p28Rd7 + pro28Rd6 - p77Rd6 >= 0 
p77Rd6 + p20Rd6 - p76Rd6 + p28Rd7 + pro28Rd6 >= 0 
p77Rd6 - p20Rd6 + p76Rd6 + p28Rd7 + pro28Rd6 >= 0 
p21Rd6 + p20Rd6 + p76Rd6 - p28Rd7 + pro28Rd6 >= 0 
p29Rd7 - p20Rd6 - p76Rd6 - p28Rd7 + pro28Rd6 >= -2 
p20Rd6 - p77Rd6 - p76Rd6 - p28Rd7 + pro28Rd6 >= -2 
p76Rd6 - p77Rd6 - p20Rd6 - p28Rd7 + pro28Rd6 >= -2 
p28Rd7 - p77Rd6 - p20Rd6 - p76Rd6 + pro28Rd6 >= -2 
p78Rd6 - p30Rd7 + pro29Rd6 >= 0 
p22Rd6 - p78Rd6 + pro29Rd6 >= 0 
p30Rd7 - p22Rd6 + pro29Rd6 >= 0 
p22Rd6 + p78Rd6 + p30Rd7 + pro29Rd6 <= 3 
p22Rd6 + p78Rd6 + p30Rd7 - pro29Rd6 >= 0 
p21Rd6 + p77Rd6 + p29Rd7 + pro29Rd6 - p78Rd6 >= 0 
p78Rd6 + p21Rd6 - p77Rd6 + p29Rd7 + pro29Rd6 >= 0 
p78Rd6 - p21Rd6 + p77Rd6 + p29Rd7 + pro29Rd6 >= 0 
p22Rd6 + p21Rd6 + p77Rd6 - p29Rd7 + pro29Rd6 >= 0 
p30Rd7 - p21Rd6 - p77Rd6 - p29Rd7 + pro29Rd6 >= -2 
p21Rd6 - p78Rd6 - p77Rd6 - p29Rd7 + pro29Rd6 >= -2 
p77Rd6 - p78Rd6 - p21Rd6 - p29Rd7 + pro29Rd6 >= -2 
p29Rd7 - p78Rd6 - p21Rd6 - p77Rd6 + pro29Rd6 >= -2 
p79Rd6 - p31Rd7 + pro30Rd6 >= 0 
p23Rd6 - p79Rd6 + pro30Rd6 >= 0 
p31Rd7 - p23Rd6 + pro30Rd6 >= 0 
p23Rd6 + p79Rd6 + p31Rd7 + pro30Rd6 <= 3 
p23Rd6 + p79Rd6 + p31Rd7 - pro30Rd6 >= 0 
p22Rd6 + p78Rd6 + p30Rd7 + pro30Rd6 - p79Rd6 >= 0 
p79Rd6 + p22Rd6 - p78Rd6 + p30Rd7 + pro30Rd6 >= 0 
p79Rd6 - p22Rd6 + p78Rd6 + p30Rd7 + pro30Rd6 >= 0 
p23Rd6 + p22Rd6 + p78Rd6 - p30Rd7 + pro30Rd6 >= 0 
p31Rd7 - p22Rd6 - p78Rd6 - p30Rd7 + pro30Rd6 >= -2 
p22Rd6 - p79Rd6 - p78Rd6 - p30Rd7 + pro30Rd6 >= -2 
p78Rd6 - p79Rd6 - p22Rd6 - p30Rd7 + pro30Rd6 >= -2 
p30Rd7 - p79Rd6 - p22Rd6 - p78Rd6 + pro30Rd6 >= -2 
p80Rd6 - p32Rd7 + pro31Rd6 >= 0 
p24Rd6 - p80Rd6 + pro31Rd6 >= 0 
p32Rd7 - p24Rd6 + pro31Rd6 >= 0 
p24Rd6 + p80Rd6 + p32Rd7 + pro31Rd6 <= 3 
p24Rd6 + p80Rd6 + p32Rd7 - pro31Rd6 >= 0 
p23Rd6 + p79Rd6 + p31Rd7 + pro31Rd6 - p80Rd6 >= 0 
p80Rd6 + p23Rd6 - p79Rd6 + p31Rd7 + pro31Rd6 >= 0 
p80Rd6 - p23Rd6 + p79Rd6 + p31Rd7 + pro31Rd6 >= 0 
p24Rd6 + p23Rd6 + p79Rd6 - p31Rd7 + pro31Rd6 >= 0 
p32Rd7 - p23Rd6 - p79Rd6 - p31Rd7 + pro31Rd6 >= -2 
p23Rd6 - p80Rd6 - p79Rd6 - p31Rd7 + pro31Rd6 >= -2 
p79Rd6 - p80Rd6 - p23Rd6 - p31Rd7 + pro31Rd6 >= -2 
p31Rd7 - p80Rd6 - p23Rd6 - p79Rd6 + pro31Rd6 >= -2 
p81Rd6 - p33Rd7 + pro32Rd6 >= 0 
p25Rd6 - p81Rd6 + pro32Rd6 >= 0 
p33Rd7 - p25Rd6 + pro32Rd6 >= 0 
p25Rd6 + p81Rd6 + p33Rd7 + pro32Rd6 <= 3 
p25Rd6 + p81Rd6 + p33Rd7 - pro32Rd6 >= 0 
p24Rd6 + p80Rd6 + p32Rd7 + pro32Rd6 - p81Rd6 >= 0 
p81Rd6 + p24Rd6 - p80Rd6 + p32Rd7 + pro32Rd6 >= 0 
p81Rd6 - p24Rd6 + p80Rd6 + p32Rd7 + pro32Rd6 >= 0 
p25Rd6 + p24Rd6 + p80Rd6 - p32Rd7 + pro32Rd6 >= 0 
p33Rd7 - p24Rd6 - p80Rd6 - p32Rd7 + pro32Rd6 >= -2 
p24Rd6 - p81Rd6 - p80Rd6 - p32Rd7 + pro32Rd6 >= -2 
p80Rd6 - p81Rd6 - p24Rd6 - p32Rd7 + pro32Rd6 >= -2 
p32Rd7 - p81Rd6 - p24Rd6 - p80Rd6 + pro32Rd6 >= -2 
p82Rd6 - p34Rd7 + pro33Rd6 >= 0 
p26Rd6 - p82Rd6 + pro33Rd6 >= 0 
p34Rd7 - p26Rd6 + pro33Rd6 >= 0 
p26Rd6 + p82Rd6 + p34Rd7 + pro33Rd6 <= 3 
p26Rd6 + p82Rd6 + p34Rd7 - pro33Rd6 >= 0 
p25Rd6 + p81Rd6 + p33Rd7 + pro33Rd6 - p82Rd6 >= 0 
p82Rd6 + p25Rd6 - p81Rd6 + p33Rd7 + pro33Rd6 >= 0 
p82Rd6 - p25Rd6 + p81Rd6 + p33Rd7 + pro33Rd6 >= 0 
p26Rd6 + p25Rd6 + p81Rd6 - p33Rd7 + pro33Rd6 >= 0 
p34Rd7 - p25Rd6 - p81Rd6 - p33Rd7 + pro33Rd6 >= -2 
p25Rd6 - p82Rd6 - p81Rd6 - p33Rd7 + pro33Rd6 >= -2 
p81Rd6 - p82Rd6 - p25Rd6 - p33Rd7 + pro33Rd6 >= -2 
p33Rd7 - p82Rd6 - p25Rd6 - p81Rd6 + pro33Rd6 >= -2 
p83Rd6 - p35Rd7 + pro34Rd6 >= 0 
p27Rd6 - p83Rd6 + pro34Rd6 >= 0 
p35Rd7 - p27Rd6 + pro34Rd6 >= 0 
p27Rd6 + p83Rd6 + p35Rd7 + pro34Rd6 <= 3 
p27Rd6 + p83Rd6 + p35Rd7 - pro34Rd6 >= 0 
p26Rd6 + p82Rd6 + p34Rd7 + pro34Rd6 - p83Rd6 >= 0 
p83Rd6 + p26Rd6 - p82Rd6 + p34Rd7 + pro34Rd6 >= 0 
p83Rd6 - p26Rd6 + p82Rd6 + p34Rd7 + pro34Rd6 >= 0 
p27Rd6 + p26Rd6 + p82Rd6 - p34Rd7 + pro34Rd6 >= 0 
p35Rd7 - p26Rd6 - p82Rd6 - p34Rd7 + pro34Rd6 >= -2 
p26Rd6 - p83Rd6 - p82Rd6 - p34Rd7 + pro34Rd6 >= -2 
p82Rd6 - p83Rd6 - p26Rd6 - p34Rd7 + pro34Rd6 >= -2 
p34Rd7 - p83Rd6 - p26Rd6 - p82Rd6 + pro34Rd6 >= -2 
p84Rd6 - p36Rd7 + pro35Rd6 >= 0 
p28Rd6 - p84Rd6 + pro35Rd6 >= 0 
p36Rd7 - p28Rd6 + pro35Rd6 >= 0 
p28Rd6 + p84Rd6 + p36Rd7 + pro35Rd6 <= 3 
p28Rd6 + p84Rd6 + p36Rd7 - pro35Rd6 >= 0 
p27Rd6 + p83Rd6 + p35Rd7 + pro35Rd6 - p84Rd6 >= 0 
p84Rd6 + p27Rd6 - p83Rd6 + p35Rd7 + pro35Rd6 >= 0 
p84Rd6 - p27Rd6 + p83Rd6 + p35Rd7 + pro35Rd6 >= 0 
p28Rd6 + p27Rd6 + p83Rd6 - p35Rd7 + pro35Rd6 >= 0 
p36Rd7 - p27Rd6 - p83Rd6 - p35Rd7 + pro35Rd6 >= -2 
p27Rd6 - p84Rd6 - p83Rd6 - p35Rd7 + pro35Rd6 >= -2 
p83Rd6 - p84Rd6 - p27Rd6 - p35Rd7 + pro35Rd6 >= -2 
p35Rd7 - p84Rd6 - p27Rd6 - p83Rd6 + pro35Rd6 >= -2 
p85Rd6 - p37Rd7 + pro36Rd6 >= 0 
p29Rd6 - p85Rd6 + pro36Rd6 >= 0 
p37Rd7 - p29Rd6 + pro36Rd6 >= 0 
p29Rd6 + p85Rd6 + p37Rd7 + pro36Rd6 <= 3 
p29Rd6 + p85Rd6 + p37Rd7 - pro36Rd6 >= 0 
p28Rd6 + p84Rd6 + p36Rd7 + pro36Rd6 - p85Rd6 >= 0 
p85Rd6 + p28Rd6 - p84Rd6 + p36Rd7 + pro36Rd6 >= 0 
p85Rd6 - p28Rd6 + p84Rd6 + p36Rd7 + pro36Rd6 >= 0 
p29Rd6 + p28Rd6 + p84Rd6 - p36Rd7 + pro36Rd6 >= 0 
p37Rd7 - p28Rd6 - p84Rd6 - p36Rd7 + pro36Rd6 >= -2 
p28Rd6 - p85Rd6 - p84Rd6 - p36Rd7 + pro36Rd6 >= -2 
p84Rd6 - p85Rd6 - p28Rd6 - p36Rd7 + pro36Rd6 >= -2 
p36Rd7 - p85Rd6 - p28Rd6 - p84Rd6 + pro36Rd6 >= -2 
p86Rd6 - p38Rd7 + pro37Rd6 >= 0 
p30Rd6 - p86Rd6 + pro37Rd6 >= 0 
p38Rd7 - p30Rd6 + pro37Rd6 >= 0 
p30Rd6 + p86Rd6 + p38Rd7 + pro37Rd6 <= 3 
p30Rd6 + p86Rd6 + p38Rd7 - pro37Rd6 >= 0 
p29Rd6 + p85Rd6 + p37Rd7 + pro37Rd6 - p86Rd6 >= 0 
p86Rd6 + p29Rd6 - p85Rd6 + p37Rd7 + pro37Rd6 >= 0 
p86Rd6 - p29Rd6 + p85Rd6 + p37Rd7 + pro37Rd6 >= 0 
p30Rd6 + p29Rd6 + p85Rd6 - p37Rd7 + pro37Rd6 >= 0 
p38Rd7 - p29Rd6 - p85Rd6 - p37Rd7 + pro37Rd6 >= -2 
p29Rd6 - p86Rd6 - p85Rd6 - p37Rd7 + pro37Rd6 >= -2 
p85Rd6 - p86Rd6 - p29Rd6 - p37Rd7 + pro37Rd6 >= -2 
p37Rd7 - p86Rd6 - p29Rd6 - p85Rd6 + pro37Rd6 >= -2 
p87Rd6 - p39Rd7 + pro38Rd6 >= 0 
p31Rd6 - p87Rd6 + pro38Rd6 >= 0 
p39Rd7 - p31Rd6 + pro38Rd6 >= 0 
p31Rd6 + p87Rd6 + p39Rd7 + pro38Rd6 <= 3 
p31Rd6 + p87Rd6 + p39Rd7 - pro38Rd6 >= 0 
p30Rd6 + p86Rd6 + p38Rd7 + pro38Rd6 - p87Rd6 >= 0 
p87Rd6 + p30Rd6 - p86Rd6 + p38Rd7 + pro38Rd6 >= 0 
p87Rd6 - p30Rd6 + p86Rd6 + p38Rd7 + pro38Rd6 >= 0 
p31Rd6 + p30Rd6 + p86Rd6 - p38Rd7 + pro38Rd6 >= 0 
p39Rd7 - p30Rd6 - p86Rd6 - p38Rd7 + pro38Rd6 >= -2 
p30Rd6 - p87Rd6 - p86Rd6 - p38Rd7 + pro38Rd6 >= -2 
p86Rd6 - p87Rd6 - p30Rd6 - p38Rd7 + pro38Rd6 >= -2 
p38Rd7 - p87Rd6 - p30Rd6 - p86Rd6 + pro38Rd6 >= -2 
p88Rd6 - p40Rd7 + pro39Rd6 >= 0 
p32Rd6 - p88Rd6 + pro39Rd6 >= 0 
p40Rd7 - p32Rd6 + pro39Rd6 >= 0 
p32Rd6 + p88Rd6 + p40Rd7 + pro39Rd6 <= 3 
p32Rd6 + p88Rd6 + p40Rd7 - pro39Rd6 >= 0 
p31Rd6 + p87Rd6 + p39Rd7 + pro39Rd6 - p88Rd6 >= 0 
p88Rd6 + p31Rd6 - p87Rd6 + p39Rd7 + pro39Rd6 >= 0 
p88Rd6 - p31Rd6 + p87Rd6 + p39Rd7 + pro39Rd6 >= 0 
p32Rd6 + p31Rd6 + p87Rd6 - p39Rd7 + pro39Rd6 >= 0 
p40Rd7 - p31Rd6 - p87Rd6 - p39Rd7 + pro39Rd6 >= -2 
p31Rd6 - p88Rd6 - p87Rd6 - p39Rd7 + pro39Rd6 >= -2 
p87Rd6 - p88Rd6 - p31Rd6 - p39Rd7 + pro39Rd6 >= -2 
p39Rd7 - p88Rd6 - p31Rd6 - p87Rd6 + pro39Rd6 >= -2 
p89Rd6 - p41Rd7 + pro40Rd6 >= 0 
p33Rd6 - p89Rd6 + pro40Rd6 >= 0 
p41Rd7 - p33Rd6 + pro40Rd6 >= 0 
p33Rd6 + p89Rd6 + p41Rd7 + pro40Rd6 <= 3 
p33Rd6 + p89Rd6 + p41Rd7 - pro40Rd6 >= 0 
p32Rd6 + p88Rd6 + p40Rd7 + pro40Rd6 - p89Rd6 >= 0 
p89Rd6 + p32Rd6 - p88Rd6 + p40Rd7 + pro40Rd6 >= 0 
p89Rd6 - p32Rd6 + p88Rd6 + p40Rd7 + pro40Rd6 >= 0 
p33Rd6 + p32Rd6 + p88Rd6 - p40Rd7 + pro40Rd6 >= 0 
p41Rd7 - p32Rd6 - p88Rd6 - p40Rd7 + pro40Rd6 >= -2 
p32Rd6 - p89Rd6 - p88Rd6 - p40Rd7 + pro40Rd6 >= -2 
p88Rd6 - p89Rd6 - p32Rd6 - p40Rd7 + pro40Rd6 >= -2 
p40Rd7 - p89Rd6 - p32Rd6 - p88Rd6 + pro40Rd6 >= -2 
p90Rd6 - p42Rd7 + pro41Rd6 >= 0 
p34Rd6 - p90Rd6 + pro41Rd6 >= 0 
p42Rd7 - p34Rd6 + pro41Rd6 >= 0 
p34Rd6 + p90Rd6 + p42Rd7 + pro41Rd6 <= 3 
p34Rd6 + p90Rd6 + p42Rd7 - pro41Rd6 >= 0 
p33Rd6 + p89Rd6 + p41Rd7 + pro41Rd6 - p90Rd6 >= 0 
p90Rd6 + p33Rd6 - p89Rd6 + p41Rd7 + pro41Rd6 >= 0 
p90Rd6 - p33Rd6 + p89Rd6 + p41Rd7 + pro41Rd6 >= 0 
p34Rd6 + p33Rd6 + p89Rd6 - p41Rd7 + pro41Rd6 >= 0 
p42Rd7 - p33Rd6 - p89Rd6 - p41Rd7 + pro41Rd6 >= -2 
p33Rd6 - p90Rd6 - p89Rd6 - p41Rd7 + pro41Rd6 >= -2 
p89Rd6 - p90Rd6 - p33Rd6 - p41Rd7 + pro41Rd6 >= -2 
p41Rd7 - p90Rd6 - p33Rd6 - p89Rd6 + pro41Rd6 >= -2 
p91Rd6 - p43Rd7 + pro42Rd6 >= 0 
p35Rd6 - p91Rd6 + pro42Rd6 >= 0 
p43Rd7 - p35Rd6 + pro42Rd6 >= 0 
p35Rd6 + p91Rd6 + p43Rd7 + pro42Rd6 <= 3 
p35Rd6 + p91Rd6 + p43Rd7 - pro42Rd6 >= 0 
p34Rd6 + p90Rd6 + p42Rd7 + pro42Rd6 - p91Rd6 >= 0 
p91Rd6 + p34Rd6 - p90Rd6 + p42Rd7 + pro42Rd6 >= 0 
p91Rd6 - p34Rd6 + p90Rd6 + p42Rd7 + pro42Rd6 >= 0 
p35Rd6 + p34Rd6 + p90Rd6 - p42Rd7 + pro42Rd6 >= 0 
p43Rd7 - p34Rd6 - p90Rd6 - p42Rd7 + pro42Rd6 >= -2 
p34Rd6 - p91Rd6 - p90Rd6 - p42Rd7 + pro42Rd6 >= -2 
p90Rd6 - p91Rd6 - p34Rd6 - p42Rd7 + pro42Rd6 >= -2 
p42Rd7 - p91Rd6 - p34Rd6 - p90Rd6 + pro42Rd6 >= -2 
p92Rd6 - p44Rd7 + pro43Rd6 >= 0 
p36Rd6 - p92Rd6 + pro43Rd6 >= 0 
p44Rd7 - p36Rd6 + pro43Rd6 >= 0 
p36Rd6 + p92Rd6 + p44Rd7 + pro43Rd6 <= 3 
p36Rd6 + p92Rd6 + p44Rd7 - pro43Rd6 >= 0 
p35Rd6 + p91Rd6 + p43Rd7 + pro43Rd6 - p92Rd6 >= 0 
p92Rd6 + p35Rd6 - p91Rd6 + p43Rd7 + pro43Rd6 >= 0 
p92Rd6 - p35Rd6 + p91Rd6 + p43Rd7 + pro43Rd6 >= 0 
p36Rd6 + p35Rd6 + p91Rd6 - p43Rd7 + pro43Rd6 >= 0 
p44Rd7 - p35Rd6 - p91Rd6 - p43Rd7 + pro43Rd6 >= -2 
p35Rd6 - p92Rd6 - p91Rd6 - p43Rd7 + pro43Rd6 >= -2 
p91Rd6 - p92Rd6 - p35Rd6 - p43Rd7 + pro43Rd6 >= -2 
p43Rd7 - p92Rd6 - p35Rd6 - p91Rd6 + pro43Rd6 >= -2 
p93Rd6 - p45Rd7 + pro44Rd6 >= 0 
p37Rd6 - p93Rd6 + pro44Rd6 >= 0 
p45Rd7 - p37Rd6 + pro44Rd6 >= 0 
p37Rd6 + p93Rd6 + p45Rd7 + pro44Rd6 <= 3 
p37Rd6 + p93Rd6 + p45Rd7 - pro44Rd6 >= 0 
p36Rd6 + p92Rd6 + p44Rd7 + pro44Rd6 - p93Rd6 >= 0 
p93Rd6 + p36Rd6 - p92Rd6 + p44Rd7 + pro44Rd6 >= 0 
p93Rd6 - p36Rd6 + p92Rd6 + p44Rd7 + pro44Rd6 >= 0 
p37Rd6 + p36Rd6 + p92Rd6 - p44Rd7 + pro44Rd6 >= 0 
p45Rd7 - p36Rd6 - p92Rd6 - p44Rd7 + pro44Rd6 >= -2 
p36Rd6 - p93Rd6 - p92Rd6 - p44Rd7 + pro44Rd6 >= -2 
p92Rd6 - p93Rd6 - p36Rd6 - p44Rd7 + pro44Rd6 >= -2 
p44Rd7 - p93Rd6 - p36Rd6 - p92Rd6 + pro44Rd6 >= -2 
p94Rd6 - p46Rd7 + pro45Rd6 >= 0 
p38Rd6 - p94Rd6 + pro45Rd6 >= 0 
p46Rd7 - p38Rd6 + pro45Rd6 >= 0 
p38Rd6 + p94Rd6 + p46Rd7 + pro45Rd6 <= 3 
p38Rd6 + p94Rd6 + p46Rd7 - pro45Rd6 >= 0 
p37Rd6 + p93Rd6 + p45Rd7 + pro45Rd6 - p94Rd6 >= 0 
p94Rd6 + p37Rd6 - p93Rd6 + p45Rd7 + pro45Rd6 >= 0 
p94Rd6 - p37Rd6 + p93Rd6 + p45Rd7 + pro45Rd6 >= 0 
p38Rd6 + p37Rd6 + p93Rd6 - p45Rd7 + pro45Rd6 >= 0 
p46Rd7 - p37Rd6 - p93Rd6 - p45Rd7 + pro45Rd6 >= -2 
p37Rd6 - p94Rd6 - p93Rd6 - p45Rd7 + pro45Rd6 >= -2 
p93Rd6 - p94Rd6 - p37Rd6 - p45Rd7 + pro45Rd6 >= -2 
p45Rd7 - p94Rd6 - p37Rd6 - p93Rd6 + pro45Rd6 >= -2 
p95Rd6 - p47Rd7 + pro46Rd6 >= 0 
p39Rd6 - p95Rd6 + pro46Rd6 >= 0 
p47Rd7 - p39Rd6 + pro46Rd6 >= 0 
p39Rd6 + p95Rd6 + p47Rd7 + pro46Rd6 <= 3 
p39Rd6 + p95Rd6 + p47Rd7 - pro46Rd6 >= 0 
p38Rd6 + p94Rd6 + p46Rd7 + pro46Rd6 - p95Rd6 >= 0 
p95Rd6 + p38Rd6 - p94Rd6 + p46Rd7 + pro46Rd6 >= 0 
p95Rd6 - p38Rd6 + p94Rd6 + p46Rd7 + pro46Rd6 >= 0 
p39Rd6 + p38Rd6 + p94Rd6 - p46Rd7 + pro46Rd6 >= 0 
p47Rd7 - p38Rd6 - p94Rd6 - p46Rd7 + pro46Rd6 >= -2 
p38Rd6 - p95Rd6 - p94Rd6 - p46Rd7 + pro46Rd6 >= -2 
p94Rd6 - p95Rd6 - p38Rd6 - p46Rd7 + pro46Rd6 >= -2 
p46Rd7 - p95Rd6 - p38Rd6 - p94Rd6 + pro46Rd6 >= -2 
p39Rd6 + p95Rd6 + p47Rd7 <= 2 
p39Rd6 + p95Rd6 + p47Rd7 - 2 temp6 >= 0 
temp6 - p39Rd6 >= 0 
temp6 - p95Rd6 >= 0 
temp6 - p47Rd7 >= 0 
p51Rd7 + p48Rd8 - p0Rd8 >= 0
p51Rd7 - p48Rd8 + p0Rd8 >= 0
- p51Rd7 + p48Rd8 + p0Rd8 >= 0
p51Rd7 + p48Rd8 + p0Rd8 <= 2
p52Rd7 + p49Rd8 - p1Rd8 >= 0
p52Rd7 - p49Rd8 + p1Rd8 >= 0
- p52Rd7 + p49Rd8 + p1Rd8 >= 0
p52Rd7 + p49Rd8 + p1Rd8 <= 2
p53Rd7 + p50Rd8 - p2Rd8 >= 0
p53Rd7 - p50Rd8 + p2Rd8 >= 0
- p53Rd7 + p50Rd8 + p2Rd8 >= 0
p53Rd7 + p50Rd8 + p2Rd8 <= 2
p54Rd7 + p51Rd8 - p3Rd8 >= 0
p54Rd7 - p51Rd8 + p3Rd8 >= 0
- p54Rd7 + p51Rd8 + p3Rd8 >= 0
p54Rd7 + p51Rd8 + p3Rd8 <= 2
p55Rd7 + p52Rd8 - p4Rd8 >= 0
p55Rd7 - p52Rd8 + p4Rd8 >= 0
- p55Rd7 + p52Rd8 + p4Rd8 >= 0
p55Rd7 + p52Rd8 + p4Rd8 <= 2
p56Rd7 + p53Rd8 - p5Rd8 >= 0
p56Rd7 - p53Rd8 + p5Rd8 >= 0
- p56Rd7 + p53Rd8 + p5Rd8 >= 0
p56Rd7 + p53Rd8 + p5Rd8 <= 2
p57Rd7 + p54Rd8 - p6Rd8 >= 0
p57Rd7 - p54Rd8 + p6Rd8 >= 0
- p57Rd7 + p54Rd8 + p6Rd8 >= 0
p57Rd7 + p54Rd8 + p6Rd8 <= 2
p58Rd7 + p55Rd8 - p7Rd8 >= 0
p58Rd7 - p55Rd8 + p7Rd8 >= 0
- p58Rd7 + p55Rd8 + p7Rd8 >= 0
p58Rd7 + p55Rd8 + p7Rd8 <= 2
p59Rd7 + p56Rd8 - p8Rd8 >= 0
p59Rd7 - p56Rd8 + p8Rd8 >= 0
- p59Rd7 + p56Rd8 + p8Rd8 >= 0
p59Rd7 + p56Rd8 + p8Rd8 <= 2
p60Rd7 + p57Rd8 - p9Rd8 >= 0
p60Rd7 - p57Rd8 + p9Rd8 >= 0
- p60Rd7 + p57Rd8 + p9Rd8 >= 0
p60Rd7 + p57Rd8 + p9Rd8 <= 2
p61Rd7 + p58Rd8 - p10Rd8 >= 0
p61Rd7 - p58Rd8 + p10Rd8 >= 0
- p61Rd7 + p58Rd8 + p10Rd8 >= 0
p61Rd7 + p58Rd8 + p10Rd8 <= 2
p62Rd7 + p59Rd8 - p11Rd8 >= 0
p62Rd7 - p59Rd8 + p11Rd8 >= 0
- p62Rd7 + p59Rd8 + p11Rd8 >= 0
p62Rd7 + p59Rd8 + p11Rd8 <= 2
p63Rd7 + p60Rd8 - p12Rd8 >= 0
p63Rd7 - p60Rd8 + p12Rd8 >= 0
- p63Rd7 + p60Rd8 + p12Rd8 >= 0
p63Rd7 + p60Rd8 + p12Rd8 <= 2
p64Rd7 + p61Rd8 - p13Rd8 >= 0
p64Rd7 - p61Rd8 + p13Rd8 >= 0
- p64Rd7 + p61Rd8 + p13Rd8 >= 0
p64Rd7 + p61Rd8 + p13Rd8 <= 2
p65Rd7 + p62Rd8 - p14Rd8 >= 0
p65Rd7 - p62Rd8 + p14Rd8 >= 0
- p65Rd7 + p62Rd8 + p14Rd8 >= 0
p65Rd7 + p62Rd8 + p14Rd8 <= 2
p66Rd7 + p63Rd8 - p15Rd8 >= 0
p66Rd7 - p63Rd8 + p15Rd8 >= 0
- p66Rd7 + p63Rd8 + p15Rd8 >= 0
p66Rd7 + p63Rd8 + p15Rd8 <= 2
p67Rd7 + p64Rd8 - p16Rd8 >= 0
p67Rd7 - p64Rd8 + p16Rd8 >= 0
- p67Rd7 + p64Rd8 + p16Rd8 >= 0
p67Rd7 + p64Rd8 + p16Rd8 <= 2
p68Rd7 + p65Rd8 - p17Rd8 >= 0
p68Rd7 - p65Rd8 + p17Rd8 >= 0
- p68Rd7 + p65Rd8 + p17Rd8 >= 0
p68Rd7 + p65Rd8 + p17Rd8 <= 2
p69Rd7 + p66Rd8 - p18Rd8 >= 0
p69Rd7 - p66Rd8 + p18Rd8 >= 0
- p69Rd7 + p66Rd8 + p18Rd8 >= 0
p69Rd7 + p66Rd8 + p18Rd8 <= 2
p70Rd7 + p67Rd8 - p19Rd8 >= 0
p70Rd7 - p67Rd8 + p19Rd8 >= 0
- p70Rd7 + p67Rd8 + p19Rd8 >= 0
p70Rd7 + p67Rd8 + p19Rd8 <= 2
p71Rd7 + p68Rd8 - p20Rd8 >= 0
p71Rd7 - p68Rd8 + p20Rd8 >= 0
- p71Rd7 + p68Rd8 + p20Rd8 >= 0
p71Rd7 + p68Rd8 + p20Rd8 <= 2
p72Rd7 + p69Rd8 - p21Rd8 >= 0
p72Rd7 - p69Rd8 + p21Rd8 >= 0
- p72Rd7 + p69Rd8 + p21Rd8 >= 0
p72Rd7 + p69Rd8 + p21Rd8 <= 2
p73Rd7 + p70Rd8 - p22Rd8 >= 0
p73Rd7 - p70Rd8 + p22Rd8 >= 0
- p73Rd7 + p70Rd8 + p22Rd8 >= 0
p73Rd7 + p70Rd8 + p22Rd8 <= 2
p74Rd7 + p71Rd8 - p23Rd8 >= 0
p74Rd7 - p71Rd8 + p23Rd8 >= 0
- p74Rd7 + p71Rd8 + p23Rd8 >= 0
p74Rd7 + p71Rd8 + p23Rd8 <= 2
p75Rd7 + p72Rd8 - p24Rd8 >= 0
p75Rd7 - p72Rd8 + p24Rd8 >= 0
- p75Rd7 + p72Rd8 + p24Rd8 >= 0
p75Rd7 + p72Rd8 + p24Rd8 <= 2
p76Rd7 + p73Rd8 - p25Rd8 >= 0
p76Rd7 - p73Rd8 + p25Rd8 >= 0
- p76Rd7 + p73Rd8 + p25Rd8 >= 0
p76Rd7 + p73Rd8 + p25Rd8 <= 2
p77Rd7 + p74Rd8 - p26Rd8 >= 0
p77Rd7 - p74Rd8 + p26Rd8 >= 0
- p77Rd7 + p74Rd8 + p26Rd8 >= 0
p77Rd7 + p74Rd8 + p26Rd8 <= 2
p78Rd7 + p75Rd8 - p27Rd8 >= 0
p78Rd7 - p75Rd8 + p27Rd8 >= 0
- p78Rd7 + p75Rd8 + p27Rd8 >= 0
p78Rd7 + p75Rd8 + p27Rd8 <= 2
p79Rd7 + p76Rd8 - p28Rd8 >= 0
p79Rd7 - p76Rd8 + p28Rd8 >= 0
- p79Rd7 + p76Rd8 + p28Rd8 >= 0
p79Rd7 + p76Rd8 + p28Rd8 <= 2
p80Rd7 + p77Rd8 - p29Rd8 >= 0
p80Rd7 - p77Rd8 + p29Rd8 >= 0
- p80Rd7 + p77Rd8 + p29Rd8 >= 0
p80Rd7 + p77Rd8 + p29Rd8 <= 2
p81Rd7 + p78Rd8 - p30Rd8 >= 0
p81Rd7 - p78Rd8 + p30Rd8 >= 0
- p81Rd7 + p78Rd8 + p30Rd8 >= 0
p81Rd7 + p78Rd8 + p30Rd8 <= 2
p82Rd7 + p79Rd8 - p31Rd8 >= 0
p82Rd7 - p79Rd8 + p31Rd8 >= 0
- p82Rd7 + p79Rd8 + p31Rd8 >= 0
p82Rd7 + p79Rd8 + p31Rd8 <= 2
p83Rd7 + p80Rd8 - p32Rd8 >= 0
p83Rd7 - p80Rd8 + p32Rd8 >= 0
- p83Rd7 + p80Rd8 + p32Rd8 >= 0
p83Rd7 + p80Rd8 + p32Rd8 <= 2
p84Rd7 + p81Rd8 - p33Rd8 >= 0
p84Rd7 - p81Rd8 + p33Rd8 >= 0
- p84Rd7 + p81Rd8 + p33Rd8 >= 0
p84Rd7 + p81Rd8 + p33Rd8 <= 2
p85Rd7 + p82Rd8 - p34Rd8 >= 0
p85Rd7 - p82Rd8 + p34Rd8 >= 0
- p85Rd7 + p82Rd8 + p34Rd8 >= 0
p85Rd7 + p82Rd8 + p34Rd8 <= 2
p86Rd7 + p83Rd8 - p35Rd8 >= 0
p86Rd7 - p83Rd8 + p35Rd8 >= 0
- p86Rd7 + p83Rd8 + p35Rd8 >= 0
p86Rd7 + p83Rd8 + p35Rd8 <= 2
p87Rd7 + p84Rd8 - p36Rd8 >= 0
p87Rd7 - p84Rd8 + p36Rd8 >= 0
- p87Rd7 + p84Rd8 + p36Rd8 >= 0
p87Rd7 + p84Rd8 + p36Rd8 <= 2
p88Rd7 + p85Rd8 - p37Rd8 >= 0
p88Rd7 - p85Rd8 + p37Rd8 >= 0
- p88Rd7 + p85Rd8 + p37Rd8 >= 0
p88Rd7 + p85Rd8 + p37Rd8 <= 2
p89Rd7 + p86Rd8 - p38Rd8 >= 0
p89Rd7 - p86Rd8 + p38Rd8 >= 0
- p89Rd7 + p86Rd8 + p38Rd8 >= 0
p89Rd7 + p86Rd8 + p38Rd8 <= 2
p90Rd7 + p87Rd8 - p39Rd8 >= 0
p90Rd7 - p87Rd8 + p39Rd8 >= 0
- p90Rd7 + p87Rd8 + p39Rd8 >= 0
p90Rd7 + p87Rd8 + p39Rd8 <= 2
p91Rd7 + p88Rd8 - p40Rd8 >= 0
p91Rd7 - p88Rd8 + p40Rd8 >= 0
- p91Rd7 + p88Rd8 + p40Rd8 >= 0
p91Rd7 + p88Rd8 + p40Rd8 <= 2
p92Rd7 + p89Rd8 - p41Rd8 >= 0
p92Rd7 - p89Rd8 + p41Rd8 >= 0
- p92Rd7 + p89Rd8 + p41Rd8 >= 0
p92Rd7 + p89Rd8 + p41Rd8 <= 2
p93Rd7 + p90Rd8 - p42Rd8 >= 0
p93Rd7 - p90Rd8 + p42Rd8 >= 0
- p93Rd7 + p90Rd8 + p42Rd8 >= 0
p93Rd7 + p90Rd8 + p42Rd8 <= 2
p94Rd7 + p91Rd8 - p43Rd8 >= 0
p94Rd7 - p91Rd8 + p43Rd8 >= 0
- p94Rd7 + p91Rd8 + p43Rd8 >= 0
p94Rd7 + p91Rd8 + p43Rd8 <= 2
p95Rd7 + p92Rd8 - p44Rd8 >= 0
p95Rd7 - p92Rd8 + p44Rd8 >= 0
- p95Rd7 + p92Rd8 + p44Rd8 >= 0
p95Rd7 + p92Rd8 + p44Rd8 <= 2
p48Rd7 + p93Rd8 - p45Rd8 >= 0
p48Rd7 - p93Rd8 + p45Rd8 >= 0
- p48Rd7 + p93Rd8 + p45Rd8 >= 0
p48Rd7 + p93Rd8 + p45Rd8 <= 2
p49Rd7 + p94Rd8 - p46Rd8 >= 0
p49Rd7 - p94Rd8 + p46Rd8 >= 0
- p49Rd7 + p94Rd8 + p46Rd8 >= 0
p49Rd7 + p94Rd8 + p46Rd8 <= 2
p50Rd7 + p95Rd8 - p47Rd8 >= 0
p50Rd7 - p95Rd8 + p47Rd8 >= 0
- p50Rd7 + p95Rd8 + p47Rd8 >= 0
p50Rd7 + p95Rd8 + p47Rd8 <= 2
p49Rd7 - p1Rd8 + pro0Rd7 >= 0 
p41Rd7 - p49Rd7 + pro0Rd7 >= 0 
p1Rd8 - p41Rd7 + pro0Rd7 >= 0 
p41Rd7 + p49Rd7 + p1Rd8 + pro0Rd7 <= 3 
p41Rd7 + p49Rd7 + p1Rd8 - pro0Rd7 >= 0 
p40Rd7 + p48Rd7 + p0Rd8 + pro0Rd7 - p49Rd7 >= 0 
p49Rd7 + p40Rd7 - p48Rd7 + p0Rd8 + pro0Rd7 >= 0 
p49Rd7 - p40Rd7 + p48Rd7 + p0Rd8 + pro0Rd7 >= 0 
p41Rd7 + p40Rd7 + p48Rd7 - p0Rd8 + pro0Rd7 >= 0 
p1Rd8 - p40Rd7 - p48Rd7 - p0Rd8 + pro0Rd7 >= -2 
p40Rd7 - p49Rd7 - p48Rd7 - p0Rd8 + pro0Rd7 >= -2 
p48Rd7 - p49Rd7 - p40Rd7 - p0Rd8 + pro0Rd7 >= -2 
p0Rd8 - p49Rd7 - p40Rd7 - p48Rd7 + pro0Rd7 >= -2 
p50Rd7 - p2Rd8 + pro1Rd7 >= 0 
p42Rd7 - p50Rd7 + pro1Rd7 >= 0 
p2Rd8 - p42Rd7 + pro1Rd7 >= 0 
p42Rd7 + p50Rd7 + p2Rd8 + pro1Rd7 <= 3 
p42Rd7 + p50Rd7 + p2Rd8 - pro1Rd7 >= 0 
p41Rd7 + p49Rd7 + p1Rd8 + pro1Rd7 - p50Rd7 >= 0 
p50Rd7 + p41Rd7 - p49Rd7 + p1Rd8 + pro1Rd7 >= 0 
p50Rd7 - p41Rd7 + p49Rd7 + p1Rd8 + pro1Rd7 >= 0 
p42Rd7 + p41Rd7 + p49Rd7 - p1Rd8 + pro1Rd7 >= 0 
p2Rd8 - p41Rd7 - p49Rd7 - p1Rd8 + pro1Rd7 >= -2 
p41Rd7 - p50Rd7 - p49Rd7 - p1Rd8 + pro1Rd7 >= -2 
p49Rd7 - p50Rd7 - p41Rd7 - p1Rd8 + pro1Rd7 >= -2 
p1Rd8 - p50Rd7 - p41Rd7 - p49Rd7 + pro1Rd7 >= -2 
p51Rd7 - p3Rd8 + pro2Rd7 >= 0 
p43Rd7 - p51Rd7 + pro2Rd7 >= 0 
p3Rd8 - p43Rd7 + pro2Rd7 >= 0 
p43Rd7 + p51Rd7 + p3Rd8 + pro2Rd7 <= 3 
p43Rd7 + p51Rd7 + p3Rd8 - pro2Rd7 >= 0 
p42Rd7 + p50Rd7 + p2Rd8 + pro2Rd7 - p51Rd7 >= 0 
p51Rd7 + p42Rd7 - p50Rd7 + p2Rd8 + pro2Rd7 >= 0 
p51Rd7 - p42Rd7 + p50Rd7 + p2Rd8 + pro2Rd7 >= 0 
p43Rd7 + p42Rd7 + p50Rd7 - p2Rd8 + pro2Rd7 >= 0 
p3Rd8 - p42Rd7 - p50Rd7 - p2Rd8 + pro2Rd7 >= -2 
p42Rd7 - p51Rd7 - p50Rd7 - p2Rd8 + pro2Rd7 >= -2 
p50Rd7 - p51Rd7 - p42Rd7 - p2Rd8 + pro2Rd7 >= -2 
p2Rd8 - p51Rd7 - p42Rd7 - p50Rd7 + pro2Rd7 >= -2 
p52Rd7 - p4Rd8 + pro3Rd7 >= 0 
p44Rd7 - p52Rd7 + pro3Rd7 >= 0 
p4Rd8 - p44Rd7 + pro3Rd7 >= 0 
p44Rd7 + p52Rd7 + p4Rd8 + pro3Rd7 <= 3 
p44Rd7 + p52Rd7 + p4Rd8 - pro3Rd7 >= 0 
p43Rd7 + p51Rd7 + p3Rd8 + pro3Rd7 - p52Rd7 >= 0 
p52Rd7 + p43Rd7 - p51Rd7 + p3Rd8 + pro3Rd7 >= 0 
p52Rd7 - p43Rd7 + p51Rd7 + p3Rd8 + pro3Rd7 >= 0 
p44Rd7 + p43Rd7 + p51Rd7 - p3Rd8 + pro3Rd7 >= 0 
p4Rd8 - p43Rd7 - p51Rd7 - p3Rd8 + pro3Rd7 >= -2 
p43Rd7 - p52Rd7 - p51Rd7 - p3Rd8 + pro3Rd7 >= -2 
p51Rd7 - p52Rd7 - p43Rd7 - p3Rd8 + pro3Rd7 >= -2 
p3Rd8 - p52Rd7 - p43Rd7 - p51Rd7 + pro3Rd7 >= -2 
p53Rd7 - p5Rd8 + pro4Rd7 >= 0 
p45Rd7 - p53Rd7 + pro4Rd7 >= 0 
p5Rd8 - p45Rd7 + pro4Rd7 >= 0 
p45Rd7 + p53Rd7 + p5Rd8 + pro4Rd7 <= 3 
p45Rd7 + p53Rd7 + p5Rd8 - pro4Rd7 >= 0 
p44Rd7 + p52Rd7 + p4Rd8 + pro4Rd7 - p53Rd7 >= 0 
p53Rd7 + p44Rd7 - p52Rd7 + p4Rd8 + pro4Rd7 >= 0 
p53Rd7 - p44Rd7 + p52Rd7 + p4Rd8 + pro4Rd7 >= 0 
p45Rd7 + p44Rd7 + p52Rd7 - p4Rd8 + pro4Rd7 >= 0 
p5Rd8 - p44Rd7 - p52Rd7 - p4Rd8 + pro4Rd7 >= -2 
p44Rd7 - p53Rd7 - p52Rd7 - p4Rd8 + pro4Rd7 >= -2 
p52Rd7 - p53Rd7 - p44Rd7 - p4Rd8 + pro4Rd7 >= -2 
p4Rd8 - p53Rd7 - p44Rd7 - p52Rd7 + pro4Rd7 >= -2 
p54Rd7 - p6Rd8 + pro5Rd7 >= 0 
p46Rd7 - p54Rd7 + pro5Rd7 >= 0 
p6Rd8 - p46Rd7 + pro5Rd7 >= 0 
p46Rd7 + p54Rd7 + p6Rd8 + pro5Rd7 <= 3 
p46Rd7 + p54Rd7 + p6Rd8 - pro5Rd7 >= 0 
p45Rd7 + p53Rd7 + p5Rd8 + pro5Rd7 - p54Rd7 >= 0 
p54Rd7 + p45Rd7 - p53Rd7 + p5Rd8 + pro5Rd7 >= 0 
p54Rd7 - p45Rd7 + p53Rd7 + p5Rd8 + pro5Rd7 >= 0 
p46Rd7 + p45Rd7 + p53Rd7 - p5Rd8 + pro5Rd7 >= 0 
p6Rd8 - p45Rd7 - p53Rd7 - p5Rd8 + pro5Rd7 >= -2 
p45Rd7 - p54Rd7 - p53Rd7 - p5Rd8 + pro5Rd7 >= -2 
p53Rd7 - p54Rd7 - p45Rd7 - p5Rd8 + pro5Rd7 >= -2 
p5Rd8 - p54Rd7 - p45Rd7 - p53Rd7 + pro5Rd7 >= -2 
p55Rd7 - p7Rd8 + pro6Rd7 >= 0 
p47Rd7 - p55Rd7 + pro6Rd7 >= 0 
p7Rd8 - p47Rd7 + pro6Rd7 >= 0 
p47Rd7 + p55Rd7 + p7Rd8 + pro6Rd7 <= 3 
p47Rd7 + p55Rd7 + p7Rd8 - pro6Rd7 >= 0 
p46Rd7 + p54Rd7 + p6Rd8 + pro6Rd7 - p55Rd7 >= 0 
p55Rd7 + p46Rd7 - p54Rd7 + p6Rd8 + pro6Rd7 >= 0 
p55Rd7 - p46Rd7 + p54Rd7 + p6Rd8 + pro6Rd7 >= 0 
p47Rd7 + p46Rd7 + p54Rd7 - p6Rd8 + pro6Rd7 >= 0 
p7Rd8 - p46Rd7 - p54Rd7 - p6Rd8 + pro6Rd7 >= -2 
p46Rd7 - p55Rd7 - p54Rd7 - p6Rd8 + pro6Rd7 >= -2 
p54Rd7 - p55Rd7 - p46Rd7 - p6Rd8 + pro6Rd7 >= -2 
p6Rd8 - p55Rd7 - p46Rd7 - p54Rd7 + pro6Rd7 >= -2 
p56Rd7 - p8Rd8 + pro7Rd7 >= 0 
p0Rd7 - p56Rd7 + pro7Rd7 >= 0 
p8Rd8 - p0Rd7 + pro7Rd7 >= 0 
p0Rd7 + p56Rd7 + p8Rd8 + pro7Rd7 <= 3 
p0Rd7 + p56Rd7 + p8Rd8 - pro7Rd7 >= 0 
p47Rd7 + p55Rd7 + p7Rd8 + pro7Rd7 - p56Rd7 >= 0 
p56Rd7 + p47Rd7 - p55Rd7 + p7Rd8 + pro7Rd7 >= 0 
p56Rd7 - p47Rd7 + p55Rd7 + p7Rd8 + pro7Rd7 >= 0 
p0Rd7 + p47Rd7 + p55Rd7 - p7Rd8 + pro7Rd7 >= 0 
p8Rd8 - p47Rd7 - p55Rd7 - p7Rd8 + pro7Rd7 >= -2 
p47Rd7 - p56Rd7 - p55Rd7 - p7Rd8 + pro7Rd7 >= -2 
p55Rd7 - p56Rd7 - p47Rd7 - p7Rd8 + pro7Rd7 >= -2 
p7Rd8 - p56Rd7 - p47Rd7 - p55Rd7 + pro7Rd7 >= -2 
p57Rd7 - p9Rd8 + pro8Rd7 >= 0 
p1Rd7 - p57Rd7 + pro8Rd7 >= 0 
p9Rd8 - p1Rd7 + pro8Rd7 >= 0 
p1Rd7 + p57Rd7 + p9Rd8 + pro8Rd7 <= 3 
p1Rd7 + p57Rd7 + p9Rd8 - pro8Rd7 >= 0 
p0Rd7 + p56Rd7 + p8Rd8 + pro8Rd7 - p57Rd7 >= 0 
p57Rd7 + p0Rd7 - p56Rd7 + p8Rd8 + pro8Rd7 >= 0 
p57Rd7 - p0Rd7 + p56Rd7 + p8Rd8 + pro8Rd7 >= 0 
p1Rd7 + p0Rd7 + p56Rd7 - p8Rd8 + pro8Rd7 >= 0 
p9Rd8 - p0Rd7 - p56Rd7 - p8Rd8 + pro8Rd7 >= -2 
p0Rd7 - p57Rd7 - p56Rd7 - p8Rd8 + pro8Rd7 >= -2 
p56Rd7 - p57Rd7 - p0Rd7 - p8Rd8 + pro8Rd7 >= -2 
p8Rd8 - p57Rd7 - p0Rd7 - p56Rd7 + pro8Rd7 >= -2 
p58Rd7 - p10Rd8 + pro9Rd7 >= 0 
p2Rd7 - p58Rd7 + pro9Rd7 >= 0 
p10Rd8 - p2Rd7 + pro9Rd7 >= 0 
p2Rd7 + p58Rd7 + p10Rd8 + pro9Rd7 <= 3 
p2Rd7 + p58Rd7 + p10Rd8 - pro9Rd7 >= 0 
p1Rd7 + p57Rd7 + p9Rd8 + pro9Rd7 - p58Rd7 >= 0 
p58Rd7 + p1Rd7 - p57Rd7 + p9Rd8 + pro9Rd7 >= 0 
p58Rd7 - p1Rd7 + p57Rd7 + p9Rd8 + pro9Rd7 >= 0 
p2Rd7 + p1Rd7 + p57Rd7 - p9Rd8 + pro9Rd7 >= 0 
p10Rd8 - p1Rd7 - p57Rd7 - p9Rd8 + pro9Rd7 >= -2 
p1Rd7 - p58Rd7 - p57Rd7 - p9Rd8 + pro9Rd7 >= -2 
p57Rd7 - p58Rd7 - p1Rd7 - p9Rd8 + pro9Rd7 >= -2 
p9Rd8 - p58Rd7 - p1Rd7 - p57Rd7 + pro9Rd7 >= -2 
p59Rd7 - p11Rd8 + pro10Rd7 >= 0 
p3Rd7 - p59Rd7 + pro10Rd7 >= 0 
p11Rd8 - p3Rd7 + pro10Rd7 >= 0 
p3Rd7 + p59Rd7 + p11Rd8 + pro10Rd7 <= 3 
p3Rd7 + p59Rd7 + p11Rd8 - pro10Rd7 >= 0 
p2Rd7 + p58Rd7 + p10Rd8 + pro10Rd7 - p59Rd7 >= 0 
p59Rd7 + p2Rd7 - p58Rd7 + p10Rd8 + pro10Rd7 >= 0 
p59Rd7 - p2Rd7 + p58Rd7 + p10Rd8 + pro10Rd7 >= 0 
p3Rd7 + p2Rd7 + p58Rd7 - p10Rd8 + pro10Rd7 >= 0 
p11Rd8 - p2Rd7 - p58Rd7 - p10Rd8 + pro10Rd7 >= -2 
p2Rd7 - p59Rd7 - p58Rd7 - p10Rd8 + pro10Rd7 >= -2 
p58Rd7 - p59Rd7 - p2Rd7 - p10Rd8 + pro10Rd7 >= -2 
p10Rd8 - p59Rd7 - p2Rd7 - p58Rd7 + pro10Rd7 >= -2 
p60Rd7 - p12Rd8 + pro11Rd7 >= 0 
p4Rd7 - p60Rd7 + pro11Rd7 >= 0 
p12Rd8 - p4Rd7 + pro11Rd7 >= 0 
p4Rd7 + p60Rd7 + p12Rd8 + pro11Rd7 <= 3 
p4Rd7 + p60Rd7 + p12Rd8 - pro11Rd7 >= 0 
p3Rd7 + p59Rd7 + p11Rd8 + pro11Rd7 - p60Rd7 >= 0 
p60Rd7 + p3Rd7 - p59Rd7 + p11Rd8 + pro11Rd7 >= 0 
p60Rd7 - p3Rd7 + p59Rd7 + p11Rd8 + pro11Rd7 >= 0 
p4Rd7 + p3Rd7 + p59Rd7 - p11Rd8 + pro11Rd7 >= 0 
p12Rd8 - p3Rd7 - p59Rd7 - p11Rd8 + pro11Rd7 >= -2 
p3Rd7 - p60Rd7 - p59Rd7 - p11Rd8 + pro11Rd7 >= -2 
p59Rd7 - p60Rd7 - p3Rd7 - p11Rd8 + pro11Rd7 >= -2 
p11Rd8 - p60Rd7 - p3Rd7 - p59Rd7 + pro11Rd7 >= -2 
p61Rd7 - p13Rd8 + pro12Rd7 >= 0 
p5Rd7 - p61Rd7 + pro12Rd7 >= 0 
p13Rd8 - p5Rd7 + pro12Rd7 >= 0 
p5Rd7 + p61Rd7 + p13Rd8 + pro12Rd7 <= 3 
p5Rd7 + p61Rd7 + p13Rd8 - pro12Rd7 >= 0 
p4Rd7 + p60Rd7 + p12Rd8 + pro12Rd7 - p61Rd7 >= 0 
p61Rd7 + p4Rd7 - p60Rd7 + p12Rd8 + pro12Rd7 >= 0 
p61Rd7 - p4Rd7 + p60Rd7 + p12Rd8 + pro12Rd7 >= 0 
p5Rd7 + p4Rd7 + p60Rd7 - p12Rd8 + pro12Rd7 >= 0 
p13Rd8 - p4Rd7 - p60Rd7 - p12Rd8 + pro12Rd7 >= -2 
p4Rd7 - p61Rd7 - p60Rd7 - p12Rd8 + pro12Rd7 >= -2 
p60Rd7 - p61Rd7 - p4Rd7 - p12Rd8 + pro12Rd7 >= -2 
p12Rd8 - p61Rd7 - p4Rd7 - p60Rd7 + pro12Rd7 >= -2 
p62Rd7 - p14Rd8 + pro13Rd7 >= 0 
p6Rd7 - p62Rd7 + pro13Rd7 >= 0 
p14Rd8 - p6Rd7 + pro13Rd7 >= 0 
p6Rd7 + p62Rd7 + p14Rd8 + pro13Rd7 <= 3 
p6Rd7 + p62Rd7 + p14Rd8 - pro13Rd7 >= 0 
p5Rd7 + p61Rd7 + p13Rd8 + pro13Rd7 - p62Rd7 >= 0 
p62Rd7 + p5Rd7 - p61Rd7 + p13Rd8 + pro13Rd7 >= 0 
p62Rd7 - p5Rd7 + p61Rd7 + p13Rd8 + pro13Rd7 >= 0 
p6Rd7 + p5Rd7 + p61Rd7 - p13Rd8 + pro13Rd7 >= 0 
p14Rd8 - p5Rd7 - p61Rd7 - p13Rd8 + pro13Rd7 >= -2 
p5Rd7 - p62Rd7 - p61Rd7 - p13Rd8 + pro13Rd7 >= -2 
p61Rd7 - p62Rd7 - p5Rd7 - p13Rd8 + pro13Rd7 >= -2 
p13Rd8 - p62Rd7 - p5Rd7 - p61Rd7 + pro13Rd7 >= -2 
p63Rd7 - p15Rd8 + pro14Rd7 >= 0 
p7Rd7 - p63Rd7 + pro14Rd7 >= 0 
p15Rd8 - p7Rd7 + pro14Rd7 >= 0 
p7Rd7 + p63Rd7 + p15Rd8 + pro14Rd7 <= 3 
p7Rd7 + p63Rd7 + p15Rd8 - pro14Rd7 >= 0 
p6Rd7 + p62Rd7 + p14Rd8 + pro14Rd7 - p63Rd7 >= 0 
p63Rd7 + p6Rd7 - p62Rd7 + p14Rd8 + pro14Rd7 >= 0 
p63Rd7 - p6Rd7 + p62Rd7 + p14Rd8 + pro14Rd7 >= 0 
p7Rd7 + p6Rd7 + p62Rd7 - p14Rd8 + pro14Rd7 >= 0 
p15Rd8 - p6Rd7 - p62Rd7 - p14Rd8 + pro14Rd7 >= -2 
p6Rd7 - p63Rd7 - p62Rd7 - p14Rd8 + pro14Rd7 >= -2 
p62Rd7 - p63Rd7 - p6Rd7 - p14Rd8 + pro14Rd7 >= -2 
p14Rd8 - p63Rd7 - p6Rd7 - p62Rd7 + pro14Rd7 >= -2 
p64Rd7 - p16Rd8 + pro15Rd7 >= 0 
p8Rd7 - p64Rd7 + pro15Rd7 >= 0 
p16Rd8 - p8Rd7 + pro15Rd7 >= 0 
p8Rd7 + p64Rd7 + p16Rd8 + pro15Rd7 <= 3 
p8Rd7 + p64Rd7 + p16Rd8 - pro15Rd7 >= 0 
p7Rd7 + p63Rd7 + p15Rd8 + pro15Rd7 - p64Rd7 >= 0 
p64Rd7 + p7Rd7 - p63Rd7 + p15Rd8 + pro15Rd7 >= 0 
p64Rd7 - p7Rd7 + p63Rd7 + p15Rd8 + pro15Rd7 >= 0 
p8Rd7 + p7Rd7 + p63Rd7 - p15Rd8 + pro15Rd7 >= 0 
p16Rd8 - p7Rd7 - p63Rd7 - p15Rd8 + pro15Rd7 >= -2 
p7Rd7 - p64Rd7 - p63Rd7 - p15Rd8 + pro15Rd7 >= -2 
p63Rd7 - p64Rd7 - p7Rd7 - p15Rd8 + pro15Rd7 >= -2 
p15Rd8 - p64Rd7 - p7Rd7 - p63Rd7 + pro15Rd7 >= -2 
p65Rd7 - p17Rd8 + pro16Rd7 >= 0 
p9Rd7 - p65Rd7 + pro16Rd7 >= 0 
p17Rd8 - p9Rd7 + pro16Rd7 >= 0 
p9Rd7 + p65Rd7 + p17Rd8 + pro16Rd7 <= 3 
p9Rd7 + p65Rd7 + p17Rd8 - pro16Rd7 >= 0 
p8Rd7 + p64Rd7 + p16Rd8 + pro16Rd7 - p65Rd7 >= 0 
p65Rd7 + p8Rd7 - p64Rd7 + p16Rd8 + pro16Rd7 >= 0 
p65Rd7 - p8Rd7 + p64Rd7 + p16Rd8 + pro16Rd7 >= 0 
p9Rd7 + p8Rd7 + p64Rd7 - p16Rd8 + pro16Rd7 >= 0 
p17Rd8 - p8Rd7 - p64Rd7 - p16Rd8 + pro16Rd7 >= -2 
p8Rd7 - p65Rd7 - p64Rd7 - p16Rd8 + pro16Rd7 >= -2 
p64Rd7 - p65Rd7 - p8Rd7 - p16Rd8 + pro16Rd7 >= -2 
p16Rd8 - p65Rd7 - p8Rd7 - p64Rd7 + pro16Rd7 >= -2 
p66Rd7 - p18Rd8 + pro17Rd7 >= 0 
p10Rd7 - p66Rd7 + pro17Rd7 >= 0 
p18Rd8 - p10Rd7 + pro17Rd7 >= 0 
p10Rd7 + p66Rd7 + p18Rd8 + pro17Rd7 <= 3 
p10Rd7 + p66Rd7 + p18Rd8 - pro17Rd7 >= 0 
p9Rd7 + p65Rd7 + p17Rd8 + pro17Rd7 - p66Rd7 >= 0 
p66Rd7 + p9Rd7 - p65Rd7 + p17Rd8 + pro17Rd7 >= 0 
p66Rd7 - p9Rd7 + p65Rd7 + p17Rd8 + pro17Rd7 >= 0 
p10Rd7 + p9Rd7 + p65Rd7 - p17Rd8 + pro17Rd7 >= 0 
p18Rd8 - p9Rd7 - p65Rd7 - p17Rd8 + pro17Rd7 >= -2 
p9Rd7 - p66Rd7 - p65Rd7 - p17Rd8 + pro17Rd7 >= -2 
p65Rd7 - p66Rd7 - p9Rd7 - p17Rd8 + pro17Rd7 >= -2 
p17Rd8 - p66Rd7 - p9Rd7 - p65Rd7 + pro17Rd7 >= -2 
p67Rd7 - p19Rd8 + pro18Rd7 >= 0 
p11Rd7 - p67Rd7 + pro18Rd7 >= 0 
p19Rd8 - p11Rd7 + pro18Rd7 >= 0 
p11Rd7 + p67Rd7 + p19Rd8 + pro18Rd7 <= 3 
p11Rd7 + p67Rd7 + p19Rd8 - pro18Rd7 >= 0 
p10Rd7 + p66Rd7 + p18Rd8 + pro18Rd7 - p67Rd7 >= 0 
p67Rd7 + p10Rd7 - p66Rd7 + p18Rd8 + pro18Rd7 >= 0 
p67Rd7 - p10Rd7 + p66Rd7 + p18Rd8 + pro18Rd7 >= 0 
p11Rd7 + p10Rd7 + p66Rd7 - p18Rd8 + pro18Rd7 >= 0 
p19Rd8 - p10Rd7 - p66Rd7 - p18Rd8 + pro18Rd7 >= -2 
p10Rd7 - p67Rd7 - p66Rd7 - p18Rd8 + pro18Rd7 >= -2 
p66Rd7 - p67Rd7 - p10Rd7 - p18Rd8 + pro18Rd7 >= -2 
p18Rd8 - p67Rd7 - p10Rd7 - p66Rd7 + pro18Rd7 >= -2 
p68Rd7 - p20Rd8 + pro19Rd7 >= 0 
p12Rd7 - p68Rd7 + pro19Rd7 >= 0 
p20Rd8 - p12Rd7 + pro19Rd7 >= 0 
p12Rd7 + p68Rd7 + p20Rd8 + pro19Rd7 <= 3 
p12Rd7 + p68Rd7 + p20Rd8 - pro19Rd7 >= 0 
p11Rd7 + p67Rd7 + p19Rd8 + pro19Rd7 - p68Rd7 >= 0 
p68Rd7 + p11Rd7 - p67Rd7 + p19Rd8 + pro19Rd7 >= 0 
p68Rd7 - p11Rd7 + p67Rd7 + p19Rd8 + pro19Rd7 >= 0 
p12Rd7 + p11Rd7 + p67Rd7 - p19Rd8 + pro19Rd7 >= 0 
p20Rd8 - p11Rd7 - p67Rd7 - p19Rd8 + pro19Rd7 >= -2 
p11Rd7 - p68Rd7 - p67Rd7 - p19Rd8 + pro19Rd7 >= -2 
p67Rd7 - p68Rd7 - p11Rd7 - p19Rd8 + pro19Rd7 >= -2 
p19Rd8 - p68Rd7 - p11Rd7 - p67Rd7 + pro19Rd7 >= -2 
p69Rd7 - p21Rd8 + pro20Rd7 >= 0 
p13Rd7 - p69Rd7 + pro20Rd7 >= 0 
p21Rd8 - p13Rd7 + pro20Rd7 >= 0 
p13Rd7 + p69Rd7 + p21Rd8 + pro20Rd7 <= 3 
p13Rd7 + p69Rd7 + p21Rd8 - pro20Rd7 >= 0 
p12Rd7 + p68Rd7 + p20Rd8 + pro20Rd7 - p69Rd7 >= 0 
p69Rd7 + p12Rd7 - p68Rd7 + p20Rd8 + pro20Rd7 >= 0 
p69Rd7 - p12Rd7 + p68Rd7 + p20Rd8 + pro20Rd7 >= 0 
p13Rd7 + p12Rd7 + p68Rd7 - p20Rd8 + pro20Rd7 >= 0 
p21Rd8 - p12Rd7 - p68Rd7 - p20Rd8 + pro20Rd7 >= -2 
p12Rd7 - p69Rd7 - p68Rd7 - p20Rd8 + pro20Rd7 >= -2 
p68Rd7 - p69Rd7 - p12Rd7 - p20Rd8 + pro20Rd7 >= -2 
p20Rd8 - p69Rd7 - p12Rd7 - p68Rd7 + pro20Rd7 >= -2 
p70Rd7 - p22Rd8 + pro21Rd7 >= 0 
p14Rd7 - p70Rd7 + pro21Rd7 >= 0 
p22Rd8 - p14Rd7 + pro21Rd7 >= 0 
p14Rd7 + p70Rd7 + p22Rd8 + pro21Rd7 <= 3 
p14Rd7 + p70Rd7 + p22Rd8 - pro21Rd7 >= 0 
p13Rd7 + p69Rd7 + p21Rd8 + pro21Rd7 - p70Rd7 >= 0 
p70Rd7 + p13Rd7 - p69Rd7 + p21Rd8 + pro21Rd7 >= 0 
p70Rd7 - p13Rd7 + p69Rd7 + p21Rd8 + pro21Rd7 >= 0 
p14Rd7 + p13Rd7 + p69Rd7 - p21Rd8 + pro21Rd7 >= 0 
p22Rd8 - p13Rd7 - p69Rd7 - p21Rd8 + pro21Rd7 >= -2 
p13Rd7 - p70Rd7 - p69Rd7 - p21Rd8 + pro21Rd7 >= -2 
p69Rd7 - p70Rd7 - p13Rd7 - p21Rd8 + pro21Rd7 >= -2 
p21Rd8 - p70Rd7 - p13Rd7 - p69Rd7 + pro21Rd7 >= -2 
p71Rd7 - p23Rd8 + pro22Rd7 >= 0 
p15Rd7 - p71Rd7 + pro22Rd7 >= 0 
p23Rd8 - p15Rd7 + pro22Rd7 >= 0 
p15Rd7 + p71Rd7 + p23Rd8 + pro22Rd7 <= 3 
p15Rd7 + p71Rd7 + p23Rd8 - pro22Rd7 >= 0 
p14Rd7 + p70Rd7 + p22Rd8 + pro22Rd7 - p71Rd7 >= 0 
p71Rd7 + p14Rd7 - p70Rd7 + p22Rd8 + pro22Rd7 >= 0 
p71Rd7 - p14Rd7 + p70Rd7 + p22Rd8 + pro22Rd7 >= 0 
p15Rd7 + p14Rd7 + p70Rd7 - p22Rd8 + pro22Rd7 >= 0 
p23Rd8 - p14Rd7 - p70Rd7 - p22Rd8 + pro22Rd7 >= -2 
p14Rd7 - p71Rd7 - p70Rd7 - p22Rd8 + pro22Rd7 >= -2 
p70Rd7 - p71Rd7 - p14Rd7 - p22Rd8 + pro22Rd7 >= -2 
p22Rd8 - p71Rd7 - p14Rd7 - p70Rd7 + pro22Rd7 >= -2 
p72Rd7 - p24Rd8 + pro23Rd7 >= 0 
p16Rd7 - p72Rd7 + pro23Rd7 >= 0 
p24Rd8 - p16Rd7 + pro23Rd7 >= 0 
p16Rd7 + p72Rd7 + p24Rd8 + pro23Rd7 <= 3 
p16Rd7 + p72Rd7 + p24Rd8 - pro23Rd7 >= 0 
p15Rd7 + p71Rd7 + p23Rd8 + pro23Rd7 - p72Rd7 >= 0 
p72Rd7 + p15Rd7 - p71Rd7 + p23Rd8 + pro23Rd7 >= 0 
p72Rd7 - p15Rd7 + p71Rd7 + p23Rd8 + pro23Rd7 >= 0 
p16Rd7 + p15Rd7 + p71Rd7 - p23Rd8 + pro23Rd7 >= 0 
p24Rd8 - p15Rd7 - p71Rd7 - p23Rd8 + pro23Rd7 >= -2 
p15Rd7 - p72Rd7 - p71Rd7 - p23Rd8 + pro23Rd7 >= -2 
p71Rd7 - p72Rd7 - p15Rd7 - p23Rd8 + pro23Rd7 >= -2 
p23Rd8 - p72Rd7 - p15Rd7 - p71Rd7 + pro23Rd7 >= -2 
p73Rd7 - p25Rd8 + pro24Rd7 >= 0 
p17Rd7 - p73Rd7 + pro24Rd7 >= 0 
p25Rd8 - p17Rd7 + pro24Rd7 >= 0 
p17Rd7 + p73Rd7 + p25Rd8 + pro24Rd7 <= 3 
p17Rd7 + p73Rd7 + p25Rd8 - pro24Rd7 >= 0 
p16Rd7 + p72Rd7 + p24Rd8 + pro24Rd7 - p73Rd7 >= 0 
p73Rd7 + p16Rd7 - p72Rd7 + p24Rd8 + pro24Rd7 >= 0 
p73Rd7 - p16Rd7 + p72Rd7 + p24Rd8 + pro24Rd7 >= 0 
p17Rd7 + p16Rd7 + p72Rd7 - p24Rd8 + pro24Rd7 >= 0 
p25Rd8 - p16Rd7 - p72Rd7 - p24Rd8 + pro24Rd7 >= -2 
p16Rd7 - p73Rd7 - p72Rd7 - p24Rd8 + pro24Rd7 >= -2 
p72Rd7 - p73Rd7 - p16Rd7 - p24Rd8 + pro24Rd7 >= -2 
p24Rd8 - p73Rd7 - p16Rd7 - p72Rd7 + pro24Rd7 >= -2 
p74Rd7 - p26Rd8 + pro25Rd7 >= 0 
p18Rd7 - p74Rd7 + pro25Rd7 >= 0 
p26Rd8 - p18Rd7 + pro25Rd7 >= 0 
p18Rd7 + p74Rd7 + p26Rd8 + pro25Rd7 <= 3 
p18Rd7 + p74Rd7 + p26Rd8 - pro25Rd7 >= 0 
p17Rd7 + p73Rd7 + p25Rd8 + pro25Rd7 - p74Rd7 >= 0 
p74Rd7 + p17Rd7 - p73Rd7 + p25Rd8 + pro25Rd7 >= 0 
p74Rd7 - p17Rd7 + p73Rd7 + p25Rd8 + pro25Rd7 >= 0 
p18Rd7 + p17Rd7 + p73Rd7 - p25Rd8 + pro25Rd7 >= 0 
p26Rd8 - p17Rd7 - p73Rd7 - p25Rd8 + pro25Rd7 >= -2 
p17Rd7 - p74Rd7 - p73Rd7 - p25Rd8 + pro25Rd7 >= -2 
p73Rd7 - p74Rd7 - p17Rd7 - p25Rd8 + pro25Rd7 >= -2 
p25Rd8 - p74Rd7 - p17Rd7 - p73Rd7 + pro25Rd7 >= -2 
p75Rd7 - p27Rd8 + pro26Rd7 >= 0 
p19Rd7 - p75Rd7 + pro26Rd7 >= 0 
p27Rd8 - p19Rd7 + pro26Rd7 >= 0 
p19Rd7 + p75Rd7 + p27Rd8 + pro26Rd7 <= 3 
p19Rd7 + p75Rd7 + p27Rd8 - pro26Rd7 >= 0 
p18Rd7 + p74Rd7 + p26Rd8 + pro26Rd7 - p75Rd7 >= 0 
p75Rd7 + p18Rd7 - p74Rd7 + p26Rd8 + pro26Rd7 >= 0 
p75Rd7 - p18Rd7 + p74Rd7 + p26Rd8 + pro26Rd7 >= 0 
p19Rd7 + p18Rd7 + p74Rd7 - p26Rd8 + pro26Rd7 >= 0 
p27Rd8 - p18Rd7 - p74Rd7 - p26Rd8 + pro26Rd7 >= -2 
p18Rd7 - p75Rd7 - p74Rd7 - p26Rd8 + pro26Rd7 >= -2 
p74Rd7 - p75Rd7 - p18Rd7 - p26Rd8 + pro26Rd7 >= -2 
p26Rd8 - p75Rd7 - p18Rd7 - p74Rd7 + pro26Rd7 >= -2 
p76Rd7 - p28Rd8 + pro27Rd7 >= 0 
p20Rd7 - p76Rd7 + pro27Rd7 >= 0 
p28Rd8 - p20Rd7 + pro27Rd7 >= 0 
p20Rd7 + p76Rd7 + p28Rd8 + pro27Rd7 <= 3 
p20Rd7 + p76Rd7 + p28Rd8 - pro27Rd7 >= 0 
p19Rd7 + p75Rd7 + p27Rd8 + pro27Rd7 - p76Rd7 >= 0 
p76Rd7 + p19Rd7 - p75Rd7 + p27Rd8 + pro27Rd7 >= 0 
p76Rd7 - p19Rd7 + p75Rd7 + p27Rd8 + pro27Rd7 >= 0 
p20Rd7 + p19Rd7 + p75Rd7 - p27Rd8 + pro27Rd7 >= 0 
p28Rd8 - p19Rd7 - p75Rd7 - p27Rd8 + pro27Rd7 >= -2 
p19Rd7 - p76Rd7 - p75Rd7 - p27Rd8 + pro27Rd7 >= -2 
p75Rd7 - p76Rd7 - p19Rd7 - p27Rd8 + pro27Rd7 >= -2 
p27Rd8 - p76Rd7 - p19Rd7 - p75Rd7 + pro27Rd7 >= -2 
p77Rd7 - p29Rd8 + pro28Rd7 >= 0 
p21Rd7 - p77Rd7 + pro28Rd7 >= 0 
p29Rd8 - p21Rd7 + pro28Rd7 >= 0 
p21Rd7 + p77Rd7 + p29Rd8 + pro28Rd7 <= 3 
p21Rd7 + p77Rd7 + p29Rd8 - pro28Rd7 >= 0 
p20Rd7 + p76Rd7 + p28Rd8 + pro28Rd7 - p77Rd7 >= 0 
p77Rd7 + p20Rd7 - p76Rd7 + p28Rd8 + pro28Rd7 >= 0 
p77Rd7 - p20Rd7 + p76Rd7 + p28Rd8 + pro28Rd7 >= 0 
p21Rd7 + p20Rd7 + p76Rd7 - p28Rd8 + pro28Rd7 >= 0 
p29Rd8 - p20Rd7 - p76Rd7 - p28Rd8 + pro28Rd7 >= -2 
p20Rd7 - p77Rd7 - p76Rd7 - p28Rd8 + pro28Rd7 >= -2 
p76Rd7 - p77Rd7 - p20Rd7 - p28Rd8 + pro28Rd7 >= -2 
p28Rd8 - p77Rd7 - p20Rd7 - p76Rd7 + pro28Rd7 >= -2 
p78Rd7 - p30Rd8 + pro29Rd7 >= 0 
p22Rd7 - p78Rd7 + pro29Rd7 >= 0 
p30Rd8 - p22Rd7 + pro29Rd7 >= 0 
p22Rd7 + p78Rd7 + p30Rd8 + pro29Rd7 <= 3 
p22Rd7 + p78Rd7 + p30Rd8 - pro29Rd7 >= 0 
p21Rd7 + p77Rd7 + p29Rd8 + pro29Rd7 - p78Rd7 >= 0 
p78Rd7 + p21Rd7 - p77Rd7 + p29Rd8 + pro29Rd7 >= 0 
p78Rd7 - p21Rd7 + p77Rd7 + p29Rd8 + pro29Rd7 >= 0 
p22Rd7 + p21Rd7 + p77Rd7 - p29Rd8 + pro29Rd7 >= 0 
p30Rd8 - p21Rd7 - p77Rd7 - p29Rd8 + pro29Rd7 >= -2 
p21Rd7 - p78Rd7 - p77Rd7 - p29Rd8 + pro29Rd7 >= -2 
p77Rd7 - p78Rd7 - p21Rd7 - p29Rd8 + pro29Rd7 >= -2 
p29Rd8 - p78Rd7 - p21Rd7 - p77Rd7 + pro29Rd7 >= -2 
p79Rd7 - p31Rd8 + pro30Rd7 >= 0 
p23Rd7 - p79Rd7 + pro30Rd7 >= 0 
p31Rd8 - p23Rd7 + pro30Rd7 >= 0 
p23Rd7 + p79Rd7 + p31Rd8 + pro30Rd7 <= 3 
p23Rd7 + p79Rd7 + p31Rd8 - pro30Rd7 >= 0 
p22Rd7 + p78Rd7 + p30Rd8 + pro30Rd7 - p79Rd7 >= 0 
p79Rd7 + p22Rd7 - p78Rd7 + p30Rd8 + pro30Rd7 >= 0 
p79Rd7 - p22Rd7 + p78Rd7 + p30Rd8 + pro30Rd7 >= 0 
p23Rd7 + p22Rd7 + p78Rd7 - p30Rd8 + pro30Rd7 >= 0 
p31Rd8 - p22Rd7 - p78Rd7 - p30Rd8 + pro30Rd7 >= -2 
p22Rd7 - p79Rd7 - p78Rd7 - p30Rd8 + pro30Rd7 >= -2 
p78Rd7 - p79Rd7 - p22Rd7 - p30Rd8 + pro30Rd7 >= -2 
p30Rd8 - p79Rd7 - p22Rd7 - p78Rd7 + pro30Rd7 >= -2 
p80Rd7 - p32Rd8 + pro31Rd7 >= 0 
p24Rd7 - p80Rd7 + pro31Rd7 >= 0 
p32Rd8 - p24Rd7 + pro31Rd7 >= 0 
p24Rd7 + p80Rd7 + p32Rd8 + pro31Rd7 <= 3 
p24Rd7 + p80Rd7 + p32Rd8 - pro31Rd7 >= 0 
p23Rd7 + p79Rd7 + p31Rd8 + pro31Rd7 - p80Rd7 >= 0 
p80Rd7 + p23Rd7 - p79Rd7 + p31Rd8 + pro31Rd7 >= 0 
p80Rd7 - p23Rd7 + p79Rd7 + p31Rd8 + pro31Rd7 >= 0 
p24Rd7 + p23Rd7 + p79Rd7 - p31Rd8 + pro31Rd7 >= 0 
p32Rd8 - p23Rd7 - p79Rd7 - p31Rd8 + pro31Rd7 >= -2 
p23Rd7 - p80Rd7 - p79Rd7 - p31Rd8 + pro31Rd7 >= -2 
p79Rd7 - p80Rd7 - p23Rd7 - p31Rd8 + pro31Rd7 >= -2 
p31Rd8 - p80Rd7 - p23Rd7 - p79Rd7 + pro31Rd7 >= -2 
p81Rd7 - p33Rd8 + pro32Rd7 >= 0 
p25Rd7 - p81Rd7 + pro32Rd7 >= 0 
p33Rd8 - p25Rd7 + pro32Rd7 >= 0 
p25Rd7 + p81Rd7 + p33Rd8 + pro32Rd7 <= 3 
p25Rd7 + p81Rd7 + p33Rd8 - pro32Rd7 >= 0 
p24Rd7 + p80Rd7 + p32Rd8 + pro32Rd7 - p81Rd7 >= 0 
p81Rd7 + p24Rd7 - p80Rd7 + p32Rd8 + pro32Rd7 >= 0 
p81Rd7 - p24Rd7 + p80Rd7 + p32Rd8 + pro32Rd7 >= 0 
p25Rd7 + p24Rd7 + p80Rd7 - p32Rd8 + pro32Rd7 >= 0 
p33Rd8 - p24Rd7 - p80Rd7 - p32Rd8 + pro32Rd7 >= -2 
p24Rd7 - p81Rd7 - p80Rd7 - p32Rd8 + pro32Rd7 >= -2 
p80Rd7 - p81Rd7 - p24Rd7 - p32Rd8 + pro32Rd7 >= -2 
p32Rd8 - p81Rd7 - p24Rd7 - p80Rd7 + pro32Rd7 >= -2 
p82Rd7 - p34Rd8 + pro33Rd7 >= 0 
p26Rd7 - p82Rd7 + pro33Rd7 >= 0 
p34Rd8 - p26Rd7 + pro33Rd7 >= 0 
p26Rd7 + p82Rd7 + p34Rd8 + pro33Rd7 <= 3 
p26Rd7 + p82Rd7 + p34Rd8 - pro33Rd7 >= 0 
p25Rd7 + p81Rd7 + p33Rd8 + pro33Rd7 - p82Rd7 >= 0 
p82Rd7 + p25Rd7 - p81Rd7 + p33Rd8 + pro33Rd7 >= 0 
p82Rd7 - p25Rd7 + p81Rd7 + p33Rd8 + pro33Rd7 >= 0 
p26Rd7 + p25Rd7 + p81Rd7 - p33Rd8 + pro33Rd7 >= 0 
p34Rd8 - p25Rd7 - p81Rd7 - p33Rd8 + pro33Rd7 >= -2 
p25Rd7 - p82Rd7 - p81Rd7 - p33Rd8 + pro33Rd7 >= -2 
p81Rd7 - p82Rd7 - p25Rd7 - p33Rd8 + pro33Rd7 >= -2 
p33Rd8 - p82Rd7 - p25Rd7 - p81Rd7 + pro33Rd7 >= -2 
p83Rd7 - p35Rd8 + pro34Rd7 >= 0 
p27Rd7 - p83Rd7 + pro34Rd7 >= 0 
p35Rd8 - p27Rd7 + pro34Rd7 >= 0 
p27Rd7 + p83Rd7 + p35Rd8 + pro34Rd7 <= 3 
p27Rd7 + p83Rd7 + p35Rd8 - pro34Rd7 >= 0 
p26Rd7 + p82Rd7 + p34Rd8 + pro34Rd7 - p83Rd7 >= 0 
p83Rd7 + p26Rd7 - p82Rd7 + p34Rd8 + pro34Rd7 >= 0 
p83Rd7 - p26Rd7 + p82Rd7 + p34Rd8 + pro34Rd7 >= 0 
p27Rd7 + p26Rd7 + p82Rd7 - p34Rd8 + pro34Rd7 >= 0 
p35Rd8 - p26Rd7 - p82Rd7 - p34Rd8 + pro34Rd7 >= -2 
p26Rd7 - p83Rd7 - p82Rd7 - p34Rd8 + pro34Rd7 >= -2 
p82Rd7 - p83Rd7 - p26Rd7 - p34Rd8 + pro34Rd7 >= -2 
p34Rd8 - p83Rd7 - p26Rd7 - p82Rd7 + pro34Rd7 >= -2 
p84Rd7 - p36Rd8 + pro35Rd7 >= 0 
p28Rd7 - p84Rd7 + pro35Rd7 >= 0 
p36Rd8 - p28Rd7 + pro35Rd7 >= 0 
p28Rd7 + p84Rd7 + p36Rd8 + pro35Rd7 <= 3 
p28Rd7 + p84Rd7 + p36Rd8 - pro35Rd7 >= 0 
p27Rd7 + p83Rd7 + p35Rd8 + pro35Rd7 - p84Rd7 >= 0 
p84Rd7 + p27Rd7 - p83Rd7 + p35Rd8 + pro35Rd7 >= 0 
p84Rd7 - p27Rd7 + p83Rd7 + p35Rd8 + pro35Rd7 >= 0 
p28Rd7 + p27Rd7 + p83Rd7 - p35Rd8 + pro35Rd7 >= 0 
p36Rd8 - p27Rd7 - p83Rd7 - p35Rd8 + pro35Rd7 >= -2 
p27Rd7 - p84Rd7 - p83Rd7 - p35Rd8 + pro35Rd7 >= -2 
p83Rd7 - p84Rd7 - p27Rd7 - p35Rd8 + pro35Rd7 >= -2 
p35Rd8 - p84Rd7 - p27Rd7 - p83Rd7 + pro35Rd7 >= -2 
p85Rd7 - p37Rd8 + pro36Rd7 >= 0 
p29Rd7 - p85Rd7 + pro36Rd7 >= 0 
p37Rd8 - p29Rd7 + pro36Rd7 >= 0 
p29Rd7 + p85Rd7 + p37Rd8 + pro36Rd7 <= 3 
p29Rd7 + p85Rd7 + p37Rd8 - pro36Rd7 >= 0 
p28Rd7 + p84Rd7 + p36Rd8 + pro36Rd7 - p85Rd7 >= 0 
p85Rd7 + p28Rd7 - p84Rd7 + p36Rd8 + pro36Rd7 >= 0 
p85Rd7 - p28Rd7 + p84Rd7 + p36Rd8 + pro36Rd7 >= 0 
p29Rd7 + p28Rd7 + p84Rd7 - p36Rd8 + pro36Rd7 >= 0 
p37Rd8 - p28Rd7 - p84Rd7 - p36Rd8 + pro36Rd7 >= -2 
p28Rd7 - p85Rd7 - p84Rd7 - p36Rd8 + pro36Rd7 >= -2 
p84Rd7 - p85Rd7 - p28Rd7 - p36Rd8 + pro36Rd7 >= -2 
p36Rd8 - p85Rd7 - p28Rd7 - p84Rd7 + pro36Rd7 >= -2 
p86Rd7 - p38Rd8 + pro37Rd7 >= 0 
p30Rd7 - p86Rd7 + pro37Rd7 >= 0 
p38Rd8 - p30Rd7 + pro37Rd7 >= 0 
p30Rd7 + p86Rd7 + p38Rd8 + pro37Rd7 <= 3 
p30Rd7 + p86Rd7 + p38Rd8 - pro37Rd7 >= 0 
p29Rd7 + p85Rd7 + p37Rd8 + pro37Rd7 - p86Rd7 >= 0 
p86Rd7 + p29Rd7 - p85Rd7 + p37Rd8 + pro37Rd7 >= 0 
p86Rd7 - p29Rd7 + p85Rd7 + p37Rd8 + pro37Rd7 >= 0 
p30Rd7 + p29Rd7 + p85Rd7 - p37Rd8 + pro37Rd7 >= 0 
p38Rd8 - p29Rd7 - p85Rd7 - p37Rd8 + pro37Rd7 >= -2 
p29Rd7 - p86Rd7 - p85Rd7 - p37Rd8 + pro37Rd7 >= -2 
p85Rd7 - p86Rd7 - p29Rd7 - p37Rd8 + pro37Rd7 >= -2 
p37Rd8 - p86Rd7 - p29Rd7 - p85Rd7 + pro37Rd7 >= -2 
p87Rd7 - p39Rd8 + pro38Rd7 >= 0 
p31Rd7 - p87Rd7 + pro38Rd7 >= 0 
p39Rd8 - p31Rd7 + pro38Rd7 >= 0 
p31Rd7 + p87Rd7 + p39Rd8 + pro38Rd7 <= 3 
p31Rd7 + p87Rd7 + p39Rd8 - pro38Rd7 >= 0 
p30Rd7 + p86Rd7 + p38Rd8 + pro38Rd7 - p87Rd7 >= 0 
p87Rd7 + p30Rd7 - p86Rd7 + p38Rd8 + pro38Rd7 >= 0 
p87Rd7 - p30Rd7 + p86Rd7 + p38Rd8 + pro38Rd7 >= 0 
p31Rd7 + p30Rd7 + p86Rd7 - p38Rd8 + pro38Rd7 >= 0 
p39Rd8 - p30Rd7 - p86Rd7 - p38Rd8 + pro38Rd7 >= -2 
p30Rd7 - p87Rd7 - p86Rd7 - p38Rd8 + pro38Rd7 >= -2 
p86Rd7 - p87Rd7 - p30Rd7 - p38Rd8 + pro38Rd7 >= -2 
p38Rd8 - p87Rd7 - p30Rd7 - p86Rd7 + pro38Rd7 >= -2 
p88Rd7 - p40Rd8 + pro39Rd7 >= 0 
p32Rd7 - p88Rd7 + pro39Rd7 >= 0 
p40Rd8 - p32Rd7 + pro39Rd7 >= 0 
p32Rd7 + p88Rd7 + p40Rd8 + pro39Rd7 <= 3 
p32Rd7 + p88Rd7 + p40Rd8 - pro39Rd7 >= 0 
p31Rd7 + p87Rd7 + p39Rd8 + pro39Rd7 - p88Rd7 >= 0 
p88Rd7 + p31Rd7 - p87Rd7 + p39Rd8 + pro39Rd7 >= 0 
p88Rd7 - p31Rd7 + p87Rd7 + p39Rd8 + pro39Rd7 >= 0 
p32Rd7 + p31Rd7 + p87Rd7 - p39Rd8 + pro39Rd7 >= 0 
p40Rd8 - p31Rd7 - p87Rd7 - p39Rd8 + pro39Rd7 >= -2 
p31Rd7 - p88Rd7 - p87Rd7 - p39Rd8 + pro39Rd7 >= -2 
p87Rd7 - p88Rd7 - p31Rd7 - p39Rd8 + pro39Rd7 >= -2 
p39Rd8 - p88Rd7 - p31Rd7 - p87Rd7 + pro39Rd7 >= -2 
p89Rd7 - p41Rd8 + pro40Rd7 >= 0 
p33Rd7 - p89Rd7 + pro40Rd7 >= 0 
p41Rd8 - p33Rd7 + pro40Rd7 >= 0 
p33Rd7 + p89Rd7 + p41Rd8 + pro40Rd7 <= 3 
p33Rd7 + p89Rd7 + p41Rd8 - pro40Rd7 >= 0 
p32Rd7 + p88Rd7 + p40Rd8 + pro40Rd7 - p89Rd7 >= 0 
p89Rd7 + p32Rd7 - p88Rd7 + p40Rd8 + pro40Rd7 >= 0 
p89Rd7 - p32Rd7 + p88Rd7 + p40Rd8 + pro40Rd7 >= 0 
p33Rd7 + p32Rd7 + p88Rd7 - p40Rd8 + pro40Rd7 >= 0 
p41Rd8 - p32Rd7 - p88Rd7 - p40Rd8 + pro40Rd7 >= -2 
p32Rd7 - p89Rd7 - p88Rd7 - p40Rd8 + pro40Rd7 >= -2 
p88Rd7 - p89Rd7 - p32Rd7 - p40Rd8 + pro40Rd7 >= -2 
p40Rd8 - p89Rd7 - p32Rd7 - p88Rd7 + pro40Rd7 >= -2 
p90Rd7 - p42Rd8 + pro41Rd7 >= 0 
p34Rd7 - p90Rd7 + pro41Rd7 >= 0 
p42Rd8 - p34Rd7 + pro41Rd7 >= 0 
p34Rd7 + p90Rd7 + p42Rd8 + pro41Rd7 <= 3 
p34Rd7 + p90Rd7 + p42Rd8 - pro41Rd7 >= 0 
p33Rd7 + p89Rd7 + p41Rd8 + pro41Rd7 - p90Rd7 >= 0 
p90Rd7 + p33Rd7 - p89Rd7 + p41Rd8 + pro41Rd7 >= 0 
p90Rd7 - p33Rd7 + p89Rd7 + p41Rd8 + pro41Rd7 >= 0 
p34Rd7 + p33Rd7 + p89Rd7 - p41Rd8 + pro41Rd7 >= 0 
p42Rd8 - p33Rd7 - p89Rd7 - p41Rd8 + pro41Rd7 >= -2 
p33Rd7 - p90Rd7 - p89Rd7 - p41Rd8 + pro41Rd7 >= -2 
p89Rd7 - p90Rd7 - p33Rd7 - p41Rd8 + pro41Rd7 >= -2 
p41Rd8 - p90Rd7 - p33Rd7 - p89Rd7 + pro41Rd7 >= -2 
p91Rd7 - p43Rd8 + pro42Rd7 >= 0 
p35Rd7 - p91Rd7 + pro42Rd7 >= 0 
p43Rd8 - p35Rd7 + pro42Rd7 >= 0 
p35Rd7 + p91Rd7 + p43Rd8 + pro42Rd7 <= 3 
p35Rd7 + p91Rd7 + p43Rd8 - pro42Rd7 >= 0 
p34Rd7 + p90Rd7 + p42Rd8 + pro42Rd7 - p91Rd7 >= 0 
p91Rd7 + p34Rd7 - p90Rd7 + p42Rd8 + pro42Rd7 >= 0 
p91Rd7 - p34Rd7 + p90Rd7 + p42Rd8 + pro42Rd7 >= 0 
p35Rd7 + p34Rd7 + p90Rd7 - p42Rd8 + pro42Rd7 >= 0 
p43Rd8 - p34Rd7 - p90Rd7 - p42Rd8 + pro42Rd7 >= -2 
p34Rd7 - p91Rd7 - p90Rd7 - p42Rd8 + pro42Rd7 >= -2 
p90Rd7 - p91Rd7 - p34Rd7 - p42Rd8 + pro42Rd7 >= -2 
p42Rd8 - p91Rd7 - p34Rd7 - p90Rd7 + pro42Rd7 >= -2 
p92Rd7 - p44Rd8 + pro43Rd7 >= 0 
p36Rd7 - p92Rd7 + pro43Rd7 >= 0 
p44Rd8 - p36Rd7 + pro43Rd7 >= 0 
p36Rd7 + p92Rd7 + p44Rd8 + pro43Rd7 <= 3 
p36Rd7 + p92Rd7 + p44Rd8 - pro43Rd7 >= 0 
p35Rd7 + p91Rd7 + p43Rd8 + pro43Rd7 - p92Rd7 >= 0 
p92Rd7 + p35Rd7 - p91Rd7 + p43Rd8 + pro43Rd7 >= 0 
p92Rd7 - p35Rd7 + p91Rd7 + p43Rd8 + pro43Rd7 >= 0 
p36Rd7 + p35Rd7 + p91Rd7 - p43Rd8 + pro43Rd7 >= 0 
p44Rd8 - p35Rd7 - p91Rd7 - p43Rd8 + pro43Rd7 >= -2 
p35Rd7 - p92Rd7 - p91Rd7 - p43Rd8 + pro43Rd7 >= -2 
p91Rd7 - p92Rd7 - p35Rd7 - p43Rd8 + pro43Rd7 >= -2 
p43Rd8 - p92Rd7 - p35Rd7 - p91Rd7 + pro43Rd7 >= -2 
p93Rd7 - p45Rd8 + pro44Rd7 >= 0 
p37Rd7 - p93Rd7 + pro44Rd7 >= 0 
p45Rd8 - p37Rd7 + pro44Rd7 >= 0 
p37Rd7 + p93Rd7 + p45Rd8 + pro44Rd7 <= 3 
p37Rd7 + p93Rd7 + p45Rd8 - pro44Rd7 >= 0 
p36Rd7 + p92Rd7 + p44Rd8 + pro44Rd7 - p93Rd7 >= 0 
p93Rd7 + p36Rd7 - p92Rd7 + p44Rd8 + pro44Rd7 >= 0 
p93Rd7 - p36Rd7 + p92Rd7 + p44Rd8 + pro44Rd7 >= 0 
p37Rd7 + p36Rd7 + p92Rd7 - p44Rd8 + pro44Rd7 >= 0 
p45Rd8 - p36Rd7 - p92Rd7 - p44Rd8 + pro44Rd7 >= -2 
p36Rd7 - p93Rd7 - p92Rd7 - p44Rd8 + pro44Rd7 >= -2 
p92Rd7 - p93Rd7 - p36Rd7 - p44Rd8 + pro44Rd7 >= -2 
p44Rd8 - p93Rd7 - p36Rd7 - p92Rd7 + pro44Rd7 >= -2 
p94Rd7 - p46Rd8 + pro45Rd7 >= 0 
p38Rd7 - p94Rd7 + pro45Rd7 >= 0 
p46Rd8 - p38Rd7 + pro45Rd7 >= 0 
p38Rd7 + p94Rd7 + p46Rd8 + pro45Rd7 <= 3 
p38Rd7 + p94Rd7 + p46Rd8 - pro45Rd7 >= 0 
p37Rd7 + p93Rd7 + p45Rd8 + pro45Rd7 - p94Rd7 >= 0 
p94Rd7 + p37Rd7 - p93Rd7 + p45Rd8 + pro45Rd7 >= 0 
p94Rd7 - p37Rd7 + p93Rd7 + p45Rd8 + pro45Rd7 >= 0 
p38Rd7 + p37Rd7 + p93Rd7 - p45Rd8 + pro45Rd7 >= 0 
p46Rd8 - p37Rd7 - p93Rd7 - p45Rd8 + pro45Rd7 >= -2 
p37Rd7 - p94Rd7 - p93Rd7 - p45Rd8 + pro45Rd7 >= -2 
p93Rd7 - p94Rd7 - p37Rd7 - p45Rd8 + pro45Rd7 >= -2 
p45Rd8 - p94Rd7 - p37Rd7 - p93Rd7 + pro45Rd7 >= -2 
p95Rd7 - p47Rd8 + pro46Rd7 >= 0 
p39Rd7 - p95Rd7 + pro46Rd7 >= 0 
p47Rd8 - p39Rd7 + pro46Rd7 >= 0 
p39Rd7 + p95Rd7 + p47Rd8 + pro46Rd7 <= 3 
p39Rd7 + p95Rd7 + p47Rd8 - pro46Rd7 >= 0 
p38Rd7 + p94Rd7 + p46Rd8 + pro46Rd7 - p95Rd7 >= 0 
p95Rd7 + p38Rd7 - p94Rd7 + p46Rd8 + pro46Rd7 >= 0 
p95Rd7 - p38Rd7 + p94Rd7 + p46Rd8 + pro46Rd7 >= 0 
p39Rd7 + p38Rd7 + p94Rd7 - p46Rd8 + pro46Rd7 >= 0 
p47Rd8 - p38Rd7 - p94Rd7 - p46Rd8 + pro46Rd7 >= -2 
p38Rd7 - p95Rd7 - p94Rd7 - p46Rd8 + pro46Rd7 >= -2 
p94Rd7 - p95Rd7 - p38Rd7 - p46Rd8 + pro46Rd7 >= -2 
p46Rd8 - p95Rd7 - p38Rd7 - p94Rd7 + pro46Rd7 >= -2 
p39Rd7 + p95Rd7 + p47Rd8 <= 2 
p39Rd7 + p95Rd7 + p47Rd8 - 2 temp7 >= 0 
temp7 - p39Rd7 >= 0 
temp7 - p95Rd7 >= 0 
temp7 - p47Rd8 >= 0 
p51Rd8 + p48Rd9 - p0Rd9 >= 0
p51Rd8 - p48Rd9 + p0Rd9 >= 0
- p51Rd8 + p48Rd9 + p0Rd9 >= 0
p51Rd8 + p48Rd9 + p0Rd9 <= 2
p52Rd8 + p49Rd9 - p1Rd9 >= 0
p52Rd8 - p49Rd9 + p1Rd9 >= 0
- p52Rd8 + p49Rd9 + p1Rd9 >= 0
p52Rd8 + p49Rd9 + p1Rd9 <= 2
p53Rd8 + p50Rd9 - p2Rd9 >= 0
p53Rd8 - p50Rd9 + p2Rd9 >= 0
- p53Rd8 + p50Rd9 + p2Rd9 >= 0
p53Rd8 + p50Rd9 + p2Rd9 <= 2
p54Rd8 + p51Rd9 - p3Rd9 >= 0
p54Rd8 - p51Rd9 + p3Rd9 >= 0
- p54Rd8 + p51Rd9 + p3Rd9 >= 0
p54Rd8 + p51Rd9 + p3Rd9 <= 2
p55Rd8 + p52Rd9 - p4Rd9 >= 0
p55Rd8 - p52Rd9 + p4Rd9 >= 0
- p55Rd8 + p52Rd9 + p4Rd9 >= 0
p55Rd8 + p52Rd9 + p4Rd9 <= 2
p56Rd8 + p53Rd9 - p5Rd9 >= 0
p56Rd8 - p53Rd9 + p5Rd9 >= 0
- p56Rd8 + p53Rd9 + p5Rd9 >= 0
p56Rd8 + p53Rd9 + p5Rd9 <= 2
p57Rd8 + p54Rd9 - p6Rd9 >= 0
p57Rd8 - p54Rd9 + p6Rd9 >= 0
- p57Rd8 + p54Rd9 + p6Rd9 >= 0
p57Rd8 + p54Rd9 + p6Rd9 <= 2
p58Rd8 + p55Rd9 - p7Rd9 >= 0
p58Rd8 - p55Rd9 + p7Rd9 >= 0
- p58Rd8 + p55Rd9 + p7Rd9 >= 0
p58Rd8 + p55Rd9 + p7Rd9 <= 2
p59Rd8 + p56Rd9 - p8Rd9 >= 0
p59Rd8 - p56Rd9 + p8Rd9 >= 0
- p59Rd8 + p56Rd9 + p8Rd9 >= 0
p59Rd8 + p56Rd9 + p8Rd9 <= 2
p60Rd8 + p57Rd9 - p9Rd9 >= 0
p60Rd8 - p57Rd9 + p9Rd9 >= 0
- p60Rd8 + p57Rd9 + p9Rd9 >= 0
p60Rd8 + p57Rd9 + p9Rd9 <= 2
p61Rd8 + p58Rd9 - p10Rd9 >= 0
p61Rd8 - p58Rd9 + p10Rd9 >= 0
- p61Rd8 + p58Rd9 + p10Rd9 >= 0
p61Rd8 + p58Rd9 + p10Rd9 <= 2
p62Rd8 + p59Rd9 - p11Rd9 >= 0
p62Rd8 - p59Rd9 + p11Rd9 >= 0
- p62Rd8 + p59Rd9 + p11Rd9 >= 0
p62Rd8 + p59Rd9 + p11Rd9 <= 2
p63Rd8 + p60Rd9 - p12Rd9 >= 0
p63Rd8 - p60Rd9 + p12Rd9 >= 0
- p63Rd8 + p60Rd9 + p12Rd9 >= 0
p63Rd8 + p60Rd9 + p12Rd9 <= 2
p64Rd8 + p61Rd9 - p13Rd9 >= 0
p64Rd8 - p61Rd9 + p13Rd9 >= 0
- p64Rd8 + p61Rd9 + p13Rd9 >= 0
p64Rd8 + p61Rd9 + p13Rd9 <= 2
p65Rd8 + p62Rd9 - p14Rd9 >= 0
p65Rd8 - p62Rd9 + p14Rd9 >= 0
- p65Rd8 + p62Rd9 + p14Rd9 >= 0
p65Rd8 + p62Rd9 + p14Rd9 <= 2
p66Rd8 + p63Rd9 - p15Rd9 >= 0
p66Rd8 - p63Rd9 + p15Rd9 >= 0
- p66Rd8 + p63Rd9 + p15Rd9 >= 0
p66Rd8 + p63Rd9 + p15Rd9 <= 2
p67Rd8 + p64Rd9 - p16Rd9 >= 0
p67Rd8 - p64Rd9 + p16Rd9 >= 0
- p67Rd8 + p64Rd9 + p16Rd9 >= 0
p67Rd8 + p64Rd9 + p16Rd9 <= 2
p68Rd8 + p65Rd9 - p17Rd9 >= 0
p68Rd8 - p65Rd9 + p17Rd9 >= 0
- p68Rd8 + p65Rd9 + p17Rd9 >= 0
p68Rd8 + p65Rd9 + p17Rd9 <= 2
p69Rd8 + p66Rd9 - p18Rd9 >= 0
p69Rd8 - p66Rd9 + p18Rd9 >= 0
- p69Rd8 + p66Rd9 + p18Rd9 >= 0
p69Rd8 + p66Rd9 + p18Rd9 <= 2
p70Rd8 + p67Rd9 - p19Rd9 >= 0
p70Rd8 - p67Rd9 + p19Rd9 >= 0
- p70Rd8 + p67Rd9 + p19Rd9 >= 0
p70Rd8 + p67Rd9 + p19Rd9 <= 2
p71Rd8 + p68Rd9 - p20Rd9 >= 0
p71Rd8 - p68Rd9 + p20Rd9 >= 0
- p71Rd8 + p68Rd9 + p20Rd9 >= 0
p71Rd8 + p68Rd9 + p20Rd9 <= 2
p72Rd8 + p69Rd9 - p21Rd9 >= 0
p72Rd8 - p69Rd9 + p21Rd9 >= 0
- p72Rd8 + p69Rd9 + p21Rd9 >= 0
p72Rd8 + p69Rd9 + p21Rd9 <= 2
p73Rd8 + p70Rd9 - p22Rd9 >= 0
p73Rd8 - p70Rd9 + p22Rd9 >= 0
- p73Rd8 + p70Rd9 + p22Rd9 >= 0
p73Rd8 + p70Rd9 + p22Rd9 <= 2
p74Rd8 + p71Rd9 - p23Rd9 >= 0
p74Rd8 - p71Rd9 + p23Rd9 >= 0
- p74Rd8 + p71Rd9 + p23Rd9 >= 0
p74Rd8 + p71Rd9 + p23Rd9 <= 2
p75Rd8 + p72Rd9 - p24Rd9 >= 0
p75Rd8 - p72Rd9 + p24Rd9 >= 0
- p75Rd8 + p72Rd9 + p24Rd9 >= 0
p75Rd8 + p72Rd9 + p24Rd9 <= 2
p76Rd8 + p73Rd9 - p25Rd9 >= 0
p76Rd8 - p73Rd9 + p25Rd9 >= 0
- p76Rd8 + p73Rd9 + p25Rd9 >= 0
p76Rd8 + p73Rd9 + p25Rd9 <= 2
p77Rd8 + p74Rd9 - p26Rd9 >= 0
p77Rd8 - p74Rd9 + p26Rd9 >= 0
- p77Rd8 + p74Rd9 + p26Rd9 >= 0
p77Rd8 + p74Rd9 + p26Rd9 <= 2
p78Rd8 + p75Rd9 - p27Rd9 >= 0
p78Rd8 - p75Rd9 + p27Rd9 >= 0
- p78Rd8 + p75Rd9 + p27Rd9 >= 0
p78Rd8 + p75Rd9 + p27Rd9 <= 2
p79Rd8 + p76Rd9 - p28Rd9 >= 0
p79Rd8 - p76Rd9 + p28Rd9 >= 0
- p79Rd8 + p76Rd9 + p28Rd9 >= 0
p79Rd8 + p76Rd9 + p28Rd9 <= 2
p80Rd8 + p77Rd9 - p29Rd9 >= 0
p80Rd8 - p77Rd9 + p29Rd9 >= 0
- p80Rd8 + p77Rd9 + p29Rd9 >= 0
p80Rd8 + p77Rd9 + p29Rd9 <= 2
p81Rd8 + p78Rd9 - p30Rd9 >= 0
p81Rd8 - p78Rd9 + p30Rd9 >= 0
- p81Rd8 + p78Rd9 + p30Rd9 >= 0
p81Rd8 + p78Rd9 + p30Rd9 <= 2
p82Rd8 + p79Rd9 - p31Rd9 >= 0
p82Rd8 - p79Rd9 + p31Rd9 >= 0
- p82Rd8 + p79Rd9 + p31Rd9 >= 0
p82Rd8 + p79Rd9 + p31Rd9 <= 2
p83Rd8 + p80Rd9 - p32Rd9 >= 0
p83Rd8 - p80Rd9 + p32Rd9 >= 0
- p83Rd8 + p80Rd9 + p32Rd9 >= 0
p83Rd8 + p80Rd9 + p32Rd9 <= 2
p84Rd8 + p81Rd9 - p33Rd9 >= 0
p84Rd8 - p81Rd9 + p33Rd9 >= 0
- p84Rd8 + p81Rd9 + p33Rd9 >= 0
p84Rd8 + p81Rd9 + p33Rd9 <= 2
p85Rd8 + p82Rd9 - p34Rd9 >= 0
p85Rd8 - p82Rd9 + p34Rd9 >= 0
- p85Rd8 + p82Rd9 + p34Rd9 >= 0
p85Rd8 + p82Rd9 + p34Rd9 <= 2
p86Rd8 + p83Rd9 - p35Rd9 >= 0
p86Rd8 - p83Rd9 + p35Rd9 >= 0
- p86Rd8 + p83Rd9 + p35Rd9 >= 0
p86Rd8 + p83Rd9 + p35Rd9 <= 2
p87Rd8 + p84Rd9 - p36Rd9 >= 0
p87Rd8 - p84Rd9 + p36Rd9 >= 0
- p87Rd8 + p84Rd9 + p36Rd9 >= 0
p87Rd8 + p84Rd9 + p36Rd9 <= 2
p88Rd8 + p85Rd9 - p37Rd9 >= 0
p88Rd8 - p85Rd9 + p37Rd9 >= 0
- p88Rd8 + p85Rd9 + p37Rd9 >= 0
p88Rd8 + p85Rd9 + p37Rd9 <= 2
p89Rd8 + p86Rd9 - p38Rd9 >= 0
p89Rd8 - p86Rd9 + p38Rd9 >= 0
- p89Rd8 + p86Rd9 + p38Rd9 >= 0
p89Rd8 + p86Rd9 + p38Rd9 <= 2
p90Rd8 + p87Rd9 - p39Rd9 >= 0
p90Rd8 - p87Rd9 + p39Rd9 >= 0
- p90Rd8 + p87Rd9 + p39Rd9 >= 0
p90Rd8 + p87Rd9 + p39Rd9 <= 2
p91Rd8 + p88Rd9 - p40Rd9 >= 0
p91Rd8 - p88Rd9 + p40Rd9 >= 0
- p91Rd8 + p88Rd9 + p40Rd9 >= 0
p91Rd8 + p88Rd9 + p40Rd9 <= 2
p92Rd8 + p89Rd9 - p41Rd9 >= 0
p92Rd8 - p89Rd9 + p41Rd9 >= 0
- p92Rd8 + p89Rd9 + p41Rd9 >= 0
p92Rd8 + p89Rd9 + p41Rd9 <= 2
p93Rd8 + p90Rd9 - p42Rd9 >= 0
p93Rd8 - p90Rd9 + p42Rd9 >= 0
- p93Rd8 + p90Rd9 + p42Rd9 >= 0
p93Rd8 + p90Rd9 + p42Rd9 <= 2
p94Rd8 + p91Rd9 - p43Rd9 >= 0
p94Rd8 - p91Rd9 + p43Rd9 >= 0
- p94Rd8 + p91Rd9 + p43Rd9 >= 0
p94Rd8 + p91Rd9 + p43Rd9 <= 2
p95Rd8 + p92Rd9 - p44Rd9 >= 0
p95Rd8 - p92Rd9 + p44Rd9 >= 0
- p95Rd8 + p92Rd9 + p44Rd9 >= 0
p95Rd8 + p92Rd9 + p44Rd9 <= 2
p48Rd8 + p93Rd9 - p45Rd9 >= 0
p48Rd8 - p93Rd9 + p45Rd9 >= 0
- p48Rd8 + p93Rd9 + p45Rd9 >= 0
p48Rd8 + p93Rd9 + p45Rd9 <= 2
p49Rd8 + p94Rd9 - p46Rd9 >= 0
p49Rd8 - p94Rd9 + p46Rd9 >= 0
- p49Rd8 + p94Rd9 + p46Rd9 >= 0
p49Rd8 + p94Rd9 + p46Rd9 <= 2
p50Rd8 + p95Rd9 - p47Rd9 >= 0
p50Rd8 - p95Rd9 + p47Rd9 >= 0
- p50Rd8 + p95Rd9 + p47Rd9 >= 0
p50Rd8 + p95Rd9 + p47Rd9 <= 2
p49Rd8 - p1Rd9 + pro0Rd8 >= 0 
p41Rd8 - p49Rd8 + pro0Rd8 >= 0 
p1Rd9 - p41Rd8 + pro0Rd8 >= 0 
p41Rd8 + p49Rd8 + p1Rd9 + pro0Rd8 <= 3 
p41Rd8 + p49Rd8 + p1Rd9 - pro0Rd8 >= 0 
p40Rd8 + p48Rd8 + p0Rd9 + pro0Rd8 - p49Rd8 >= 0 
p49Rd8 + p40Rd8 - p48Rd8 + p0Rd9 + pro0Rd8 >= 0 
p49Rd8 - p40Rd8 + p48Rd8 + p0Rd9 + pro0Rd8 >= 0 
p41Rd8 + p40Rd8 + p48Rd8 - p0Rd9 + pro0Rd8 >= 0 
p1Rd9 - p40Rd8 - p48Rd8 - p0Rd9 + pro0Rd8 >= -2 
p40Rd8 - p49Rd8 - p48Rd8 - p0Rd9 + pro0Rd8 >= -2 
p48Rd8 - p49Rd8 - p40Rd8 - p0Rd9 + pro0Rd8 >= -2 
p0Rd9 - p49Rd8 - p40Rd8 - p48Rd8 + pro0Rd8 >= -2 
p50Rd8 - p2Rd9 + pro1Rd8 >= 0 
p42Rd8 - p50Rd8 + pro1Rd8 >= 0 
p2Rd9 - p42Rd8 + pro1Rd8 >= 0 
p42Rd8 + p50Rd8 + p2Rd9 + pro1Rd8 <= 3 
p42Rd8 + p50Rd8 + p2Rd9 - pro1Rd8 >= 0 
p41Rd8 + p49Rd8 + p1Rd9 + pro1Rd8 - p50Rd8 >= 0 
p50Rd8 + p41Rd8 - p49Rd8 + p1Rd9 + pro1Rd8 >= 0 
p50Rd8 - p41Rd8 + p49Rd8 + p1Rd9 + pro1Rd8 >= 0 
p42Rd8 + p41Rd8 + p49Rd8 - p1Rd9 + pro1Rd8 >= 0 
p2Rd9 - p41Rd8 - p49Rd8 - p1Rd9 + pro1Rd8 >= -2 
p41Rd8 - p50Rd8 - p49Rd8 - p1Rd9 + pro1Rd8 >= -2 
p49Rd8 - p50Rd8 - p41Rd8 - p1Rd9 + pro1Rd8 >= -2 
p1Rd9 - p50Rd8 - p41Rd8 - p49Rd8 + pro1Rd8 >= -2 
p51Rd8 - p3Rd9 + pro2Rd8 >= 0 
p43Rd8 - p51Rd8 + pro2Rd8 >= 0 
p3Rd9 - p43Rd8 + pro2Rd8 >= 0 
p43Rd8 + p51Rd8 + p3Rd9 + pro2Rd8 <= 3 
p43Rd8 + p51Rd8 + p3Rd9 - pro2Rd8 >= 0 
p42Rd8 + p50Rd8 + p2Rd9 + pro2Rd8 - p51Rd8 >= 0 
p51Rd8 + p42Rd8 - p50Rd8 + p2Rd9 + pro2Rd8 >= 0 
p51Rd8 - p42Rd8 + p50Rd8 + p2Rd9 + pro2Rd8 >= 0 
p43Rd8 + p42Rd8 + p50Rd8 - p2Rd9 + pro2Rd8 >= 0 
p3Rd9 - p42Rd8 - p50Rd8 - p2Rd9 + pro2Rd8 >= -2 
p42Rd8 - p51Rd8 - p50Rd8 - p2Rd9 + pro2Rd8 >= -2 
p50Rd8 - p51Rd8 - p42Rd8 - p2Rd9 + pro2Rd8 >= -2 
p2Rd9 - p51Rd8 - p42Rd8 - p50Rd8 + pro2Rd8 >= -2 
p52Rd8 - p4Rd9 + pro3Rd8 >= 0 
p44Rd8 - p52Rd8 + pro3Rd8 >= 0 
p4Rd9 - p44Rd8 + pro3Rd8 >= 0 
p44Rd8 + p52Rd8 + p4Rd9 + pro3Rd8 <= 3 
p44Rd8 + p52Rd8 + p4Rd9 - pro3Rd8 >= 0 
p43Rd8 + p51Rd8 + p3Rd9 + pro3Rd8 - p52Rd8 >= 0 
p52Rd8 + p43Rd8 - p51Rd8 + p3Rd9 + pro3Rd8 >= 0 
p52Rd8 - p43Rd8 + p51Rd8 + p3Rd9 + pro3Rd8 >= 0 
p44Rd8 + p43Rd8 + p51Rd8 - p3Rd9 + pro3Rd8 >= 0 
p4Rd9 - p43Rd8 - p51Rd8 - p3Rd9 + pro3Rd8 >= -2 
p43Rd8 - p52Rd8 - p51Rd8 - p3Rd9 + pro3Rd8 >= -2 
p51Rd8 - p52Rd8 - p43Rd8 - p3Rd9 + pro3Rd8 >= -2 
p3Rd9 - p52Rd8 - p43Rd8 - p51Rd8 + pro3Rd8 >= -2 
p53Rd8 - p5Rd9 + pro4Rd8 >= 0 
p45Rd8 - p53Rd8 + pro4Rd8 >= 0 
p5Rd9 - p45Rd8 + pro4Rd8 >= 0 
p45Rd8 + p53Rd8 + p5Rd9 + pro4Rd8 <= 3 
p45Rd8 + p53Rd8 + p5Rd9 - pro4Rd8 >= 0 
p44Rd8 + p52Rd8 + p4Rd9 + pro4Rd8 - p53Rd8 >= 0 
p53Rd8 + p44Rd8 - p52Rd8 + p4Rd9 + pro4Rd8 >= 0 
p53Rd8 - p44Rd8 + p52Rd8 + p4Rd9 + pro4Rd8 >= 0 
p45Rd8 + p44Rd8 + p52Rd8 - p4Rd9 + pro4Rd8 >= 0 
p5Rd9 - p44Rd8 - p52Rd8 - p4Rd9 + pro4Rd8 >= -2 
p44Rd8 - p53Rd8 - p52Rd8 - p4Rd9 + pro4Rd8 >= -2 
p52Rd8 - p53Rd8 - p44Rd8 - p4Rd9 + pro4Rd8 >= -2 
p4Rd9 - p53Rd8 - p44Rd8 - p52Rd8 + pro4Rd8 >= -2 
p54Rd8 - p6Rd9 + pro5Rd8 >= 0 
p46Rd8 - p54Rd8 + pro5Rd8 >= 0 
p6Rd9 - p46Rd8 + pro5Rd8 >= 0 
p46Rd8 + p54Rd8 + p6Rd9 + pro5Rd8 <= 3 
p46Rd8 + p54Rd8 + p6Rd9 - pro5Rd8 >= 0 
p45Rd8 + p53Rd8 + p5Rd9 + pro5Rd8 - p54Rd8 >= 0 
p54Rd8 + p45Rd8 - p53Rd8 + p5Rd9 + pro5Rd8 >= 0 
p54Rd8 - p45Rd8 + p53Rd8 + p5Rd9 + pro5Rd8 >= 0 
p46Rd8 + p45Rd8 + p53Rd8 - p5Rd9 + pro5Rd8 >= 0 
p6Rd9 - p45Rd8 - p53Rd8 - p5Rd9 + pro5Rd8 >= -2 
p45Rd8 - p54Rd8 - p53Rd8 - p5Rd9 + pro5Rd8 >= -2 
p53Rd8 - p54Rd8 - p45Rd8 - p5Rd9 + pro5Rd8 >= -2 
p5Rd9 - p54Rd8 - p45Rd8 - p53Rd8 + pro5Rd8 >= -2 
p55Rd8 - p7Rd9 + pro6Rd8 >= 0 
p47Rd8 - p55Rd8 + pro6Rd8 >= 0 
p7Rd9 - p47Rd8 + pro6Rd8 >= 0 
p47Rd8 + p55Rd8 + p7Rd9 + pro6Rd8 <= 3 
p47Rd8 + p55Rd8 + p7Rd9 - pro6Rd8 >= 0 
p46Rd8 + p54Rd8 + p6Rd9 + pro6Rd8 - p55Rd8 >= 0 
p55Rd8 + p46Rd8 - p54Rd8 + p6Rd9 + pro6Rd8 >= 0 
p55Rd8 - p46Rd8 + p54Rd8 + p6Rd9 + pro6Rd8 >= 0 
p47Rd8 + p46Rd8 + p54Rd8 - p6Rd9 + pro6Rd8 >= 0 
p7Rd9 - p46Rd8 - p54Rd8 - p6Rd9 + pro6Rd8 >= -2 
p46Rd8 - p55Rd8 - p54Rd8 - p6Rd9 + pro6Rd8 >= -2 
p54Rd8 - p55Rd8 - p46Rd8 - p6Rd9 + pro6Rd8 >= -2 
p6Rd9 - p55Rd8 - p46Rd8 - p54Rd8 + pro6Rd8 >= -2 
p56Rd8 - p8Rd9 + pro7Rd8 >= 0 
p0Rd8 - p56Rd8 + pro7Rd8 >= 0 
p8Rd9 - p0Rd8 + pro7Rd8 >= 0 
p0Rd8 + p56Rd8 + p8Rd9 + pro7Rd8 <= 3 
p0Rd8 + p56Rd8 + p8Rd9 - pro7Rd8 >= 0 
p47Rd8 + p55Rd8 + p7Rd9 + pro7Rd8 - p56Rd8 >= 0 
p56Rd8 + p47Rd8 - p55Rd8 + p7Rd9 + pro7Rd8 >= 0 
p56Rd8 - p47Rd8 + p55Rd8 + p7Rd9 + pro7Rd8 >= 0 
p0Rd8 + p47Rd8 + p55Rd8 - p7Rd9 + pro7Rd8 >= 0 
p8Rd9 - p47Rd8 - p55Rd8 - p7Rd9 + pro7Rd8 >= -2 
p47Rd8 - p56Rd8 - p55Rd8 - p7Rd9 + pro7Rd8 >= -2 
p55Rd8 - p56Rd8 - p47Rd8 - p7Rd9 + pro7Rd8 >= -2 
p7Rd9 - p56Rd8 - p47Rd8 - p55Rd8 + pro7Rd8 >= -2 
p57Rd8 - p9Rd9 + pro8Rd8 >= 0 
p1Rd8 - p57Rd8 + pro8Rd8 >= 0 
p9Rd9 - p1Rd8 + pro8Rd8 >= 0 
p1Rd8 + p57Rd8 + p9Rd9 + pro8Rd8 <= 3 
p1Rd8 + p57Rd8 + p9Rd9 - pro8Rd8 >= 0 
p0Rd8 + p56Rd8 + p8Rd9 + pro8Rd8 - p57Rd8 >= 0 
p57Rd8 + p0Rd8 - p56Rd8 + p8Rd9 + pro8Rd8 >= 0 
p57Rd8 - p0Rd8 + p56Rd8 + p8Rd9 + pro8Rd8 >= 0 
p1Rd8 + p0Rd8 + p56Rd8 - p8Rd9 + pro8Rd8 >= 0 
p9Rd9 - p0Rd8 - p56Rd8 - p8Rd9 + pro8Rd8 >= -2 
p0Rd8 - p57Rd8 - p56Rd8 - p8Rd9 + pro8Rd8 >= -2 
p56Rd8 - p57Rd8 - p0Rd8 - p8Rd9 + pro8Rd8 >= -2 
p8Rd9 - p57Rd8 - p0Rd8 - p56Rd8 + pro8Rd8 >= -2 
p58Rd8 - p10Rd9 + pro9Rd8 >= 0 
p2Rd8 - p58Rd8 + pro9Rd8 >= 0 
p10Rd9 - p2Rd8 + pro9Rd8 >= 0 
p2Rd8 + p58Rd8 + p10Rd9 + pro9Rd8 <= 3 
p2Rd8 + p58Rd8 + p10Rd9 - pro9Rd8 >= 0 
p1Rd8 + p57Rd8 + p9Rd9 + pro9Rd8 - p58Rd8 >= 0 
p58Rd8 + p1Rd8 - p57Rd8 + p9Rd9 + pro9Rd8 >= 0 
p58Rd8 - p1Rd8 + p57Rd8 + p9Rd9 + pro9Rd8 >= 0 
p2Rd8 + p1Rd8 + p57Rd8 - p9Rd9 + pro9Rd8 >= 0 
p10Rd9 - p1Rd8 - p57Rd8 - p9Rd9 + pro9Rd8 >= -2 
p1Rd8 - p58Rd8 - p57Rd8 - p9Rd9 + pro9Rd8 >= -2 
p57Rd8 - p58Rd8 - p1Rd8 - p9Rd9 + pro9Rd8 >= -2 
p9Rd9 - p58Rd8 - p1Rd8 - p57Rd8 + pro9Rd8 >= -2 
p59Rd8 - p11Rd9 + pro10Rd8 >= 0 
p3Rd8 - p59Rd8 + pro10Rd8 >= 0 
p11Rd9 - p3Rd8 + pro10Rd8 >= 0 
p3Rd8 + p59Rd8 + p11Rd9 + pro10Rd8 <= 3 
p3Rd8 + p59Rd8 + p11Rd9 - pro10Rd8 >= 0 
p2Rd8 + p58Rd8 + p10Rd9 + pro10Rd8 - p59Rd8 >= 0 
p59Rd8 + p2Rd8 - p58Rd8 + p10Rd9 + pro10Rd8 >= 0 
p59Rd8 - p2Rd8 + p58Rd8 + p10Rd9 + pro10Rd8 >= 0 
p3Rd8 + p2Rd8 + p58Rd8 - p10Rd9 + pro10Rd8 >= 0 
p11Rd9 - p2Rd8 - p58Rd8 - p10Rd9 + pro10Rd8 >= -2 
p2Rd8 - p59Rd8 - p58Rd8 - p10Rd9 + pro10Rd8 >= -2 
p58Rd8 - p59Rd8 - p2Rd8 - p10Rd9 + pro10Rd8 >= -2 
p10Rd9 - p59Rd8 - p2Rd8 - p58Rd8 + pro10Rd8 >= -2 
p60Rd8 - p12Rd9 + pro11Rd8 >= 0 
p4Rd8 - p60Rd8 + pro11Rd8 >= 0 
p12Rd9 - p4Rd8 + pro11Rd8 >= 0 
p4Rd8 + p60Rd8 + p12Rd9 + pro11Rd8 <= 3 
p4Rd8 + p60Rd8 + p12Rd9 - pro11Rd8 >= 0 
p3Rd8 + p59Rd8 + p11Rd9 + pro11Rd8 - p60Rd8 >= 0 
p60Rd8 + p3Rd8 - p59Rd8 + p11Rd9 + pro11Rd8 >= 0 
p60Rd8 - p3Rd8 + p59Rd8 + p11Rd9 + pro11Rd8 >= 0 
p4Rd8 + p3Rd8 + p59Rd8 - p11Rd9 + pro11Rd8 >= 0 
p12Rd9 - p3Rd8 - p59Rd8 - p11Rd9 + pro11Rd8 >= -2 
p3Rd8 - p60Rd8 - p59Rd8 - p11Rd9 + pro11Rd8 >= -2 
p59Rd8 - p60Rd8 - p3Rd8 - p11Rd9 + pro11Rd8 >= -2 
p11Rd9 - p60Rd8 - p3Rd8 - p59Rd8 + pro11Rd8 >= -2 
p61Rd8 - p13Rd9 + pro12Rd8 >= 0 
p5Rd8 - p61Rd8 + pro12Rd8 >= 0 
p13Rd9 - p5Rd8 + pro12Rd8 >= 0 
p5Rd8 + p61Rd8 + p13Rd9 + pro12Rd8 <= 3 
p5Rd8 + p61Rd8 + p13Rd9 - pro12Rd8 >= 0 
p4Rd8 + p60Rd8 + p12Rd9 + pro12Rd8 - p61Rd8 >= 0 
p61Rd8 + p4Rd8 - p60Rd8 + p12Rd9 + pro12Rd8 >= 0 
p61Rd8 - p4Rd8 + p60Rd8 + p12Rd9 + pro12Rd8 >= 0 
p5Rd8 + p4Rd8 + p60Rd8 - p12Rd9 + pro12Rd8 >= 0 
p13Rd9 - p4Rd8 - p60Rd8 - p12Rd9 + pro12Rd8 >= -2 
p4Rd8 - p61Rd8 - p60Rd8 - p12Rd9 + pro12Rd8 >= -2 
p60Rd8 - p61Rd8 - p4Rd8 - p12Rd9 + pro12Rd8 >= -2 
p12Rd9 - p61Rd8 - p4Rd8 - p60Rd8 + pro12Rd8 >= -2 
p62Rd8 - p14Rd9 + pro13Rd8 >= 0 
p6Rd8 - p62Rd8 + pro13Rd8 >= 0 
p14Rd9 - p6Rd8 + pro13Rd8 >= 0 
p6Rd8 + p62Rd8 + p14Rd9 + pro13Rd8 <= 3 
p6Rd8 + p62Rd8 + p14Rd9 - pro13Rd8 >= 0 
p5Rd8 + p61Rd8 + p13Rd9 + pro13Rd8 - p62Rd8 >= 0 
p62Rd8 + p5Rd8 - p61Rd8 + p13Rd9 + pro13Rd8 >= 0 
p62Rd8 - p5Rd8 + p61Rd8 + p13Rd9 + pro13Rd8 >= 0 
p6Rd8 + p5Rd8 + p61Rd8 - p13Rd9 + pro13Rd8 >= 0 
p14Rd9 - p5Rd8 - p61Rd8 - p13Rd9 + pro13Rd8 >= -2 
p5Rd8 - p62Rd8 - p61Rd8 - p13Rd9 + pro13Rd8 >= -2 
p61Rd8 - p62Rd8 - p5Rd8 - p13Rd9 + pro13Rd8 >= -2 
p13Rd9 - p62Rd8 - p5Rd8 - p61Rd8 + pro13Rd8 >= -2 
p63Rd8 - p15Rd9 + pro14Rd8 >= 0 
p7Rd8 - p63Rd8 + pro14Rd8 >= 0 
p15Rd9 - p7Rd8 + pro14Rd8 >= 0 
p7Rd8 + p63Rd8 + p15Rd9 + pro14Rd8 <= 3 
p7Rd8 + p63Rd8 + p15Rd9 - pro14Rd8 >= 0 
p6Rd8 + p62Rd8 + p14Rd9 + pro14Rd8 - p63Rd8 >= 0 
p63Rd8 + p6Rd8 - p62Rd8 + p14Rd9 + pro14Rd8 >= 0 
p63Rd8 - p6Rd8 + p62Rd8 + p14Rd9 + pro14Rd8 >= 0 
p7Rd8 + p6Rd8 + p62Rd8 - p14Rd9 + pro14Rd8 >= 0 
p15Rd9 - p6Rd8 - p62Rd8 - p14Rd9 + pro14Rd8 >= -2 
p6Rd8 - p63Rd8 - p62Rd8 - p14Rd9 + pro14Rd8 >= -2 
p62Rd8 - p63Rd8 - p6Rd8 - p14Rd9 + pro14Rd8 >= -2 
p14Rd9 - p63Rd8 - p6Rd8 - p62Rd8 + pro14Rd8 >= -2 
p64Rd8 - p16Rd9 + pro15Rd8 >= 0 
p8Rd8 - p64Rd8 + pro15Rd8 >= 0 
p16Rd9 - p8Rd8 + pro15Rd8 >= 0 
p8Rd8 + p64Rd8 + p16Rd9 + pro15Rd8 <= 3 
p8Rd8 + p64Rd8 + p16Rd9 - pro15Rd8 >= 0 
p7Rd8 + p63Rd8 + p15Rd9 + pro15Rd8 - p64Rd8 >= 0 
p64Rd8 + p7Rd8 - p63Rd8 + p15Rd9 + pro15Rd8 >= 0 
p64Rd8 - p7Rd8 + p63Rd8 + p15Rd9 + pro15Rd8 >= 0 
p8Rd8 + p7Rd8 + p63Rd8 - p15Rd9 + pro15Rd8 >= 0 
p16Rd9 - p7Rd8 - p63Rd8 - p15Rd9 + pro15Rd8 >= -2 
p7Rd8 - p64Rd8 - p63Rd8 - p15Rd9 + pro15Rd8 >= -2 
p63Rd8 - p64Rd8 - p7Rd8 - p15Rd9 + pro15Rd8 >= -2 
p15Rd9 - p64Rd8 - p7Rd8 - p63Rd8 + pro15Rd8 >= -2 
p65Rd8 - p17Rd9 + pro16Rd8 >= 0 
p9Rd8 - p65Rd8 + pro16Rd8 >= 0 
p17Rd9 - p9Rd8 + pro16Rd8 >= 0 
p9Rd8 + p65Rd8 + p17Rd9 + pro16Rd8 <= 3 
p9Rd8 + p65Rd8 + p17Rd9 - pro16Rd8 >= 0 
p8Rd8 + p64Rd8 + p16Rd9 + pro16Rd8 - p65Rd8 >= 0 
p65Rd8 + p8Rd8 - p64Rd8 + p16Rd9 + pro16Rd8 >= 0 
p65Rd8 - p8Rd8 + p64Rd8 + p16Rd9 + pro16Rd8 >= 0 
p9Rd8 + p8Rd8 + p64Rd8 - p16Rd9 + pro16Rd8 >= 0 
p17Rd9 - p8Rd8 - p64Rd8 - p16Rd9 + pro16Rd8 >= -2 
p8Rd8 - p65Rd8 - p64Rd8 - p16Rd9 + pro16Rd8 >= -2 
p64Rd8 - p65Rd8 - p8Rd8 - p16Rd9 + pro16Rd8 >= -2 
p16Rd9 - p65Rd8 - p8Rd8 - p64Rd8 + pro16Rd8 >= -2 
p66Rd8 - p18Rd9 + pro17Rd8 >= 0 
p10Rd8 - p66Rd8 + pro17Rd8 >= 0 
p18Rd9 - p10Rd8 + pro17Rd8 >= 0 
p10Rd8 + p66Rd8 + p18Rd9 + pro17Rd8 <= 3 
p10Rd8 + p66Rd8 + p18Rd9 - pro17Rd8 >= 0 
p9Rd8 + p65Rd8 + p17Rd9 + pro17Rd8 - p66Rd8 >= 0 
p66Rd8 + p9Rd8 - p65Rd8 + p17Rd9 + pro17Rd8 >= 0 
p66Rd8 - p9Rd8 + p65Rd8 + p17Rd9 + pro17Rd8 >= 0 
p10Rd8 + p9Rd8 + p65Rd8 - p17Rd9 + pro17Rd8 >= 0 
p18Rd9 - p9Rd8 - p65Rd8 - p17Rd9 + pro17Rd8 >= -2 
p9Rd8 - p66Rd8 - p65Rd8 - p17Rd9 + pro17Rd8 >= -2 
p65Rd8 - p66Rd8 - p9Rd8 - p17Rd9 + pro17Rd8 >= -2 
p17Rd9 - p66Rd8 - p9Rd8 - p65Rd8 + pro17Rd8 >= -2 
p67Rd8 - p19Rd9 + pro18Rd8 >= 0 
p11Rd8 - p67Rd8 + pro18Rd8 >= 0 
p19Rd9 - p11Rd8 + pro18Rd8 >= 0 
p11Rd8 + p67Rd8 + p19Rd9 + pro18Rd8 <= 3 
p11Rd8 + p67Rd8 + p19Rd9 - pro18Rd8 >= 0 
p10Rd8 + p66Rd8 + p18Rd9 + pro18Rd8 - p67Rd8 >= 0 
p67Rd8 + p10Rd8 - p66Rd8 + p18Rd9 + pro18Rd8 >= 0 
p67Rd8 - p10Rd8 + p66Rd8 + p18Rd9 + pro18Rd8 >= 0 
p11Rd8 + p10Rd8 + p66Rd8 - p18Rd9 + pro18Rd8 >= 0 
p19Rd9 - p10Rd8 - p66Rd8 - p18Rd9 + pro18Rd8 >= -2 
p10Rd8 - p67Rd8 - p66Rd8 - p18Rd9 + pro18Rd8 >= -2 
p66Rd8 - p67Rd8 - p10Rd8 - p18Rd9 + pro18Rd8 >= -2 
p18Rd9 - p67Rd8 - p10Rd8 - p66Rd8 + pro18Rd8 >= -2 
p68Rd8 - p20Rd9 + pro19Rd8 >= 0 
p12Rd8 - p68Rd8 + pro19Rd8 >= 0 
p20Rd9 - p12Rd8 + pro19Rd8 >= 0 
p12Rd8 + p68Rd8 + p20Rd9 + pro19Rd8 <= 3 
p12Rd8 + p68Rd8 + p20Rd9 - pro19Rd8 >= 0 
p11Rd8 + p67Rd8 + p19Rd9 + pro19Rd8 - p68Rd8 >= 0 
p68Rd8 + p11Rd8 - p67Rd8 + p19Rd9 + pro19Rd8 >= 0 
p68Rd8 - p11Rd8 + p67Rd8 + p19Rd9 + pro19Rd8 >= 0 
p12Rd8 + p11Rd8 + p67Rd8 - p19Rd9 + pro19Rd8 >= 0 
p20Rd9 - p11Rd8 - p67Rd8 - p19Rd9 + pro19Rd8 >= -2 
p11Rd8 - p68Rd8 - p67Rd8 - p19Rd9 + pro19Rd8 >= -2 
p67Rd8 - p68Rd8 - p11Rd8 - p19Rd9 + pro19Rd8 >= -2 
p19Rd9 - p68Rd8 - p11Rd8 - p67Rd8 + pro19Rd8 >= -2 
p69Rd8 - p21Rd9 + pro20Rd8 >= 0 
p13Rd8 - p69Rd8 + pro20Rd8 >= 0 
p21Rd9 - p13Rd8 + pro20Rd8 >= 0 
p13Rd8 + p69Rd8 + p21Rd9 + pro20Rd8 <= 3 
p13Rd8 + p69Rd8 + p21Rd9 - pro20Rd8 >= 0 
p12Rd8 + p68Rd8 + p20Rd9 + pro20Rd8 - p69Rd8 >= 0 
p69Rd8 + p12Rd8 - p68Rd8 + p20Rd9 + pro20Rd8 >= 0 
p69Rd8 - p12Rd8 + p68Rd8 + p20Rd9 + pro20Rd8 >= 0 
p13Rd8 + p12Rd8 + p68Rd8 - p20Rd9 + pro20Rd8 >= 0 
p21Rd9 - p12Rd8 - p68Rd8 - p20Rd9 + pro20Rd8 >= -2 
p12Rd8 - p69Rd8 - p68Rd8 - p20Rd9 + pro20Rd8 >= -2 
p68Rd8 - p69Rd8 - p12Rd8 - p20Rd9 + pro20Rd8 >= -2 
p20Rd9 - p69Rd8 - p12Rd8 - p68Rd8 + pro20Rd8 >= -2 
p70Rd8 - p22Rd9 + pro21Rd8 >= 0 
p14Rd8 - p70Rd8 + pro21Rd8 >= 0 
p22Rd9 - p14Rd8 + pro21Rd8 >= 0 
p14Rd8 + p70Rd8 + p22Rd9 + pro21Rd8 <= 3 
p14Rd8 + p70Rd8 + p22Rd9 - pro21Rd8 >= 0 
p13Rd8 + p69Rd8 + p21Rd9 + pro21Rd8 - p70Rd8 >= 0 
p70Rd8 + p13Rd8 - p69Rd8 + p21Rd9 + pro21Rd8 >= 0 
p70Rd8 - p13Rd8 + p69Rd8 + p21Rd9 + pro21Rd8 >= 0 
p14Rd8 + p13Rd8 + p69Rd8 - p21Rd9 + pro21Rd8 >= 0 
p22Rd9 - p13Rd8 - p69Rd8 - p21Rd9 + pro21Rd8 >= -2 
p13Rd8 - p70Rd8 - p69Rd8 - p21Rd9 + pro21Rd8 >= -2 
p69Rd8 - p70Rd8 - p13Rd8 - p21Rd9 + pro21Rd8 >= -2 
p21Rd9 - p70Rd8 - p13Rd8 - p69Rd8 + pro21Rd8 >= -2 
p71Rd8 - p23Rd9 + pro22Rd8 >= 0 
p15Rd8 - p71Rd8 + pro22Rd8 >= 0 
p23Rd9 - p15Rd8 + pro22Rd8 >= 0 
p15Rd8 + p71Rd8 + p23Rd9 + pro22Rd8 <= 3 
p15Rd8 + p71Rd8 + p23Rd9 - pro22Rd8 >= 0 
p14Rd8 + p70Rd8 + p22Rd9 + pro22Rd8 - p71Rd8 >= 0 
p71Rd8 + p14Rd8 - p70Rd8 + p22Rd9 + pro22Rd8 >= 0 
p71Rd8 - p14Rd8 + p70Rd8 + p22Rd9 + pro22Rd8 >= 0 
p15Rd8 + p14Rd8 + p70Rd8 - p22Rd9 + pro22Rd8 >= 0 
p23Rd9 - p14Rd8 - p70Rd8 - p22Rd9 + pro22Rd8 >= -2 
p14Rd8 - p71Rd8 - p70Rd8 - p22Rd9 + pro22Rd8 >= -2 
p70Rd8 - p71Rd8 - p14Rd8 - p22Rd9 + pro22Rd8 >= -2 
p22Rd9 - p71Rd8 - p14Rd8 - p70Rd8 + pro22Rd8 >= -2 
p72Rd8 - p24Rd9 + pro23Rd8 >= 0 
p16Rd8 - p72Rd8 + pro23Rd8 >= 0 
p24Rd9 - p16Rd8 + pro23Rd8 >= 0 
p16Rd8 + p72Rd8 + p24Rd9 + pro23Rd8 <= 3 
p16Rd8 + p72Rd8 + p24Rd9 - pro23Rd8 >= 0 
p15Rd8 + p71Rd8 + p23Rd9 + pro23Rd8 - p72Rd8 >= 0 
p72Rd8 + p15Rd8 - p71Rd8 + p23Rd9 + pro23Rd8 >= 0 
p72Rd8 - p15Rd8 + p71Rd8 + p23Rd9 + pro23Rd8 >= 0 
p16Rd8 + p15Rd8 + p71Rd8 - p23Rd9 + pro23Rd8 >= 0 
p24Rd9 - p15Rd8 - p71Rd8 - p23Rd9 + pro23Rd8 >= -2 
p15Rd8 - p72Rd8 - p71Rd8 - p23Rd9 + pro23Rd8 >= -2 
p71Rd8 - p72Rd8 - p15Rd8 - p23Rd9 + pro23Rd8 >= -2 
p23Rd9 - p72Rd8 - p15Rd8 - p71Rd8 + pro23Rd8 >= -2 
p73Rd8 - p25Rd9 + pro24Rd8 >= 0 
p17Rd8 - p73Rd8 + pro24Rd8 >= 0 
p25Rd9 - p17Rd8 + pro24Rd8 >= 0 
p17Rd8 + p73Rd8 + p25Rd9 + pro24Rd8 <= 3 
p17Rd8 + p73Rd8 + p25Rd9 - pro24Rd8 >= 0 
p16Rd8 + p72Rd8 + p24Rd9 + pro24Rd8 - p73Rd8 >= 0 
p73Rd8 + p16Rd8 - p72Rd8 + p24Rd9 + pro24Rd8 >= 0 
p73Rd8 - p16Rd8 + p72Rd8 + p24Rd9 + pro24Rd8 >= 0 
p17Rd8 + p16Rd8 + p72Rd8 - p24Rd9 + pro24Rd8 >= 0 
p25Rd9 - p16Rd8 - p72Rd8 - p24Rd9 + pro24Rd8 >= -2 
p16Rd8 - p73Rd8 - p72Rd8 - p24Rd9 + pro24Rd8 >= -2 
p72Rd8 - p73Rd8 - p16Rd8 - p24Rd9 + pro24Rd8 >= -2 
p24Rd9 - p73Rd8 - p16Rd8 - p72Rd8 + pro24Rd8 >= -2 
p74Rd8 - p26Rd9 + pro25Rd8 >= 0 
p18Rd8 - p74Rd8 + pro25Rd8 >= 0 
p26Rd9 - p18Rd8 + pro25Rd8 >= 0 
p18Rd8 + p74Rd8 + p26Rd9 + pro25Rd8 <= 3 
p18Rd8 + p74Rd8 + p26Rd9 - pro25Rd8 >= 0 
p17Rd8 + p73Rd8 + p25Rd9 + pro25Rd8 - p74Rd8 >= 0 
p74Rd8 + p17Rd8 - p73Rd8 + p25Rd9 + pro25Rd8 >= 0 
p74Rd8 - p17Rd8 + p73Rd8 + p25Rd9 + pro25Rd8 >= 0 
p18Rd8 + p17Rd8 + p73Rd8 - p25Rd9 + pro25Rd8 >= 0 
p26Rd9 - p17Rd8 - p73Rd8 - p25Rd9 + pro25Rd8 >= -2 
p17Rd8 - p74Rd8 - p73Rd8 - p25Rd9 + pro25Rd8 >= -2 
p73Rd8 - p74Rd8 - p17Rd8 - p25Rd9 + pro25Rd8 >= -2 
p25Rd9 - p74Rd8 - p17Rd8 - p73Rd8 + pro25Rd8 >= -2 
p75Rd8 - p27Rd9 + pro26Rd8 >= 0 
p19Rd8 - p75Rd8 + pro26Rd8 >= 0 
p27Rd9 - p19Rd8 + pro26Rd8 >= 0 
p19Rd8 + p75Rd8 + p27Rd9 + pro26Rd8 <= 3 
p19Rd8 + p75Rd8 + p27Rd9 - pro26Rd8 >= 0 
p18Rd8 + p74Rd8 + p26Rd9 + pro26Rd8 - p75Rd8 >= 0 
p75Rd8 + p18Rd8 - p74Rd8 + p26Rd9 + pro26Rd8 >= 0 
p75Rd8 - p18Rd8 + p74Rd8 + p26Rd9 + pro26Rd8 >= 0 
p19Rd8 + p18Rd8 + p74Rd8 - p26Rd9 + pro26Rd8 >= 0 
p27Rd9 - p18Rd8 - p74Rd8 - p26Rd9 + pro26Rd8 >= -2 
p18Rd8 - p75Rd8 - p74Rd8 - p26Rd9 + pro26Rd8 >= -2 
p74Rd8 - p75Rd8 - p18Rd8 - p26Rd9 + pro26Rd8 >= -2 
p26Rd9 - p75Rd8 - p18Rd8 - p74Rd8 + pro26Rd8 >= -2 
p76Rd8 - p28Rd9 + pro27Rd8 >= 0 
p20Rd8 - p76Rd8 + pro27Rd8 >= 0 
p28Rd9 - p20Rd8 + pro27Rd8 >= 0 
p20Rd8 + p76Rd8 + p28Rd9 + pro27Rd8 <= 3 
p20Rd8 + p76Rd8 + p28Rd9 - pro27Rd8 >= 0 
p19Rd8 + p75Rd8 + p27Rd9 + pro27Rd8 - p76Rd8 >= 0 
p76Rd8 + p19Rd8 - p75Rd8 + p27Rd9 + pro27Rd8 >= 0 
p76Rd8 - p19Rd8 + p75Rd8 + p27Rd9 + pro27Rd8 >= 0 
p20Rd8 + p19Rd8 + p75Rd8 - p27Rd9 + pro27Rd8 >= 0 
p28Rd9 - p19Rd8 - p75Rd8 - p27Rd9 + pro27Rd8 >= -2 
p19Rd8 - p76Rd8 - p75Rd8 - p27Rd9 + pro27Rd8 >= -2 
p75Rd8 - p76Rd8 - p19Rd8 - p27Rd9 + pro27Rd8 >= -2 
p27Rd9 - p76Rd8 - p19Rd8 - p75Rd8 + pro27Rd8 >= -2 
p77Rd8 - p29Rd9 + pro28Rd8 >= 0 
p21Rd8 - p77Rd8 + pro28Rd8 >= 0 
p29Rd9 - p21Rd8 + pro28Rd8 >= 0 
p21Rd8 + p77Rd8 + p29Rd9 + pro28Rd8 <= 3 
p21Rd8 + p77Rd8 + p29Rd9 - pro28Rd8 >= 0 
p20Rd8 + p76Rd8 + p28Rd9 + pro28Rd8 - p77Rd8 >= 0 
p77Rd8 + p20Rd8 - p76Rd8 + p28Rd9 + pro28Rd8 >= 0 
p77Rd8 - p20Rd8 + p76Rd8 + p28Rd9 + pro28Rd8 >= 0 
p21Rd8 + p20Rd8 + p76Rd8 - p28Rd9 + pro28Rd8 >= 0 
p29Rd9 - p20Rd8 - p76Rd8 - p28Rd9 + pro28Rd8 >= -2 
p20Rd8 - p77Rd8 - p76Rd8 - p28Rd9 + pro28Rd8 >= -2 
p76Rd8 - p77Rd8 - p20Rd8 - p28Rd9 + pro28Rd8 >= -2 
p28Rd9 - p77Rd8 - p20Rd8 - p76Rd8 + pro28Rd8 >= -2 
p78Rd8 - p30Rd9 + pro29Rd8 >= 0 
p22Rd8 - p78Rd8 + pro29Rd8 >= 0 
p30Rd9 - p22Rd8 + pro29Rd8 >= 0 
p22Rd8 + p78Rd8 + p30Rd9 + pro29Rd8 <= 3 
p22Rd8 + p78Rd8 + p30Rd9 - pro29Rd8 >= 0 
p21Rd8 + p77Rd8 + p29Rd9 + pro29Rd8 - p78Rd8 >= 0 
p78Rd8 + p21Rd8 - p77Rd8 + p29Rd9 + pro29Rd8 >= 0 
p78Rd8 - p21Rd8 + p77Rd8 + p29Rd9 + pro29Rd8 >= 0 
p22Rd8 + p21Rd8 + p77Rd8 - p29Rd9 + pro29Rd8 >= 0 
p30Rd9 - p21Rd8 - p77Rd8 - p29Rd9 + pro29Rd8 >= -2 
p21Rd8 - p78Rd8 - p77Rd8 - p29Rd9 + pro29Rd8 >= -2 
p77Rd8 - p78Rd8 - p21Rd8 - p29Rd9 + pro29Rd8 >= -2 
p29Rd9 - p78Rd8 - p21Rd8 - p77Rd8 + pro29Rd8 >= -2 
p79Rd8 - p31Rd9 + pro30Rd8 >= 0 
p23Rd8 - p79Rd8 + pro30Rd8 >= 0 
p31Rd9 - p23Rd8 + pro30Rd8 >= 0 
p23Rd8 + p79Rd8 + p31Rd9 + pro30Rd8 <= 3 
p23Rd8 + p79Rd8 + p31Rd9 - pro30Rd8 >= 0 
p22Rd8 + p78Rd8 + p30Rd9 + pro30Rd8 - p79Rd8 >= 0 
p79Rd8 + p22Rd8 - p78Rd8 + p30Rd9 + pro30Rd8 >= 0 
p79Rd8 - p22Rd8 + p78Rd8 + p30Rd9 + pro30Rd8 >= 0 
p23Rd8 + p22Rd8 + p78Rd8 - p30Rd9 + pro30Rd8 >= 0 
p31Rd9 - p22Rd8 - p78Rd8 - p30Rd9 + pro30Rd8 >= -2 
p22Rd8 - p79Rd8 - p78Rd8 - p30Rd9 + pro30Rd8 >= -2 
p78Rd8 - p79Rd8 - p22Rd8 - p30Rd9 + pro30Rd8 >= -2 
p30Rd9 - p79Rd8 - p22Rd8 - p78Rd8 + pro30Rd8 >= -2 
p80Rd8 - p32Rd9 + pro31Rd8 >= 0 
p24Rd8 - p80Rd8 + pro31Rd8 >= 0 
p32Rd9 - p24Rd8 + pro31Rd8 >= 0 
p24Rd8 + p80Rd8 + p32Rd9 + pro31Rd8 <= 3 
p24Rd8 + p80Rd8 + p32Rd9 - pro31Rd8 >= 0 
p23Rd8 + p79Rd8 + p31Rd9 + pro31Rd8 - p80Rd8 >= 0 
p80Rd8 + p23Rd8 - p79Rd8 + p31Rd9 + pro31Rd8 >= 0 
p80Rd8 - p23Rd8 + p79Rd8 + p31Rd9 + pro31Rd8 >= 0 
p24Rd8 + p23Rd8 + p79Rd8 - p31Rd9 + pro31Rd8 >= 0 
p32Rd9 - p23Rd8 - p79Rd8 - p31Rd9 + pro31Rd8 >= -2 
p23Rd8 - p80Rd8 - p79Rd8 - p31Rd9 + pro31Rd8 >= -2 
p79Rd8 - p80Rd8 - p23Rd8 - p31Rd9 + pro31Rd8 >= -2 
p31Rd9 - p80Rd8 - p23Rd8 - p79Rd8 + pro31Rd8 >= -2 
p81Rd8 - p33Rd9 + pro32Rd8 >= 0 
p25Rd8 - p81Rd8 + pro32Rd8 >= 0 
p33Rd9 - p25Rd8 + pro32Rd8 >= 0 
p25Rd8 + p81Rd8 + p33Rd9 + pro32Rd8 <= 3 
p25Rd8 + p81Rd8 + p33Rd9 - pro32Rd8 >= 0 
p24Rd8 + p80Rd8 + p32Rd9 + pro32Rd8 - p81Rd8 >= 0 
p81Rd8 + p24Rd8 - p80Rd8 + p32Rd9 + pro32Rd8 >= 0 
p81Rd8 - p24Rd8 + p80Rd8 + p32Rd9 + pro32Rd8 >= 0 
p25Rd8 + p24Rd8 + p80Rd8 - p32Rd9 + pro32Rd8 >= 0 
p33Rd9 - p24Rd8 - p80Rd8 - p32Rd9 + pro32Rd8 >= -2 
p24Rd8 - p81Rd8 - p80Rd8 - p32Rd9 + pro32Rd8 >= -2 
p80Rd8 - p81Rd8 - p24Rd8 - p32Rd9 + pro32Rd8 >= -2 
p32Rd9 - p81Rd8 - p24Rd8 - p80Rd8 + pro32Rd8 >= -2 
p82Rd8 - p34Rd9 + pro33Rd8 >= 0 
p26Rd8 - p82Rd8 + pro33Rd8 >= 0 
p34Rd9 - p26Rd8 + pro33Rd8 >= 0 
p26Rd8 + p82Rd8 + p34Rd9 + pro33Rd8 <= 3 
p26Rd8 + p82Rd8 + p34Rd9 - pro33Rd8 >= 0 
p25Rd8 + p81Rd8 + p33Rd9 + pro33Rd8 - p82Rd8 >= 0 
p82Rd8 + p25Rd8 - p81Rd8 + p33Rd9 + pro33Rd8 >= 0 
p82Rd8 - p25Rd8 + p81Rd8 + p33Rd9 + pro33Rd8 >= 0 
p26Rd8 + p25Rd8 + p81Rd8 - p33Rd9 + pro33Rd8 >= 0 
p34Rd9 - p25Rd8 - p81Rd8 - p33Rd9 + pro33Rd8 >= -2 
p25Rd8 - p82Rd8 - p81Rd8 - p33Rd9 + pro33Rd8 >= -2 
p81Rd8 - p82Rd8 - p25Rd8 - p33Rd9 + pro33Rd8 >= -2 
p33Rd9 - p82Rd8 - p25Rd8 - p81Rd8 + pro33Rd8 >= -2 
p83Rd8 - p35Rd9 + pro34Rd8 >= 0 
p27Rd8 - p83Rd8 + pro34Rd8 >= 0 
p35Rd9 - p27Rd8 + pro34Rd8 >= 0 
p27Rd8 + p83Rd8 + p35Rd9 + pro34Rd8 <= 3 
p27Rd8 + p83Rd8 + p35Rd9 - pro34Rd8 >= 0 
p26Rd8 + p82Rd8 + p34Rd9 + pro34Rd8 - p83Rd8 >= 0 
p83Rd8 + p26Rd8 - p82Rd8 + p34Rd9 + pro34Rd8 >= 0 
p83Rd8 - p26Rd8 + p82Rd8 + p34Rd9 + pro34Rd8 >= 0 
p27Rd8 + p26Rd8 + p82Rd8 - p34Rd9 + pro34Rd8 >= 0 
p35Rd9 - p26Rd8 - p82Rd8 - p34Rd9 + pro34Rd8 >= -2 
p26Rd8 - p83Rd8 - p82Rd8 - p34Rd9 + pro34Rd8 >= -2 
p82Rd8 - p83Rd8 - p26Rd8 - p34Rd9 + pro34Rd8 >= -2 
p34Rd9 - p83Rd8 - p26Rd8 - p82Rd8 + pro34Rd8 >= -2 
p84Rd8 - p36Rd9 + pro35Rd8 >= 0 
p28Rd8 - p84Rd8 + pro35Rd8 >= 0 
p36Rd9 - p28Rd8 + pro35Rd8 >= 0 
p28Rd8 + p84Rd8 + p36Rd9 + pro35Rd8 <= 3 
p28Rd8 + p84Rd8 + p36Rd9 - pro35Rd8 >= 0 
p27Rd8 + p83Rd8 + p35Rd9 + pro35Rd8 - p84Rd8 >= 0 
p84Rd8 + p27Rd8 - p83Rd8 + p35Rd9 + pro35Rd8 >= 0 
p84Rd8 - p27Rd8 + p83Rd8 + p35Rd9 + pro35Rd8 >= 0 
p28Rd8 + p27Rd8 + p83Rd8 - p35Rd9 + pro35Rd8 >= 0 
p36Rd9 - p27Rd8 - p83Rd8 - p35Rd9 + pro35Rd8 >= -2 
p27Rd8 - p84Rd8 - p83Rd8 - p35Rd9 + pro35Rd8 >= -2 
p83Rd8 - p84Rd8 - p27Rd8 - p35Rd9 + pro35Rd8 >= -2 
p35Rd9 - p84Rd8 - p27Rd8 - p83Rd8 + pro35Rd8 >= -2 
p85Rd8 - p37Rd9 + pro36Rd8 >= 0 
p29Rd8 - p85Rd8 + pro36Rd8 >= 0 
p37Rd9 - p29Rd8 + pro36Rd8 >= 0 
p29Rd8 + p85Rd8 + p37Rd9 + pro36Rd8 <= 3 
p29Rd8 + p85Rd8 + p37Rd9 - pro36Rd8 >= 0 
p28Rd8 + p84Rd8 + p36Rd9 + pro36Rd8 - p85Rd8 >= 0 
p85Rd8 + p28Rd8 - p84Rd8 + p36Rd9 + pro36Rd8 >= 0 
p85Rd8 - p28Rd8 + p84Rd8 + p36Rd9 + pro36Rd8 >= 0 
p29Rd8 + p28Rd8 + p84Rd8 - p36Rd9 + pro36Rd8 >= 0 
p37Rd9 - p28Rd8 - p84Rd8 - p36Rd9 + pro36Rd8 >= -2 
p28Rd8 - p85Rd8 - p84Rd8 - p36Rd9 + pro36Rd8 >= -2 
p84Rd8 - p85Rd8 - p28Rd8 - p36Rd9 + pro36Rd8 >= -2 
p36Rd9 - p85Rd8 - p28Rd8 - p84Rd8 + pro36Rd8 >= -2 
p86Rd8 - p38Rd9 + pro37Rd8 >= 0 
p30Rd8 - p86Rd8 + pro37Rd8 >= 0 
p38Rd9 - p30Rd8 + pro37Rd8 >= 0 
p30Rd8 + p86Rd8 + p38Rd9 + pro37Rd8 <= 3 
p30Rd8 + p86Rd8 + p38Rd9 - pro37Rd8 >= 0 
p29Rd8 + p85Rd8 + p37Rd9 + pro37Rd8 - p86Rd8 >= 0 
p86Rd8 + p29Rd8 - p85Rd8 + p37Rd9 + pro37Rd8 >= 0 
p86Rd8 - p29Rd8 + p85Rd8 + p37Rd9 + pro37Rd8 >= 0 
p30Rd8 + p29Rd8 + p85Rd8 - p37Rd9 + pro37Rd8 >= 0 
p38Rd9 - p29Rd8 - p85Rd8 - p37Rd9 + pro37Rd8 >= -2 
p29Rd8 - p86Rd8 - p85Rd8 - p37Rd9 + pro37Rd8 >= -2 
p85Rd8 - p86Rd8 - p29Rd8 - p37Rd9 + pro37Rd8 >= -2 
p37Rd9 - p86Rd8 - p29Rd8 - p85Rd8 + pro37Rd8 >= -2 
p87Rd8 - p39Rd9 + pro38Rd8 >= 0 
p31Rd8 - p87Rd8 + pro38Rd8 >= 0 
p39Rd9 - p31Rd8 + pro38Rd8 >= 0 
p31Rd8 + p87Rd8 + p39Rd9 + pro38Rd8 <= 3 
p31Rd8 + p87Rd8 + p39Rd9 - pro38Rd8 >= 0 
p30Rd8 + p86Rd8 + p38Rd9 + pro38Rd8 - p87Rd8 >= 0 
p87Rd8 + p30Rd8 - p86Rd8 + p38Rd9 + pro38Rd8 >= 0 
p87Rd8 - p30Rd8 + p86Rd8 + p38Rd9 + pro38Rd8 >= 0 
p31Rd8 + p30Rd8 + p86Rd8 - p38Rd9 + pro38Rd8 >= 0 
p39Rd9 - p30Rd8 - p86Rd8 - p38Rd9 + pro38Rd8 >= -2 
p30Rd8 - p87Rd8 - p86Rd8 - p38Rd9 + pro38Rd8 >= -2 
p86Rd8 - p87Rd8 - p30Rd8 - p38Rd9 + pro38Rd8 >= -2 
p38Rd9 - p87Rd8 - p30Rd8 - p86Rd8 + pro38Rd8 >= -2 
p88Rd8 - p40Rd9 + pro39Rd8 >= 0 
p32Rd8 - p88Rd8 + pro39Rd8 >= 0 
p40Rd9 - p32Rd8 + pro39Rd8 >= 0 
p32Rd8 + p88Rd8 + p40Rd9 + pro39Rd8 <= 3 
p32Rd8 + p88Rd8 + p40Rd9 - pro39Rd8 >= 0 
p31Rd8 + p87Rd8 + p39Rd9 + pro39Rd8 - p88Rd8 >= 0 
p88Rd8 + p31Rd8 - p87Rd8 + p39Rd9 + pro39Rd8 >= 0 
p88Rd8 - p31Rd8 + p87Rd8 + p39Rd9 + pro39Rd8 >= 0 
p32Rd8 + p31Rd8 + p87Rd8 - p39Rd9 + pro39Rd8 >= 0 
p40Rd9 - p31Rd8 - p87Rd8 - p39Rd9 + pro39Rd8 >= -2 
p31Rd8 - p88Rd8 - p87Rd8 - p39Rd9 + pro39Rd8 >= -2 
p87Rd8 - p88Rd8 - p31Rd8 - p39Rd9 + pro39Rd8 >= -2 
p39Rd9 - p88Rd8 - p31Rd8 - p87Rd8 + pro39Rd8 >= -2 
p89Rd8 - p41Rd9 + pro40Rd8 >= 0 
p33Rd8 - p89Rd8 + pro40Rd8 >= 0 
p41Rd9 - p33Rd8 + pro40Rd8 >= 0 
p33Rd8 + p89Rd8 + p41Rd9 + pro40Rd8 <= 3 
p33Rd8 + p89Rd8 + p41Rd9 - pro40Rd8 >= 0 
p32Rd8 + p88Rd8 + p40Rd9 + pro40Rd8 - p89Rd8 >= 0 
p89Rd8 + p32Rd8 - p88Rd8 + p40Rd9 + pro40Rd8 >= 0 
p89Rd8 - p32Rd8 + p88Rd8 + p40Rd9 + pro40Rd8 >= 0 
p33Rd8 + p32Rd8 + p88Rd8 - p40Rd9 + pro40Rd8 >= 0 
p41Rd9 - p32Rd8 - p88Rd8 - p40Rd9 + pro40Rd8 >= -2 
p32Rd8 - p89Rd8 - p88Rd8 - p40Rd9 + pro40Rd8 >= -2 
p88Rd8 - p89Rd8 - p32Rd8 - p40Rd9 + pro40Rd8 >= -2 
p40Rd9 - p89Rd8 - p32Rd8 - p88Rd8 + pro40Rd8 >= -2 
p90Rd8 - p42Rd9 + pro41Rd8 >= 0 
p34Rd8 - p90Rd8 + pro41Rd8 >= 0 
p42Rd9 - p34Rd8 + pro41Rd8 >= 0 
p34Rd8 + p90Rd8 + p42Rd9 + pro41Rd8 <= 3 
p34Rd8 + p90Rd8 + p42Rd9 - pro41Rd8 >= 0 
p33Rd8 + p89Rd8 + p41Rd9 + pro41Rd8 - p90Rd8 >= 0 
p90Rd8 + p33Rd8 - p89Rd8 + p41Rd9 + pro41Rd8 >= 0 
p90Rd8 - p33Rd8 + p89Rd8 + p41Rd9 + pro41Rd8 >= 0 
p34Rd8 + p33Rd8 + p89Rd8 - p41Rd9 + pro41Rd8 >= 0 
p42Rd9 - p33Rd8 - p89Rd8 - p41Rd9 + pro41Rd8 >= -2 
p33Rd8 - p90Rd8 - p89Rd8 - p41Rd9 + pro41Rd8 >= -2 
p89Rd8 - p90Rd8 - p33Rd8 - p41Rd9 + pro41Rd8 >= -2 
p41Rd9 - p90Rd8 - p33Rd8 - p89Rd8 + pro41Rd8 >= -2 
p91Rd8 - p43Rd9 + pro42Rd8 >= 0 
p35Rd8 - p91Rd8 + pro42Rd8 >= 0 
p43Rd9 - p35Rd8 + pro42Rd8 >= 0 
p35Rd8 + p91Rd8 + p43Rd9 + pro42Rd8 <= 3 
p35Rd8 + p91Rd8 + p43Rd9 - pro42Rd8 >= 0 
p34Rd8 + p90Rd8 + p42Rd9 + pro42Rd8 - p91Rd8 >= 0 
p91Rd8 + p34Rd8 - p90Rd8 + p42Rd9 + pro42Rd8 >= 0 
p91Rd8 - p34Rd8 + p90Rd8 + p42Rd9 + pro42Rd8 >= 0 
p35Rd8 + p34Rd8 + p90Rd8 - p42Rd9 + pro42Rd8 >= 0 
p43Rd9 - p34Rd8 - p90Rd8 - p42Rd9 + pro42Rd8 >= -2 
p34Rd8 - p91Rd8 - p90Rd8 - p42Rd9 + pro42Rd8 >= -2 
p90Rd8 - p91Rd8 - p34Rd8 - p42Rd9 + pro42Rd8 >= -2 
p42Rd9 - p91Rd8 - p34Rd8 - p90Rd8 + pro42Rd8 >= -2 
p92Rd8 - p44Rd9 + pro43Rd8 >= 0 
p36Rd8 - p92Rd8 + pro43Rd8 >= 0 
p44Rd9 - p36Rd8 + pro43Rd8 >= 0 
p36Rd8 + p92Rd8 + p44Rd9 + pro43Rd8 <= 3 
p36Rd8 + p92Rd8 + p44Rd9 - pro43Rd8 >= 0 
p35Rd8 + p91Rd8 + p43Rd9 + pro43Rd8 - p92Rd8 >= 0 
p92Rd8 + p35Rd8 - p91Rd8 + p43Rd9 + pro43Rd8 >= 0 
p92Rd8 - p35Rd8 + p91Rd8 + p43Rd9 + pro43Rd8 >= 0 
p36Rd8 + p35Rd8 + p91Rd8 - p43Rd9 + pro43Rd8 >= 0 
p44Rd9 - p35Rd8 - p91Rd8 - p43Rd9 + pro43Rd8 >= -2 
p35Rd8 - p92Rd8 - p91Rd8 - p43Rd9 + pro43Rd8 >= -2 
p91Rd8 - p92Rd8 - p35Rd8 - p43Rd9 + pro43Rd8 >= -2 
p43Rd9 - p92Rd8 - p35Rd8 - p91Rd8 + pro43Rd8 >= -2 
p93Rd8 - p45Rd9 + pro44Rd8 >= 0 
p37Rd8 - p93Rd8 + pro44Rd8 >= 0 
p45Rd9 - p37Rd8 + pro44Rd8 >= 0 
p37Rd8 + p93Rd8 + p45Rd9 + pro44Rd8 <= 3 
p37Rd8 + p93Rd8 + p45Rd9 - pro44Rd8 >= 0 
p36Rd8 + p92Rd8 + p44Rd9 + pro44Rd8 - p93Rd8 >= 0 
p93Rd8 + p36Rd8 - p92Rd8 + p44Rd9 + pro44Rd8 >= 0 
p93Rd8 - p36Rd8 + p92Rd8 + p44Rd9 + pro44Rd8 >= 0 
p37Rd8 + p36Rd8 + p92Rd8 - p44Rd9 + pro44Rd8 >= 0 
p45Rd9 - p36Rd8 - p92Rd8 - p44Rd9 + pro44Rd8 >= -2 
p36Rd8 - p93Rd8 - p92Rd8 - p44Rd9 + pro44Rd8 >= -2 
p92Rd8 - p93Rd8 - p36Rd8 - p44Rd9 + pro44Rd8 >= -2 
p44Rd9 - p93Rd8 - p36Rd8 - p92Rd8 + pro44Rd8 >= -2 
p94Rd8 - p46Rd9 + pro45Rd8 >= 0 
p38Rd8 - p94Rd8 + pro45Rd8 >= 0 
p46Rd9 - p38Rd8 + pro45Rd8 >= 0 
p38Rd8 + p94Rd8 + p46Rd9 + pro45Rd8 <= 3 
p38Rd8 + p94Rd8 + p46Rd9 - pro45Rd8 >= 0 
p37Rd8 + p93Rd8 + p45Rd9 + pro45Rd8 - p94Rd8 >= 0 
p94Rd8 + p37Rd8 - p93Rd8 + p45Rd9 + pro45Rd8 >= 0 
p94Rd8 - p37Rd8 + p93Rd8 + p45Rd9 + pro45Rd8 >= 0 
p38Rd8 + p37Rd8 + p93Rd8 - p45Rd9 + pro45Rd8 >= 0 
p46Rd9 - p37Rd8 - p93Rd8 - p45Rd9 + pro45Rd8 >= -2 
p37Rd8 - p94Rd8 - p93Rd8 - p45Rd9 + pro45Rd8 >= -2 
p93Rd8 - p94Rd8 - p37Rd8 - p45Rd9 + pro45Rd8 >= -2 
p45Rd9 - p94Rd8 - p37Rd8 - p93Rd8 + pro45Rd8 >= -2 
p95Rd8 - p47Rd9 + pro46Rd8 >= 0 
p39Rd8 - p95Rd8 + pro46Rd8 >= 0 
p47Rd9 - p39Rd8 + pro46Rd8 >= 0 
p39Rd8 + p95Rd8 + p47Rd9 + pro46Rd8 <= 3 
p39Rd8 + p95Rd8 + p47Rd9 - pro46Rd8 >= 0 
p38Rd8 + p94Rd8 + p46Rd9 + pro46Rd8 - p95Rd8 >= 0 
p95Rd8 + p38Rd8 - p94Rd8 + p46Rd9 + pro46Rd8 >= 0 
p95Rd8 - p38Rd8 + p94Rd8 + p46Rd9 + pro46Rd8 >= 0 
p39Rd8 + p38Rd8 + p94Rd8 - p46Rd9 + pro46Rd8 >= 0 
p47Rd9 - p38Rd8 - p94Rd8 - p46Rd9 + pro46Rd8 >= -2 
p38Rd8 - p95Rd8 - p94Rd8 - p46Rd9 + pro46Rd8 >= -2 
p94Rd8 - p95Rd8 - p38Rd8 - p46Rd9 + pro46Rd8 >= -2 
p46Rd9 - p95Rd8 - p38Rd8 - p94Rd8 + pro46Rd8 >= -2 
p39Rd8 + p95Rd8 + p47Rd9 <= 2 
p39Rd8 + p95Rd8 + p47Rd9 - 2 temp8 >= 0 
temp8 - p39Rd8 >= 0 
temp8 - p95Rd8 >= 0 
temp8 - p47Rd9 >= 0 
p20 = 1
p0 = 0
p1 = 0
p2 = 0
p3 = 0
p4 = 0
p5 = 0
p6 = 0
p7 = 0
p8 = 0
p9 = 0
p10 = 0
p11 = 0
p12 = 0
p13 = 0
p14 = 0
p15 = 0
p16 = 0
p17 = 0
p18 = 0
p19 = 0
p21 = 0
p22 = 0
p23 = 0
p24 = 0
p25 = 0
p26 = 0
p27 = 0
p28 = 0
p29 = 0
p30 = 0
p31 = 0
p32 = 0
p33 = 0
p34 = 0
p35 = 0
p36 = 0
p37 = 0
p38 = 0
p39 = 0
p40 = 0
p41 = 0
p42 = 0
p43 = 0
p44 = 0
p45 = 0
p46 = 0
p47 = 0
p48 = 0
p49 = 0
p50 = 0
p51 = 0
p52 = 0
p53 = 0
p54 = 0
p55 = 0
p56 = 0
p57 = 0
p58 = 0
p59 = 0
p60 = 0
p61 = 0
p62 = 0
p63 = 0
p64 = 0
p65 = 0
p66 = 0
p67 = 0
p68 = 0
p69 = 0
p70 = 0
p71 = 0
p72 = 0
p73 = 0
p74 = 0
p75 = 0
p76 = 0
p77 = 0
p78 = 0
p79 = 0
p80 = 0
p81 = 0
p82 = 0
p83 = 0
p84 = 0
p85 = 0
p86 = 0
p87 = 0
p88 = 0
p89 = 0
p90 = 0
p91 = 0
p92 = 0
p93 = 0
p94 = 0
p95 = 0


Binary
p92Rd9
pro39Rd6
p50Rd8
p70Rd1
p76Rd3
p25Rd7
pro21Rd6
pro4Rd5
p32Rd4
p78Rd6
p74Rd4
p84Rd2
p21Rd8
pro37Rd8
pro19Rd3
p87Rd5
p23Rd4
p69Rd7
p82Rd8
pro31Rd2
p47Rd8
p89Rd9
pro9Rd3
p49Rd2
pro36Rd5
pro42Rd5
p79Rd8
p9Rd5
pro38Rd3
p87Rd9
p61Rd4
p67Rd8
p17Rd7
p4Rd4
p15Rd7
pro34Rd0
p92Rd3
p47
p35Rd4
p40
p30Rd3
p56Rd4
p43Rd4
pro9Rd8
p77Rd6
pro41Rd4
pro35Rd4
p18
p23
pro0Rd3
pro32Rd4
p25
p30Rd1
p48Rd6
pro14Rd1
pro2Rd1
p87Rd8
p59
pro16Rd8
pro27Rd0
p20Rd8
pro22Rd3
pro9Rd7
p40Rd4
pro45Rd4
p60Rd5
pro40Rd6
p35Rd3
pro10Rd7
p75Rd4
p66Rd8
p26Rd2
p31Rd8
pro34Rd1
p54Rd4
p43Rd9
pro26Rd1
pro46Rd6
p90Rd6
p45Rd3
pro1Rd2
pro35Rd7
p33Rd8
pro28Rd3
pro43Rd0
p8Rd2
p59Rd9
pro33Rd2
pro32Rd5
p53Rd2
pro4Rd7
temp7
p47Rd4
pro39Rd7
p46
pro26Rd3
p41Rd8
p32Rd1
pro27Rd5
pro23Rd8
pro44Rd3
pro11Rd8
p23Rd1
p9Rd6
p44Rd2
p65Rd5
p83Rd3
p63Rd1
pro37Rd7
pro30Rd4
p56
pro17Rd4
p27Rd2
pro26Rd4
p5Rd9
p74Rd5
p43Rd6
p12Rd5
p68Rd6
p65Rd7
p12Rd8
p1Rd5
p19Rd5
pro13Rd7
pro25Rd1
p89Rd1
p22Rd7
pro30Rd1
p73Rd5
pro26Rd7
p10Rd5
p86Rd7
p44
p10Rd7
p48Rd8
p48Rd2
p72Rd5
pro33Rd7
p34Rd8
p49Rd7
p38Rd6
pro9Rd6
pro13Rd1
pro25Rd4
pro13Rd3
pro27Rd3
p12Rd9
p30Rd6
pro0Rd5
pro34Rd7
p68Rd8
pro16Rd4
p89Rd4
p27Rd1
pro10Rd4
p80Rd3
p67Rd1
p29Rd8
p66Rd9
p9Rd4
p18Rd1
p39Rd3
pro41Rd6
p51
p26Rd3
p60Rd4
pro5Rd7
pro42Rd1
p58Rd5
p61Rd9
p37Rd5
p66Rd2
p56Rd6
p90
p51Rd4
p29Rd9
p21Rd6
p72Rd7
p65Rd6
pro27Rd7
p85Rd1
p63Rd8
p52
pro1Rd6
pro11Rd5
=
pro0Rd0
p3Rd9
p37Rd9
p51Rd5
p45Rd7
p71Rd6
p11Rd5
p18Rd9
pro25Rd5
pro30Rd8
p51Rd6
p51Rd9
p53Rd4
pro41Rd0
p41Rd2
p55Rd9
p81Rd2
pro33Rd8
p90Rd1
p66Rd4
p0Rd5
p8Rd3
pro15Rd2
p77Rd5
p75Rd8
p29Rd1
pro40Rd5
p69Rd6
p14Rd7
p33
p95Rd9
p24Rd9
p94Rd8
p46Rd5
pro23Rd2
pro29Rd8
pro32Rd0
p95Rd4
p13Rd1
p43Rd2
p44Rd7
p81Rd8
p49Rd6
p82Rd2
pro33Rd1
p65
p46Rd1
p46Rd6
pro2Rd0
p52Rd4
pro30Rd6
p54Rd1
pro4Rd2
pro38Rd7
p50Rd6
p33Rd2
p24Rd3
p53Rd9
p3Rd3
pro44Rd5
pro25Rd2
p3Rd2
p68Rd9
p6Rd3
p12Rd1
p83Rd7
pro25Rd6
p29Rd4
p63
p93Rd5
pro34Rd6
p70Rd2
pro7Rd7
p25Rd6
pro22Rd6
p52Rd6
p19Rd2
p70Rd4
p69Rd5
p90Rd9
pro5Rd0
p68Rd3
pro3Rd8
pro15Rd6
p48Rd3
p22
p92Rd1
p43Rd7
p77Rd4
p50Rd3
p25Rd5
pro10Rd1
pro42Rd0
p36Rd2
p72Rd2
p40Rd5
p36Rd8
pro35Rd5
p93Rd3
p9Rd8
p38Rd9
p80Rd7
pro44Rd4
p34Rd3
p23Rd2
pro33Rd3
p2Rd6
p16Rd8
p4Rd7
p78Rd8
p49Rd4
p34Rd5
p60Rd8
p65Rd1
pro2Rd4
p91Rd2
pro44Rd8
pro14Rd4
p40Rd8
p84Rd5
p64Rd7
p71Rd7
pro1Rd7
p93
p90Rd3
p44Rd4
pro26Rd6
pro3Rd5
p34Rd2
p64
p42Rd6
p40Rd1
pro31Rd1
p83Rd1
p3Rd7
pro40Rd3
p16Rd5
pro35Rd6
pro31Rd0
pro3Rd2
pro40Rd7
p47Rd1
p0Rd4
p60Rd9
p26Rd6
p92Rd5
p16Rd4
pro43Rd6
pro19Rd5
p39
p82Rd3
pro16Rd1
p81Rd3
p83Rd8
pro18Rd7
p19Rd3
p62Rd4
p42Rd4
p1Rd6
pro19Rd6
p34Rd7
p14Rd4
pro13Rd6
p33Rd9
p59Rd3
p15Rd6
p95Rd7
pro9Rd0
p26Rd5
p6Rd7
p55Rd1
p80Rd8
pro41Rd1
p56Rd7
pro34Rd3
p45Rd1
p13Rd7
p28Rd7
pro7Rd0
p19Rd4
p14Rd2
pro19Rd7
p94Rd6
pro40Rd2
p86
p38Rd2
p23Rd7
p44Rd1
pro29Rd4
pro21Rd8
p37Rd3
p52Rd3
p47Rd2
p47Rd9
p30
p95Rd5
p74Rd7
p50Rd5
p64Rd9
p0
p40Rd6
pro3Rd6
pro21Rd4
pro5Rd4
p47Rd5
pro2Rd6
p19
pro38Rd0
pro43Rd5
p31Rd1
p63Rd3
p88Rd6
p32Rd2
pro19Rd0
pro45Rd2
p8
p86Rd3
pro39Rd3
pro36Rd3
p65Rd9
p60Rd2
p36Rd7
p87Rd4
p28Rd5
pro41Rd7
temp3
p67Rd5
pro20Rd8
pro11Rd7
p82Rd4
p64Rd4
p48Rd4
p76Rd2
pro41Rd5
p37
pro12Rd2
pro6Rd5
pro37Rd5
pro43Rd4
p61Rd1
pro1Rd8
p39Rd9
p43Rd8
p36Rd6
p21Rd4
p70Rd6
p28Rd2
p30Rd5
p73Rd6
p49
p91Rd9
pro46Rd1
pro45Rd7
temp4
p79Rd2
p93Rd7
p5Rd4
p93Rd2
p83Rd6
pro5Rd5
pro44Rd0
p94
p26Rd1
p68Rd7
p6
p87Rd6
pro35Rd2
pro32Rd6
p38Rd5
p89Rd2
p42Rd3
p75Rd3
pro14Rd5
p28Rd9
p4Rd1
p9Rd2
pro20Rd6
p14Rd5
p56Rd8
p95Rd1
pro43Rd7
p31Rd5
pro8Rd3
pro20Rd3
p57Rd7
p22Rd5
p59Rd1
pro18Rd2
pro38Rd1
p9Rd1
p45Rd6
pro11Rd0
pro20Rd5
p56Rd3
p2Rd4
p33Rd6
p3Rd4
p8Rd5
p36Rd3
pro5Rd3
p86Rd8
p81Rd9
pro39Rd8
pro26Rd0
pro30Rd0
p34Rd9
p91Rd7
p76Rd6
p16Rd2
p49Rd3
p78Rd5
pro33Rd5
p54Rd9
p72Rd9
p50Rd1
p28Rd1
p6Rd5
p22Rd2
p17Rd6
pro0Rd8
p73Rd4
p27Rd3
p23Rd6
pro38Rd5
p67Rd4
p90Rd4
pro3Rd4
p56Rd5
pro42Rd8
pro13Rd0
p35Rd8
p16Rd3
p78Rd3
pro27Rd6
p86Rd5
pro20Rd4
p86Rd2
p77Rd8
p66Rd1
pro45Rd8
p34Rd6
p15
p43Rd3
p3Rd8
p94Rd4
pro35Rd8
p10Rd9
p8Rd8
p75Rd2
p28Rd3
p38
pro24Rd5
p57Rd4
pro7Rd8
p10Rd2
p16Rd9
p74Rd2
p87Rd7
p36Rd4
p39Rd8
p79Rd5
p75Rd1
p46Rd8
p91Rd4
p91Rd1
p7Rd5
p4Rd8
p79Rd7
pro9Rd5
pro14Rd6
pro26Rd2
p68Rd5
p72Rd3
p8Rd1
p89Rd3
p24Rd5
p14Rd1
p51Rd8
pro16Rd0
pro31Rd5
pro0Rd2
p37Rd2
p39Rd4
pro20Rd7
p37Rd7
p68Rd2
pro8Rd1
p77
pro1Rd5
p8Rd6
p13Rd8
p26Rd8
pro3Rd3
p59Rd6
pro6Rd3
p82Rd6
pro37Rd3
p78Rd1
pro15Rd3
p50Rd9
p39Rd5
pro10Rd6
pro7Rd1
pro4Rd0
pro13Rd8
p33Rd5
pro46Rd4
p58
pro4Rd1
p14Rd6
pro26Rd8
pro38Rd8
p12Rd7
pro42Rd3
pro17Rd6
pro36Rd0
p22Rd1
p62Rd6
pro28Rd5
p12Rd3
p14Rd3
pro31Rd3
p41
p62Rd7
pro33Rd6
p9Rd9
p3
p93Rd4
p12Rd4
p16Rd7
p91Rd5
p94Rd9
p13Rd2
pro32Rd1
p62Rd3
p55Rd7
p17Rd9
p76Rd9
p70Rd8
pro23Rd5
p10Rd1
pro11Rd2
pro43Rd1
p15Rd3
p36Rd5
p85
pro39Rd4
p25Rd2
p84Rd8
pro42Rd4
p65Rd4
p34Rd1
pro8Rd6
p36Rd1
p33Rd7
p37Rd4
p23Rd5
p74Rd9
p51Rd3
p40Rd9
p65Rd8
p41Rd9
p30Rd2
pro42Rd6
p74Rd3
pro32Rd2
pro21Rd7
p95Rd8
pro27Rd8
pro10Rd8
p90Rd2
p55Rd8
p11
p51Rd2
pro8Rd2
p81Rd4
p88Rd2
pro24Rd7
p27Rd9
p30Rd4
temp6
p28
p62Rd5
p47Rd3
p29Rd3
pro25Rd7
pro30Rd3
p11Rd2
p39Rd6
p1Rd9
p7
pro25Rd8
p47Rd7
p80
p77Rd7
p51Rd1
p34
p13Rd5
p59Rd8
p20Rd9
p4Rd3
p20Rd4
p18Rd2
p61Rd6
p13Rd9
pro17Rd2
pro18Rd1
p18Rd7
pro42Rd2
p19Rd1
pro24Rd0
p0Rd6
p17Rd3
p18Rd3
p31
pro26Rd5
p52Rd5
p71
pro5Rd2
p53Rd6
p69Rd3
pro35Rd3
p93Rd8
pro21Rd5
pro15Rd4
p44Rd3
p32Rd3
p68
p63Rd4
p81Rd7
p32Rd9
pro34Rd2
pro22Rd5
p88
pro11Rd1
pro33Rd4
pro40Rd4
pro31Rd8
p76Rd7
p7Rd4
pro12Rd0
pro41Rd2
p67Rd7
p48Rd5
p79Rd9
pro46Rd0
p80Rd6
pro44Rd1
pro17Rd5
p6Rd4
p28Rd4
p4Rd5
p26Rd7
pro36Rd8
p41Rd6
pro1Rd4
p53Rd8
p21Rd9
p11Rd3
p70
p57
p53Rd5
p94Rd2
pro40Rd8
pro16Rd3
p78Rd2
pro27Rd4
pro31Rd7
pro1Rd1
p45Rd8
pro17Rd8
p75Rd5
p5Rd8
pro15Rd5
pro23Rd6
pro10Rd0
pro24Rd4
p22Rd6
p61Rd5
p53Rd1
p61Rd7
p5Rd2
p12
p10Rd8
p35Rd7
p83Rd9
p25Rd9
pro29Rd2
p38Rd7
p7Rd8
p84Rd7
p92Rd6
p30Rd8
pro24Rd8
p69Rd2
p38Rd3
pro6Rd6
p55Rd5
p76
p44Rd5
p84Rd4
pro6Rd4
pro24Rd1
p84Rd9
p73Rd1
pro21Rd1
pro28Rd2
p41Rd5
p46Rd4
p67Rd6
pro4Rd6
p57Rd2
p22Rd3
p58Rd9
p58Rd8
p61
temp8
p18Rd8
pro19Rd8
p88Rd4
p38Rd8
p90Rd8
p29Rd7
pro16Rd2
p48
p63Rd6
p15Rd5
p54Rd3
p64Rd6
p64Rd2
p12Rd6
p70Rd9
p60Rd3
p79Rd4
pro1Rd0
p45
p53Rd3
pro46Rd5
p42
p9
p70Rd3
p19Rd9
pro12Rd1
p79Rd6
p91
p75
pro38Rd2
p82
pro18Rd3
p13Rd6
p92Rd8
pro7Rd5
pro28Rd4
p8Rd9
p83Rd5
pro39Rd5
p6Rd6
p14Rd9
p28Rd6
p0Rd3
pro23Rd3
p17Rd8
p89
pro37Rd4
p55
p7Rd3
p8Rd4
p11Rd7
p50Rd2
pro12Rd6
pro29Rd6
p20
p17Rd1
p61Rd8
p76Rd1
pro0Rd1
p81Rd5
p2Rd2
pro42Rd7
p81Rd1
p52Rd7
pro28Rd0
pro34Rd4
p42Rd7
p57Rd9
p16Rd1
pro20Rd0
p78Rd9
p89Rd5
p36Rd9
p73Rd3
p74Rd6
p5Rd1
p86Rd1
p24Rd8
pro8Rd7
p5Rd6
pro20Rd2
pro25Rd3
p81Rd6
p50Rd7
pro18Rd0
p41Rd3
p42Rd2
pro11Rd3
p54
p1Rd7
pro30Rd2
p90Rd7
p82Rd1
p52Rd8
p88Rd5
pro16Rd5
p54Rd2
p60Rd1
pro18Rd8
p71Rd3
p45Rd4
p25Rd4
pro22Rd1
p78Rd4
p19Rd8
p55Rd4
pro36Rd4
pro19Rd1
p44Rd8
pro22Rd0
p11Rd4
p84Rd1
p71Rd9
p44Rd6
p16
p20Rd7
pro23Rd7
p40Rd3
p94Rd3
pro46Rd2
p68Rd4
pro32Rd3
p5Rd7
p0Rd1
p93Rd1
pro12Rd8
p85Rd7
pro22Rd8
p18Rd6
p45Rd9
pro23Rd4
p30Rd9
p69Rd4
p22Rd4
p33Rd4
p39Rd2
p29Rd5
pro16Rd6
p88Rd7
p60
pro39Rd2
pro34Rd5
p84Rd3
p7Rd9
p15Rd2
p35Rd2
pro29Rd0
p52Rd9
p84
p11Rd9
pro6Rd7
p6Rd9
p47Rd6
p63Rd7
p62Rd2
p91Rd3
p45Rd5
p19Rd6
p82Rd9
pro17Rd3
p27Rd6
p80Rd9
p6Rd2
p61Rd3
p39Rd1
p58Rd2
p35Rd6
p28Rd8
p13Rd3
p5Rd5
p77Rd3
p76Rd8
p79Rd3
pro21Rd3
p62Rd1
p4
p66Rd3
p2Rd7
p80Rd2
pro21Rd0
p74Rd8
p26Rd4
p43Rd1
pro8Rd8
p17Rd2
p78
pro2Rd5
p22Rd9
pro38Rd6
pro8Rd5
pro14Rd8
p85Rd5
p31Rd9
p29Rd6
p54Rd8
p56Rd2
pro20Rd1
p71Rd2
pro43Rd3
pro41Rd3
pro44Rd2
p43
pro40Rd0
pro31Rd6
pro44Rd7
p15Rd4
p30Rd7
pro0Rd7
pro35Rd1
p1Rd3
p35Rd1
pro35Rd0
p1Rd8
pro28Rd1
p46Rd3
pro30Rd7
p53Rd7
pro8Rd4
pro37Rd2
p6Rd1
p88Rd3
p26
p55Rd2
p10Rd3
pro28Rd6
pro7Rd6
p49Rd9
pro16Rd7
p67Rd3
p50Rd4
pro14Rd3
p70Rd5
p39Rd7
p67Rd2
p83Rd2
pro7Rd4
pro7Rd2
pro8Rd0
pro39Rd0
pro14Rd0
p64Rd3
p43Rd5
p59Rd4
pro11Rd6
p10
pro7Rd3
pro24Rd2
pro36Rd6
p70Rd7
p69Rd8
p58Rd6
pro43Rd2
p77Rd9
p21Rd1
p41Rd4
p11Rd8
pro12Rd5
p66Rd6
p86Rd9
p12Rd2
p6Rd8
p86Rd4
p69
pro22Rd2
p31Rd4
p21Rd7
p67Rd9
p57Rd8
p88Rd9
p18Rd5
p42Rd9
pro19Rd4
p57Rd5
pro22Rd7
p21
p93Rd6
pro29Rd3
p24Rd2
p4Rd2
p71Rd4
p13
p75Rd6
temp5
p38Rd1
p73Rd9
p0Rd2
p72Rd6
pro12Rd7
p29
pro28Rd7
p85Rd2
p25Rd8
p95Rd2
pro21Rd2
p57Rd6
pro31Rd4
p79
p27Rd5
p87Rd1
pro45Rd6
p31Rd7
p92Rd2
p95Rd6
p38Rd4
p71Rd8
p37Rd6
p58Rd3
p36
pro0Rd6
p49Rd5
p95
p64Rd8
p42Rd1
pro6Rd2
p26Rd9
p33Rd3
pro13Rd2
pro29Rd5
p68Rd1
p59Rd2
p66Rd5
pro1Rd3
pro46Rd7
p46Rd9
pro34Rd8
pro6Rd1
p72Rd4
p88Rd8
p2Rd1
p3Rd1
pro45Rd0
p73Rd8
p71Rd1
pro36Rd7
pro23Rd0
p22Rd8
p31Rd2
p48Rd7
temp1
pro17Rd1
pro14Rd2
p17Rd5
p14
pro12Rd3
p21Rd2
pro36Rd1
p71Rd5
p19Rd7
p27Rd7
p1Rd1
pro9Rd1
pro45Rd1
pro32Rd7
p3Rd5
pro6Rd8
p91Rd8
pro5Rd1
p24Rd6
p7Rd2
p54Rd7
pro29Rd1
pro12Rd4
p79Rd1
p60Rd7
p23Rd8
p20Rd5
p52Rd1
p11Rd1
p54Rd6
p35
pro18Rd4
p25Rd1
p27Rd8
pro10Rd3
p60Rd6
p44Rd9
pro24Rd3
pro37Rd6
p2
p85Rd3
p82Rd7
p50
p9Rd7
p51Rd7
p7Rd7
pro2Rd3
p35Rd9
p15Rd1
p24
p87
p23Rd9
pro15Rd0
p67
p74
p40Rd7
p59Rd5
p80Rd4
p37Rd1
p2Rd5
p0Rd8
p72
p16Rd6
pro10Rd5
p7Rd6
p92Rd7
p94Rd5
p75Rd7
p55Rd6
p14Rd8
p58Rd1
temp0
pro45Rd3
pro9Rd2
p90Rd5
pro39Rd1
p94Rd1
p33Rd1
p34Rd4
p17
p95Rd3
pro4Rd3
p24Rd4
pro11Rd4
p63Rd5
p69Rd9
pro6Rd0
p10Rd6
pro15Rd8
pro2Rd7
p85Rd4
p1Rd2
p77Rd2
p15Rd8
pro46Rd8
p89Rd8
pro46Rd3
p53
p80Rd5
p84Rd6
p58Rd4
p57Rd1
p75Rd9
p48Rd9
p85Rd9
p32Rd8
p73Rd7
p29Rd2
p32
p32Rd5
p32Rd7
p42Rd5
pro41Rd8
pro28Rd8
p80Rd1
p66Rd7
p74Rd1
p9Rd3
pro37Rd1
p92Rd4
pro18Rd6
p5Rd3
pro13Rd4
pro30Rd5
pro18Rd5
p4Rd6
p55Rd3
p1
pro45Rd5
p86Rd6
p62Rd8
p57Rd3
p46Rd7
pro5Rd6
pro40Rd1
p45Rd2
p32Rd6
p0Rd7
p20Rd6
pro27Rd2
p89Rd6
pro15Rd1
p10Rd4
pro14Rd7
pro44Rd6
pro33Rd0
pro4Rd8
p3Rd6
p27Rd4
p17Rd4
pro27Rd1
pro36Rd2
p66
p69Rd1
pro19Rd2
p23Rd3
p62Rd9
pro3Rd1
p61Rd2
p31Rd3
pro3Rd7
p87Rd2
pro23Rd1
p65Rd3
p21Rd5
p72Rd8
p49Rd8
p78Rd7
p91Rd6
p64Rd1
p63Rd9
p56Rd9
p21Rd3
p2Rd3
p13Rd4
pro17Rd7
p62
p27
p94Rd7
pro29Rd7
pro24Rd6
p76Rd5
p88Rd1
p63Rd2
pro43Rd8
p42Rd8
p24Rd7
p4Rd9
pro0Rd4
p54Rd5
pro37Rd0
p5
p40Rd2
p15Rd9
p92
p18Rd4
pro3Rd0
pro32Rd8
p11Rd6
p46Rd2
pro9Rd4
pro13Rd5
pro38Rd4
p25Rd3
temp2
p7Rd1
pro25Rd0
p20Rd1
p35Rd5
pro22Rd4
p89Rd7
pro2Rd8
pro5Rd8
p52Rd2
pro4Rd4
p2Rd8
p73
p2Rd9
p59Rd7
pro2Rd2
p85Rd8
p20Rd3
p31Rd6
p0Rd9
pro15Rd7
p82Rd5
pro10Rd2
p41Rd1
p87Rd3
p8Rd7
p64Rd5
p56Rd1
p65Rd2
p49Rd1
p77Rd1
p81
p58Rd7
pro17Rd0
p24Rd1
p48Rd1
p37Rd8
p72Rd1
p73Rd2
p83
p20Rd2
p1Rd4
p41Rd7
p85Rd6
p83Rd4
p93Rd9
p76Rd4
