Minimize
pro0Rd0 + pro1Rd0 + pro2Rd0 + pro3Rd0 + pro4Rd0 + pro5Rd0 + pro6Rd0 + pro7Rd0 + pro8Rd0 + pro9Rd0 + pro10Rd0 + pro11Rd0 + pro12Rd0 + pro13Rd0 + pro14Rd0 + pro15Rd0 + pro16Rd0 + pro17Rd0 + pro18Rd0 + pro19Rd0 + pro20Rd0 + pro21Rd0 + pro22Rd0 + pro23Rd0 + pro24Rd0 + pro25Rd0 + pro26Rd0 + pro27Rd0 + pro28Rd0 + pro29Rd0 + pro30Rd0 + pro0Rd1 + pro1Rd1 + pro2Rd1 + pro3Rd1 + pro4Rd1 + pro5Rd1 + pro6Rd1 + pro7Rd1 + pro8Rd1 + pro9Rd1 + pro10Rd1 + pro11Rd1 + pro12Rd1 + pro13Rd1 + pro14Rd1 + pro15Rd1 + pro16Rd1 + pro17Rd1 + pro18Rd1 + pro19Rd1 + pro20Rd1 + pro21Rd1 + pro22Rd1 + pro23Rd1 + pro24Rd1 + pro25Rd1 + pro26Rd1 + pro27Rd1 + pro28Rd1 + pro29Rd1 + pro30Rd1 + pro0Rd2 + pro1Rd2 + pro2Rd2 + pro3Rd2 + pro4Rd2 + pro5Rd2 + pro6Rd2 + pro7Rd2 + pro8Rd2 + pro9Rd2 + pro10Rd2 + pro11Rd2 + pro12Rd2 + pro13Rd2 + pro14Rd2 + pro15Rd2 + pro16Rd2 + pro17Rd2 + pro18Rd2 + pro19Rd2 + pro20Rd2 + pro21Rd2 + pro22Rd2 + pro23Rd2 + pro24Rd2 + pro25Rd2 + pro26Rd2 + pro27Rd2 + pro28Rd2 + pro29Rd2 + pro30Rd2 + pro0Rd3 + pro1Rd3 + pro2Rd3 + pro3Rd3 + pro4Rd3 + pro5Rd3 + pro6Rd3 + pro7Rd3 + pro8Rd3 + pro9Rd3 + pro10Rd3 + pro11Rd3 + pro12Rd3 + pro13Rd3 + pro14Rd3 + pro15Rd3 + pro16Rd3 + pro17Rd3 + pro18Rd3 + pro19Rd3 + pro20Rd3 + pro21Rd3 + pro22Rd3 + pro23Rd3 + pro24Rd3 + pro25Rd3 + pro26Rd3 + pro27Rd3 + pro28Rd3 + pro29Rd3 + pro30Rd3 + pro0Rd4 + pro1Rd4 + pro2Rd4 + pro3Rd4 + pro4Rd4 + pro5Rd4 + pro6Rd4 + pro7Rd4 + pro8Rd4 + pro9Rd4 + pro10Rd4 + pro11Rd4 + pro12Rd4 + pro13Rd4 + pro14Rd4 + pro15Rd4 + pro16Rd4 + pro17Rd4 + pro18Rd4 + pro19Rd4 + pro20Rd4 + pro21Rd4 + pro22Rd4 + pro23Rd4 + pro24Rd4 + pro25Rd4 + pro26Rd4 + pro27Rd4 + pro28Rd4 + pro29Rd4 + pro30Rd4 + pro0Rd5 + pro1Rd5 + pro2Rd5 + pro3Rd5 + pro4Rd5 + pro5Rd5 + pro6Rd5 + pro7Rd5 + pro8Rd5 + pro9Rd5 + pro10Rd5 + pro11Rd5 + pro12Rd5 + pro13Rd5 + pro14Rd5 + pro15Rd5 + pro16Rd5 + pro17Rd5 + pro18Rd5 + pro19Rd5 + pro20Rd5 + pro21Rd5 + pro22Rd5 + pro23Rd5 + pro24Rd5 + pro25Rd5 + pro26Rd5 + pro27Rd5 + pro28Rd5 + pro29Rd5 + pro30Rd5 + pro0Rd6 + pro1Rd6 + pro2Rd6 + pro3Rd6 + pro4Rd6 + pro5Rd6 + pro6Rd6 + pro7Rd6 + pro8Rd6 + pro9Rd6 + pro10Rd6 + pro11Rd6 + pro12Rd6 + pro13Rd6 + pro14Rd6 + pro15Rd6 + pro16Rd6 + pro17Rd6 + pro18Rd6 + pro19Rd6 + pro20Rd6 + pro21Rd6 + pro22Rd6 + pro23Rd6 + pro24Rd6 + pro25Rd6 + pro26Rd6 + pro27Rd6 + pro28Rd6 + pro29Rd6 + pro30Rd6 + pro0Rd7 + pro1Rd7 + pro2Rd7 + pro3Rd7 + pro4Rd7 + pro5Rd7 + pro6Rd7 + pro7Rd7 + pro8Rd7 + pro9Rd7 + pro10Rd7 + pro11Rd7 + pro12Rd7 + pro13Rd7 + pro14Rd7 + pro15Rd7 + pro16Rd7 + pro17Rd7 + pro18Rd7 + pro19Rd7 + pro20Rd7 + pro21Rd7 + pro22Rd7 + pro23Rd7 + pro24Rd7 + pro25Rd7 + pro26Rd7 + pro27Rd7 + pro28Rd7 + pro29Rd7 + pro30Rd7 + pro0Rd8 + pro1Rd8 + pro2Rd8 + pro3Rd8 + pro4Rd8 + pro5Rd8 + pro6Rd8 + pro7Rd8 + pro8Rd8 + pro9Rd8 + pro10Rd8 + pro11Rd8 + pro12Rd8 + pro13Rd8 + pro14Rd8 + pro15Rd8 + pro16Rd8 + pro17Rd8 + pro18Rd8 + pro19Rd8 + pro20Rd8 + pro21Rd8 + pro22Rd8 + pro23Rd8 + pro24Rd8 + pro25Rd8 + pro26Rd8 + pro27Rd8 + pro28Rd8 + pro29Rd8 + pro30Rd8 + pro0Rd9 + pro1Rd9 + pro2Rd9 + pro3Rd9 + pro4Rd9 + pro5Rd9 + pro6Rd9 + pro7Rd9 + pro8Rd9 + pro9Rd9 + pro10Rd9 + pro11Rd9 + pro12Rd9 + pro13Rd9 + pro14Rd9 + pro15Rd9 + pro16Rd9 + pro17Rd9 + pro18Rd9 + pro19Rd9 + pro20Rd9 + pro21Rd9 + pro22Rd9 + pro23Rd9 + pro24Rd9 + pro25Rd9 + pro26Rd9 + pro27Rd9 + pro28Rd9 + pro29Rd9 + pro30Rd9 + pro0Rd10 + pro1Rd10 + pro2Rd10 + pro3Rd10 + pro4Rd10 + pro5Rd10 + pro6Rd10 + pro7Rd10 + pro8Rd10 + pro9Rd10 + pro10Rd10 + pro11Rd10 + pro12Rd10 + pro13Rd10 + pro14Rd10 + pro15Rd10 + pro16Rd10 + pro17Rd10 + pro18Rd10 + pro19Rd10 + pro20Rd10 + pro21Rd10 + pro22Rd10 + pro23Rd10 + pro24Rd10 + pro25Rd10 + pro26Rd10 + pro27Rd10 + pro28Rd10 + pro29Rd10 + pro30Rd10 + pro0Rd11 + pro1Rd11 + pro2Rd11 + pro3Rd11 + pro4Rd11 + pro5Rd11 + pro6Rd11 + pro7Rd11 + pro8Rd11 + pro9Rd11 + pro10Rd11 + pro11Rd11 + pro12Rd11 + pro13Rd11 + pro14Rd11 + pro15Rd11 + pro16Rd11 + pro17Rd11 + pro18Rd11 + pro19Rd11 + pro20Rd11 + pro21Rd11 + pro22Rd11 + pro23Rd11 + pro24Rd11 + pro25Rd11 + pro26Rd11 + pro27Rd11 + pro28Rd11 + pro29Rd11 + pro30Rd11

Subject To
p35 + p32Rd1 - p0Rd1 >= 0
p35 - p32Rd1 + p0Rd1 >= 0
- p35 + p32Rd1 + p0Rd1 >= 0
p35 + p32Rd1 + p0Rd1 <= 2
p36 + p33Rd1 - p1Rd1 >= 0
p36 - p33Rd1 + p1Rd1 >= 0
- p36 + p33Rd1 + p1Rd1 >= 0
p36 + p33Rd1 + p1Rd1 <= 2
p37 + p34Rd1 - p2Rd1 >= 0
p37 - p34Rd1 + p2Rd1 >= 0
- p37 + p34Rd1 + p2Rd1 >= 0
p37 + p34Rd1 + p2Rd1 <= 2
p38 + p35Rd1 - p3Rd1 >= 0
p38 - p35Rd1 + p3Rd1 >= 0
- p38 + p35Rd1 + p3Rd1 >= 0
p38 + p35Rd1 + p3Rd1 <= 2
p39 + p36Rd1 - p4Rd1 >= 0
p39 - p36Rd1 + p4Rd1 >= 0
- p39 + p36Rd1 + p4Rd1 >= 0
p39 + p36Rd1 + p4Rd1 <= 2
p40 + p37Rd1 - p5Rd1 >= 0
p40 - p37Rd1 + p5Rd1 >= 0
- p40 + p37Rd1 + p5Rd1 >= 0
p40 + p37Rd1 + p5Rd1 <= 2
p41 + p38Rd1 - p6Rd1 >= 0
p41 - p38Rd1 + p6Rd1 >= 0
- p41 + p38Rd1 + p6Rd1 >= 0
p41 + p38Rd1 + p6Rd1 <= 2
p42 + p39Rd1 - p7Rd1 >= 0
p42 - p39Rd1 + p7Rd1 >= 0
- p42 + p39Rd1 + p7Rd1 >= 0
p42 + p39Rd1 + p7Rd1 <= 2
p43 + p40Rd1 - p8Rd1 >= 0
p43 - p40Rd1 + p8Rd1 >= 0
- p43 + p40Rd1 + p8Rd1 >= 0
p43 + p40Rd1 + p8Rd1 <= 2
p44 + p41Rd1 - p9Rd1 >= 0
p44 - p41Rd1 + p9Rd1 >= 0
- p44 + p41Rd1 + p9Rd1 >= 0
p44 + p41Rd1 + p9Rd1 <= 2
p45 + p42Rd1 - p10Rd1 >= 0
p45 - p42Rd1 + p10Rd1 >= 0
- p45 + p42Rd1 + p10Rd1 >= 0
p45 + p42Rd1 + p10Rd1 <= 2
p46 + p43Rd1 - p11Rd1 >= 0
p46 - p43Rd1 + p11Rd1 >= 0
- p46 + p43Rd1 + p11Rd1 >= 0
p46 + p43Rd1 + p11Rd1 <= 2
p47 + p44Rd1 - p12Rd1 >= 0
p47 - p44Rd1 + p12Rd1 >= 0
- p47 + p44Rd1 + p12Rd1 >= 0
p47 + p44Rd1 + p12Rd1 <= 2
p48 + p45Rd1 - p13Rd1 >= 0
p48 - p45Rd1 + p13Rd1 >= 0
- p48 + p45Rd1 + p13Rd1 >= 0
p48 + p45Rd1 + p13Rd1 <= 2
p49 + p46Rd1 - p14Rd1 >= 0
p49 - p46Rd1 + p14Rd1 >= 0
- p49 + p46Rd1 + p14Rd1 >= 0
p49 + p46Rd1 + p14Rd1 <= 2
p50 + p47Rd1 - p15Rd1 >= 0
p50 - p47Rd1 + p15Rd1 >= 0
- p50 + p47Rd1 + p15Rd1 >= 0
p50 + p47Rd1 + p15Rd1 <= 2
p51 + p48Rd1 - p16Rd1 >= 0
p51 - p48Rd1 + p16Rd1 >= 0
- p51 + p48Rd1 + p16Rd1 >= 0
p51 + p48Rd1 + p16Rd1 <= 2
p52 + p49Rd1 - p17Rd1 >= 0
p52 - p49Rd1 + p17Rd1 >= 0
- p52 + p49Rd1 + p17Rd1 >= 0
p52 + p49Rd1 + p17Rd1 <= 2
p53 + p50Rd1 - p18Rd1 >= 0
p53 - p50Rd1 + p18Rd1 >= 0
- p53 + p50Rd1 + p18Rd1 >= 0
p53 + p50Rd1 + p18Rd1 <= 2
p54 + p51Rd1 - p19Rd1 >= 0
p54 - p51Rd1 + p19Rd1 >= 0
- p54 + p51Rd1 + p19Rd1 >= 0
p54 + p51Rd1 + p19Rd1 <= 2
p55 + p52Rd1 - p20Rd1 >= 0
p55 - p52Rd1 + p20Rd1 >= 0
- p55 + p52Rd1 + p20Rd1 >= 0
p55 + p52Rd1 + p20Rd1 <= 2
p56 + p53Rd1 - p21Rd1 >= 0
p56 - p53Rd1 + p21Rd1 >= 0
- p56 + p53Rd1 + p21Rd1 >= 0
p56 + p53Rd1 + p21Rd1 <= 2
p57 + p54Rd1 - p22Rd1 >= 0
p57 - p54Rd1 + p22Rd1 >= 0
- p57 + p54Rd1 + p22Rd1 >= 0
p57 + p54Rd1 + p22Rd1 <= 2
p58 + p55Rd1 - p23Rd1 >= 0
p58 - p55Rd1 + p23Rd1 >= 0
- p58 + p55Rd1 + p23Rd1 >= 0
p58 + p55Rd1 + p23Rd1 <= 2
p59 + p56Rd1 - p24Rd1 >= 0
p59 - p56Rd1 + p24Rd1 >= 0
- p59 + p56Rd1 + p24Rd1 >= 0
p59 + p56Rd1 + p24Rd1 <= 2
p60 + p57Rd1 - p25Rd1 >= 0
p60 - p57Rd1 + p25Rd1 >= 0
- p60 + p57Rd1 + p25Rd1 >= 0
p60 + p57Rd1 + p25Rd1 <= 2
p61 + p58Rd1 - p26Rd1 >= 0
p61 - p58Rd1 + p26Rd1 >= 0
- p61 + p58Rd1 + p26Rd1 >= 0
p61 + p58Rd1 + p26Rd1 <= 2
p62 + p59Rd1 - p27Rd1 >= 0
p62 - p59Rd1 + p27Rd1 >= 0
- p62 + p59Rd1 + p27Rd1 >= 0
p62 + p59Rd1 + p27Rd1 <= 2
p63 + p60Rd1 - p28Rd1 >= 0
p63 - p60Rd1 + p28Rd1 >= 0
- p63 + p60Rd1 + p28Rd1 >= 0
p63 + p60Rd1 + p28Rd1 <= 2
p32 + p61Rd1 - p29Rd1 >= 0
p32 - p61Rd1 + p29Rd1 >= 0
- p32 + p61Rd1 + p29Rd1 >= 0
p32 + p61Rd1 + p29Rd1 <= 2
p33 + p62Rd1 - p30Rd1 >= 0
p33 - p62Rd1 + p30Rd1 >= 0
- p33 + p62Rd1 + p30Rd1 >= 0
p33 + p62Rd1 + p30Rd1 <= 2
p34 + p63Rd1 - p31Rd1 >= 0
p34 - p63Rd1 + p31Rd1 >= 0
- p34 + p63Rd1 + p31Rd1 >= 0
p34 + p63Rd1 + p31Rd1 <= 2
p33 - p1Rd1 + pro0Rd0 >= 0 
p25 - p33 + pro0Rd0 >= 0 
p1Rd1 - p25 + pro0Rd0 >= 0 
p25 + p33 + p1Rd1 + pro0Rd0 <= 3 
p25 + p33 + p1Rd1 - pro0Rd0 >= 0 
p24 + p32 + p0Rd1 + pro0Rd0 - p33 >= 0 
p33 + p24 - p32 + p0Rd1 + pro0Rd0 >= 0 
p33 - p24 + p32 + p0Rd1 + pro0Rd0 >= 0 
p25 + p24 + p32 - p0Rd1 + pro0Rd0 >= 0 
p1Rd1 - p24 - p32 - p0Rd1 + pro0Rd0 >= -2 
p24 - p33 - p32 - p0Rd1 + pro0Rd0 >= -2 
p32 - p33 - p24 - p0Rd1 + pro0Rd0 >= -2 
p0Rd1 - p33 - p24 - p32 + pro0Rd0 >= -2 
p34 - p2Rd1 + pro1Rd0 >= 0 
p26 - p34 + pro1Rd0 >= 0 
p2Rd1 - p26 + pro1Rd0 >= 0 
p26 + p34 + p2Rd1 + pro1Rd0 <= 3 
p26 + p34 + p2Rd1 - pro1Rd0 >= 0 
p25 + p33 + p1Rd1 + pro1Rd0 - p34 >= 0 
p34 + p25 - p33 + p1Rd1 + pro1Rd0 >= 0 
p34 - p25 + p33 + p1Rd1 + pro1Rd0 >= 0 
p26 + p25 + p33 - p1Rd1 + pro1Rd0 >= 0 
p2Rd1 - p25 - p33 - p1Rd1 + pro1Rd0 >= -2 
p25 - p34 - p33 - p1Rd1 + pro1Rd0 >= -2 
p33 - p34 - p25 - p1Rd1 + pro1Rd0 >= -2 
p1Rd1 - p34 - p25 - p33 + pro1Rd0 >= -2 
p35 - p3Rd1 + pro2Rd0 >= 0 
p27 - p35 + pro2Rd0 >= 0 
p3Rd1 - p27 + pro2Rd0 >= 0 
p27 + p35 + p3Rd1 + pro2Rd0 <= 3 
p27 + p35 + p3Rd1 - pro2Rd0 >= 0 
p26 + p34 + p2Rd1 + pro2Rd0 - p35 >= 0 
p35 + p26 - p34 + p2Rd1 + pro2Rd0 >= 0 
p35 - p26 + p34 + p2Rd1 + pro2Rd0 >= 0 
p27 + p26 + p34 - p2Rd1 + pro2Rd0 >= 0 
p3Rd1 - p26 - p34 - p2Rd1 + pro2Rd0 >= -2 
p26 - p35 - p34 - p2Rd1 + pro2Rd0 >= -2 
p34 - p35 - p26 - p2Rd1 + pro2Rd0 >= -2 
p2Rd1 - p35 - p26 - p34 + pro2Rd0 >= -2 
p36 - p4Rd1 + pro3Rd0 >= 0 
p28 - p36 + pro3Rd0 >= 0 
p4Rd1 - p28 + pro3Rd0 >= 0 
p28 + p36 + p4Rd1 + pro3Rd0 <= 3 
p28 + p36 + p4Rd1 - pro3Rd0 >= 0 
p27 + p35 + p3Rd1 + pro3Rd0 - p36 >= 0 
p36 + p27 - p35 + p3Rd1 + pro3Rd0 >= 0 
p36 - p27 + p35 + p3Rd1 + pro3Rd0 >= 0 
p28 + p27 + p35 - p3Rd1 + pro3Rd0 >= 0 
p4Rd1 - p27 - p35 - p3Rd1 + pro3Rd0 >= -2 
p27 - p36 - p35 - p3Rd1 + pro3Rd0 >= -2 
p35 - p36 - p27 - p3Rd1 + pro3Rd0 >= -2 
p3Rd1 - p36 - p27 - p35 + pro3Rd0 >= -2 
p37 - p5Rd1 + pro4Rd0 >= 0 
p29 - p37 + pro4Rd0 >= 0 
p5Rd1 - p29 + pro4Rd0 >= 0 
p29 + p37 + p5Rd1 + pro4Rd0 <= 3 
p29 + p37 + p5Rd1 - pro4Rd0 >= 0 
p28 + p36 + p4Rd1 + pro4Rd0 - p37 >= 0 
p37 + p28 - p36 + p4Rd1 + pro4Rd0 >= 0 
p37 - p28 + p36 + p4Rd1 + pro4Rd0 >= 0 
p29 + p28 + p36 - p4Rd1 + pro4Rd0 >= 0 
p5Rd1 - p28 - p36 - p4Rd1 + pro4Rd0 >= -2 
p28 - p37 - p36 - p4Rd1 + pro4Rd0 >= -2 
p36 - p37 - p28 - p4Rd1 + pro4Rd0 >= -2 
p4Rd1 - p37 - p28 - p36 + pro4Rd0 >= -2 
p38 - p6Rd1 + pro5Rd0 >= 0 
p30 - p38 + pro5Rd0 >= 0 
p6Rd1 - p30 + pro5Rd0 >= 0 
p30 + p38 + p6Rd1 + pro5Rd0 <= 3 
p30 + p38 + p6Rd1 - pro5Rd0 >= 0 
p29 + p37 + p5Rd1 + pro5Rd0 - p38 >= 0 
p38 + p29 - p37 + p5Rd1 + pro5Rd0 >= 0 
p38 - p29 + p37 + p5Rd1 + pro5Rd0 >= 0 
p30 + p29 + p37 - p5Rd1 + pro5Rd0 >= 0 
p6Rd1 - p29 - p37 - p5Rd1 + pro5Rd0 >= -2 
p29 - p38 - p37 - p5Rd1 + pro5Rd0 >= -2 
p37 - p38 - p29 - p5Rd1 + pro5Rd0 >= -2 
p5Rd1 - p38 - p29 - p37 + pro5Rd0 >= -2 
p39 - p7Rd1 + pro6Rd0 >= 0 
p31 - p39 + pro6Rd0 >= 0 
p7Rd1 - p31 + pro6Rd0 >= 0 
p31 + p39 + p7Rd1 + pro6Rd0 <= 3 
p31 + p39 + p7Rd1 - pro6Rd0 >= 0 
p30 + p38 + p6Rd1 + pro6Rd0 - p39 >= 0 
p39 + p30 - p38 + p6Rd1 + pro6Rd0 >= 0 
p39 - p30 + p38 + p6Rd1 + pro6Rd0 >= 0 
p31 + p30 + p38 - p6Rd1 + pro6Rd0 >= 0 
p7Rd1 - p30 - p38 - p6Rd1 + pro6Rd0 >= -2 
p30 - p39 - p38 - p6Rd1 + pro6Rd0 >= -2 
p38 - p39 - p30 - p6Rd1 + pro6Rd0 >= -2 
p6Rd1 - p39 - p30 - p38 + pro6Rd0 >= -2 
p40 - p8Rd1 + pro7Rd0 >= 0 
p0 - p40 + pro7Rd0 >= 0 
p8Rd1 - p0 + pro7Rd0 >= 0 
p0 + p40 + p8Rd1 + pro7Rd0 <= 3 
p0 + p40 + p8Rd1 - pro7Rd0 >= 0 
p31 + p39 + p7Rd1 + pro7Rd0 - p40 >= 0 
p40 + p31 - p39 + p7Rd1 + pro7Rd0 >= 0 
p40 - p31 + p39 + p7Rd1 + pro7Rd0 >= 0 
p0 + p31 + p39 - p7Rd1 + pro7Rd0 >= 0 
p8Rd1 - p31 - p39 - p7Rd1 + pro7Rd0 >= -2 
p31 - p40 - p39 - p7Rd1 + pro7Rd0 >= -2 
p39 - p40 - p31 - p7Rd1 + pro7Rd0 >= -2 
p7Rd1 - p40 - p31 - p39 + pro7Rd0 >= -2 
p41 - p9Rd1 + pro8Rd0 >= 0 
p1 - p41 + pro8Rd0 >= 0 
p9Rd1 - p1 + pro8Rd0 >= 0 
p1 + p41 + p9Rd1 + pro8Rd0 <= 3 
p1 + p41 + p9Rd1 - pro8Rd0 >= 0 
p0 + p40 + p8Rd1 + pro8Rd0 - p41 >= 0 
p41 + p0 - p40 + p8Rd1 + pro8Rd0 >= 0 
p41 - p0 + p40 + p8Rd1 + pro8Rd0 >= 0 
p1 + p0 + p40 - p8Rd1 + pro8Rd0 >= 0 
p9Rd1 - p0 - p40 - p8Rd1 + pro8Rd0 >= -2 
p0 - p41 - p40 - p8Rd1 + pro8Rd0 >= -2 
p40 - p41 - p0 - p8Rd1 + pro8Rd0 >= -2 
p8Rd1 - p41 - p0 - p40 + pro8Rd0 >= -2 
p42 - p10Rd1 + pro9Rd0 >= 0 
p2 - p42 + pro9Rd0 >= 0 
p10Rd1 - p2 + pro9Rd0 >= 0 
p2 + p42 + p10Rd1 + pro9Rd0 <= 3 
p2 + p42 + p10Rd1 - pro9Rd0 >= 0 
p1 + p41 + p9Rd1 + pro9Rd0 - p42 >= 0 
p42 + p1 - p41 + p9Rd1 + pro9Rd0 >= 0 
p42 - p1 + p41 + p9Rd1 + pro9Rd0 >= 0 
p2 + p1 + p41 - p9Rd1 + pro9Rd0 >= 0 
p10Rd1 - p1 - p41 - p9Rd1 + pro9Rd0 >= -2 
p1 - p42 - p41 - p9Rd1 + pro9Rd0 >= -2 
p41 - p42 - p1 - p9Rd1 + pro9Rd0 >= -2 
p9Rd1 - p42 - p1 - p41 + pro9Rd0 >= -2 
p43 - p11Rd1 + pro10Rd0 >= 0 
p3 - p43 + pro10Rd0 >= 0 
p11Rd1 - p3 + pro10Rd0 >= 0 
p3 + p43 + p11Rd1 + pro10Rd0 <= 3 
p3 + p43 + p11Rd1 - pro10Rd0 >= 0 
p2 + p42 + p10Rd1 + pro10Rd0 - p43 >= 0 
p43 + p2 - p42 + p10Rd1 + pro10Rd0 >= 0 
p43 - p2 + p42 + p10Rd1 + pro10Rd0 >= 0 
p3 + p2 + p42 - p10Rd1 + pro10Rd0 >= 0 
p11Rd1 - p2 - p42 - p10Rd1 + pro10Rd0 >= -2 
p2 - p43 - p42 - p10Rd1 + pro10Rd0 >= -2 
p42 - p43 - p2 - p10Rd1 + pro10Rd0 >= -2 
p10Rd1 - p43 - p2 - p42 + pro10Rd0 >= -2 
p44 - p12Rd1 + pro11Rd0 >= 0 
p4 - p44 + pro11Rd0 >= 0 
p12Rd1 - p4 + pro11Rd0 >= 0 
p4 + p44 + p12Rd1 + pro11Rd0 <= 3 
p4 + p44 + p12Rd1 - pro11Rd0 >= 0 
p3 + p43 + p11Rd1 + pro11Rd0 - p44 >= 0 
p44 + p3 - p43 + p11Rd1 + pro11Rd0 >= 0 
p44 - p3 + p43 + p11Rd1 + pro11Rd0 >= 0 
p4 + p3 + p43 - p11Rd1 + pro11Rd0 >= 0 
p12Rd1 - p3 - p43 - p11Rd1 + pro11Rd0 >= -2 
p3 - p44 - p43 - p11Rd1 + pro11Rd0 >= -2 
p43 - p44 - p3 - p11Rd1 + pro11Rd0 >= -2 
p11Rd1 - p44 - p3 - p43 + pro11Rd0 >= -2 
p45 - p13Rd1 + pro12Rd0 >= 0 
p5 - p45 + pro12Rd0 >= 0 
p13Rd1 - p5 + pro12Rd0 >= 0 
p5 + p45 + p13Rd1 + pro12Rd0 <= 3 
p5 + p45 + p13Rd1 - pro12Rd0 >= 0 
p4 + p44 + p12Rd1 + pro12Rd0 - p45 >= 0 
p45 + p4 - p44 + p12Rd1 + pro12Rd0 >= 0 
p45 - p4 + p44 + p12Rd1 + pro12Rd0 >= 0 
p5 + p4 + p44 - p12Rd1 + pro12Rd0 >= 0 
p13Rd1 - p4 - p44 - p12Rd1 + pro12Rd0 >= -2 
p4 - p45 - p44 - p12Rd1 + pro12Rd0 >= -2 
p44 - p45 - p4 - p12Rd1 + pro12Rd0 >= -2 
p12Rd1 - p45 - p4 - p44 + pro12Rd0 >= -2 
p46 - p14Rd1 + pro13Rd0 >= 0 
p6 - p46 + pro13Rd0 >= 0 
p14Rd1 - p6 + pro13Rd0 >= 0 
p6 + p46 + p14Rd1 + pro13Rd0 <= 3 
p6 + p46 + p14Rd1 - pro13Rd0 >= 0 
p5 + p45 + p13Rd1 + pro13Rd0 - p46 >= 0 
p46 + p5 - p45 + p13Rd1 + pro13Rd0 >= 0 
p46 - p5 + p45 + p13Rd1 + pro13Rd0 >= 0 
p6 + p5 + p45 - p13Rd1 + pro13Rd0 >= 0 
p14Rd1 - p5 - p45 - p13Rd1 + pro13Rd0 >= -2 
p5 - p46 - p45 - p13Rd1 + pro13Rd0 >= -2 
p45 - p46 - p5 - p13Rd1 + pro13Rd0 >= -2 
p13Rd1 - p46 - p5 - p45 + pro13Rd0 >= -2 
p47 - p15Rd1 + pro14Rd0 >= 0 
p7 - p47 + pro14Rd0 >= 0 
p15Rd1 - p7 + pro14Rd0 >= 0 
p7 + p47 + p15Rd1 + pro14Rd0 <= 3 
p7 + p47 + p15Rd1 - pro14Rd0 >= 0 
p6 + p46 + p14Rd1 + pro14Rd0 - p47 >= 0 
p47 + p6 - p46 + p14Rd1 + pro14Rd0 >= 0 
p47 - p6 + p46 + p14Rd1 + pro14Rd0 >= 0 
p7 + p6 + p46 - p14Rd1 + pro14Rd0 >= 0 
p15Rd1 - p6 - p46 - p14Rd1 + pro14Rd0 >= -2 
p6 - p47 - p46 - p14Rd1 + pro14Rd0 >= -2 
p46 - p47 - p6 - p14Rd1 + pro14Rd0 >= -2 
p14Rd1 - p47 - p6 - p46 + pro14Rd0 >= -2 
p48 - p16Rd1 + pro15Rd0 >= 0 
p8 - p48 + pro15Rd0 >= 0 
p16Rd1 - p8 + pro15Rd0 >= 0 
p8 + p48 + p16Rd1 + pro15Rd0 <= 3 
p8 + p48 + p16Rd1 - pro15Rd0 >= 0 
p7 + p47 + p15Rd1 + pro15Rd0 - p48 >= 0 
p48 + p7 - p47 + p15Rd1 + pro15Rd0 >= 0 
p48 - p7 + p47 + p15Rd1 + pro15Rd0 >= 0 
p8 + p7 + p47 - p15Rd1 + pro15Rd0 >= 0 
p16Rd1 - p7 - p47 - p15Rd1 + pro15Rd0 >= -2 
p7 - p48 - p47 - p15Rd1 + pro15Rd0 >= -2 
p47 - p48 - p7 - p15Rd1 + pro15Rd0 >= -2 
p15Rd1 - p48 - p7 - p47 + pro15Rd0 >= -2 
p49 - p17Rd1 + pro16Rd0 >= 0 
p9 - p49 + pro16Rd0 >= 0 
p17Rd1 - p9 + pro16Rd0 >= 0 
p9 + p49 + p17Rd1 + pro16Rd0 <= 3 
p9 + p49 + p17Rd1 - pro16Rd0 >= 0 
p8 + p48 + p16Rd1 + pro16Rd0 - p49 >= 0 
p49 + p8 - p48 + p16Rd1 + pro16Rd0 >= 0 
p49 - p8 + p48 + p16Rd1 + pro16Rd0 >= 0 
p9 + p8 + p48 - p16Rd1 + pro16Rd0 >= 0 
p17Rd1 - p8 - p48 - p16Rd1 + pro16Rd0 >= -2 
p8 - p49 - p48 - p16Rd1 + pro16Rd0 >= -2 
p48 - p49 - p8 - p16Rd1 + pro16Rd0 >= -2 
p16Rd1 - p49 - p8 - p48 + pro16Rd0 >= -2 
p50 - p18Rd1 + pro17Rd0 >= 0 
p10 - p50 + pro17Rd0 >= 0 
p18Rd1 - p10 + pro17Rd0 >= 0 
p10 + p50 + p18Rd1 + pro17Rd0 <= 3 
p10 + p50 + p18Rd1 - pro17Rd0 >= 0 
p9 + p49 + p17Rd1 + pro17Rd0 - p50 >= 0 
p50 + p9 - p49 + p17Rd1 + pro17Rd0 >= 0 
p50 - p9 + p49 + p17Rd1 + pro17Rd0 >= 0 
p10 + p9 + p49 - p17Rd1 + pro17Rd0 >= 0 
p18Rd1 - p9 - p49 - p17Rd1 + pro17Rd0 >= -2 
p9 - p50 - p49 - p17Rd1 + pro17Rd0 >= -2 
p49 - p50 - p9 - p17Rd1 + pro17Rd0 >= -2 
p17Rd1 - p50 - p9 - p49 + pro17Rd0 >= -2 
p51 - p19Rd1 + pro18Rd0 >= 0 
p11 - p51 + pro18Rd0 >= 0 
p19Rd1 - p11 + pro18Rd0 >= 0 
p11 + p51 + p19Rd1 + pro18Rd0 <= 3 
p11 + p51 + p19Rd1 - pro18Rd0 >= 0 
p10 + p50 + p18Rd1 + pro18Rd0 - p51 >= 0 
p51 + p10 - p50 + p18Rd1 + pro18Rd0 >= 0 
p51 - p10 + p50 + p18Rd1 + pro18Rd0 >= 0 
p11 + p10 + p50 - p18Rd1 + pro18Rd0 >= 0 
p19Rd1 - p10 - p50 - p18Rd1 + pro18Rd0 >= -2 
p10 - p51 - p50 - p18Rd1 + pro18Rd0 >= -2 
p50 - p51 - p10 - p18Rd1 + pro18Rd0 >= -2 
p18Rd1 - p51 - p10 - p50 + pro18Rd0 >= -2 
p52 - p20Rd1 + pro19Rd0 >= 0 
p12 - p52 + pro19Rd0 >= 0 
p20Rd1 - p12 + pro19Rd0 >= 0 
p12 + p52 + p20Rd1 + pro19Rd0 <= 3 
p12 + p52 + p20Rd1 - pro19Rd0 >= 0 
p11 + p51 + p19Rd1 + pro19Rd0 - p52 >= 0 
p52 + p11 - p51 + p19Rd1 + pro19Rd0 >= 0 
p52 - p11 + p51 + p19Rd1 + pro19Rd0 >= 0 
p12 + p11 + p51 - p19Rd1 + pro19Rd0 >= 0 
p20Rd1 - p11 - p51 - p19Rd1 + pro19Rd0 >= -2 
p11 - p52 - p51 - p19Rd1 + pro19Rd0 >= -2 
p51 - p52 - p11 - p19Rd1 + pro19Rd0 >= -2 
p19Rd1 - p52 - p11 - p51 + pro19Rd0 >= -2 
p53 - p21Rd1 + pro20Rd0 >= 0 
p13 - p53 + pro20Rd0 >= 0 
p21Rd1 - p13 + pro20Rd0 >= 0 
p13 + p53 + p21Rd1 + pro20Rd0 <= 3 
p13 + p53 + p21Rd1 - pro20Rd0 >= 0 
p12 + p52 + p20Rd1 + pro20Rd0 - p53 >= 0 
p53 + p12 - p52 + p20Rd1 + pro20Rd0 >= 0 
p53 - p12 + p52 + p20Rd1 + pro20Rd0 >= 0 
p13 + p12 + p52 - p20Rd1 + pro20Rd0 >= 0 
p21Rd1 - p12 - p52 - p20Rd1 + pro20Rd0 >= -2 
p12 - p53 - p52 - p20Rd1 + pro20Rd0 >= -2 
p52 - p53 - p12 - p20Rd1 + pro20Rd0 >= -2 
p20Rd1 - p53 - p12 - p52 + pro20Rd0 >= -2 
p54 - p22Rd1 + pro21Rd0 >= 0 
p14 - p54 + pro21Rd0 >= 0 
p22Rd1 - p14 + pro21Rd0 >= 0 
p14 + p54 + p22Rd1 + pro21Rd0 <= 3 
p14 + p54 + p22Rd1 - pro21Rd0 >= 0 
p13 + p53 + p21Rd1 + pro21Rd0 - p54 >= 0 
p54 + p13 - p53 + p21Rd1 + pro21Rd0 >= 0 
p54 - p13 + p53 + p21Rd1 + pro21Rd0 >= 0 
p14 + p13 + p53 - p21Rd1 + pro21Rd0 >= 0 
p22Rd1 - p13 - p53 - p21Rd1 + pro21Rd0 >= -2 
p13 - p54 - p53 - p21Rd1 + pro21Rd0 >= -2 
p53 - p54 - p13 - p21Rd1 + pro21Rd0 >= -2 
p21Rd1 - p54 - p13 - p53 + pro21Rd0 >= -2 
p55 - p23Rd1 + pro22Rd0 >= 0 
p15 - p55 + pro22Rd0 >= 0 
p23Rd1 - p15 + pro22Rd0 >= 0 
p15 + p55 + p23Rd1 + pro22Rd0 <= 3 
p15 + p55 + p23Rd1 - pro22Rd0 >= 0 
p14 + p54 + p22Rd1 + pro22Rd0 - p55 >= 0 
p55 + p14 - p54 + p22Rd1 + pro22Rd0 >= 0 
p55 - p14 + p54 + p22Rd1 + pro22Rd0 >= 0 
p15 + p14 + p54 - p22Rd1 + pro22Rd0 >= 0 
p23Rd1 - p14 - p54 - p22Rd1 + pro22Rd0 >= -2 
p14 - p55 - p54 - p22Rd1 + pro22Rd0 >= -2 
p54 - p55 - p14 - p22Rd1 + pro22Rd0 >= -2 
p22Rd1 - p55 - p14 - p54 + pro22Rd0 >= -2 
p56 - p24Rd1 + pro23Rd0 >= 0 
p16 - p56 + pro23Rd0 >= 0 
p24Rd1 - p16 + pro23Rd0 >= 0 
p16 + p56 + p24Rd1 + pro23Rd0 <= 3 
p16 + p56 + p24Rd1 - pro23Rd0 >= 0 
p15 + p55 + p23Rd1 + pro23Rd0 - p56 >= 0 
p56 + p15 - p55 + p23Rd1 + pro23Rd0 >= 0 
p56 - p15 + p55 + p23Rd1 + pro23Rd0 >= 0 
p16 + p15 + p55 - p23Rd1 + pro23Rd0 >= 0 
p24Rd1 - p15 - p55 - p23Rd1 + pro23Rd0 >= -2 
p15 - p56 - p55 - p23Rd1 + pro23Rd0 >= -2 
p55 - p56 - p15 - p23Rd1 + pro23Rd0 >= -2 
p23Rd1 - p56 - p15 - p55 + pro23Rd0 >= -2 
p57 - p25Rd1 + pro24Rd0 >= 0 
p17 - p57 + pro24Rd0 >= 0 
p25Rd1 - p17 + pro24Rd0 >= 0 
p17 + p57 + p25Rd1 + pro24Rd0 <= 3 
p17 + p57 + p25Rd1 - pro24Rd0 >= 0 
p16 + p56 + p24Rd1 + pro24Rd0 - p57 >= 0 
p57 + p16 - p56 + p24Rd1 + pro24Rd0 >= 0 
p57 - p16 + p56 + p24Rd1 + pro24Rd0 >= 0 
p17 + p16 + p56 - p24Rd1 + pro24Rd0 >= 0 
p25Rd1 - p16 - p56 - p24Rd1 + pro24Rd0 >= -2 
p16 - p57 - p56 - p24Rd1 + pro24Rd0 >= -2 
p56 - p57 - p16 - p24Rd1 + pro24Rd0 >= -2 
p24Rd1 - p57 - p16 - p56 + pro24Rd0 >= -2 
p58 - p26Rd1 + pro25Rd0 >= 0 
p18 - p58 + pro25Rd0 >= 0 
p26Rd1 - p18 + pro25Rd0 >= 0 
p18 + p58 + p26Rd1 + pro25Rd0 <= 3 
p18 + p58 + p26Rd1 - pro25Rd0 >= 0 
p17 + p57 + p25Rd1 + pro25Rd0 - p58 >= 0 
p58 + p17 - p57 + p25Rd1 + pro25Rd0 >= 0 
p58 - p17 + p57 + p25Rd1 + pro25Rd0 >= 0 
p18 + p17 + p57 - p25Rd1 + pro25Rd0 >= 0 
p26Rd1 - p17 - p57 - p25Rd1 + pro25Rd0 >= -2 
p17 - p58 - p57 - p25Rd1 + pro25Rd0 >= -2 
p57 - p58 - p17 - p25Rd1 + pro25Rd0 >= -2 
p25Rd1 - p58 - p17 - p57 + pro25Rd0 >= -2 
p59 - p27Rd1 + pro26Rd0 >= 0 
p19 - p59 + pro26Rd0 >= 0 
p27Rd1 - p19 + pro26Rd0 >= 0 
p19 + p59 + p27Rd1 + pro26Rd0 <= 3 
p19 + p59 + p27Rd1 - pro26Rd0 >= 0 
p18 + p58 + p26Rd1 + pro26Rd0 - p59 >= 0 
p59 + p18 - p58 + p26Rd1 + pro26Rd0 >= 0 
p59 - p18 + p58 + p26Rd1 + pro26Rd0 >= 0 
p19 + p18 + p58 - p26Rd1 + pro26Rd0 >= 0 
p27Rd1 - p18 - p58 - p26Rd1 + pro26Rd0 >= -2 
p18 - p59 - p58 - p26Rd1 + pro26Rd0 >= -2 
p58 - p59 - p18 - p26Rd1 + pro26Rd0 >= -2 
p26Rd1 - p59 - p18 - p58 + pro26Rd0 >= -2 
p60 - p28Rd1 + pro27Rd0 >= 0 
p20 - p60 + pro27Rd0 >= 0 
p28Rd1 - p20 + pro27Rd0 >= 0 
p20 + p60 + p28Rd1 + pro27Rd0 <= 3 
p20 + p60 + p28Rd1 - pro27Rd0 >= 0 
p19 + p59 + p27Rd1 + pro27Rd0 - p60 >= 0 
p60 + p19 - p59 + p27Rd1 + pro27Rd0 >= 0 
p60 - p19 + p59 + p27Rd1 + pro27Rd0 >= 0 
p20 + p19 + p59 - p27Rd1 + pro27Rd0 >= 0 
p28Rd1 - p19 - p59 - p27Rd1 + pro27Rd0 >= -2 
p19 - p60 - p59 - p27Rd1 + pro27Rd0 >= -2 
p59 - p60 - p19 - p27Rd1 + pro27Rd0 >= -2 
p27Rd1 - p60 - p19 - p59 + pro27Rd0 >= -2 
p61 - p29Rd1 + pro28Rd0 >= 0 
p21 - p61 + pro28Rd0 >= 0 
p29Rd1 - p21 + pro28Rd0 >= 0 
p21 + p61 + p29Rd1 + pro28Rd0 <= 3 
p21 + p61 + p29Rd1 - pro28Rd0 >= 0 
p20 + p60 + p28Rd1 + pro28Rd0 - p61 >= 0 
p61 + p20 - p60 + p28Rd1 + pro28Rd0 >= 0 
p61 - p20 + p60 + p28Rd1 + pro28Rd0 >= 0 
p21 + p20 + p60 - p28Rd1 + pro28Rd0 >= 0 
p29Rd1 - p20 - p60 - p28Rd1 + pro28Rd0 >= -2 
p20 - p61 - p60 - p28Rd1 + pro28Rd0 >= -2 
p60 - p61 - p20 - p28Rd1 + pro28Rd0 >= -2 
p28Rd1 - p61 - p20 - p60 + pro28Rd0 >= -2 
p62 - p30Rd1 + pro29Rd0 >= 0 
p22 - p62 + pro29Rd0 >= 0 
p30Rd1 - p22 + pro29Rd0 >= 0 
p22 + p62 + p30Rd1 + pro29Rd0 <= 3 
p22 + p62 + p30Rd1 - pro29Rd0 >= 0 
p21 + p61 + p29Rd1 + pro29Rd0 - p62 >= 0 
p62 + p21 - p61 + p29Rd1 + pro29Rd0 >= 0 
p62 - p21 + p61 + p29Rd1 + pro29Rd0 >= 0 
p22 + p21 + p61 - p29Rd1 + pro29Rd0 >= 0 
p30Rd1 - p21 - p61 - p29Rd1 + pro29Rd0 >= -2 
p21 - p62 - p61 - p29Rd1 + pro29Rd0 >= -2 
p61 - p62 - p21 - p29Rd1 + pro29Rd0 >= -2 
p29Rd1 - p62 - p21 - p61 + pro29Rd0 >= -2 
p63 - p31Rd1 + pro30Rd0 >= 0 
p23 - p63 + pro30Rd0 >= 0 
p31Rd1 - p23 + pro30Rd0 >= 0 
p23 + p63 + p31Rd1 + pro30Rd0 <= 3 
p23 + p63 + p31Rd1 - pro30Rd0 >= 0 
p22 + p62 + p30Rd1 + pro30Rd0 - p63 >= 0 
p63 + p22 - p62 + p30Rd1 + pro30Rd0 >= 0 
p63 - p22 + p62 + p30Rd1 + pro30Rd0 >= 0 
p23 + p22 + p62 - p30Rd1 + pro30Rd0 >= 0 
p31Rd1 - p22 - p62 - p30Rd1 + pro30Rd0 >= -2 
p22 - p63 - p62 - p30Rd1 + pro30Rd0 >= -2 
p62 - p63 - p22 - p30Rd1 + pro30Rd0 >= -2 
p30Rd1 - p63 - p22 - p62 + pro30Rd0 >= -2 
p23 + p63 + p31Rd1 <= 2 
p23 + p63 + p31Rd1 - 2 temp0 >= 0 
temp0 - p23 >= 0 
temp0 - p63 >= 0 
temp0 - p31Rd1 >= 0 
p35Rd1 + p32Rd2 - p0Rd2 >= 0
p35Rd1 - p32Rd2 + p0Rd2 >= 0
- p35Rd1 + p32Rd2 + p0Rd2 >= 0
p35Rd1 + p32Rd2 + p0Rd2 <= 2
p36Rd1 + p33Rd2 - p1Rd2 >= 0
p36Rd1 - p33Rd2 + p1Rd2 >= 0
- p36Rd1 + p33Rd2 + p1Rd2 >= 0
p36Rd1 + p33Rd2 + p1Rd2 <= 2
p37Rd1 + p34Rd2 - p2Rd2 >= 0
p37Rd1 - p34Rd2 + p2Rd2 >= 0
- p37Rd1 + p34Rd2 + p2Rd2 >= 0
p37Rd1 + p34Rd2 + p2Rd2 <= 2
p38Rd1 + p35Rd2 - p3Rd2 >= 0
p38Rd1 - p35Rd2 + p3Rd2 >= 0
- p38Rd1 + p35Rd2 + p3Rd2 >= 0
p38Rd1 + p35Rd2 + p3Rd2 <= 2
p39Rd1 + p36Rd2 - p4Rd2 >= 0
p39Rd1 - p36Rd2 + p4Rd2 >= 0
- p39Rd1 + p36Rd2 + p4Rd2 >= 0
p39Rd1 + p36Rd2 + p4Rd2 <= 2
p40Rd1 + p37Rd2 - p5Rd2 >= 0
p40Rd1 - p37Rd2 + p5Rd2 >= 0
- p40Rd1 + p37Rd2 + p5Rd2 >= 0
p40Rd1 + p37Rd2 + p5Rd2 <= 2
p41Rd1 + p38Rd2 - p6Rd2 >= 0
p41Rd1 - p38Rd2 + p6Rd2 >= 0
- p41Rd1 + p38Rd2 + p6Rd2 >= 0
p41Rd1 + p38Rd2 + p6Rd2 <= 2
p42Rd1 + p39Rd2 - p7Rd2 >= 0
p42Rd1 - p39Rd2 + p7Rd2 >= 0
- p42Rd1 + p39Rd2 + p7Rd2 >= 0
p42Rd1 + p39Rd2 + p7Rd2 <= 2
p43Rd1 + p40Rd2 - p8Rd2 >= 0
p43Rd1 - p40Rd2 + p8Rd2 >= 0
- p43Rd1 + p40Rd2 + p8Rd2 >= 0
p43Rd1 + p40Rd2 + p8Rd2 <= 2
p44Rd1 + p41Rd2 - p9Rd2 >= 0
p44Rd1 - p41Rd2 + p9Rd2 >= 0
- p44Rd1 + p41Rd2 + p9Rd2 >= 0
p44Rd1 + p41Rd2 + p9Rd2 <= 2
p45Rd1 + p42Rd2 - p10Rd2 >= 0
p45Rd1 - p42Rd2 + p10Rd2 >= 0
- p45Rd1 + p42Rd2 + p10Rd2 >= 0
p45Rd1 + p42Rd2 + p10Rd2 <= 2
p46Rd1 + p43Rd2 - p11Rd2 >= 0
p46Rd1 - p43Rd2 + p11Rd2 >= 0
- p46Rd1 + p43Rd2 + p11Rd2 >= 0
p46Rd1 + p43Rd2 + p11Rd2 <= 2
p47Rd1 + p44Rd2 - p12Rd2 >= 0
p47Rd1 - p44Rd2 + p12Rd2 >= 0
- p47Rd1 + p44Rd2 + p12Rd2 >= 0
p47Rd1 + p44Rd2 + p12Rd2 <= 2
p48Rd1 + p45Rd2 - p13Rd2 >= 0
p48Rd1 - p45Rd2 + p13Rd2 >= 0
- p48Rd1 + p45Rd2 + p13Rd2 >= 0
p48Rd1 + p45Rd2 + p13Rd2 <= 2
p49Rd1 + p46Rd2 - p14Rd2 >= 0
p49Rd1 - p46Rd2 + p14Rd2 >= 0
- p49Rd1 + p46Rd2 + p14Rd2 >= 0
p49Rd1 + p46Rd2 + p14Rd2 <= 2
p50Rd1 + p47Rd2 - p15Rd2 >= 0
p50Rd1 - p47Rd2 + p15Rd2 >= 0
- p50Rd1 + p47Rd2 + p15Rd2 >= 0
p50Rd1 + p47Rd2 + p15Rd2 <= 2
p51Rd1 + p48Rd2 - p16Rd2 >= 0
p51Rd1 - p48Rd2 + p16Rd2 >= 0
- p51Rd1 + p48Rd2 + p16Rd2 >= 0
p51Rd1 + p48Rd2 + p16Rd2 <= 2
p52Rd1 + p49Rd2 - p17Rd2 >= 0
p52Rd1 - p49Rd2 + p17Rd2 >= 0
- p52Rd1 + p49Rd2 + p17Rd2 >= 0
p52Rd1 + p49Rd2 + p17Rd2 <= 2
p53Rd1 + p50Rd2 - p18Rd2 >= 0
p53Rd1 - p50Rd2 + p18Rd2 >= 0
- p53Rd1 + p50Rd2 + p18Rd2 >= 0
p53Rd1 + p50Rd2 + p18Rd2 <= 2
p54Rd1 + p51Rd2 - p19Rd2 >= 0
p54Rd1 - p51Rd2 + p19Rd2 >= 0
- p54Rd1 + p51Rd2 + p19Rd2 >= 0
p54Rd1 + p51Rd2 + p19Rd2 <= 2
p55Rd1 + p52Rd2 - p20Rd2 >= 0
p55Rd1 - p52Rd2 + p20Rd2 >= 0
- p55Rd1 + p52Rd2 + p20Rd2 >= 0
p55Rd1 + p52Rd2 + p20Rd2 <= 2
p56Rd1 + p53Rd2 - p21Rd2 >= 0
p56Rd1 - p53Rd2 + p21Rd2 >= 0
- p56Rd1 + p53Rd2 + p21Rd2 >= 0
p56Rd1 + p53Rd2 + p21Rd2 <= 2
p57Rd1 + p54Rd2 - p22Rd2 >= 0
p57Rd1 - p54Rd2 + p22Rd2 >= 0
- p57Rd1 + p54Rd2 + p22Rd2 >= 0
p57Rd1 + p54Rd2 + p22Rd2 <= 2
p58Rd1 + p55Rd2 - p23Rd2 >= 0
p58Rd1 - p55Rd2 + p23Rd2 >= 0
- p58Rd1 + p55Rd2 + p23Rd2 >= 0
p58Rd1 + p55Rd2 + p23Rd2 <= 2
p59Rd1 + p56Rd2 - p24Rd2 >= 0
p59Rd1 - p56Rd2 + p24Rd2 >= 0
- p59Rd1 + p56Rd2 + p24Rd2 >= 0
p59Rd1 + p56Rd2 + p24Rd2 <= 2
p60Rd1 + p57Rd2 - p25Rd2 >= 0
p60Rd1 - p57Rd2 + p25Rd2 >= 0
- p60Rd1 + p57Rd2 + p25Rd2 >= 0
p60Rd1 + p57Rd2 + p25Rd2 <= 2
p61Rd1 + p58Rd2 - p26Rd2 >= 0
p61Rd1 - p58Rd2 + p26Rd2 >= 0
- p61Rd1 + p58Rd2 + p26Rd2 >= 0
p61Rd1 + p58Rd2 + p26Rd2 <= 2
p62Rd1 + p59Rd2 - p27Rd2 >= 0
p62Rd1 - p59Rd2 + p27Rd2 >= 0
- p62Rd1 + p59Rd2 + p27Rd2 >= 0
p62Rd1 + p59Rd2 + p27Rd2 <= 2
p63Rd1 + p60Rd2 - p28Rd2 >= 0
p63Rd1 - p60Rd2 + p28Rd2 >= 0
- p63Rd1 + p60Rd2 + p28Rd2 >= 0
p63Rd1 + p60Rd2 + p28Rd2 <= 2
p32Rd1 + p61Rd2 - p29Rd2 >= 0
p32Rd1 - p61Rd2 + p29Rd2 >= 0
- p32Rd1 + p61Rd2 + p29Rd2 >= 0
p32Rd1 + p61Rd2 + p29Rd2 <= 2
p33Rd1 + p62Rd2 - p30Rd2 >= 0
p33Rd1 - p62Rd2 + p30Rd2 >= 0
- p33Rd1 + p62Rd2 + p30Rd2 >= 0
p33Rd1 + p62Rd2 + p30Rd2 <= 2
p34Rd1 + p63Rd2 - p31Rd2 >= 0
p34Rd1 - p63Rd2 + p31Rd2 >= 0
- p34Rd1 + p63Rd2 + p31Rd2 >= 0
p34Rd1 + p63Rd2 + p31Rd2 <= 2
p33Rd1 - p1Rd2 + pro0Rd1 >= 0 
p25Rd1 - p33Rd1 + pro0Rd1 >= 0 
p1Rd2 - p25Rd1 + pro0Rd1 >= 0 
p25Rd1 + p33Rd1 + p1Rd2 + pro0Rd1 <= 3 
p25Rd1 + p33Rd1 + p1Rd2 - pro0Rd1 >= 0 
p24Rd1 + p32Rd1 + p0Rd2 + pro0Rd1 - p33Rd1 >= 0 
p33Rd1 + p24Rd1 - p32Rd1 + p0Rd2 + pro0Rd1 >= 0 
p33Rd1 - p24Rd1 + p32Rd1 + p0Rd2 + pro0Rd1 >= 0 
p25Rd1 + p24Rd1 + p32Rd1 - p0Rd2 + pro0Rd1 >= 0 
p1Rd2 - p24Rd1 - p32Rd1 - p0Rd2 + pro0Rd1 >= -2 
p24Rd1 - p33Rd1 - p32Rd1 - p0Rd2 + pro0Rd1 >= -2 
p32Rd1 - p33Rd1 - p24Rd1 - p0Rd2 + pro0Rd1 >= -2 
p0Rd2 - p33Rd1 - p24Rd1 - p32Rd1 + pro0Rd1 >= -2 
p34Rd1 - p2Rd2 + pro1Rd1 >= 0 
p26Rd1 - p34Rd1 + pro1Rd1 >= 0 
p2Rd2 - p26Rd1 + pro1Rd1 >= 0 
p26Rd1 + p34Rd1 + p2Rd2 + pro1Rd1 <= 3 
p26Rd1 + p34Rd1 + p2Rd2 - pro1Rd1 >= 0 
p25Rd1 + p33Rd1 + p1Rd2 + pro1Rd1 - p34Rd1 >= 0 
p34Rd1 + p25Rd1 - p33Rd1 + p1Rd2 + pro1Rd1 >= 0 
p34Rd1 - p25Rd1 + p33Rd1 + p1Rd2 + pro1Rd1 >= 0 
p26Rd1 + p25Rd1 + p33Rd1 - p1Rd2 + pro1Rd1 >= 0 
p2Rd2 - p25Rd1 - p33Rd1 - p1Rd2 + pro1Rd1 >= -2 
p25Rd1 - p34Rd1 - p33Rd1 - p1Rd2 + pro1Rd1 >= -2 
p33Rd1 - p34Rd1 - p25Rd1 - p1Rd2 + pro1Rd1 >= -2 
p1Rd2 - p34Rd1 - p25Rd1 - p33Rd1 + pro1Rd1 >= -2 
p35Rd1 - p3Rd2 + pro2Rd1 >= 0 
p27Rd1 - p35Rd1 + pro2Rd1 >= 0 
p3Rd2 - p27Rd1 + pro2Rd1 >= 0 
p27Rd1 + p35Rd1 + p3Rd2 + pro2Rd1 <= 3 
p27Rd1 + p35Rd1 + p3Rd2 - pro2Rd1 >= 0 
p26Rd1 + p34Rd1 + p2Rd2 + pro2Rd1 - p35Rd1 >= 0 
p35Rd1 + p26Rd1 - p34Rd1 + p2Rd2 + pro2Rd1 >= 0 
p35Rd1 - p26Rd1 + p34Rd1 + p2Rd2 + pro2Rd1 >= 0 
p27Rd1 + p26Rd1 + p34Rd1 - p2Rd2 + pro2Rd1 >= 0 
p3Rd2 - p26Rd1 - p34Rd1 - p2Rd2 + pro2Rd1 >= -2 
p26Rd1 - p35Rd1 - p34Rd1 - p2Rd2 + pro2Rd1 >= -2 
p34Rd1 - p35Rd1 - p26Rd1 - p2Rd2 + pro2Rd1 >= -2 
p2Rd2 - p35Rd1 - p26Rd1 - p34Rd1 + pro2Rd1 >= -2 
p36Rd1 - p4Rd2 + pro3Rd1 >= 0 
p28Rd1 - p36Rd1 + pro3Rd1 >= 0 
p4Rd2 - p28Rd1 + pro3Rd1 >= 0 
p28Rd1 + p36Rd1 + p4Rd2 + pro3Rd1 <= 3 
p28Rd1 + p36Rd1 + p4Rd2 - pro3Rd1 >= 0 
p27Rd1 + p35Rd1 + p3Rd2 + pro3Rd1 - p36Rd1 >= 0 
p36Rd1 + p27Rd1 - p35Rd1 + p3Rd2 + pro3Rd1 >= 0 
p36Rd1 - p27Rd1 + p35Rd1 + p3Rd2 + pro3Rd1 >= 0 
p28Rd1 + p27Rd1 + p35Rd1 - p3Rd2 + pro3Rd1 >= 0 
p4Rd2 - p27Rd1 - p35Rd1 - p3Rd2 + pro3Rd1 >= -2 
p27Rd1 - p36Rd1 - p35Rd1 - p3Rd2 + pro3Rd1 >= -2 
p35Rd1 - p36Rd1 - p27Rd1 - p3Rd2 + pro3Rd1 >= -2 
p3Rd2 - p36Rd1 - p27Rd1 - p35Rd1 + pro3Rd1 >= -2 
p37Rd1 - p5Rd2 + pro4Rd1 >= 0 
p29Rd1 - p37Rd1 + pro4Rd1 >= 0 
p5Rd2 - p29Rd1 + pro4Rd1 >= 0 
p29Rd1 + p37Rd1 + p5Rd2 + pro4Rd1 <= 3 
p29Rd1 + p37Rd1 + p5Rd2 - pro4Rd1 >= 0 
p28Rd1 + p36Rd1 + p4Rd2 + pro4Rd1 - p37Rd1 >= 0 
p37Rd1 + p28Rd1 - p36Rd1 + p4Rd2 + pro4Rd1 >= 0 
p37Rd1 - p28Rd1 + p36Rd1 + p4Rd2 + pro4Rd1 >= 0 
p29Rd1 + p28Rd1 + p36Rd1 - p4Rd2 + pro4Rd1 >= 0 
p5Rd2 - p28Rd1 - p36Rd1 - p4Rd2 + pro4Rd1 >= -2 
p28Rd1 - p37Rd1 - p36Rd1 - p4Rd2 + pro4Rd1 >= -2 
p36Rd1 - p37Rd1 - p28Rd1 - p4Rd2 + pro4Rd1 >= -2 
p4Rd2 - p37Rd1 - p28Rd1 - p36Rd1 + pro4Rd1 >= -2 
p38Rd1 - p6Rd2 + pro5Rd1 >= 0 
p30Rd1 - p38Rd1 + pro5Rd1 >= 0 
p6Rd2 - p30Rd1 + pro5Rd1 >= 0 
p30Rd1 + p38Rd1 + p6Rd2 + pro5Rd1 <= 3 
p30Rd1 + p38Rd1 + p6Rd2 - pro5Rd1 >= 0 
p29Rd1 + p37Rd1 + p5Rd2 + pro5Rd1 - p38Rd1 >= 0 
p38Rd1 + p29Rd1 - p37Rd1 + p5Rd2 + pro5Rd1 >= 0 
p38Rd1 - p29Rd1 + p37Rd1 + p5Rd2 + pro5Rd1 >= 0 
p30Rd1 + p29Rd1 + p37Rd1 - p5Rd2 + pro5Rd1 >= 0 
p6Rd2 - p29Rd1 - p37Rd1 - p5Rd2 + pro5Rd1 >= -2 
p29Rd1 - p38Rd1 - p37Rd1 - p5Rd2 + pro5Rd1 >= -2 
p37Rd1 - p38Rd1 - p29Rd1 - p5Rd2 + pro5Rd1 >= -2 
p5Rd2 - p38Rd1 - p29Rd1 - p37Rd1 + pro5Rd1 >= -2 
p39Rd1 - p7Rd2 + pro6Rd1 >= 0 
p31Rd1 - p39Rd1 + pro6Rd1 >= 0 
p7Rd2 - p31Rd1 + pro6Rd1 >= 0 
p31Rd1 + p39Rd1 + p7Rd2 + pro6Rd1 <= 3 
p31Rd1 + p39Rd1 + p7Rd2 - pro6Rd1 >= 0 
p30Rd1 + p38Rd1 + p6Rd2 + pro6Rd1 - p39Rd1 >= 0 
p39Rd1 + p30Rd1 - p38Rd1 + p6Rd2 + pro6Rd1 >= 0 
p39Rd1 - p30Rd1 + p38Rd1 + p6Rd2 + pro6Rd1 >= 0 
p31Rd1 + p30Rd1 + p38Rd1 - p6Rd2 + pro6Rd1 >= 0 
p7Rd2 - p30Rd1 - p38Rd1 - p6Rd2 + pro6Rd1 >= -2 
p30Rd1 - p39Rd1 - p38Rd1 - p6Rd2 + pro6Rd1 >= -2 
p38Rd1 - p39Rd1 - p30Rd1 - p6Rd2 + pro6Rd1 >= -2 
p6Rd2 - p39Rd1 - p30Rd1 - p38Rd1 + pro6Rd1 >= -2 
p40Rd1 - p8Rd2 + pro7Rd1 >= 0 
p0Rd1 - p40Rd1 + pro7Rd1 >= 0 
p8Rd2 - p0Rd1 + pro7Rd1 >= 0 
p0Rd1 + p40Rd1 + p8Rd2 + pro7Rd1 <= 3 
p0Rd1 + p40Rd1 + p8Rd2 - pro7Rd1 >= 0 
p31Rd1 + p39Rd1 + p7Rd2 + pro7Rd1 - p40Rd1 >= 0 
p40Rd1 + p31Rd1 - p39Rd1 + p7Rd2 + pro7Rd1 >= 0 
p40Rd1 - p31Rd1 + p39Rd1 + p7Rd2 + pro7Rd1 >= 0 
p0Rd1 + p31Rd1 + p39Rd1 - p7Rd2 + pro7Rd1 >= 0 
p8Rd2 - p31Rd1 - p39Rd1 - p7Rd2 + pro7Rd1 >= -2 
p31Rd1 - p40Rd1 - p39Rd1 - p7Rd2 + pro7Rd1 >= -2 
p39Rd1 - p40Rd1 - p31Rd1 - p7Rd2 + pro7Rd1 >= -2 
p7Rd2 - p40Rd1 - p31Rd1 - p39Rd1 + pro7Rd1 >= -2 
p41Rd1 - p9Rd2 + pro8Rd1 >= 0 
p1Rd1 - p41Rd1 + pro8Rd1 >= 0 
p9Rd2 - p1Rd1 + pro8Rd1 >= 0 
p1Rd1 + p41Rd1 + p9Rd2 + pro8Rd1 <= 3 
p1Rd1 + p41Rd1 + p9Rd2 - pro8Rd1 >= 0 
p0Rd1 + p40Rd1 + p8Rd2 + pro8Rd1 - p41Rd1 >= 0 
p41Rd1 + p0Rd1 - p40Rd1 + p8Rd2 + pro8Rd1 >= 0 
p41Rd1 - p0Rd1 + p40Rd1 + p8Rd2 + pro8Rd1 >= 0 
p1Rd1 + p0Rd1 + p40Rd1 - p8Rd2 + pro8Rd1 >= 0 
p9Rd2 - p0Rd1 - p40Rd1 - p8Rd2 + pro8Rd1 >= -2 
p0Rd1 - p41Rd1 - p40Rd1 - p8Rd2 + pro8Rd1 >= -2 
p40Rd1 - p41Rd1 - p0Rd1 - p8Rd2 + pro8Rd1 >= -2 
p8Rd2 - p41Rd1 - p0Rd1 - p40Rd1 + pro8Rd1 >= -2 
p42Rd1 - p10Rd2 + pro9Rd1 >= 0 
p2Rd1 - p42Rd1 + pro9Rd1 >= 0 
p10Rd2 - p2Rd1 + pro9Rd1 >= 0 
p2Rd1 + p42Rd1 + p10Rd2 + pro9Rd1 <= 3 
p2Rd1 + p42Rd1 + p10Rd2 - pro9Rd1 >= 0 
p1Rd1 + p41Rd1 + p9Rd2 + pro9Rd1 - p42Rd1 >= 0 
p42Rd1 + p1Rd1 - p41Rd1 + p9Rd2 + pro9Rd1 >= 0 
p42Rd1 - p1Rd1 + p41Rd1 + p9Rd2 + pro9Rd1 >= 0 
p2Rd1 + p1Rd1 + p41Rd1 - p9Rd2 + pro9Rd1 >= 0 
p10Rd2 - p1Rd1 - p41Rd1 - p9Rd2 + pro9Rd1 >= -2 
p1Rd1 - p42Rd1 - p41Rd1 - p9Rd2 + pro9Rd1 >= -2 
p41Rd1 - p42Rd1 - p1Rd1 - p9Rd2 + pro9Rd1 >= -2 
p9Rd2 - p42Rd1 - p1Rd1 - p41Rd1 + pro9Rd1 >= -2 
p43Rd1 - p11Rd2 + pro10Rd1 >= 0 
p3Rd1 - p43Rd1 + pro10Rd1 >= 0 
p11Rd2 - p3Rd1 + pro10Rd1 >= 0 
p3Rd1 + p43Rd1 + p11Rd2 + pro10Rd1 <= 3 
p3Rd1 + p43Rd1 + p11Rd2 - pro10Rd1 >= 0 
p2Rd1 + p42Rd1 + p10Rd2 + pro10Rd1 - p43Rd1 >= 0 
p43Rd1 + p2Rd1 - p42Rd1 + p10Rd2 + pro10Rd1 >= 0 
p43Rd1 - p2Rd1 + p42Rd1 + p10Rd2 + pro10Rd1 >= 0 
p3Rd1 + p2Rd1 + p42Rd1 - p10Rd2 + pro10Rd1 >= 0 
p11Rd2 - p2Rd1 - p42Rd1 - p10Rd2 + pro10Rd1 >= -2 
p2Rd1 - p43Rd1 - p42Rd1 - p10Rd2 + pro10Rd1 >= -2 
p42Rd1 - p43Rd1 - p2Rd1 - p10Rd2 + pro10Rd1 >= -2 
p10Rd2 - p43Rd1 - p2Rd1 - p42Rd1 + pro10Rd1 >= -2 
p44Rd1 - p12Rd2 + pro11Rd1 >= 0 
p4Rd1 - p44Rd1 + pro11Rd1 >= 0 
p12Rd2 - p4Rd1 + pro11Rd1 >= 0 
p4Rd1 + p44Rd1 + p12Rd2 + pro11Rd1 <= 3 
p4Rd1 + p44Rd1 + p12Rd2 - pro11Rd1 >= 0 
p3Rd1 + p43Rd1 + p11Rd2 + pro11Rd1 - p44Rd1 >= 0 
p44Rd1 + p3Rd1 - p43Rd1 + p11Rd2 + pro11Rd1 >= 0 
p44Rd1 - p3Rd1 + p43Rd1 + p11Rd2 + pro11Rd1 >= 0 
p4Rd1 + p3Rd1 + p43Rd1 - p11Rd2 + pro11Rd1 >= 0 
p12Rd2 - p3Rd1 - p43Rd1 - p11Rd2 + pro11Rd1 >= -2 
p3Rd1 - p44Rd1 - p43Rd1 - p11Rd2 + pro11Rd1 >= -2 
p43Rd1 - p44Rd1 - p3Rd1 - p11Rd2 + pro11Rd1 >= -2 
p11Rd2 - p44Rd1 - p3Rd1 - p43Rd1 + pro11Rd1 >= -2 
p45Rd1 - p13Rd2 + pro12Rd1 >= 0 
p5Rd1 - p45Rd1 + pro12Rd1 >= 0 
p13Rd2 - p5Rd1 + pro12Rd1 >= 0 
p5Rd1 + p45Rd1 + p13Rd2 + pro12Rd1 <= 3 
p5Rd1 + p45Rd1 + p13Rd2 - pro12Rd1 >= 0 
p4Rd1 + p44Rd1 + p12Rd2 + pro12Rd1 - p45Rd1 >= 0 
p45Rd1 + p4Rd1 - p44Rd1 + p12Rd2 + pro12Rd1 >= 0 
p45Rd1 - p4Rd1 + p44Rd1 + p12Rd2 + pro12Rd1 >= 0 
p5Rd1 + p4Rd1 + p44Rd1 - p12Rd2 + pro12Rd1 >= 0 
p13Rd2 - p4Rd1 - p44Rd1 - p12Rd2 + pro12Rd1 >= -2 
p4Rd1 - p45Rd1 - p44Rd1 - p12Rd2 + pro12Rd1 >= -2 
p44Rd1 - p45Rd1 - p4Rd1 - p12Rd2 + pro12Rd1 >= -2 
p12Rd2 - p45Rd1 - p4Rd1 - p44Rd1 + pro12Rd1 >= -2 
p46Rd1 - p14Rd2 + pro13Rd1 >= 0 
p6Rd1 - p46Rd1 + pro13Rd1 >= 0 
p14Rd2 - p6Rd1 + pro13Rd1 >= 0 
p6Rd1 + p46Rd1 + p14Rd2 + pro13Rd1 <= 3 
p6Rd1 + p46Rd1 + p14Rd2 - pro13Rd1 >= 0 
p5Rd1 + p45Rd1 + p13Rd2 + pro13Rd1 - p46Rd1 >= 0 
p46Rd1 + p5Rd1 - p45Rd1 + p13Rd2 + pro13Rd1 >= 0 
p46Rd1 - p5Rd1 + p45Rd1 + p13Rd2 + pro13Rd1 >= 0 
p6Rd1 + p5Rd1 + p45Rd1 - p13Rd2 + pro13Rd1 >= 0 
p14Rd2 - p5Rd1 - p45Rd1 - p13Rd2 + pro13Rd1 >= -2 
p5Rd1 - p46Rd1 - p45Rd1 - p13Rd2 + pro13Rd1 >= -2 
p45Rd1 - p46Rd1 - p5Rd1 - p13Rd2 + pro13Rd1 >= -2 
p13Rd2 - p46Rd1 - p5Rd1 - p45Rd1 + pro13Rd1 >= -2 
p47Rd1 - p15Rd2 + pro14Rd1 >= 0 
p7Rd1 - p47Rd1 + pro14Rd1 >= 0 
p15Rd2 - p7Rd1 + pro14Rd1 >= 0 
p7Rd1 + p47Rd1 + p15Rd2 + pro14Rd1 <= 3 
p7Rd1 + p47Rd1 + p15Rd2 - pro14Rd1 >= 0 
p6Rd1 + p46Rd1 + p14Rd2 + pro14Rd1 - p47Rd1 >= 0 
p47Rd1 + p6Rd1 - p46Rd1 + p14Rd2 + pro14Rd1 >= 0 
p47Rd1 - p6Rd1 + p46Rd1 + p14Rd2 + pro14Rd1 >= 0 
p7Rd1 + p6Rd1 + p46Rd1 - p14Rd2 + pro14Rd1 >= 0 
p15Rd2 - p6Rd1 - p46Rd1 - p14Rd2 + pro14Rd1 >= -2 
p6Rd1 - p47Rd1 - p46Rd1 - p14Rd2 + pro14Rd1 >= -2 
p46Rd1 - p47Rd1 - p6Rd1 - p14Rd2 + pro14Rd1 >= -2 
p14Rd2 - p47Rd1 - p6Rd1 - p46Rd1 + pro14Rd1 >= -2 
p48Rd1 - p16Rd2 + pro15Rd1 >= 0 
p8Rd1 - p48Rd1 + pro15Rd1 >= 0 
p16Rd2 - p8Rd1 + pro15Rd1 >= 0 
p8Rd1 + p48Rd1 + p16Rd2 + pro15Rd1 <= 3 
p8Rd1 + p48Rd1 + p16Rd2 - pro15Rd1 >= 0 
p7Rd1 + p47Rd1 + p15Rd2 + pro15Rd1 - p48Rd1 >= 0 
p48Rd1 + p7Rd1 - p47Rd1 + p15Rd2 + pro15Rd1 >= 0 
p48Rd1 - p7Rd1 + p47Rd1 + p15Rd2 + pro15Rd1 >= 0 
p8Rd1 + p7Rd1 + p47Rd1 - p15Rd2 + pro15Rd1 >= 0 
p16Rd2 - p7Rd1 - p47Rd1 - p15Rd2 + pro15Rd1 >= -2 
p7Rd1 - p48Rd1 - p47Rd1 - p15Rd2 + pro15Rd1 >= -2 
p47Rd1 - p48Rd1 - p7Rd1 - p15Rd2 + pro15Rd1 >= -2 
p15Rd2 - p48Rd1 - p7Rd1 - p47Rd1 + pro15Rd1 >= -2 
p49Rd1 - p17Rd2 + pro16Rd1 >= 0 
p9Rd1 - p49Rd1 + pro16Rd1 >= 0 
p17Rd2 - p9Rd1 + pro16Rd1 >= 0 
p9Rd1 + p49Rd1 + p17Rd2 + pro16Rd1 <= 3 
p9Rd1 + p49Rd1 + p17Rd2 - pro16Rd1 >= 0 
p8Rd1 + p48Rd1 + p16Rd2 + pro16Rd1 - p49Rd1 >= 0 
p49Rd1 + p8Rd1 - p48Rd1 + p16Rd2 + pro16Rd1 >= 0 
p49Rd1 - p8Rd1 + p48Rd1 + p16Rd2 + pro16Rd1 >= 0 
p9Rd1 + p8Rd1 + p48Rd1 - p16Rd2 + pro16Rd1 >= 0 
p17Rd2 - p8Rd1 - p48Rd1 - p16Rd2 + pro16Rd1 >= -2 
p8Rd1 - p49Rd1 - p48Rd1 - p16Rd2 + pro16Rd1 >= -2 
p48Rd1 - p49Rd1 - p8Rd1 - p16Rd2 + pro16Rd1 >= -2 
p16Rd2 - p49Rd1 - p8Rd1 - p48Rd1 + pro16Rd1 >= -2 
p50Rd1 - p18Rd2 + pro17Rd1 >= 0 
p10Rd1 - p50Rd1 + pro17Rd1 >= 0 
p18Rd2 - p10Rd1 + pro17Rd1 >= 0 
p10Rd1 + p50Rd1 + p18Rd2 + pro17Rd1 <= 3 
p10Rd1 + p50Rd1 + p18Rd2 - pro17Rd1 >= 0 
p9Rd1 + p49Rd1 + p17Rd2 + pro17Rd1 - p50Rd1 >= 0 
p50Rd1 + p9Rd1 - p49Rd1 + p17Rd2 + pro17Rd1 >= 0 
p50Rd1 - p9Rd1 + p49Rd1 + p17Rd2 + pro17Rd1 >= 0 
p10Rd1 + p9Rd1 + p49Rd1 - p17Rd2 + pro17Rd1 >= 0 
p18Rd2 - p9Rd1 - p49Rd1 - p17Rd2 + pro17Rd1 >= -2 
p9Rd1 - p50Rd1 - p49Rd1 - p17Rd2 + pro17Rd1 >= -2 
p49Rd1 - p50Rd1 - p9Rd1 - p17Rd2 + pro17Rd1 >= -2 
p17Rd2 - p50Rd1 - p9Rd1 - p49Rd1 + pro17Rd1 >= -2 
p51Rd1 - p19Rd2 + pro18Rd1 >= 0 
p11Rd1 - p51Rd1 + pro18Rd1 >= 0 
p19Rd2 - p11Rd1 + pro18Rd1 >= 0 
p11Rd1 + p51Rd1 + p19Rd2 + pro18Rd1 <= 3 
p11Rd1 + p51Rd1 + p19Rd2 - pro18Rd1 >= 0 
p10Rd1 + p50Rd1 + p18Rd2 + pro18Rd1 - p51Rd1 >= 0 
p51Rd1 + p10Rd1 - p50Rd1 + p18Rd2 + pro18Rd1 >= 0 
p51Rd1 - p10Rd1 + p50Rd1 + p18Rd2 + pro18Rd1 >= 0 
p11Rd1 + p10Rd1 + p50Rd1 - p18Rd2 + pro18Rd1 >= 0 
p19Rd2 - p10Rd1 - p50Rd1 - p18Rd2 + pro18Rd1 >= -2 
p10Rd1 - p51Rd1 - p50Rd1 - p18Rd2 + pro18Rd1 >= -2 
p50Rd1 - p51Rd1 - p10Rd1 - p18Rd2 + pro18Rd1 >= -2 
p18Rd2 - p51Rd1 - p10Rd1 - p50Rd1 + pro18Rd1 >= -2 
p52Rd1 - p20Rd2 + pro19Rd1 >= 0 
p12Rd1 - p52Rd1 + pro19Rd1 >= 0 
p20Rd2 - p12Rd1 + pro19Rd1 >= 0 
p12Rd1 + p52Rd1 + p20Rd2 + pro19Rd1 <= 3 
p12Rd1 + p52Rd1 + p20Rd2 - pro19Rd1 >= 0 
p11Rd1 + p51Rd1 + p19Rd2 + pro19Rd1 - p52Rd1 >= 0 
p52Rd1 + p11Rd1 - p51Rd1 + p19Rd2 + pro19Rd1 >= 0 
p52Rd1 - p11Rd1 + p51Rd1 + p19Rd2 + pro19Rd1 >= 0 
p12Rd1 + p11Rd1 + p51Rd1 - p19Rd2 + pro19Rd1 >= 0 
p20Rd2 - p11Rd1 - p51Rd1 - p19Rd2 + pro19Rd1 >= -2 
p11Rd1 - p52Rd1 - p51Rd1 - p19Rd2 + pro19Rd1 >= -2 
p51Rd1 - p52Rd1 - p11Rd1 - p19Rd2 + pro19Rd1 >= -2 
p19Rd2 - p52Rd1 - p11Rd1 - p51Rd1 + pro19Rd1 >= -2 
p53Rd1 - p21Rd2 + pro20Rd1 >= 0 
p13Rd1 - p53Rd1 + pro20Rd1 >= 0 
p21Rd2 - p13Rd1 + pro20Rd1 >= 0 
p13Rd1 + p53Rd1 + p21Rd2 + pro20Rd1 <= 3 
p13Rd1 + p53Rd1 + p21Rd2 - pro20Rd1 >= 0 
p12Rd1 + p52Rd1 + p20Rd2 + pro20Rd1 - p53Rd1 >= 0 
p53Rd1 + p12Rd1 - p52Rd1 + p20Rd2 + pro20Rd1 >= 0 
p53Rd1 - p12Rd1 + p52Rd1 + p20Rd2 + pro20Rd1 >= 0 
p13Rd1 + p12Rd1 + p52Rd1 - p20Rd2 + pro20Rd1 >= 0 
p21Rd2 - p12Rd1 - p52Rd1 - p20Rd2 + pro20Rd1 >= -2 
p12Rd1 - p53Rd1 - p52Rd1 - p20Rd2 + pro20Rd1 >= -2 
p52Rd1 - p53Rd1 - p12Rd1 - p20Rd2 + pro20Rd1 >= -2 
p20Rd2 - p53Rd1 - p12Rd1 - p52Rd1 + pro20Rd1 >= -2 
p54Rd1 - p22Rd2 + pro21Rd1 >= 0 
p14Rd1 - p54Rd1 + pro21Rd1 >= 0 
p22Rd2 - p14Rd1 + pro21Rd1 >= 0 
p14Rd1 + p54Rd1 + p22Rd2 + pro21Rd1 <= 3 
p14Rd1 + p54Rd1 + p22Rd2 - pro21Rd1 >= 0 
p13Rd1 + p53Rd1 + p21Rd2 + pro21Rd1 - p54Rd1 >= 0 
p54Rd1 + p13Rd1 - p53Rd1 + p21Rd2 + pro21Rd1 >= 0 
p54Rd1 - p13Rd1 + p53Rd1 + p21Rd2 + pro21Rd1 >= 0 
p14Rd1 + p13Rd1 + p53Rd1 - p21Rd2 + pro21Rd1 >= 0 
p22Rd2 - p13Rd1 - p53Rd1 - p21Rd2 + pro21Rd1 >= -2 
p13Rd1 - p54Rd1 - p53Rd1 - p21Rd2 + pro21Rd1 >= -2 
p53Rd1 - p54Rd1 - p13Rd1 - p21Rd2 + pro21Rd1 >= -2 
p21Rd2 - p54Rd1 - p13Rd1 - p53Rd1 + pro21Rd1 >= -2 
p55Rd1 - p23Rd2 + pro22Rd1 >= 0 
p15Rd1 - p55Rd1 + pro22Rd1 >= 0 
p23Rd2 - p15Rd1 + pro22Rd1 >= 0 
p15Rd1 + p55Rd1 + p23Rd2 + pro22Rd1 <= 3 
p15Rd1 + p55Rd1 + p23Rd2 - pro22Rd1 >= 0 
p14Rd1 + p54Rd1 + p22Rd2 + pro22Rd1 - p55Rd1 >= 0 
p55Rd1 + p14Rd1 - p54Rd1 + p22Rd2 + pro22Rd1 >= 0 
p55Rd1 - p14Rd1 + p54Rd1 + p22Rd2 + pro22Rd1 >= 0 
p15Rd1 + p14Rd1 + p54Rd1 - p22Rd2 + pro22Rd1 >= 0 
p23Rd2 - p14Rd1 - p54Rd1 - p22Rd2 + pro22Rd1 >= -2 
p14Rd1 - p55Rd1 - p54Rd1 - p22Rd2 + pro22Rd1 >= -2 
p54Rd1 - p55Rd1 - p14Rd1 - p22Rd2 + pro22Rd1 >= -2 
p22Rd2 - p55Rd1 - p14Rd1 - p54Rd1 + pro22Rd1 >= -2 
p56Rd1 - p24Rd2 + pro23Rd1 >= 0 
p16Rd1 - p56Rd1 + pro23Rd1 >= 0 
p24Rd2 - p16Rd1 + pro23Rd1 >= 0 
p16Rd1 + p56Rd1 + p24Rd2 + pro23Rd1 <= 3 
p16Rd1 + p56Rd1 + p24Rd2 - pro23Rd1 >= 0 
p15Rd1 + p55Rd1 + p23Rd2 + pro23Rd1 - p56Rd1 >= 0 
p56Rd1 + p15Rd1 - p55Rd1 + p23Rd2 + pro23Rd1 >= 0 
p56Rd1 - p15Rd1 + p55Rd1 + p23Rd2 + pro23Rd1 >= 0 
p16Rd1 + p15Rd1 + p55Rd1 - p23Rd2 + pro23Rd1 >= 0 
p24Rd2 - p15Rd1 - p55Rd1 - p23Rd2 + pro23Rd1 >= -2 
p15Rd1 - p56Rd1 - p55Rd1 - p23Rd2 + pro23Rd1 >= -2 
p55Rd1 - p56Rd1 - p15Rd1 - p23Rd2 + pro23Rd1 >= -2 
p23Rd2 - p56Rd1 - p15Rd1 - p55Rd1 + pro23Rd1 >= -2 
p57Rd1 - p25Rd2 + pro24Rd1 >= 0 
p17Rd1 - p57Rd1 + pro24Rd1 >= 0 
p25Rd2 - p17Rd1 + pro24Rd1 >= 0 
p17Rd1 + p57Rd1 + p25Rd2 + pro24Rd1 <= 3 
p17Rd1 + p57Rd1 + p25Rd2 - pro24Rd1 >= 0 
p16Rd1 + p56Rd1 + p24Rd2 + pro24Rd1 - p57Rd1 >= 0 
p57Rd1 + p16Rd1 - p56Rd1 + p24Rd2 + pro24Rd1 >= 0 
p57Rd1 - p16Rd1 + p56Rd1 + p24Rd2 + pro24Rd1 >= 0 
p17Rd1 + p16Rd1 + p56Rd1 - p24Rd2 + pro24Rd1 >= 0 
p25Rd2 - p16Rd1 - p56Rd1 - p24Rd2 + pro24Rd1 >= -2 
p16Rd1 - p57Rd1 - p56Rd1 - p24Rd2 + pro24Rd1 >= -2 
p56Rd1 - p57Rd1 - p16Rd1 - p24Rd2 + pro24Rd1 >= -2 
p24Rd2 - p57Rd1 - p16Rd1 - p56Rd1 + pro24Rd1 >= -2 
p58Rd1 - p26Rd2 + pro25Rd1 >= 0 
p18Rd1 - p58Rd1 + pro25Rd1 >= 0 
p26Rd2 - p18Rd1 + pro25Rd1 >= 0 
p18Rd1 + p58Rd1 + p26Rd2 + pro25Rd1 <= 3 
p18Rd1 + p58Rd1 + p26Rd2 - pro25Rd1 >= 0 
p17Rd1 + p57Rd1 + p25Rd2 + pro25Rd1 - p58Rd1 >= 0 
p58Rd1 + p17Rd1 - p57Rd1 + p25Rd2 + pro25Rd1 >= 0 
p58Rd1 - p17Rd1 + p57Rd1 + p25Rd2 + pro25Rd1 >= 0 
p18Rd1 + p17Rd1 + p57Rd1 - p25Rd2 + pro25Rd1 >= 0 
p26Rd2 - p17Rd1 - p57Rd1 - p25Rd2 + pro25Rd1 >= -2 
p17Rd1 - p58Rd1 - p57Rd1 - p25Rd2 + pro25Rd1 >= -2 
p57Rd1 - p58Rd1 - p17Rd1 - p25Rd2 + pro25Rd1 >= -2 
p25Rd2 - p58Rd1 - p17Rd1 - p57Rd1 + pro25Rd1 >= -2 
p59Rd1 - p27Rd2 + pro26Rd1 >= 0 
p19Rd1 - p59Rd1 + pro26Rd1 >= 0 
p27Rd2 - p19Rd1 + pro26Rd1 >= 0 
p19Rd1 + p59Rd1 + p27Rd2 + pro26Rd1 <= 3 
p19Rd1 + p59Rd1 + p27Rd2 - pro26Rd1 >= 0 
p18Rd1 + p58Rd1 + p26Rd2 + pro26Rd1 - p59Rd1 >= 0 
p59Rd1 + p18Rd1 - p58Rd1 + p26Rd2 + pro26Rd1 >= 0 
p59Rd1 - p18Rd1 + p58Rd1 + p26Rd2 + pro26Rd1 >= 0 
p19Rd1 + p18Rd1 + p58Rd1 - p26Rd2 + pro26Rd1 >= 0 
p27Rd2 - p18Rd1 - p58Rd1 - p26Rd2 + pro26Rd1 >= -2 
p18Rd1 - p59Rd1 - p58Rd1 - p26Rd2 + pro26Rd1 >= -2 
p58Rd1 - p59Rd1 - p18Rd1 - p26Rd2 + pro26Rd1 >= -2 
p26Rd2 - p59Rd1 - p18Rd1 - p58Rd1 + pro26Rd1 >= -2 
p60Rd1 - p28Rd2 + pro27Rd1 >= 0 
p20Rd1 - p60Rd1 + pro27Rd1 >= 0 
p28Rd2 - p20Rd1 + pro27Rd1 >= 0 
p20Rd1 + p60Rd1 + p28Rd2 + pro27Rd1 <= 3 
p20Rd1 + p60Rd1 + p28Rd2 - pro27Rd1 >= 0 
p19Rd1 + p59Rd1 + p27Rd2 + pro27Rd1 - p60Rd1 >= 0 
p60Rd1 + p19Rd1 - p59Rd1 + p27Rd2 + pro27Rd1 >= 0 
p60Rd1 - p19Rd1 + p59Rd1 + p27Rd2 + pro27Rd1 >= 0 
p20Rd1 + p19Rd1 + p59Rd1 - p27Rd2 + pro27Rd1 >= 0 
p28Rd2 - p19Rd1 - p59Rd1 - p27Rd2 + pro27Rd1 >= -2 
p19Rd1 - p60Rd1 - p59Rd1 - p27Rd2 + pro27Rd1 >= -2 
p59Rd1 - p60Rd1 - p19Rd1 - p27Rd2 + pro27Rd1 >= -2 
p27Rd2 - p60Rd1 - p19Rd1 - p59Rd1 + pro27Rd1 >= -2 
p61Rd1 - p29Rd2 + pro28Rd1 >= 0 
p21Rd1 - p61Rd1 + pro28Rd1 >= 0 
p29Rd2 - p21Rd1 + pro28Rd1 >= 0 
p21Rd1 + p61Rd1 + p29Rd2 + pro28Rd1 <= 3 
p21Rd1 + p61Rd1 + p29Rd2 - pro28Rd1 >= 0 
p20Rd1 + p60Rd1 + p28Rd2 + pro28Rd1 - p61Rd1 >= 0 
p61Rd1 + p20Rd1 - p60Rd1 + p28Rd2 + pro28Rd1 >= 0 
p61Rd1 - p20Rd1 + p60Rd1 + p28Rd2 + pro28Rd1 >= 0 
p21Rd1 + p20Rd1 + p60Rd1 - p28Rd2 + pro28Rd1 >= 0 
p29Rd2 - p20Rd1 - p60Rd1 - p28Rd2 + pro28Rd1 >= -2 
p20Rd1 - p61Rd1 - p60Rd1 - p28Rd2 + pro28Rd1 >= -2 
p60Rd1 - p61Rd1 - p20Rd1 - p28Rd2 + pro28Rd1 >= -2 
p28Rd2 - p61Rd1 - p20Rd1 - p60Rd1 + pro28Rd1 >= -2 
p62Rd1 - p30Rd2 + pro29Rd1 >= 0 
p22Rd1 - p62Rd1 + pro29Rd1 >= 0 
p30Rd2 - p22Rd1 + pro29Rd1 >= 0 
p22Rd1 + p62Rd1 + p30Rd2 + pro29Rd1 <= 3 
p22Rd1 + p62Rd1 + p30Rd2 - pro29Rd1 >= 0 
p21Rd1 + p61Rd1 + p29Rd2 + pro29Rd1 - p62Rd1 >= 0 
p62Rd1 + p21Rd1 - p61Rd1 + p29Rd2 + pro29Rd1 >= 0 
p62Rd1 - p21Rd1 + p61Rd1 + p29Rd2 + pro29Rd1 >= 0 
p22Rd1 + p21Rd1 + p61Rd1 - p29Rd2 + pro29Rd1 >= 0 
p30Rd2 - p21Rd1 - p61Rd1 - p29Rd2 + pro29Rd1 >= -2 
p21Rd1 - p62Rd1 - p61Rd1 - p29Rd2 + pro29Rd1 >= -2 
p61Rd1 - p62Rd1 - p21Rd1 - p29Rd2 + pro29Rd1 >= -2 
p29Rd2 - p62Rd1 - p21Rd1 - p61Rd1 + pro29Rd1 >= -2 
p63Rd1 - p31Rd2 + pro30Rd1 >= 0 
p23Rd1 - p63Rd1 + pro30Rd1 >= 0 
p31Rd2 - p23Rd1 + pro30Rd1 >= 0 
p23Rd1 + p63Rd1 + p31Rd2 + pro30Rd1 <= 3 
p23Rd1 + p63Rd1 + p31Rd2 - pro30Rd1 >= 0 
p22Rd1 + p62Rd1 + p30Rd2 + pro30Rd1 - p63Rd1 >= 0 
p63Rd1 + p22Rd1 - p62Rd1 + p30Rd2 + pro30Rd1 >= 0 
p63Rd1 - p22Rd1 + p62Rd1 + p30Rd2 + pro30Rd1 >= 0 
p23Rd1 + p22Rd1 + p62Rd1 - p30Rd2 + pro30Rd1 >= 0 
p31Rd2 - p22Rd1 - p62Rd1 - p30Rd2 + pro30Rd1 >= -2 
p22Rd1 - p63Rd1 - p62Rd1 - p30Rd2 + pro30Rd1 >= -2 
p62Rd1 - p63Rd1 - p22Rd1 - p30Rd2 + pro30Rd1 >= -2 
p30Rd2 - p63Rd1 - p22Rd1 - p62Rd1 + pro30Rd1 >= -2 
p23Rd1 + p63Rd1 + p31Rd2 <= 2 
p23Rd1 + p63Rd1 + p31Rd2 - 2 temp1 >= 0 
temp1 - p23Rd1 >= 0 
temp1 - p63Rd1 >= 0 
temp1 - p31Rd2 >= 0 
p35Rd2 + p32Rd3 - p0Rd3 >= 0
p35Rd2 - p32Rd3 + p0Rd3 >= 0
- p35Rd2 + p32Rd3 + p0Rd3 >= 0
p35Rd2 + p32Rd3 + p0Rd3 <= 2
p36Rd2 + p33Rd3 - p1Rd3 >= 0
p36Rd2 - p33Rd3 + p1Rd3 >= 0
- p36Rd2 + p33Rd3 + p1Rd3 >= 0
p36Rd2 + p33Rd3 + p1Rd3 <= 2
p37Rd2 + p34Rd3 - p2Rd3 >= 0
p37Rd2 - p34Rd3 + p2Rd3 >= 0
- p37Rd2 + p34Rd3 + p2Rd3 >= 0
p37Rd2 + p34Rd3 + p2Rd3 <= 2
p38Rd2 + p35Rd3 - p3Rd3 >= 0
p38Rd2 - p35Rd3 + p3Rd3 >= 0
- p38Rd2 + p35Rd3 + p3Rd3 >= 0
p38Rd2 + p35Rd3 + p3Rd3 <= 2
p39Rd2 + p36Rd3 - p4Rd3 >= 0
p39Rd2 - p36Rd3 + p4Rd3 >= 0
- p39Rd2 + p36Rd3 + p4Rd3 >= 0
p39Rd2 + p36Rd3 + p4Rd3 <= 2
p40Rd2 + p37Rd3 - p5Rd3 >= 0
p40Rd2 - p37Rd3 + p5Rd3 >= 0
- p40Rd2 + p37Rd3 + p5Rd3 >= 0
p40Rd2 + p37Rd3 + p5Rd3 <= 2
p41Rd2 + p38Rd3 - p6Rd3 >= 0
p41Rd2 - p38Rd3 + p6Rd3 >= 0
- p41Rd2 + p38Rd3 + p6Rd3 >= 0
p41Rd2 + p38Rd3 + p6Rd3 <= 2
p42Rd2 + p39Rd3 - p7Rd3 >= 0
p42Rd2 - p39Rd3 + p7Rd3 >= 0
- p42Rd2 + p39Rd3 + p7Rd3 >= 0
p42Rd2 + p39Rd3 + p7Rd3 <= 2
p43Rd2 + p40Rd3 - p8Rd3 >= 0
p43Rd2 - p40Rd3 + p8Rd3 >= 0
- p43Rd2 + p40Rd3 + p8Rd3 >= 0
p43Rd2 + p40Rd3 + p8Rd3 <= 2
p44Rd2 + p41Rd3 - p9Rd3 >= 0
p44Rd2 - p41Rd3 + p9Rd3 >= 0
- p44Rd2 + p41Rd3 + p9Rd3 >= 0
p44Rd2 + p41Rd3 + p9Rd3 <= 2
p45Rd2 + p42Rd3 - p10Rd3 >= 0
p45Rd2 - p42Rd3 + p10Rd3 >= 0
- p45Rd2 + p42Rd3 + p10Rd3 >= 0
p45Rd2 + p42Rd3 + p10Rd3 <= 2
p46Rd2 + p43Rd3 - p11Rd3 >= 0
p46Rd2 - p43Rd3 + p11Rd3 >= 0
- p46Rd2 + p43Rd3 + p11Rd3 >= 0
p46Rd2 + p43Rd3 + p11Rd3 <= 2
p47Rd2 + p44Rd3 - p12Rd3 >= 0
p47Rd2 - p44Rd3 + p12Rd3 >= 0
- p47Rd2 + p44Rd3 + p12Rd3 >= 0
p47Rd2 + p44Rd3 + p12Rd3 <= 2
p48Rd2 + p45Rd3 - p13Rd3 >= 0
p48Rd2 - p45Rd3 + p13Rd3 >= 0
- p48Rd2 + p45Rd3 + p13Rd3 >= 0
p48Rd2 + p45Rd3 + p13Rd3 <= 2
p49Rd2 + p46Rd3 - p14Rd3 >= 0
p49Rd2 - p46Rd3 + p14Rd3 >= 0
- p49Rd2 + p46Rd3 + p14Rd3 >= 0
p49Rd2 + p46Rd3 + p14Rd3 <= 2
p50Rd2 + p47Rd3 - p15Rd3 >= 0
p50Rd2 - p47Rd3 + p15Rd3 >= 0
- p50Rd2 + p47Rd3 + p15Rd3 >= 0
p50Rd2 + p47Rd3 + p15Rd3 <= 2
p51Rd2 + p48Rd3 - p16Rd3 >= 0
p51Rd2 - p48Rd3 + p16Rd3 >= 0
- p51Rd2 + p48Rd3 + p16Rd3 >= 0
p51Rd2 + p48Rd3 + p16Rd3 <= 2
p52Rd2 + p49Rd3 - p17Rd3 >= 0
p52Rd2 - p49Rd3 + p17Rd3 >= 0
- p52Rd2 + p49Rd3 + p17Rd3 >= 0
p52Rd2 + p49Rd3 + p17Rd3 <= 2
p53Rd2 + p50Rd3 - p18Rd3 >= 0
p53Rd2 - p50Rd3 + p18Rd3 >= 0
- p53Rd2 + p50Rd3 + p18Rd3 >= 0
p53Rd2 + p50Rd3 + p18Rd3 <= 2
p54Rd2 + p51Rd3 - p19Rd3 >= 0
p54Rd2 - p51Rd3 + p19Rd3 >= 0
- p54Rd2 + p51Rd3 + p19Rd3 >= 0
p54Rd2 + p51Rd3 + p19Rd3 <= 2
p55Rd2 + p52Rd3 - p20Rd3 >= 0
p55Rd2 - p52Rd3 + p20Rd3 >= 0
- p55Rd2 + p52Rd3 + p20Rd3 >= 0
p55Rd2 + p52Rd3 + p20Rd3 <= 2
p56Rd2 + p53Rd3 - p21Rd3 >= 0
p56Rd2 - p53Rd3 + p21Rd3 >= 0
- p56Rd2 + p53Rd3 + p21Rd3 >= 0
p56Rd2 + p53Rd3 + p21Rd3 <= 2
p57Rd2 + p54Rd3 - p22Rd3 >= 0
p57Rd2 - p54Rd3 + p22Rd3 >= 0
- p57Rd2 + p54Rd3 + p22Rd3 >= 0
p57Rd2 + p54Rd3 + p22Rd3 <= 2
p58Rd2 + p55Rd3 - p23Rd3 >= 0
p58Rd2 - p55Rd3 + p23Rd3 >= 0
- p58Rd2 + p55Rd3 + p23Rd3 >= 0
p58Rd2 + p55Rd3 + p23Rd3 <= 2
p59Rd2 + p56Rd3 - p24Rd3 >= 0
p59Rd2 - p56Rd3 + p24Rd3 >= 0
- p59Rd2 + p56Rd3 + p24Rd3 >= 0
p59Rd2 + p56Rd3 + p24Rd3 <= 2
p60Rd2 + p57Rd3 - p25Rd3 >= 0
p60Rd2 - p57Rd3 + p25Rd3 >= 0
- p60Rd2 + p57Rd3 + p25Rd3 >= 0
p60Rd2 + p57Rd3 + p25Rd3 <= 2
p61Rd2 + p58Rd3 - p26Rd3 >= 0
p61Rd2 - p58Rd3 + p26Rd3 >= 0
- p61Rd2 + p58Rd3 + p26Rd3 >= 0
p61Rd2 + p58Rd3 + p26Rd3 <= 2
p62Rd2 + p59Rd3 - p27Rd3 >= 0
p62Rd2 - p59Rd3 + p27Rd3 >= 0
- p62Rd2 + p59Rd3 + p27Rd3 >= 0
p62Rd2 + p59Rd3 + p27Rd3 <= 2
p63Rd2 + p60Rd3 - p28Rd3 >= 0
p63Rd2 - p60Rd3 + p28Rd3 >= 0
- p63Rd2 + p60Rd3 + p28Rd3 >= 0
p63Rd2 + p60Rd3 + p28Rd3 <= 2
p32Rd2 + p61Rd3 - p29Rd3 >= 0
p32Rd2 - p61Rd3 + p29Rd3 >= 0
- p32Rd2 + p61Rd3 + p29Rd3 >= 0
p32Rd2 + p61Rd3 + p29Rd3 <= 2
p33Rd2 + p62Rd3 - p30Rd3 >= 0
p33Rd2 - p62Rd3 + p30Rd3 >= 0
- p33Rd2 + p62Rd3 + p30Rd3 >= 0
p33Rd2 + p62Rd3 + p30Rd3 <= 2
p34Rd2 + p63Rd3 - p31Rd3 >= 0
p34Rd2 - p63Rd3 + p31Rd3 >= 0
- p34Rd2 + p63Rd3 + p31Rd3 >= 0
p34Rd2 + p63Rd3 + p31Rd3 <= 2
p33Rd2 - p1Rd3 + pro0Rd2 >= 0 
p25Rd2 - p33Rd2 + pro0Rd2 >= 0 
p1Rd3 - p25Rd2 + pro0Rd2 >= 0 
p25Rd2 + p33Rd2 + p1Rd3 + pro0Rd2 <= 3 
p25Rd2 + p33Rd2 + p1Rd3 - pro0Rd2 >= 0 
p24Rd2 + p32Rd2 + p0Rd3 + pro0Rd2 - p33Rd2 >= 0 
p33Rd2 + p24Rd2 - p32Rd2 + p0Rd3 + pro0Rd2 >= 0 
p33Rd2 - p24Rd2 + p32Rd2 + p0Rd3 + pro0Rd2 >= 0 
p25Rd2 + p24Rd2 + p32Rd2 - p0Rd3 + pro0Rd2 >= 0 
p1Rd3 - p24Rd2 - p32Rd2 - p0Rd3 + pro0Rd2 >= -2 
p24Rd2 - p33Rd2 - p32Rd2 - p0Rd3 + pro0Rd2 >= -2 
p32Rd2 - p33Rd2 - p24Rd2 - p0Rd3 + pro0Rd2 >= -2 
p0Rd3 - p33Rd2 - p24Rd2 - p32Rd2 + pro0Rd2 >= -2 
p34Rd2 - p2Rd3 + pro1Rd2 >= 0 
p26Rd2 - p34Rd2 + pro1Rd2 >= 0 
p2Rd3 - p26Rd2 + pro1Rd2 >= 0 
p26Rd2 + p34Rd2 + p2Rd3 + pro1Rd2 <= 3 
p26Rd2 + p34Rd2 + p2Rd3 - pro1Rd2 >= 0 
p25Rd2 + p33Rd2 + p1Rd3 + pro1Rd2 - p34Rd2 >= 0 
p34Rd2 + p25Rd2 - p33Rd2 + p1Rd3 + pro1Rd2 >= 0 
p34Rd2 - p25Rd2 + p33Rd2 + p1Rd3 + pro1Rd2 >= 0 
p26Rd2 + p25Rd2 + p33Rd2 - p1Rd3 + pro1Rd2 >= 0 
p2Rd3 - p25Rd2 - p33Rd2 - p1Rd3 + pro1Rd2 >= -2 
p25Rd2 - p34Rd2 - p33Rd2 - p1Rd3 + pro1Rd2 >= -2 
p33Rd2 - p34Rd2 - p25Rd2 - p1Rd3 + pro1Rd2 >= -2 
p1Rd3 - p34Rd2 - p25Rd2 - p33Rd2 + pro1Rd2 >= -2 
p35Rd2 - p3Rd3 + pro2Rd2 >= 0 
p27Rd2 - p35Rd2 + pro2Rd2 >= 0 
p3Rd3 - p27Rd2 + pro2Rd2 >= 0 
p27Rd2 + p35Rd2 + p3Rd3 + pro2Rd2 <= 3 
p27Rd2 + p35Rd2 + p3Rd3 - pro2Rd2 >= 0 
p26Rd2 + p34Rd2 + p2Rd3 + pro2Rd2 - p35Rd2 >= 0 
p35Rd2 + p26Rd2 - p34Rd2 + p2Rd3 + pro2Rd2 >= 0 
p35Rd2 - p26Rd2 + p34Rd2 + p2Rd3 + pro2Rd2 >= 0 
p27Rd2 + p26Rd2 + p34Rd2 - p2Rd3 + pro2Rd2 >= 0 
p3Rd3 - p26Rd2 - p34Rd2 - p2Rd3 + pro2Rd2 >= -2 
p26Rd2 - p35Rd2 - p34Rd2 - p2Rd3 + pro2Rd2 >= -2 
p34Rd2 - p35Rd2 - p26Rd2 - p2Rd3 + pro2Rd2 >= -2 
p2Rd3 - p35Rd2 - p26Rd2 - p34Rd2 + pro2Rd2 >= -2 
p36Rd2 - p4Rd3 + pro3Rd2 >= 0 
p28Rd2 - p36Rd2 + pro3Rd2 >= 0 
p4Rd3 - p28Rd2 + pro3Rd2 >= 0 
p28Rd2 + p36Rd2 + p4Rd3 + pro3Rd2 <= 3 
p28Rd2 + p36Rd2 + p4Rd3 - pro3Rd2 >= 0 
p27Rd2 + p35Rd2 + p3Rd3 + pro3Rd2 - p36Rd2 >= 0 
p36Rd2 + p27Rd2 - p35Rd2 + p3Rd3 + pro3Rd2 >= 0 
p36Rd2 - p27Rd2 + p35Rd2 + p3Rd3 + pro3Rd2 >= 0 
p28Rd2 + p27Rd2 + p35Rd2 - p3Rd3 + pro3Rd2 >= 0 
p4Rd3 - p27Rd2 - p35Rd2 - p3Rd3 + pro3Rd2 >= -2 
p27Rd2 - p36Rd2 - p35Rd2 - p3Rd3 + pro3Rd2 >= -2 
p35Rd2 - p36Rd2 - p27Rd2 - p3Rd3 + pro3Rd2 >= -2 
p3Rd3 - p36Rd2 - p27Rd2 - p35Rd2 + pro3Rd2 >= -2 
p37Rd2 - p5Rd3 + pro4Rd2 >= 0 
p29Rd2 - p37Rd2 + pro4Rd2 >= 0 
p5Rd3 - p29Rd2 + pro4Rd2 >= 0 
p29Rd2 + p37Rd2 + p5Rd3 + pro4Rd2 <= 3 
p29Rd2 + p37Rd2 + p5Rd3 - pro4Rd2 >= 0 
p28Rd2 + p36Rd2 + p4Rd3 + pro4Rd2 - p37Rd2 >= 0 
p37Rd2 + p28Rd2 - p36Rd2 + p4Rd3 + pro4Rd2 >= 0 
p37Rd2 - p28Rd2 + p36Rd2 + p4Rd3 + pro4Rd2 >= 0 
p29Rd2 + p28Rd2 + p36Rd2 - p4Rd3 + pro4Rd2 >= 0 
p5Rd3 - p28Rd2 - p36Rd2 - p4Rd3 + pro4Rd2 >= -2 
p28Rd2 - p37Rd2 - p36Rd2 - p4Rd3 + pro4Rd2 >= -2 
p36Rd2 - p37Rd2 - p28Rd2 - p4Rd3 + pro4Rd2 >= -2 
p4Rd3 - p37Rd2 - p28Rd2 - p36Rd2 + pro4Rd2 >= -2 
p38Rd2 - p6Rd3 + pro5Rd2 >= 0 
p30Rd2 - p38Rd2 + pro5Rd2 >= 0 
p6Rd3 - p30Rd2 + pro5Rd2 >= 0 
p30Rd2 + p38Rd2 + p6Rd3 + pro5Rd2 <= 3 
p30Rd2 + p38Rd2 + p6Rd3 - pro5Rd2 >= 0 
p29Rd2 + p37Rd2 + p5Rd3 + pro5Rd2 - p38Rd2 >= 0 
p38Rd2 + p29Rd2 - p37Rd2 + p5Rd3 + pro5Rd2 >= 0 
p38Rd2 - p29Rd2 + p37Rd2 + p5Rd3 + pro5Rd2 >= 0 
p30Rd2 + p29Rd2 + p37Rd2 - p5Rd3 + pro5Rd2 >= 0 
p6Rd3 - p29Rd2 - p37Rd2 - p5Rd3 + pro5Rd2 >= -2 
p29Rd2 - p38Rd2 - p37Rd2 - p5Rd3 + pro5Rd2 >= -2 
p37Rd2 - p38Rd2 - p29Rd2 - p5Rd3 + pro5Rd2 >= -2 
p5Rd3 - p38Rd2 - p29Rd2 - p37Rd2 + pro5Rd2 >= -2 
p39Rd2 - p7Rd3 + pro6Rd2 >= 0 
p31Rd2 - p39Rd2 + pro6Rd2 >= 0 
p7Rd3 - p31Rd2 + pro6Rd2 >= 0 
p31Rd2 + p39Rd2 + p7Rd3 + pro6Rd2 <= 3 
p31Rd2 + p39Rd2 + p7Rd3 - pro6Rd2 >= 0 
p30Rd2 + p38Rd2 + p6Rd3 + pro6Rd2 - p39Rd2 >= 0 
p39Rd2 + p30Rd2 - p38Rd2 + p6Rd3 + pro6Rd2 >= 0 
p39Rd2 - p30Rd2 + p38Rd2 + p6Rd3 + pro6Rd2 >= 0 
p31Rd2 + p30Rd2 + p38Rd2 - p6Rd3 + pro6Rd2 >= 0 
p7Rd3 - p30Rd2 - p38Rd2 - p6Rd3 + pro6Rd2 >= -2 
p30Rd2 - p39Rd2 - p38Rd2 - p6Rd3 + pro6Rd2 >= -2 
p38Rd2 - p39Rd2 - p30Rd2 - p6Rd3 + pro6Rd2 >= -2 
p6Rd3 - p39Rd2 - p30Rd2 - p38Rd2 + pro6Rd2 >= -2 
p40Rd2 - p8Rd3 + pro7Rd2 >= 0 
p0Rd2 - p40Rd2 + pro7Rd2 >= 0 
p8Rd3 - p0Rd2 + pro7Rd2 >= 0 
p0Rd2 + p40Rd2 + p8Rd3 + pro7Rd2 <= 3 
p0Rd2 + p40Rd2 + p8Rd3 - pro7Rd2 >= 0 
p31Rd2 + p39Rd2 + p7Rd3 + pro7Rd2 - p40Rd2 >= 0 
p40Rd2 + p31Rd2 - p39Rd2 + p7Rd3 + pro7Rd2 >= 0 
p40Rd2 - p31Rd2 + p39Rd2 + p7Rd3 + pro7Rd2 >= 0 
p0Rd2 + p31Rd2 + p39Rd2 - p7Rd3 + pro7Rd2 >= 0 
p8Rd3 - p31Rd2 - p39Rd2 - p7Rd3 + pro7Rd2 >= -2 
p31Rd2 - p40Rd2 - p39Rd2 - p7Rd3 + pro7Rd2 >= -2 
p39Rd2 - p40Rd2 - p31Rd2 - p7Rd3 + pro7Rd2 >= -2 
p7Rd3 - p40Rd2 - p31Rd2 - p39Rd2 + pro7Rd2 >= -2 
p41Rd2 - p9Rd3 + pro8Rd2 >= 0 
p1Rd2 - p41Rd2 + pro8Rd2 >= 0 
p9Rd3 - p1Rd2 + pro8Rd2 >= 0 
p1Rd2 + p41Rd2 + p9Rd3 + pro8Rd2 <= 3 
p1Rd2 + p41Rd2 + p9Rd3 - pro8Rd2 >= 0 
p0Rd2 + p40Rd2 + p8Rd3 + pro8Rd2 - p41Rd2 >= 0 
p41Rd2 + p0Rd2 - p40Rd2 + p8Rd3 + pro8Rd2 >= 0 
p41Rd2 - p0Rd2 + p40Rd2 + p8Rd3 + pro8Rd2 >= 0 
p1Rd2 + p0Rd2 + p40Rd2 - p8Rd3 + pro8Rd2 >= 0 
p9Rd3 - p0Rd2 - p40Rd2 - p8Rd3 + pro8Rd2 >= -2 
p0Rd2 - p41Rd2 - p40Rd2 - p8Rd3 + pro8Rd2 >= -2 
p40Rd2 - p41Rd2 - p0Rd2 - p8Rd3 + pro8Rd2 >= -2 
p8Rd3 - p41Rd2 - p0Rd2 - p40Rd2 + pro8Rd2 >= -2 
p42Rd2 - p10Rd3 + pro9Rd2 >= 0 
p2Rd2 - p42Rd2 + pro9Rd2 >= 0 
p10Rd3 - p2Rd2 + pro9Rd2 >= 0 
p2Rd2 + p42Rd2 + p10Rd3 + pro9Rd2 <= 3 
p2Rd2 + p42Rd2 + p10Rd3 - pro9Rd2 >= 0 
p1Rd2 + p41Rd2 + p9Rd3 + pro9Rd2 - p42Rd2 >= 0 
p42Rd2 + p1Rd2 - p41Rd2 + p9Rd3 + pro9Rd2 >= 0 
p42Rd2 - p1Rd2 + p41Rd2 + p9Rd3 + pro9Rd2 >= 0 
p2Rd2 + p1Rd2 + p41Rd2 - p9Rd3 + pro9Rd2 >= 0 
p10Rd3 - p1Rd2 - p41Rd2 - p9Rd3 + pro9Rd2 >= -2 
p1Rd2 - p42Rd2 - p41Rd2 - p9Rd3 + pro9Rd2 >= -2 
p41Rd2 - p42Rd2 - p1Rd2 - p9Rd3 + pro9Rd2 >= -2 
p9Rd3 - p42Rd2 - p1Rd2 - p41Rd2 + pro9Rd2 >= -2 
p43Rd2 - p11Rd3 + pro10Rd2 >= 0 
p3Rd2 - p43Rd2 + pro10Rd2 >= 0 
p11Rd3 - p3Rd2 + pro10Rd2 >= 0 
p3Rd2 + p43Rd2 + p11Rd3 + pro10Rd2 <= 3 
p3Rd2 + p43Rd2 + p11Rd3 - pro10Rd2 >= 0 
p2Rd2 + p42Rd2 + p10Rd3 + pro10Rd2 - p43Rd2 >= 0 
p43Rd2 + p2Rd2 - p42Rd2 + p10Rd3 + pro10Rd2 >= 0 
p43Rd2 - p2Rd2 + p42Rd2 + p10Rd3 + pro10Rd2 >= 0 
p3Rd2 + p2Rd2 + p42Rd2 - p10Rd3 + pro10Rd2 >= 0 
p11Rd3 - p2Rd2 - p42Rd2 - p10Rd3 + pro10Rd2 >= -2 
p2Rd2 - p43Rd2 - p42Rd2 - p10Rd3 + pro10Rd2 >= -2 
p42Rd2 - p43Rd2 - p2Rd2 - p10Rd3 + pro10Rd2 >= -2 
p10Rd3 - p43Rd2 - p2Rd2 - p42Rd2 + pro10Rd2 >= -2 
p44Rd2 - p12Rd3 + pro11Rd2 >= 0 
p4Rd2 - p44Rd2 + pro11Rd2 >= 0 
p12Rd3 - p4Rd2 + pro11Rd2 >= 0 
p4Rd2 + p44Rd2 + p12Rd3 + pro11Rd2 <= 3 
p4Rd2 + p44Rd2 + p12Rd3 - pro11Rd2 >= 0 
p3Rd2 + p43Rd2 + p11Rd3 + pro11Rd2 - p44Rd2 >= 0 
p44Rd2 + p3Rd2 - p43Rd2 + p11Rd3 + pro11Rd2 >= 0 
p44Rd2 - p3Rd2 + p43Rd2 + p11Rd3 + pro11Rd2 >= 0 
p4Rd2 + p3Rd2 + p43Rd2 - p11Rd3 + pro11Rd2 >= 0 
p12Rd3 - p3Rd2 - p43Rd2 - p11Rd3 + pro11Rd2 >= -2 
p3Rd2 - p44Rd2 - p43Rd2 - p11Rd3 + pro11Rd2 >= -2 
p43Rd2 - p44Rd2 - p3Rd2 - p11Rd3 + pro11Rd2 >= -2 
p11Rd3 - p44Rd2 - p3Rd2 - p43Rd2 + pro11Rd2 >= -2 
p45Rd2 - p13Rd3 + pro12Rd2 >= 0 
p5Rd2 - p45Rd2 + pro12Rd2 >= 0 
p13Rd3 - p5Rd2 + pro12Rd2 >= 0 
p5Rd2 + p45Rd2 + p13Rd3 + pro12Rd2 <= 3 
p5Rd2 + p45Rd2 + p13Rd3 - pro12Rd2 >= 0 
p4Rd2 + p44Rd2 + p12Rd3 + pro12Rd2 - p45Rd2 >= 0 
p45Rd2 + p4Rd2 - p44Rd2 + p12Rd3 + pro12Rd2 >= 0 
p45Rd2 - p4Rd2 + p44Rd2 + p12Rd3 + pro12Rd2 >= 0 
p5Rd2 + p4Rd2 + p44Rd2 - p12Rd3 + pro12Rd2 >= 0 
p13Rd3 - p4Rd2 - p44Rd2 - p12Rd3 + pro12Rd2 >= -2 
p4Rd2 - p45Rd2 - p44Rd2 - p12Rd3 + pro12Rd2 >= -2 
p44Rd2 - p45Rd2 - p4Rd2 - p12Rd3 + pro12Rd2 >= -2 
p12Rd3 - p45Rd2 - p4Rd2 - p44Rd2 + pro12Rd2 >= -2 
p46Rd2 - p14Rd3 + pro13Rd2 >= 0 
p6Rd2 - p46Rd2 + pro13Rd2 >= 0 
p14Rd3 - p6Rd2 + pro13Rd2 >= 0 
p6Rd2 + p46Rd2 + p14Rd3 + pro13Rd2 <= 3 
p6Rd2 + p46Rd2 + p14Rd3 - pro13Rd2 >= 0 
p5Rd2 + p45Rd2 + p13Rd3 + pro13Rd2 - p46Rd2 >= 0 
p46Rd2 + p5Rd2 - p45Rd2 + p13Rd3 + pro13Rd2 >= 0 
p46Rd2 - p5Rd2 + p45Rd2 + p13Rd3 + pro13Rd2 >= 0 
p6Rd2 + p5Rd2 + p45Rd2 - p13Rd3 + pro13Rd2 >= 0 
p14Rd3 - p5Rd2 - p45Rd2 - p13Rd3 + pro13Rd2 >= -2 
p5Rd2 - p46Rd2 - p45Rd2 - p13Rd3 + pro13Rd2 >= -2 
p45Rd2 - p46Rd2 - p5Rd2 - p13Rd3 + pro13Rd2 >= -2 
p13Rd3 - p46Rd2 - p5Rd2 - p45Rd2 + pro13Rd2 >= -2 
p47Rd2 - p15Rd3 + pro14Rd2 >= 0 
p7Rd2 - p47Rd2 + pro14Rd2 >= 0 
p15Rd3 - p7Rd2 + pro14Rd2 >= 0 
p7Rd2 + p47Rd2 + p15Rd3 + pro14Rd2 <= 3 
p7Rd2 + p47Rd2 + p15Rd3 - pro14Rd2 >= 0 
p6Rd2 + p46Rd2 + p14Rd3 + pro14Rd2 - p47Rd2 >= 0 
p47Rd2 + p6Rd2 - p46Rd2 + p14Rd3 + pro14Rd2 >= 0 
p47Rd2 - p6Rd2 + p46Rd2 + p14Rd3 + pro14Rd2 >= 0 
p7Rd2 + p6Rd2 + p46Rd2 - p14Rd3 + pro14Rd2 >= 0 
p15Rd3 - p6Rd2 - p46Rd2 - p14Rd3 + pro14Rd2 >= -2 
p6Rd2 - p47Rd2 - p46Rd2 - p14Rd3 + pro14Rd2 >= -2 
p46Rd2 - p47Rd2 - p6Rd2 - p14Rd3 + pro14Rd2 >= -2 
p14Rd3 - p47Rd2 - p6Rd2 - p46Rd2 + pro14Rd2 >= -2 
p48Rd2 - p16Rd3 + pro15Rd2 >= 0 
p8Rd2 - p48Rd2 + pro15Rd2 >= 0 
p16Rd3 - p8Rd2 + pro15Rd2 >= 0 
p8Rd2 + p48Rd2 + p16Rd3 + pro15Rd2 <= 3 
p8Rd2 + p48Rd2 + p16Rd3 - pro15Rd2 >= 0 
p7Rd2 + p47Rd2 + p15Rd3 + pro15Rd2 - p48Rd2 >= 0 
p48Rd2 + p7Rd2 - p47Rd2 + p15Rd3 + pro15Rd2 >= 0 
p48Rd2 - p7Rd2 + p47Rd2 + p15Rd3 + pro15Rd2 >= 0 
p8Rd2 + p7Rd2 + p47Rd2 - p15Rd3 + pro15Rd2 >= 0 
p16Rd3 - p7Rd2 - p47Rd2 - p15Rd3 + pro15Rd2 >= -2 
p7Rd2 - p48Rd2 - p47Rd2 - p15Rd3 + pro15Rd2 >= -2 
p47Rd2 - p48Rd2 - p7Rd2 - p15Rd3 + pro15Rd2 >= -2 
p15Rd3 - p48Rd2 - p7Rd2 - p47Rd2 + pro15Rd2 >= -2 
p49Rd2 - p17Rd3 + pro16Rd2 >= 0 
p9Rd2 - p49Rd2 + pro16Rd2 >= 0 
p17Rd3 - p9Rd2 + pro16Rd2 >= 0 
p9Rd2 + p49Rd2 + p17Rd3 + pro16Rd2 <= 3 
p9Rd2 + p49Rd2 + p17Rd3 - pro16Rd2 >= 0 
p8Rd2 + p48Rd2 + p16Rd3 + pro16Rd2 - p49Rd2 >= 0 
p49Rd2 + p8Rd2 - p48Rd2 + p16Rd3 + pro16Rd2 >= 0 
p49Rd2 - p8Rd2 + p48Rd2 + p16Rd3 + pro16Rd2 >= 0 
p9Rd2 + p8Rd2 + p48Rd2 - p16Rd3 + pro16Rd2 >= 0 
p17Rd3 - p8Rd2 - p48Rd2 - p16Rd3 + pro16Rd2 >= -2 
p8Rd2 - p49Rd2 - p48Rd2 - p16Rd3 + pro16Rd2 >= -2 
p48Rd2 - p49Rd2 - p8Rd2 - p16Rd3 + pro16Rd2 >= -2 
p16Rd3 - p49Rd2 - p8Rd2 - p48Rd2 + pro16Rd2 >= -2 
p50Rd2 - p18Rd3 + pro17Rd2 >= 0 
p10Rd2 - p50Rd2 + pro17Rd2 >= 0 
p18Rd3 - p10Rd2 + pro17Rd2 >= 0 
p10Rd2 + p50Rd2 + p18Rd3 + pro17Rd2 <= 3 
p10Rd2 + p50Rd2 + p18Rd3 - pro17Rd2 >= 0 
p9Rd2 + p49Rd2 + p17Rd3 + pro17Rd2 - p50Rd2 >= 0 
p50Rd2 + p9Rd2 - p49Rd2 + p17Rd3 + pro17Rd2 >= 0 
p50Rd2 - p9Rd2 + p49Rd2 + p17Rd3 + pro17Rd2 >= 0 
p10Rd2 + p9Rd2 + p49Rd2 - p17Rd3 + pro17Rd2 >= 0 
p18Rd3 - p9Rd2 - p49Rd2 - p17Rd3 + pro17Rd2 >= -2 
p9Rd2 - p50Rd2 - p49Rd2 - p17Rd3 + pro17Rd2 >= -2 
p49Rd2 - p50Rd2 - p9Rd2 - p17Rd3 + pro17Rd2 >= -2 
p17Rd3 - p50Rd2 - p9Rd2 - p49Rd2 + pro17Rd2 >= -2 
p51Rd2 - p19Rd3 + pro18Rd2 >= 0 
p11Rd2 - p51Rd2 + pro18Rd2 >= 0 
p19Rd3 - p11Rd2 + pro18Rd2 >= 0 
p11Rd2 + p51Rd2 + p19Rd3 + pro18Rd2 <= 3 
p11Rd2 + p51Rd2 + p19Rd3 - pro18Rd2 >= 0 
p10Rd2 + p50Rd2 + p18Rd3 + pro18Rd2 - p51Rd2 >= 0 
p51Rd2 + p10Rd2 - p50Rd2 + p18Rd3 + pro18Rd2 >= 0 
p51Rd2 - p10Rd2 + p50Rd2 + p18Rd3 + pro18Rd2 >= 0 
p11Rd2 + p10Rd2 + p50Rd2 - p18Rd3 + pro18Rd2 >= 0 
p19Rd3 - p10Rd2 - p50Rd2 - p18Rd3 + pro18Rd2 >= -2 
p10Rd2 - p51Rd2 - p50Rd2 - p18Rd3 + pro18Rd2 >= -2 
p50Rd2 - p51Rd2 - p10Rd2 - p18Rd3 + pro18Rd2 >= -2 
p18Rd3 - p51Rd2 - p10Rd2 - p50Rd2 + pro18Rd2 >= -2 
p52Rd2 - p20Rd3 + pro19Rd2 >= 0 
p12Rd2 - p52Rd2 + pro19Rd2 >= 0 
p20Rd3 - p12Rd2 + pro19Rd2 >= 0 
p12Rd2 + p52Rd2 + p20Rd3 + pro19Rd2 <= 3 
p12Rd2 + p52Rd2 + p20Rd3 - pro19Rd2 >= 0 
p11Rd2 + p51Rd2 + p19Rd3 + pro19Rd2 - p52Rd2 >= 0 
p52Rd2 + p11Rd2 - p51Rd2 + p19Rd3 + pro19Rd2 >= 0 
p52Rd2 - p11Rd2 + p51Rd2 + p19Rd3 + pro19Rd2 >= 0 
p12Rd2 + p11Rd2 + p51Rd2 - p19Rd3 + pro19Rd2 >= 0 
p20Rd3 - p11Rd2 - p51Rd2 - p19Rd3 + pro19Rd2 >= -2 
p11Rd2 - p52Rd2 - p51Rd2 - p19Rd3 + pro19Rd2 >= -2 
p51Rd2 - p52Rd2 - p11Rd2 - p19Rd3 + pro19Rd2 >= -2 
p19Rd3 - p52Rd2 - p11Rd2 - p51Rd2 + pro19Rd2 >= -2 
p53Rd2 - p21Rd3 + pro20Rd2 >= 0 
p13Rd2 - p53Rd2 + pro20Rd2 >= 0 
p21Rd3 - p13Rd2 + pro20Rd2 >= 0 
p13Rd2 + p53Rd2 + p21Rd3 + pro20Rd2 <= 3 
p13Rd2 + p53Rd2 + p21Rd3 - pro20Rd2 >= 0 
p12Rd2 + p52Rd2 + p20Rd3 + pro20Rd2 - p53Rd2 >= 0 
p53Rd2 + p12Rd2 - p52Rd2 + p20Rd3 + pro20Rd2 >= 0 
p53Rd2 - p12Rd2 + p52Rd2 + p20Rd3 + pro20Rd2 >= 0 
p13Rd2 + p12Rd2 + p52Rd2 - p20Rd3 + pro20Rd2 >= 0 
p21Rd3 - p12Rd2 - p52Rd2 - p20Rd3 + pro20Rd2 >= -2 
p12Rd2 - p53Rd2 - p52Rd2 - p20Rd3 + pro20Rd2 >= -2 
p52Rd2 - p53Rd2 - p12Rd2 - p20Rd3 + pro20Rd2 >= -2 
p20Rd3 - p53Rd2 - p12Rd2 - p52Rd2 + pro20Rd2 >= -2 
p54Rd2 - p22Rd3 + pro21Rd2 >= 0 
p14Rd2 - p54Rd2 + pro21Rd2 >= 0 
p22Rd3 - p14Rd2 + pro21Rd2 >= 0 
p14Rd2 + p54Rd2 + p22Rd3 + pro21Rd2 <= 3 
p14Rd2 + p54Rd2 + p22Rd3 - pro21Rd2 >= 0 
p13Rd2 + p53Rd2 + p21Rd3 + pro21Rd2 - p54Rd2 >= 0 
p54Rd2 + p13Rd2 - p53Rd2 + p21Rd3 + pro21Rd2 >= 0 
p54Rd2 - p13Rd2 + p53Rd2 + p21Rd3 + pro21Rd2 >= 0 
p14Rd2 + p13Rd2 + p53Rd2 - p21Rd3 + pro21Rd2 >= 0 
p22Rd3 - p13Rd2 - p53Rd2 - p21Rd3 + pro21Rd2 >= -2 
p13Rd2 - p54Rd2 - p53Rd2 - p21Rd3 + pro21Rd2 >= -2 
p53Rd2 - p54Rd2 - p13Rd2 - p21Rd3 + pro21Rd2 >= -2 
p21Rd3 - p54Rd2 - p13Rd2 - p53Rd2 + pro21Rd2 >= -2 
p55Rd2 - p23Rd3 + pro22Rd2 >= 0 
p15Rd2 - p55Rd2 + pro22Rd2 >= 0 
p23Rd3 - p15Rd2 + pro22Rd2 >= 0 
p15Rd2 + p55Rd2 + p23Rd3 + pro22Rd2 <= 3 
p15Rd2 + p55Rd2 + p23Rd3 - pro22Rd2 >= 0 
p14Rd2 + p54Rd2 + p22Rd3 + pro22Rd2 - p55Rd2 >= 0 
p55Rd2 + p14Rd2 - p54Rd2 + p22Rd3 + pro22Rd2 >= 0 
p55Rd2 - p14Rd2 + p54Rd2 + p22Rd3 + pro22Rd2 >= 0 
p15Rd2 + p14Rd2 + p54Rd2 - p22Rd3 + pro22Rd2 >= 0 
p23Rd3 - p14Rd2 - p54Rd2 - p22Rd3 + pro22Rd2 >= -2 
p14Rd2 - p55Rd2 - p54Rd2 - p22Rd3 + pro22Rd2 >= -2 
p54Rd2 - p55Rd2 - p14Rd2 - p22Rd3 + pro22Rd2 >= -2 
p22Rd3 - p55Rd2 - p14Rd2 - p54Rd2 + pro22Rd2 >= -2 
p56Rd2 - p24Rd3 + pro23Rd2 >= 0 
p16Rd2 - p56Rd2 + pro23Rd2 >= 0 
p24Rd3 - p16Rd2 + pro23Rd2 >= 0 
p16Rd2 + p56Rd2 + p24Rd3 + pro23Rd2 <= 3 
p16Rd2 + p56Rd2 + p24Rd3 - pro23Rd2 >= 0 
p15Rd2 + p55Rd2 + p23Rd3 + pro23Rd2 - p56Rd2 >= 0 
p56Rd2 + p15Rd2 - p55Rd2 + p23Rd3 + pro23Rd2 >= 0 
p56Rd2 - p15Rd2 + p55Rd2 + p23Rd3 + pro23Rd2 >= 0 
p16Rd2 + p15Rd2 + p55Rd2 - p23Rd3 + pro23Rd2 >= 0 
p24Rd3 - p15Rd2 - p55Rd2 - p23Rd3 + pro23Rd2 >= -2 
p15Rd2 - p56Rd2 - p55Rd2 - p23Rd3 + pro23Rd2 >= -2 
p55Rd2 - p56Rd2 - p15Rd2 - p23Rd3 + pro23Rd2 >= -2 
p23Rd3 - p56Rd2 - p15Rd2 - p55Rd2 + pro23Rd2 >= -2 
p57Rd2 - p25Rd3 + pro24Rd2 >= 0 
p17Rd2 - p57Rd2 + pro24Rd2 >= 0 
p25Rd3 - p17Rd2 + pro24Rd2 >= 0 
p17Rd2 + p57Rd2 + p25Rd3 + pro24Rd2 <= 3 
p17Rd2 + p57Rd2 + p25Rd3 - pro24Rd2 >= 0 
p16Rd2 + p56Rd2 + p24Rd3 + pro24Rd2 - p57Rd2 >= 0 
p57Rd2 + p16Rd2 - p56Rd2 + p24Rd3 + pro24Rd2 >= 0 
p57Rd2 - p16Rd2 + p56Rd2 + p24Rd3 + pro24Rd2 >= 0 
p17Rd2 + p16Rd2 + p56Rd2 - p24Rd3 + pro24Rd2 >= 0 
p25Rd3 - p16Rd2 - p56Rd2 - p24Rd3 + pro24Rd2 >= -2 
p16Rd2 - p57Rd2 - p56Rd2 - p24Rd3 + pro24Rd2 >= -2 
p56Rd2 - p57Rd2 - p16Rd2 - p24Rd3 + pro24Rd2 >= -2 
p24Rd3 - p57Rd2 - p16Rd2 - p56Rd2 + pro24Rd2 >= -2 
p58Rd2 - p26Rd3 + pro25Rd2 >= 0 
p18Rd2 - p58Rd2 + pro25Rd2 >= 0 
p26Rd3 - p18Rd2 + pro25Rd2 >= 0 
p18Rd2 + p58Rd2 + p26Rd3 + pro25Rd2 <= 3 
p18Rd2 + p58Rd2 + p26Rd3 - pro25Rd2 >= 0 
p17Rd2 + p57Rd2 + p25Rd3 + pro25Rd2 - p58Rd2 >= 0 
p58Rd2 + p17Rd2 - p57Rd2 + p25Rd3 + pro25Rd2 >= 0 
p58Rd2 - p17Rd2 + p57Rd2 + p25Rd3 + pro25Rd2 >= 0 
p18Rd2 + p17Rd2 + p57Rd2 - p25Rd3 + pro25Rd2 >= 0 
p26Rd3 - p17Rd2 - p57Rd2 - p25Rd3 + pro25Rd2 >= -2 
p17Rd2 - p58Rd2 - p57Rd2 - p25Rd3 + pro25Rd2 >= -2 
p57Rd2 - p58Rd2 - p17Rd2 - p25Rd3 + pro25Rd2 >= -2 
p25Rd3 - p58Rd2 - p17Rd2 - p57Rd2 + pro25Rd2 >= -2 
p59Rd2 - p27Rd3 + pro26Rd2 >= 0 
p19Rd2 - p59Rd2 + pro26Rd2 >= 0 
p27Rd3 - p19Rd2 + pro26Rd2 >= 0 
p19Rd2 + p59Rd2 + p27Rd3 + pro26Rd2 <= 3 
p19Rd2 + p59Rd2 + p27Rd3 - pro26Rd2 >= 0 
p18Rd2 + p58Rd2 + p26Rd3 + pro26Rd2 - p59Rd2 >= 0 
p59Rd2 + p18Rd2 - p58Rd2 + p26Rd3 + pro26Rd2 >= 0 
p59Rd2 - p18Rd2 + p58Rd2 + p26Rd3 + pro26Rd2 >= 0 
p19Rd2 + p18Rd2 + p58Rd2 - p26Rd3 + pro26Rd2 >= 0 
p27Rd3 - p18Rd2 - p58Rd2 - p26Rd3 + pro26Rd2 >= -2 
p18Rd2 - p59Rd2 - p58Rd2 - p26Rd3 + pro26Rd2 >= -2 
p58Rd2 - p59Rd2 - p18Rd2 - p26Rd3 + pro26Rd2 >= -2 
p26Rd3 - p59Rd2 - p18Rd2 - p58Rd2 + pro26Rd2 >= -2 
p60Rd2 - p28Rd3 + pro27Rd2 >= 0 
p20Rd2 - p60Rd2 + pro27Rd2 >= 0 
p28Rd3 - p20Rd2 + pro27Rd2 >= 0 
p20Rd2 + p60Rd2 + p28Rd3 + pro27Rd2 <= 3 
p20Rd2 + p60Rd2 + p28Rd3 - pro27Rd2 >= 0 
p19Rd2 + p59Rd2 + p27Rd3 + pro27Rd2 - p60Rd2 >= 0 
p60Rd2 + p19Rd2 - p59Rd2 + p27Rd3 + pro27Rd2 >= 0 
p60Rd2 - p19Rd2 + p59Rd2 + p27Rd3 + pro27Rd2 >= 0 
p20Rd2 + p19Rd2 + p59Rd2 - p27Rd3 + pro27Rd2 >= 0 
p28Rd3 - p19Rd2 - p59Rd2 - p27Rd3 + pro27Rd2 >= -2 
p19Rd2 - p60Rd2 - p59Rd2 - p27Rd3 + pro27Rd2 >= -2 
p59Rd2 - p60Rd2 - p19Rd2 - p27Rd3 + pro27Rd2 >= -2 
p27Rd3 - p60Rd2 - p19Rd2 - p59Rd2 + pro27Rd2 >= -2 
p61Rd2 - p29Rd3 + pro28Rd2 >= 0 
p21Rd2 - p61Rd2 + pro28Rd2 >= 0 
p29Rd3 - p21Rd2 + pro28Rd2 >= 0 
p21Rd2 + p61Rd2 + p29Rd3 + pro28Rd2 <= 3 
p21Rd2 + p61Rd2 + p29Rd3 - pro28Rd2 >= 0 
p20Rd2 + p60Rd2 + p28Rd3 + pro28Rd2 - p61Rd2 >= 0 
p61Rd2 + p20Rd2 - p60Rd2 + p28Rd3 + pro28Rd2 >= 0 
p61Rd2 - p20Rd2 + p60Rd2 + p28Rd3 + pro28Rd2 >= 0 
p21Rd2 + p20Rd2 + p60Rd2 - p28Rd3 + pro28Rd2 >= 0 
p29Rd3 - p20Rd2 - p60Rd2 - p28Rd3 + pro28Rd2 >= -2 
p20Rd2 - p61Rd2 - p60Rd2 - p28Rd3 + pro28Rd2 >= -2 
p60Rd2 - p61Rd2 - p20Rd2 - p28Rd3 + pro28Rd2 >= -2 
p28Rd3 - p61Rd2 - p20Rd2 - p60Rd2 + pro28Rd2 >= -2 
p62Rd2 - p30Rd3 + pro29Rd2 >= 0 
p22Rd2 - p62Rd2 + pro29Rd2 >= 0 
p30Rd3 - p22Rd2 + pro29Rd2 >= 0 
p22Rd2 + p62Rd2 + p30Rd3 + pro29Rd2 <= 3 
p22Rd2 + p62Rd2 + p30Rd3 - pro29Rd2 >= 0 
p21Rd2 + p61Rd2 + p29Rd3 + pro29Rd2 - p62Rd2 >= 0 
p62Rd2 + p21Rd2 - p61Rd2 + p29Rd3 + pro29Rd2 >= 0 
p62Rd2 - p21Rd2 + p61Rd2 + p29Rd3 + pro29Rd2 >= 0 
p22Rd2 + p21Rd2 + p61Rd2 - p29Rd3 + pro29Rd2 >= 0 
p30Rd3 - p21Rd2 - p61Rd2 - p29Rd3 + pro29Rd2 >= -2 
p21Rd2 - p62Rd2 - p61Rd2 - p29Rd3 + pro29Rd2 >= -2 
p61Rd2 - p62Rd2 - p21Rd2 - p29Rd3 + pro29Rd2 >= -2 
p29Rd3 - p62Rd2 - p21Rd2 - p61Rd2 + pro29Rd2 >= -2 
p63Rd2 - p31Rd3 + pro30Rd2 >= 0 
p23Rd2 - p63Rd2 + pro30Rd2 >= 0 
p31Rd3 - p23Rd2 + pro30Rd2 >= 0 
p23Rd2 + p63Rd2 + p31Rd3 + pro30Rd2 <= 3 
p23Rd2 + p63Rd2 + p31Rd3 - pro30Rd2 >= 0 
p22Rd2 + p62Rd2 + p30Rd3 + pro30Rd2 - p63Rd2 >= 0 
p63Rd2 + p22Rd2 - p62Rd2 + p30Rd3 + pro30Rd2 >= 0 
p63Rd2 - p22Rd2 + p62Rd2 + p30Rd3 + pro30Rd2 >= 0 
p23Rd2 + p22Rd2 + p62Rd2 - p30Rd3 + pro30Rd2 >= 0 
p31Rd3 - p22Rd2 - p62Rd2 - p30Rd3 + pro30Rd2 >= -2 
p22Rd2 - p63Rd2 - p62Rd2 - p30Rd3 + pro30Rd2 >= -2 
p62Rd2 - p63Rd2 - p22Rd2 - p30Rd3 + pro30Rd2 >= -2 
p30Rd3 - p63Rd2 - p22Rd2 - p62Rd2 + pro30Rd2 >= -2 
p23Rd2 + p63Rd2 + p31Rd3 <= 2 
p23Rd2 + p63Rd2 + p31Rd3 - 2 temp2 >= 0 
temp2 - p23Rd2 >= 0 
temp2 - p63Rd2 >= 0 
temp2 - p31Rd3 >= 0 
p35Rd3 + p32Rd4 - p0Rd4 >= 0
p35Rd3 - p32Rd4 + p0Rd4 >= 0
- p35Rd3 + p32Rd4 + p0Rd4 >= 0
p35Rd3 + p32Rd4 + p0Rd4 <= 2
p36Rd3 + p33Rd4 - p1Rd4 >= 0
p36Rd3 - p33Rd4 + p1Rd4 >= 0
- p36Rd3 + p33Rd4 + p1Rd4 >= 0
p36Rd3 + p33Rd4 + p1Rd4 <= 2
p37Rd3 + p34Rd4 - p2Rd4 >= 0
p37Rd3 - p34Rd4 + p2Rd4 >= 0
- p37Rd3 + p34Rd4 + p2Rd4 >= 0
p37Rd3 + p34Rd4 + p2Rd4 <= 2
p38Rd3 + p35Rd4 - p3Rd4 >= 0
p38Rd3 - p35Rd4 + p3Rd4 >= 0
- p38Rd3 + p35Rd4 + p3Rd4 >= 0
p38Rd3 + p35Rd4 + p3Rd4 <= 2
p39Rd3 + p36Rd4 - p4Rd4 >= 0
p39Rd3 - p36Rd4 + p4Rd4 >= 0
- p39Rd3 + p36Rd4 + p4Rd4 >= 0
p39Rd3 + p36Rd4 + p4Rd4 <= 2
p40Rd3 + p37Rd4 - p5Rd4 >= 0
p40Rd3 - p37Rd4 + p5Rd4 >= 0
- p40Rd3 + p37Rd4 + p5Rd4 >= 0
p40Rd3 + p37Rd4 + p5Rd4 <= 2
p41Rd3 + p38Rd4 - p6Rd4 >= 0
p41Rd3 - p38Rd4 + p6Rd4 >= 0
- p41Rd3 + p38Rd4 + p6Rd4 >= 0
p41Rd3 + p38Rd4 + p6Rd4 <= 2
p42Rd3 + p39Rd4 - p7Rd4 >= 0
p42Rd3 - p39Rd4 + p7Rd4 >= 0
- p42Rd3 + p39Rd4 + p7Rd4 >= 0
p42Rd3 + p39Rd4 + p7Rd4 <= 2
p43Rd3 + p40Rd4 - p8Rd4 >= 0
p43Rd3 - p40Rd4 + p8Rd4 >= 0
- p43Rd3 + p40Rd4 + p8Rd4 >= 0
p43Rd3 + p40Rd4 + p8Rd4 <= 2
p44Rd3 + p41Rd4 - p9Rd4 >= 0
p44Rd3 - p41Rd4 + p9Rd4 >= 0
- p44Rd3 + p41Rd4 + p9Rd4 >= 0
p44Rd3 + p41Rd4 + p9Rd4 <= 2
p45Rd3 + p42Rd4 - p10Rd4 >= 0
p45Rd3 - p42Rd4 + p10Rd4 >= 0
- p45Rd3 + p42Rd4 + p10Rd4 >= 0
p45Rd3 + p42Rd4 + p10Rd4 <= 2
p46Rd3 + p43Rd4 - p11Rd4 >= 0
p46Rd3 - p43Rd4 + p11Rd4 >= 0
- p46Rd3 + p43Rd4 + p11Rd4 >= 0
p46Rd3 + p43Rd4 + p11Rd4 <= 2
p47Rd3 + p44Rd4 - p12Rd4 >= 0
p47Rd3 - p44Rd4 + p12Rd4 >= 0
- p47Rd3 + p44Rd4 + p12Rd4 >= 0
p47Rd3 + p44Rd4 + p12Rd4 <= 2
p48Rd3 + p45Rd4 - p13Rd4 >= 0
p48Rd3 - p45Rd4 + p13Rd4 >= 0
- p48Rd3 + p45Rd4 + p13Rd4 >= 0
p48Rd3 + p45Rd4 + p13Rd4 <= 2
p49Rd3 + p46Rd4 - p14Rd4 >= 0
p49Rd3 - p46Rd4 + p14Rd4 >= 0
- p49Rd3 + p46Rd4 + p14Rd4 >= 0
p49Rd3 + p46Rd4 + p14Rd4 <= 2
p50Rd3 + p47Rd4 - p15Rd4 >= 0
p50Rd3 - p47Rd4 + p15Rd4 >= 0
- p50Rd3 + p47Rd4 + p15Rd4 >= 0
p50Rd3 + p47Rd4 + p15Rd4 <= 2
p51Rd3 + p48Rd4 - p16Rd4 >= 0
p51Rd3 - p48Rd4 + p16Rd4 >= 0
- p51Rd3 + p48Rd4 + p16Rd4 >= 0
p51Rd3 + p48Rd4 + p16Rd4 <= 2
p52Rd3 + p49Rd4 - p17Rd4 >= 0
p52Rd3 - p49Rd4 + p17Rd4 >= 0
- p52Rd3 + p49Rd4 + p17Rd4 >= 0
p52Rd3 + p49Rd4 + p17Rd4 <= 2
p53Rd3 + p50Rd4 - p18Rd4 >= 0
p53Rd3 - p50Rd4 + p18Rd4 >= 0
- p53Rd3 + p50Rd4 + p18Rd4 >= 0
p53Rd3 + p50Rd4 + p18Rd4 <= 2
p54Rd3 + p51Rd4 - p19Rd4 >= 0
p54Rd3 - p51Rd4 + p19Rd4 >= 0
- p54Rd3 + p51Rd4 + p19Rd4 >= 0
p54Rd3 + p51Rd4 + p19Rd4 <= 2
p55Rd3 + p52Rd4 - p20Rd4 >= 0
p55Rd3 - p52Rd4 + p20Rd4 >= 0
- p55Rd3 + p52Rd4 + p20Rd4 >= 0
p55Rd3 + p52Rd4 + p20Rd4 <= 2
p56Rd3 + p53Rd4 - p21Rd4 >= 0
p56Rd3 - p53Rd4 + p21Rd4 >= 0
- p56Rd3 + p53Rd4 + p21Rd4 >= 0
p56Rd3 + p53Rd4 + p21Rd4 <= 2
p57Rd3 + p54Rd4 - p22Rd4 >= 0
p57Rd3 - p54Rd4 + p22Rd4 >= 0
- p57Rd3 + p54Rd4 + p22Rd4 >= 0
p57Rd3 + p54Rd4 + p22Rd4 <= 2
p58Rd3 + p55Rd4 - p23Rd4 >= 0
p58Rd3 - p55Rd4 + p23Rd4 >= 0
- p58Rd3 + p55Rd4 + p23Rd4 >= 0
p58Rd3 + p55Rd4 + p23Rd4 <= 2
p59Rd3 + p56Rd4 - p24Rd4 >= 0
p59Rd3 - p56Rd4 + p24Rd4 >= 0
- p59Rd3 + p56Rd4 + p24Rd4 >= 0
p59Rd3 + p56Rd4 + p24Rd4 <= 2
p60Rd3 + p57Rd4 - p25Rd4 >= 0
p60Rd3 - p57Rd4 + p25Rd4 >= 0
- p60Rd3 + p57Rd4 + p25Rd4 >= 0
p60Rd3 + p57Rd4 + p25Rd4 <= 2
p61Rd3 + p58Rd4 - p26Rd4 >= 0
p61Rd3 - p58Rd4 + p26Rd4 >= 0
- p61Rd3 + p58Rd4 + p26Rd4 >= 0
p61Rd3 + p58Rd4 + p26Rd4 <= 2
p62Rd3 + p59Rd4 - p27Rd4 >= 0
p62Rd3 - p59Rd4 + p27Rd4 >= 0
- p62Rd3 + p59Rd4 + p27Rd4 >= 0
p62Rd3 + p59Rd4 + p27Rd4 <= 2
p63Rd3 + p60Rd4 - p28Rd4 >= 0
p63Rd3 - p60Rd4 + p28Rd4 >= 0
- p63Rd3 + p60Rd4 + p28Rd4 >= 0
p63Rd3 + p60Rd4 + p28Rd4 <= 2
p32Rd3 + p61Rd4 - p29Rd4 >= 0
p32Rd3 - p61Rd4 + p29Rd4 >= 0
- p32Rd3 + p61Rd4 + p29Rd4 >= 0
p32Rd3 + p61Rd4 + p29Rd4 <= 2
p33Rd3 + p62Rd4 - p30Rd4 >= 0
p33Rd3 - p62Rd4 + p30Rd4 >= 0
- p33Rd3 + p62Rd4 + p30Rd4 >= 0
p33Rd3 + p62Rd4 + p30Rd4 <= 2
p34Rd3 + p63Rd4 - p31Rd4 >= 0
p34Rd3 - p63Rd4 + p31Rd4 >= 0
- p34Rd3 + p63Rd4 + p31Rd4 >= 0
p34Rd3 + p63Rd4 + p31Rd4 <= 2
p33Rd3 - p1Rd4 + pro0Rd3 >= 0 
p25Rd3 - p33Rd3 + pro0Rd3 >= 0 
p1Rd4 - p25Rd3 + pro0Rd3 >= 0 
p25Rd3 + p33Rd3 + p1Rd4 + pro0Rd3 <= 3 
p25Rd3 + p33Rd3 + p1Rd4 - pro0Rd3 >= 0 
p24Rd3 + p32Rd3 + p0Rd4 + pro0Rd3 - p33Rd3 >= 0 
p33Rd3 + p24Rd3 - p32Rd3 + p0Rd4 + pro0Rd3 >= 0 
p33Rd3 - p24Rd3 + p32Rd3 + p0Rd4 + pro0Rd3 >= 0 
p25Rd3 + p24Rd3 + p32Rd3 - p0Rd4 + pro0Rd3 >= 0 
p1Rd4 - p24Rd3 - p32Rd3 - p0Rd4 + pro0Rd3 >= -2 
p24Rd3 - p33Rd3 - p32Rd3 - p0Rd4 + pro0Rd3 >= -2 
p32Rd3 - p33Rd3 - p24Rd3 - p0Rd4 + pro0Rd3 >= -2 
p0Rd4 - p33Rd3 - p24Rd3 - p32Rd3 + pro0Rd3 >= -2 
p34Rd3 - p2Rd4 + pro1Rd3 >= 0 
p26Rd3 - p34Rd3 + pro1Rd3 >= 0 
p2Rd4 - p26Rd3 + pro1Rd3 >= 0 
p26Rd3 + p34Rd3 + p2Rd4 + pro1Rd3 <= 3 
p26Rd3 + p34Rd3 + p2Rd4 - pro1Rd3 >= 0 
p25Rd3 + p33Rd3 + p1Rd4 + pro1Rd3 - p34Rd3 >= 0 
p34Rd3 + p25Rd3 - p33Rd3 + p1Rd4 + pro1Rd3 >= 0 
p34Rd3 - p25Rd3 + p33Rd3 + p1Rd4 + pro1Rd3 >= 0 
p26Rd3 + p25Rd3 + p33Rd3 - p1Rd4 + pro1Rd3 >= 0 
p2Rd4 - p25Rd3 - p33Rd3 - p1Rd4 + pro1Rd3 >= -2 
p25Rd3 - p34Rd3 - p33Rd3 - p1Rd4 + pro1Rd3 >= -2 
p33Rd3 - p34Rd3 - p25Rd3 - p1Rd4 + pro1Rd3 >= -2 
p1Rd4 - p34Rd3 - p25Rd3 - p33Rd3 + pro1Rd3 >= -2 
p35Rd3 - p3Rd4 + pro2Rd3 >= 0 
p27Rd3 - p35Rd3 + pro2Rd3 >= 0 
p3Rd4 - p27Rd3 + pro2Rd3 >= 0 
p27Rd3 + p35Rd3 + p3Rd4 + pro2Rd3 <= 3 
p27Rd3 + p35Rd3 + p3Rd4 - pro2Rd3 >= 0 
p26Rd3 + p34Rd3 + p2Rd4 + pro2Rd3 - p35Rd3 >= 0 
p35Rd3 + p26Rd3 - p34Rd3 + p2Rd4 + pro2Rd3 >= 0 
p35Rd3 - p26Rd3 + p34Rd3 + p2Rd4 + pro2Rd3 >= 0 
p27Rd3 + p26Rd3 + p34Rd3 - p2Rd4 + pro2Rd3 >= 0 
p3Rd4 - p26Rd3 - p34Rd3 - p2Rd4 + pro2Rd3 >= -2 
p26Rd3 - p35Rd3 - p34Rd3 - p2Rd4 + pro2Rd3 >= -2 
p34Rd3 - p35Rd3 - p26Rd3 - p2Rd4 + pro2Rd3 >= -2 
p2Rd4 - p35Rd3 - p26Rd3 - p34Rd3 + pro2Rd3 >= -2 
p36Rd3 - p4Rd4 + pro3Rd3 >= 0 
p28Rd3 - p36Rd3 + pro3Rd3 >= 0 
p4Rd4 - p28Rd3 + pro3Rd3 >= 0 
p28Rd3 + p36Rd3 + p4Rd4 + pro3Rd3 <= 3 
p28Rd3 + p36Rd3 + p4Rd4 - pro3Rd3 >= 0 
p27Rd3 + p35Rd3 + p3Rd4 + pro3Rd3 - p36Rd3 >= 0 
p36Rd3 + p27Rd3 - p35Rd3 + p3Rd4 + pro3Rd3 >= 0 
p36Rd3 - p27Rd3 + p35Rd3 + p3Rd4 + pro3Rd3 >= 0 
p28Rd3 + p27Rd3 + p35Rd3 - p3Rd4 + pro3Rd3 >= 0 
p4Rd4 - p27Rd3 - p35Rd3 - p3Rd4 + pro3Rd3 >= -2 
p27Rd3 - p36Rd3 - p35Rd3 - p3Rd4 + pro3Rd3 >= -2 
p35Rd3 - p36Rd3 - p27Rd3 - p3Rd4 + pro3Rd3 >= -2 
p3Rd4 - p36Rd3 - p27Rd3 - p35Rd3 + pro3Rd3 >= -2 
p37Rd3 - p5Rd4 + pro4Rd3 >= 0 
p29Rd3 - p37Rd3 + pro4Rd3 >= 0 
p5Rd4 - p29Rd3 + pro4Rd3 >= 0 
p29Rd3 + p37Rd3 + p5Rd4 + pro4Rd3 <= 3 
p29Rd3 + p37Rd3 + p5Rd4 - pro4Rd3 >= 0 
p28Rd3 + p36Rd3 + p4Rd4 + pro4Rd3 - p37Rd3 >= 0 
p37Rd3 + p28Rd3 - p36Rd3 + p4Rd4 + pro4Rd3 >= 0 
p37Rd3 - p28Rd3 + p36Rd3 + p4Rd4 + pro4Rd3 >= 0 
p29Rd3 + p28Rd3 + p36Rd3 - p4Rd4 + pro4Rd3 >= 0 
p5Rd4 - p28Rd3 - p36Rd3 - p4Rd4 + pro4Rd3 >= -2 
p28Rd3 - p37Rd3 - p36Rd3 - p4Rd4 + pro4Rd3 >= -2 
p36Rd3 - p37Rd3 - p28Rd3 - p4Rd4 + pro4Rd3 >= -2 
p4Rd4 - p37Rd3 - p28Rd3 - p36Rd3 + pro4Rd3 >= -2 
p38Rd3 - p6Rd4 + pro5Rd3 >= 0 
p30Rd3 - p38Rd3 + pro5Rd3 >= 0 
p6Rd4 - p30Rd3 + pro5Rd3 >= 0 
p30Rd3 + p38Rd3 + p6Rd4 + pro5Rd3 <= 3 
p30Rd3 + p38Rd3 + p6Rd4 - pro5Rd3 >= 0 
p29Rd3 + p37Rd3 + p5Rd4 + pro5Rd3 - p38Rd3 >= 0 
p38Rd3 + p29Rd3 - p37Rd3 + p5Rd4 + pro5Rd3 >= 0 
p38Rd3 - p29Rd3 + p37Rd3 + p5Rd4 + pro5Rd3 >= 0 
p30Rd3 + p29Rd3 + p37Rd3 - p5Rd4 + pro5Rd3 >= 0 
p6Rd4 - p29Rd3 - p37Rd3 - p5Rd4 + pro5Rd3 >= -2 
p29Rd3 - p38Rd3 - p37Rd3 - p5Rd4 + pro5Rd3 >= -2 
p37Rd3 - p38Rd3 - p29Rd3 - p5Rd4 + pro5Rd3 >= -2 
p5Rd4 - p38Rd3 - p29Rd3 - p37Rd3 + pro5Rd3 >= -2 
p39Rd3 - p7Rd4 + pro6Rd3 >= 0 
p31Rd3 - p39Rd3 + pro6Rd3 >= 0 
p7Rd4 - p31Rd3 + pro6Rd3 >= 0 
p31Rd3 + p39Rd3 + p7Rd4 + pro6Rd3 <= 3 
p31Rd3 + p39Rd3 + p7Rd4 - pro6Rd3 >= 0 
p30Rd3 + p38Rd3 + p6Rd4 + pro6Rd3 - p39Rd3 >= 0 
p39Rd3 + p30Rd3 - p38Rd3 + p6Rd4 + pro6Rd3 >= 0 
p39Rd3 - p30Rd3 + p38Rd3 + p6Rd4 + pro6Rd3 >= 0 
p31Rd3 + p30Rd3 + p38Rd3 - p6Rd4 + pro6Rd3 >= 0 
p7Rd4 - p30Rd3 - p38Rd3 - p6Rd4 + pro6Rd3 >= -2 
p30Rd3 - p39Rd3 - p38Rd3 - p6Rd4 + pro6Rd3 >= -2 
p38Rd3 - p39Rd3 - p30Rd3 - p6Rd4 + pro6Rd3 >= -2 
p6Rd4 - p39Rd3 - p30Rd3 - p38Rd3 + pro6Rd3 >= -2 
p40Rd3 - p8Rd4 + pro7Rd3 >= 0 
p0Rd3 - p40Rd3 + pro7Rd3 >= 0 
p8Rd4 - p0Rd3 + pro7Rd3 >= 0 
p0Rd3 + p40Rd3 + p8Rd4 + pro7Rd3 <= 3 
p0Rd3 + p40Rd3 + p8Rd4 - pro7Rd3 >= 0 
p31Rd3 + p39Rd3 + p7Rd4 + pro7Rd3 - p40Rd3 >= 0 
p40Rd3 + p31Rd3 - p39Rd3 + p7Rd4 + pro7Rd3 >= 0 
p40Rd3 - p31Rd3 + p39Rd3 + p7Rd4 + pro7Rd3 >= 0 
p0Rd3 + p31Rd3 + p39Rd3 - p7Rd4 + pro7Rd3 >= 0 
p8Rd4 - p31Rd3 - p39Rd3 - p7Rd4 + pro7Rd3 >= -2 
p31Rd3 - p40Rd3 - p39Rd3 - p7Rd4 + pro7Rd3 >= -2 
p39Rd3 - p40Rd3 - p31Rd3 - p7Rd4 + pro7Rd3 >= -2 
p7Rd4 - p40Rd3 - p31Rd3 - p39Rd3 + pro7Rd3 >= -2 
p41Rd3 - p9Rd4 + pro8Rd3 >= 0 
p1Rd3 - p41Rd3 + pro8Rd3 >= 0 
p9Rd4 - p1Rd3 + pro8Rd3 >= 0 
p1Rd3 + p41Rd3 + p9Rd4 + pro8Rd3 <= 3 
p1Rd3 + p41Rd3 + p9Rd4 - pro8Rd3 >= 0 
p0Rd3 + p40Rd3 + p8Rd4 + pro8Rd3 - p41Rd3 >= 0 
p41Rd3 + p0Rd3 - p40Rd3 + p8Rd4 + pro8Rd3 >= 0 
p41Rd3 - p0Rd3 + p40Rd3 + p8Rd4 + pro8Rd3 >= 0 
p1Rd3 + p0Rd3 + p40Rd3 - p8Rd4 + pro8Rd3 >= 0 
p9Rd4 - p0Rd3 - p40Rd3 - p8Rd4 + pro8Rd3 >= -2 
p0Rd3 - p41Rd3 - p40Rd3 - p8Rd4 + pro8Rd3 >= -2 
p40Rd3 - p41Rd3 - p0Rd3 - p8Rd4 + pro8Rd3 >= -2 
p8Rd4 - p41Rd3 - p0Rd3 - p40Rd3 + pro8Rd3 >= -2 
p42Rd3 - p10Rd4 + pro9Rd3 >= 0 
p2Rd3 - p42Rd3 + pro9Rd3 >= 0 
p10Rd4 - p2Rd3 + pro9Rd3 >= 0 
p2Rd3 + p42Rd3 + p10Rd4 + pro9Rd3 <= 3 
p2Rd3 + p42Rd3 + p10Rd4 - pro9Rd3 >= 0 
p1Rd3 + p41Rd3 + p9Rd4 + pro9Rd3 - p42Rd3 >= 0 
p42Rd3 + p1Rd3 - p41Rd3 + p9Rd4 + pro9Rd3 >= 0 
p42Rd3 - p1Rd3 + p41Rd3 + p9Rd4 + pro9Rd3 >= 0 
p2Rd3 + p1Rd3 + p41Rd3 - p9Rd4 + pro9Rd3 >= 0 
p10Rd4 - p1Rd3 - p41Rd3 - p9Rd4 + pro9Rd3 >= -2 
p1Rd3 - p42Rd3 - p41Rd3 - p9Rd4 + pro9Rd3 >= -2 
p41Rd3 - p42Rd3 - p1Rd3 - p9Rd4 + pro9Rd3 >= -2 
p9Rd4 - p42Rd3 - p1Rd3 - p41Rd3 + pro9Rd3 >= -2 
p43Rd3 - p11Rd4 + pro10Rd3 >= 0 
p3Rd3 - p43Rd3 + pro10Rd3 >= 0 
p11Rd4 - p3Rd3 + pro10Rd3 >= 0 
p3Rd3 + p43Rd3 + p11Rd4 + pro10Rd3 <= 3 
p3Rd3 + p43Rd3 + p11Rd4 - pro10Rd3 >= 0 
p2Rd3 + p42Rd3 + p10Rd4 + pro10Rd3 - p43Rd3 >= 0 
p43Rd3 + p2Rd3 - p42Rd3 + p10Rd4 + pro10Rd3 >= 0 
p43Rd3 - p2Rd3 + p42Rd3 + p10Rd4 + pro10Rd3 >= 0 
p3Rd3 + p2Rd3 + p42Rd3 - p10Rd4 + pro10Rd3 >= 0 
p11Rd4 - p2Rd3 - p42Rd3 - p10Rd4 + pro10Rd3 >= -2 
p2Rd3 - p43Rd3 - p42Rd3 - p10Rd4 + pro10Rd3 >= -2 
p42Rd3 - p43Rd3 - p2Rd3 - p10Rd4 + pro10Rd3 >= -2 
p10Rd4 - p43Rd3 - p2Rd3 - p42Rd3 + pro10Rd3 >= -2 
p44Rd3 - p12Rd4 + pro11Rd3 >= 0 
p4Rd3 - p44Rd3 + pro11Rd3 >= 0 
p12Rd4 - p4Rd3 + pro11Rd3 >= 0 
p4Rd3 + p44Rd3 + p12Rd4 + pro11Rd3 <= 3 
p4Rd3 + p44Rd3 + p12Rd4 - pro11Rd3 >= 0 
p3Rd3 + p43Rd3 + p11Rd4 + pro11Rd3 - p44Rd3 >= 0 
p44Rd3 + p3Rd3 - p43Rd3 + p11Rd4 + pro11Rd3 >= 0 
p44Rd3 - p3Rd3 + p43Rd3 + p11Rd4 + pro11Rd3 >= 0 
p4Rd3 + p3Rd3 + p43Rd3 - p11Rd4 + pro11Rd3 >= 0 
p12Rd4 - p3Rd3 - p43Rd3 - p11Rd4 + pro11Rd3 >= -2 
p3Rd3 - p44Rd3 - p43Rd3 - p11Rd4 + pro11Rd3 >= -2 
p43Rd3 - p44Rd3 - p3Rd3 - p11Rd4 + pro11Rd3 >= -2 
p11Rd4 - p44Rd3 - p3Rd3 - p43Rd3 + pro11Rd3 >= -2 
p45Rd3 - p13Rd4 + pro12Rd3 >= 0 
p5Rd3 - p45Rd3 + pro12Rd3 >= 0 
p13Rd4 - p5Rd3 + pro12Rd3 >= 0 
p5Rd3 + p45Rd3 + p13Rd4 + pro12Rd3 <= 3 
p5Rd3 + p45Rd3 + p13Rd4 - pro12Rd3 >= 0 
p4Rd3 + p44Rd3 + p12Rd4 + pro12Rd3 - p45Rd3 >= 0 
p45Rd3 + p4Rd3 - p44Rd3 + p12Rd4 + pro12Rd3 >= 0 
p45Rd3 - p4Rd3 + p44Rd3 + p12Rd4 + pro12Rd3 >= 0 
p5Rd3 + p4Rd3 + p44Rd3 - p12Rd4 + pro12Rd3 >= 0 
p13Rd4 - p4Rd3 - p44Rd3 - p12Rd4 + pro12Rd3 >= -2 
p4Rd3 - p45Rd3 - p44Rd3 - p12Rd4 + pro12Rd3 >= -2 
p44Rd3 - p45Rd3 - p4Rd3 - p12Rd4 + pro12Rd3 >= -2 
p12Rd4 - p45Rd3 - p4Rd3 - p44Rd3 + pro12Rd3 >= -2 
p46Rd3 - p14Rd4 + pro13Rd3 >= 0 
p6Rd3 - p46Rd3 + pro13Rd3 >= 0 
p14Rd4 - p6Rd3 + pro13Rd3 >= 0 
p6Rd3 + p46Rd3 + p14Rd4 + pro13Rd3 <= 3 
p6Rd3 + p46Rd3 + p14Rd4 - pro13Rd3 >= 0 
p5Rd3 + p45Rd3 + p13Rd4 + pro13Rd3 - p46Rd3 >= 0 
p46Rd3 + p5Rd3 - p45Rd3 + p13Rd4 + pro13Rd3 >= 0 
p46Rd3 - p5Rd3 + p45Rd3 + p13Rd4 + pro13Rd3 >= 0 
p6Rd3 + p5Rd3 + p45Rd3 - p13Rd4 + pro13Rd3 >= 0 
p14Rd4 - p5Rd3 - p45Rd3 - p13Rd4 + pro13Rd3 >= -2 
p5Rd3 - p46Rd3 - p45Rd3 - p13Rd4 + pro13Rd3 >= -2 
p45Rd3 - p46Rd3 - p5Rd3 - p13Rd4 + pro13Rd3 >= -2 
p13Rd4 - p46Rd3 - p5Rd3 - p45Rd3 + pro13Rd3 >= -2 
p47Rd3 - p15Rd4 + pro14Rd3 >= 0 
p7Rd3 - p47Rd3 + pro14Rd3 >= 0 
p15Rd4 - p7Rd3 + pro14Rd3 >= 0 
p7Rd3 + p47Rd3 + p15Rd4 + pro14Rd3 <= 3 
p7Rd3 + p47Rd3 + p15Rd4 - pro14Rd3 >= 0 
p6Rd3 + p46Rd3 + p14Rd4 + pro14Rd3 - p47Rd3 >= 0 
p47Rd3 + p6Rd3 - p46Rd3 + p14Rd4 + pro14Rd3 >= 0 
p47Rd3 - p6Rd3 + p46Rd3 + p14Rd4 + pro14Rd3 >= 0 
p7Rd3 + p6Rd3 + p46Rd3 - p14Rd4 + pro14Rd3 >= 0 
p15Rd4 - p6Rd3 - p46Rd3 - p14Rd4 + pro14Rd3 >= -2 
p6Rd3 - p47Rd3 - p46Rd3 - p14Rd4 + pro14Rd3 >= -2 
p46Rd3 - p47Rd3 - p6Rd3 - p14Rd4 + pro14Rd3 >= -2 
p14Rd4 - p47Rd3 - p6Rd3 - p46Rd3 + pro14Rd3 >= -2 
p48Rd3 - p16Rd4 + pro15Rd3 >= 0 
p8Rd3 - p48Rd3 + pro15Rd3 >= 0 
p16Rd4 - p8Rd3 + pro15Rd3 >= 0 
p8Rd3 + p48Rd3 + p16Rd4 + pro15Rd3 <= 3 
p8Rd3 + p48Rd3 + p16Rd4 - pro15Rd3 >= 0 
p7Rd3 + p47Rd3 + p15Rd4 + pro15Rd3 - p48Rd3 >= 0 
p48Rd3 + p7Rd3 - p47Rd3 + p15Rd4 + pro15Rd3 >= 0 
p48Rd3 - p7Rd3 + p47Rd3 + p15Rd4 + pro15Rd3 >= 0 
p8Rd3 + p7Rd3 + p47Rd3 - p15Rd4 + pro15Rd3 >= 0 
p16Rd4 - p7Rd3 - p47Rd3 - p15Rd4 + pro15Rd3 >= -2 
p7Rd3 - p48Rd3 - p47Rd3 - p15Rd4 + pro15Rd3 >= -2 
p47Rd3 - p48Rd3 - p7Rd3 - p15Rd4 + pro15Rd3 >= -2 
p15Rd4 - p48Rd3 - p7Rd3 - p47Rd3 + pro15Rd3 >= -2 
p49Rd3 - p17Rd4 + pro16Rd3 >= 0 
p9Rd3 - p49Rd3 + pro16Rd3 >= 0 
p17Rd4 - p9Rd3 + pro16Rd3 >= 0 
p9Rd3 + p49Rd3 + p17Rd4 + pro16Rd3 <= 3 
p9Rd3 + p49Rd3 + p17Rd4 - pro16Rd3 >= 0 
p8Rd3 + p48Rd3 + p16Rd4 + pro16Rd3 - p49Rd3 >= 0 
p49Rd3 + p8Rd3 - p48Rd3 + p16Rd4 + pro16Rd3 >= 0 
p49Rd3 - p8Rd3 + p48Rd3 + p16Rd4 + pro16Rd3 >= 0 
p9Rd3 + p8Rd3 + p48Rd3 - p16Rd4 + pro16Rd3 >= 0 
p17Rd4 - p8Rd3 - p48Rd3 - p16Rd4 + pro16Rd3 >= -2 
p8Rd3 - p49Rd3 - p48Rd3 - p16Rd4 + pro16Rd3 >= -2 
p48Rd3 - p49Rd3 - p8Rd3 - p16Rd4 + pro16Rd3 >= -2 
p16Rd4 - p49Rd3 - p8Rd3 - p48Rd3 + pro16Rd3 >= -2 
p50Rd3 - p18Rd4 + pro17Rd3 >= 0 
p10Rd3 - p50Rd3 + pro17Rd3 >= 0 
p18Rd4 - p10Rd3 + pro17Rd3 >= 0 
p10Rd3 + p50Rd3 + p18Rd4 + pro17Rd3 <= 3 
p10Rd3 + p50Rd3 + p18Rd4 - pro17Rd3 >= 0 
p9Rd3 + p49Rd3 + p17Rd4 + pro17Rd3 - p50Rd3 >= 0 
p50Rd3 + p9Rd3 - p49Rd3 + p17Rd4 + pro17Rd3 >= 0 
p50Rd3 - p9Rd3 + p49Rd3 + p17Rd4 + pro17Rd3 >= 0 
p10Rd3 + p9Rd3 + p49Rd3 - p17Rd4 + pro17Rd3 >= 0 
p18Rd4 - p9Rd3 - p49Rd3 - p17Rd4 + pro17Rd3 >= -2 
p9Rd3 - p50Rd3 - p49Rd3 - p17Rd4 + pro17Rd3 >= -2 
p49Rd3 - p50Rd3 - p9Rd3 - p17Rd4 + pro17Rd3 >= -2 
p17Rd4 - p50Rd3 - p9Rd3 - p49Rd3 + pro17Rd3 >= -2 
p51Rd3 - p19Rd4 + pro18Rd3 >= 0 
p11Rd3 - p51Rd3 + pro18Rd3 >= 0 
p19Rd4 - p11Rd3 + pro18Rd3 >= 0 
p11Rd3 + p51Rd3 + p19Rd4 + pro18Rd3 <= 3 
p11Rd3 + p51Rd3 + p19Rd4 - pro18Rd3 >= 0 
p10Rd3 + p50Rd3 + p18Rd4 + pro18Rd3 - p51Rd3 >= 0 
p51Rd3 + p10Rd3 - p50Rd3 + p18Rd4 + pro18Rd3 >= 0 
p51Rd3 - p10Rd3 + p50Rd3 + p18Rd4 + pro18Rd3 >= 0 
p11Rd3 + p10Rd3 + p50Rd3 - p18Rd4 + pro18Rd3 >= 0 
p19Rd4 - p10Rd3 - p50Rd3 - p18Rd4 + pro18Rd3 >= -2 
p10Rd3 - p51Rd3 - p50Rd3 - p18Rd4 + pro18Rd3 >= -2 
p50Rd3 - p51Rd3 - p10Rd3 - p18Rd4 + pro18Rd3 >= -2 
p18Rd4 - p51Rd3 - p10Rd3 - p50Rd3 + pro18Rd3 >= -2 
p52Rd3 - p20Rd4 + pro19Rd3 >= 0 
p12Rd3 - p52Rd3 + pro19Rd3 >= 0 
p20Rd4 - p12Rd3 + pro19Rd3 >= 0 
p12Rd3 + p52Rd3 + p20Rd4 + pro19Rd3 <= 3 
p12Rd3 + p52Rd3 + p20Rd4 - pro19Rd3 >= 0 
p11Rd3 + p51Rd3 + p19Rd4 + pro19Rd3 - p52Rd3 >= 0 
p52Rd3 + p11Rd3 - p51Rd3 + p19Rd4 + pro19Rd3 >= 0 
p52Rd3 - p11Rd3 + p51Rd3 + p19Rd4 + pro19Rd3 >= 0 
p12Rd3 + p11Rd3 + p51Rd3 - p19Rd4 + pro19Rd3 >= 0 
p20Rd4 - p11Rd3 - p51Rd3 - p19Rd4 + pro19Rd3 >= -2 
p11Rd3 - p52Rd3 - p51Rd3 - p19Rd4 + pro19Rd3 >= -2 
p51Rd3 - p52Rd3 - p11Rd3 - p19Rd4 + pro19Rd3 >= -2 
p19Rd4 - p52Rd3 - p11Rd3 - p51Rd3 + pro19Rd3 >= -2 
p53Rd3 - p21Rd4 + pro20Rd3 >= 0 
p13Rd3 - p53Rd3 + pro20Rd3 >= 0 
p21Rd4 - p13Rd3 + pro20Rd3 >= 0 
p13Rd3 + p53Rd3 + p21Rd4 + pro20Rd3 <= 3 
p13Rd3 + p53Rd3 + p21Rd4 - pro20Rd3 >= 0 
p12Rd3 + p52Rd3 + p20Rd4 + pro20Rd3 - p53Rd3 >= 0 
p53Rd3 + p12Rd3 - p52Rd3 + p20Rd4 + pro20Rd3 >= 0 
p53Rd3 - p12Rd3 + p52Rd3 + p20Rd4 + pro20Rd3 >= 0 
p13Rd3 + p12Rd3 + p52Rd3 - p20Rd4 + pro20Rd3 >= 0 
p21Rd4 - p12Rd3 - p52Rd3 - p20Rd4 + pro20Rd3 >= -2 
p12Rd3 - p53Rd3 - p52Rd3 - p20Rd4 + pro20Rd3 >= -2 
p52Rd3 - p53Rd3 - p12Rd3 - p20Rd4 + pro20Rd3 >= -2 
p20Rd4 - p53Rd3 - p12Rd3 - p52Rd3 + pro20Rd3 >= -2 
p54Rd3 - p22Rd4 + pro21Rd3 >= 0 
p14Rd3 - p54Rd3 + pro21Rd3 >= 0 
p22Rd4 - p14Rd3 + pro21Rd3 >= 0 
p14Rd3 + p54Rd3 + p22Rd4 + pro21Rd3 <= 3 
p14Rd3 + p54Rd3 + p22Rd4 - pro21Rd3 >= 0 
p13Rd3 + p53Rd3 + p21Rd4 + pro21Rd3 - p54Rd3 >= 0 
p54Rd3 + p13Rd3 - p53Rd3 + p21Rd4 + pro21Rd3 >= 0 
p54Rd3 - p13Rd3 + p53Rd3 + p21Rd4 + pro21Rd3 >= 0 
p14Rd3 + p13Rd3 + p53Rd3 - p21Rd4 + pro21Rd3 >= 0 
p22Rd4 - p13Rd3 - p53Rd3 - p21Rd4 + pro21Rd3 >= -2 
p13Rd3 - p54Rd3 - p53Rd3 - p21Rd4 + pro21Rd3 >= -2 
p53Rd3 - p54Rd3 - p13Rd3 - p21Rd4 + pro21Rd3 >= -2 
p21Rd4 - p54Rd3 - p13Rd3 - p53Rd3 + pro21Rd3 >= -2 
p55Rd3 - p23Rd4 + pro22Rd3 >= 0 
p15Rd3 - p55Rd3 + pro22Rd3 >= 0 
p23Rd4 - p15Rd3 + pro22Rd3 >= 0 
p15Rd3 + p55Rd3 + p23Rd4 + pro22Rd3 <= 3 
p15Rd3 + p55Rd3 + p23Rd4 - pro22Rd3 >= 0 
p14Rd3 + p54Rd3 + p22Rd4 + pro22Rd3 - p55Rd3 >= 0 
p55Rd3 + p14Rd3 - p54Rd3 + p22Rd4 + pro22Rd3 >= 0 
p55Rd3 - p14Rd3 + p54Rd3 + p22Rd4 + pro22Rd3 >= 0 
p15Rd3 + p14Rd3 + p54Rd3 - p22Rd4 + pro22Rd3 >= 0 
p23Rd4 - p14Rd3 - p54Rd3 - p22Rd4 + pro22Rd3 >= -2 
p14Rd3 - p55Rd3 - p54Rd3 - p22Rd4 + pro22Rd3 >= -2 
p54Rd3 - p55Rd3 - p14Rd3 - p22Rd4 + pro22Rd3 >= -2 
p22Rd4 - p55Rd3 - p14Rd3 - p54Rd3 + pro22Rd3 >= -2 
p56Rd3 - p24Rd4 + pro23Rd3 >= 0 
p16Rd3 - p56Rd3 + pro23Rd3 >= 0 
p24Rd4 - p16Rd3 + pro23Rd3 >= 0 
p16Rd3 + p56Rd3 + p24Rd4 + pro23Rd3 <= 3 
p16Rd3 + p56Rd3 + p24Rd4 - pro23Rd3 >= 0 
p15Rd3 + p55Rd3 + p23Rd4 + pro23Rd3 - p56Rd3 >= 0 
p56Rd3 + p15Rd3 - p55Rd3 + p23Rd4 + pro23Rd3 >= 0 
p56Rd3 - p15Rd3 + p55Rd3 + p23Rd4 + pro23Rd3 >= 0 
p16Rd3 + p15Rd3 + p55Rd3 - p23Rd4 + pro23Rd3 >= 0 
p24Rd4 - p15Rd3 - p55Rd3 - p23Rd4 + pro23Rd3 >= -2 
p15Rd3 - p56Rd3 - p55Rd3 - p23Rd4 + pro23Rd3 >= -2 
p55Rd3 - p56Rd3 - p15Rd3 - p23Rd4 + pro23Rd3 >= -2 
p23Rd4 - p56Rd3 - p15Rd3 - p55Rd3 + pro23Rd3 >= -2 
p57Rd3 - p25Rd4 + pro24Rd3 >= 0 
p17Rd3 - p57Rd3 + pro24Rd3 >= 0 
p25Rd4 - p17Rd3 + pro24Rd3 >= 0 
p17Rd3 + p57Rd3 + p25Rd4 + pro24Rd3 <= 3 
p17Rd3 + p57Rd3 + p25Rd4 - pro24Rd3 >= 0 
p16Rd3 + p56Rd3 + p24Rd4 + pro24Rd3 - p57Rd3 >= 0 
p57Rd3 + p16Rd3 - p56Rd3 + p24Rd4 + pro24Rd3 >= 0 
p57Rd3 - p16Rd3 + p56Rd3 + p24Rd4 + pro24Rd3 >= 0 
p17Rd3 + p16Rd3 + p56Rd3 - p24Rd4 + pro24Rd3 >= 0 
p25Rd4 - p16Rd3 - p56Rd3 - p24Rd4 + pro24Rd3 >= -2 
p16Rd3 - p57Rd3 - p56Rd3 - p24Rd4 + pro24Rd3 >= -2 
p56Rd3 - p57Rd3 - p16Rd3 - p24Rd4 + pro24Rd3 >= -2 
p24Rd4 - p57Rd3 - p16Rd3 - p56Rd3 + pro24Rd3 >= -2 
p58Rd3 - p26Rd4 + pro25Rd3 >= 0 
p18Rd3 - p58Rd3 + pro25Rd3 >= 0 
p26Rd4 - p18Rd3 + pro25Rd3 >= 0 
p18Rd3 + p58Rd3 + p26Rd4 + pro25Rd3 <= 3 
p18Rd3 + p58Rd3 + p26Rd4 - pro25Rd3 >= 0 
p17Rd3 + p57Rd3 + p25Rd4 + pro25Rd3 - p58Rd3 >= 0 
p58Rd3 + p17Rd3 - p57Rd3 + p25Rd4 + pro25Rd3 >= 0 
p58Rd3 - p17Rd3 + p57Rd3 + p25Rd4 + pro25Rd3 >= 0 
p18Rd3 + p17Rd3 + p57Rd3 - p25Rd4 + pro25Rd3 >= 0 
p26Rd4 - p17Rd3 - p57Rd3 - p25Rd4 + pro25Rd3 >= -2 
p17Rd3 - p58Rd3 - p57Rd3 - p25Rd4 + pro25Rd3 >= -2 
p57Rd3 - p58Rd3 - p17Rd3 - p25Rd4 + pro25Rd3 >= -2 
p25Rd4 - p58Rd3 - p17Rd3 - p57Rd3 + pro25Rd3 >= -2 
p59Rd3 - p27Rd4 + pro26Rd3 >= 0 
p19Rd3 - p59Rd3 + pro26Rd3 >= 0 
p27Rd4 - p19Rd3 + pro26Rd3 >= 0 
p19Rd3 + p59Rd3 + p27Rd4 + pro26Rd3 <= 3 
p19Rd3 + p59Rd3 + p27Rd4 - pro26Rd3 >= 0 
p18Rd3 + p58Rd3 + p26Rd4 + pro26Rd3 - p59Rd3 >= 0 
p59Rd3 + p18Rd3 - p58Rd3 + p26Rd4 + pro26Rd3 >= 0 
p59Rd3 - p18Rd3 + p58Rd3 + p26Rd4 + pro26Rd3 >= 0 
p19Rd3 + p18Rd3 + p58Rd3 - p26Rd4 + pro26Rd3 >= 0 
p27Rd4 - p18Rd3 - p58Rd3 - p26Rd4 + pro26Rd3 >= -2 
p18Rd3 - p59Rd3 - p58Rd3 - p26Rd4 + pro26Rd3 >= -2 
p58Rd3 - p59Rd3 - p18Rd3 - p26Rd4 + pro26Rd3 >= -2 
p26Rd4 - p59Rd3 - p18Rd3 - p58Rd3 + pro26Rd3 >= -2 
p60Rd3 - p28Rd4 + pro27Rd3 >= 0 
p20Rd3 - p60Rd3 + pro27Rd3 >= 0 
p28Rd4 - p20Rd3 + pro27Rd3 >= 0 
p20Rd3 + p60Rd3 + p28Rd4 + pro27Rd3 <= 3 
p20Rd3 + p60Rd3 + p28Rd4 - pro27Rd3 >= 0 
p19Rd3 + p59Rd3 + p27Rd4 + pro27Rd3 - p60Rd3 >= 0 
p60Rd3 + p19Rd3 - p59Rd3 + p27Rd4 + pro27Rd3 >= 0 
p60Rd3 - p19Rd3 + p59Rd3 + p27Rd4 + pro27Rd3 >= 0 
p20Rd3 + p19Rd3 + p59Rd3 - p27Rd4 + pro27Rd3 >= 0 
p28Rd4 - p19Rd3 - p59Rd3 - p27Rd4 + pro27Rd3 >= -2 
p19Rd3 - p60Rd3 - p59Rd3 - p27Rd4 + pro27Rd3 >= -2 
p59Rd3 - p60Rd3 - p19Rd3 - p27Rd4 + pro27Rd3 >= -2 
p27Rd4 - p60Rd3 - p19Rd3 - p59Rd3 + pro27Rd3 >= -2 
p61Rd3 - p29Rd4 + pro28Rd3 >= 0 
p21Rd3 - p61Rd3 + pro28Rd3 >= 0 
p29Rd4 - p21Rd3 + pro28Rd3 >= 0 
p21Rd3 + p61Rd3 + p29Rd4 + pro28Rd3 <= 3 
p21Rd3 + p61Rd3 + p29Rd4 - pro28Rd3 >= 0 
p20Rd3 + p60Rd3 + p28Rd4 + pro28Rd3 - p61Rd3 >= 0 
p61Rd3 + p20Rd3 - p60Rd3 + p28Rd4 + pro28Rd3 >= 0 
p61Rd3 - p20Rd3 + p60Rd3 + p28Rd4 + pro28Rd3 >= 0 
p21Rd3 + p20Rd3 + p60Rd3 - p28Rd4 + pro28Rd3 >= 0 
p29Rd4 - p20Rd3 - p60Rd3 - p28Rd4 + pro28Rd3 >= -2 
p20Rd3 - p61Rd3 - p60Rd3 - p28Rd4 + pro28Rd3 >= -2 
p60Rd3 - p61Rd3 - p20Rd3 - p28Rd4 + pro28Rd3 >= -2 
p28Rd4 - p61Rd3 - p20Rd3 - p60Rd3 + pro28Rd3 >= -2 
p62Rd3 - p30Rd4 + pro29Rd3 >= 0 
p22Rd3 - p62Rd3 + pro29Rd3 >= 0 
p30Rd4 - p22Rd3 + pro29Rd3 >= 0 
p22Rd3 + p62Rd3 + p30Rd4 + pro29Rd3 <= 3 
p22Rd3 + p62Rd3 + p30Rd4 - pro29Rd3 >= 0 
p21Rd3 + p61Rd3 + p29Rd4 + pro29Rd3 - p62Rd3 >= 0 
p62Rd3 + p21Rd3 - p61Rd3 + p29Rd4 + pro29Rd3 >= 0 
p62Rd3 - p21Rd3 + p61Rd3 + p29Rd4 + pro29Rd3 >= 0 
p22Rd3 + p21Rd3 + p61Rd3 - p29Rd4 + pro29Rd3 >= 0 
p30Rd4 - p21Rd3 - p61Rd3 - p29Rd4 + pro29Rd3 >= -2 
p21Rd3 - p62Rd3 - p61Rd3 - p29Rd4 + pro29Rd3 >= -2 
p61Rd3 - p62Rd3 - p21Rd3 - p29Rd4 + pro29Rd3 >= -2 
p29Rd4 - p62Rd3 - p21Rd3 - p61Rd3 + pro29Rd3 >= -2 
p63Rd3 - p31Rd4 + pro30Rd3 >= 0 
p23Rd3 - p63Rd3 + pro30Rd3 >= 0 
p31Rd4 - p23Rd3 + pro30Rd3 >= 0 
p23Rd3 + p63Rd3 + p31Rd4 + pro30Rd3 <= 3 
p23Rd3 + p63Rd3 + p31Rd4 - pro30Rd3 >= 0 
p22Rd3 + p62Rd3 + p30Rd4 + pro30Rd3 - p63Rd3 >= 0 
p63Rd3 + p22Rd3 - p62Rd3 + p30Rd4 + pro30Rd3 >= 0 
p63Rd3 - p22Rd3 + p62Rd3 + p30Rd4 + pro30Rd3 >= 0 
p23Rd3 + p22Rd3 + p62Rd3 - p30Rd4 + pro30Rd3 >= 0 
p31Rd4 - p22Rd3 - p62Rd3 - p30Rd4 + pro30Rd3 >= -2 
p22Rd3 - p63Rd3 - p62Rd3 - p30Rd4 + pro30Rd3 >= -2 
p62Rd3 - p63Rd3 - p22Rd3 - p30Rd4 + pro30Rd3 >= -2 
p30Rd4 - p63Rd3 - p22Rd3 - p62Rd3 + pro30Rd3 >= -2 
p23Rd3 + p63Rd3 + p31Rd4 <= 2 
p23Rd3 + p63Rd3 + p31Rd4 - 2 temp3 >= 0 
temp3 - p23Rd3 >= 0 
temp3 - p63Rd3 >= 0 
temp3 - p31Rd4 >= 0 
p35Rd4 + p32Rd5 - p0Rd5 >= 0
p35Rd4 - p32Rd5 + p0Rd5 >= 0
- p35Rd4 + p32Rd5 + p0Rd5 >= 0
p35Rd4 + p32Rd5 + p0Rd5 <= 2
p36Rd4 + p33Rd5 - p1Rd5 >= 0
p36Rd4 - p33Rd5 + p1Rd5 >= 0
- p36Rd4 + p33Rd5 + p1Rd5 >= 0
p36Rd4 + p33Rd5 + p1Rd5 <= 2
p37Rd4 + p34Rd5 - p2Rd5 >= 0
p37Rd4 - p34Rd5 + p2Rd5 >= 0
- p37Rd4 + p34Rd5 + p2Rd5 >= 0
p37Rd4 + p34Rd5 + p2Rd5 <= 2
p38Rd4 + p35Rd5 - p3Rd5 >= 0
p38Rd4 - p35Rd5 + p3Rd5 >= 0
- p38Rd4 + p35Rd5 + p3Rd5 >= 0
p38Rd4 + p35Rd5 + p3Rd5 <= 2
p39Rd4 + p36Rd5 - p4Rd5 >= 0
p39Rd4 - p36Rd5 + p4Rd5 >= 0
- p39Rd4 + p36Rd5 + p4Rd5 >= 0
p39Rd4 + p36Rd5 + p4Rd5 <= 2
p40Rd4 + p37Rd5 - p5Rd5 >= 0
p40Rd4 - p37Rd5 + p5Rd5 >= 0
- p40Rd4 + p37Rd5 + p5Rd5 >= 0
p40Rd4 + p37Rd5 + p5Rd5 <= 2
p41Rd4 + p38Rd5 - p6Rd5 >= 0
p41Rd4 - p38Rd5 + p6Rd5 >= 0
- p41Rd4 + p38Rd5 + p6Rd5 >= 0
p41Rd4 + p38Rd5 + p6Rd5 <= 2
p42Rd4 + p39Rd5 - p7Rd5 >= 0
p42Rd4 - p39Rd5 + p7Rd5 >= 0
- p42Rd4 + p39Rd5 + p7Rd5 >= 0
p42Rd4 + p39Rd5 + p7Rd5 <= 2
p43Rd4 + p40Rd5 - p8Rd5 >= 0
p43Rd4 - p40Rd5 + p8Rd5 >= 0
- p43Rd4 + p40Rd5 + p8Rd5 >= 0
p43Rd4 + p40Rd5 + p8Rd5 <= 2
p44Rd4 + p41Rd5 - p9Rd5 >= 0
p44Rd4 - p41Rd5 + p9Rd5 >= 0
- p44Rd4 + p41Rd5 + p9Rd5 >= 0
p44Rd4 + p41Rd5 + p9Rd5 <= 2
p45Rd4 + p42Rd5 - p10Rd5 >= 0
p45Rd4 - p42Rd5 + p10Rd5 >= 0
- p45Rd4 + p42Rd5 + p10Rd5 >= 0
p45Rd4 + p42Rd5 + p10Rd5 <= 2
p46Rd4 + p43Rd5 - p11Rd5 >= 0
p46Rd4 - p43Rd5 + p11Rd5 >= 0
- p46Rd4 + p43Rd5 + p11Rd5 >= 0
p46Rd4 + p43Rd5 + p11Rd5 <= 2
p47Rd4 + p44Rd5 - p12Rd5 >= 0
p47Rd4 - p44Rd5 + p12Rd5 >= 0
- p47Rd4 + p44Rd5 + p12Rd5 >= 0
p47Rd4 + p44Rd5 + p12Rd5 <= 2
p48Rd4 + p45Rd5 - p13Rd5 >= 0
p48Rd4 - p45Rd5 + p13Rd5 >= 0
- p48Rd4 + p45Rd5 + p13Rd5 >= 0
p48Rd4 + p45Rd5 + p13Rd5 <= 2
p49Rd4 + p46Rd5 - p14Rd5 >= 0
p49Rd4 - p46Rd5 + p14Rd5 >= 0
- p49Rd4 + p46Rd5 + p14Rd5 >= 0
p49Rd4 + p46Rd5 + p14Rd5 <= 2
p50Rd4 + p47Rd5 - p15Rd5 >= 0
p50Rd4 - p47Rd5 + p15Rd5 >= 0
- p50Rd4 + p47Rd5 + p15Rd5 >= 0
p50Rd4 + p47Rd5 + p15Rd5 <= 2
p51Rd4 + p48Rd5 - p16Rd5 >= 0
p51Rd4 - p48Rd5 + p16Rd5 >= 0
- p51Rd4 + p48Rd5 + p16Rd5 >= 0
p51Rd4 + p48Rd5 + p16Rd5 <= 2
p52Rd4 + p49Rd5 - p17Rd5 >= 0
p52Rd4 - p49Rd5 + p17Rd5 >= 0
- p52Rd4 + p49Rd5 + p17Rd5 >= 0
p52Rd4 + p49Rd5 + p17Rd5 <= 2
p53Rd4 + p50Rd5 - p18Rd5 >= 0
p53Rd4 - p50Rd5 + p18Rd5 >= 0
- p53Rd4 + p50Rd5 + p18Rd5 >= 0
p53Rd4 + p50Rd5 + p18Rd5 <= 2
p54Rd4 + p51Rd5 - p19Rd5 >= 0
p54Rd4 - p51Rd5 + p19Rd5 >= 0
- p54Rd4 + p51Rd5 + p19Rd5 >= 0
p54Rd4 + p51Rd5 + p19Rd5 <= 2
p55Rd4 + p52Rd5 - p20Rd5 >= 0
p55Rd4 - p52Rd5 + p20Rd5 >= 0
- p55Rd4 + p52Rd5 + p20Rd5 >= 0
p55Rd4 + p52Rd5 + p20Rd5 <= 2
p56Rd4 + p53Rd5 - p21Rd5 >= 0
p56Rd4 - p53Rd5 + p21Rd5 >= 0
- p56Rd4 + p53Rd5 + p21Rd5 >= 0
p56Rd4 + p53Rd5 + p21Rd5 <= 2
p57Rd4 + p54Rd5 - p22Rd5 >= 0
p57Rd4 - p54Rd5 + p22Rd5 >= 0
- p57Rd4 + p54Rd5 + p22Rd5 >= 0
p57Rd4 + p54Rd5 + p22Rd5 <= 2
p58Rd4 + p55Rd5 - p23Rd5 >= 0
p58Rd4 - p55Rd5 + p23Rd5 >= 0
- p58Rd4 + p55Rd5 + p23Rd5 >= 0
p58Rd4 + p55Rd5 + p23Rd5 <= 2
p59Rd4 + p56Rd5 - p24Rd5 >= 0
p59Rd4 - p56Rd5 + p24Rd5 >= 0
- p59Rd4 + p56Rd5 + p24Rd5 >= 0
p59Rd4 + p56Rd5 + p24Rd5 <= 2
p60Rd4 + p57Rd5 - p25Rd5 >= 0
p60Rd4 - p57Rd5 + p25Rd5 >= 0
- p60Rd4 + p57Rd5 + p25Rd5 >= 0
p60Rd4 + p57Rd5 + p25Rd5 <= 2
p61Rd4 + p58Rd5 - p26Rd5 >= 0
p61Rd4 - p58Rd5 + p26Rd5 >= 0
- p61Rd4 + p58Rd5 + p26Rd5 >= 0
p61Rd4 + p58Rd5 + p26Rd5 <= 2
p62Rd4 + p59Rd5 - p27Rd5 >= 0
p62Rd4 - p59Rd5 + p27Rd5 >= 0
- p62Rd4 + p59Rd5 + p27Rd5 >= 0
p62Rd4 + p59Rd5 + p27Rd5 <= 2
p63Rd4 + p60Rd5 - p28Rd5 >= 0
p63Rd4 - p60Rd5 + p28Rd5 >= 0
- p63Rd4 + p60Rd5 + p28Rd5 >= 0
p63Rd4 + p60Rd5 + p28Rd5 <= 2
p32Rd4 + p61Rd5 - p29Rd5 >= 0
p32Rd4 - p61Rd5 + p29Rd5 >= 0
- p32Rd4 + p61Rd5 + p29Rd5 >= 0
p32Rd4 + p61Rd5 + p29Rd5 <= 2
p33Rd4 + p62Rd5 - p30Rd5 >= 0
p33Rd4 - p62Rd5 + p30Rd5 >= 0
- p33Rd4 + p62Rd5 + p30Rd5 >= 0
p33Rd4 + p62Rd5 + p30Rd5 <= 2
p34Rd4 + p63Rd5 - p31Rd5 >= 0
p34Rd4 - p63Rd5 + p31Rd5 >= 0
- p34Rd4 + p63Rd5 + p31Rd5 >= 0
p34Rd4 + p63Rd5 + p31Rd5 <= 2
p33Rd4 - p1Rd5 + pro0Rd4 >= 0 
p25Rd4 - p33Rd4 + pro0Rd4 >= 0 
p1Rd5 - p25Rd4 + pro0Rd4 >= 0 
p25Rd4 + p33Rd4 + p1Rd5 + pro0Rd4 <= 3 
p25Rd4 + p33Rd4 + p1Rd5 - pro0Rd4 >= 0 
p24Rd4 + p32Rd4 + p0Rd5 + pro0Rd4 - p33Rd4 >= 0 
p33Rd4 + p24Rd4 - p32Rd4 + p0Rd5 + pro0Rd4 >= 0 
p33Rd4 - p24Rd4 + p32Rd4 + p0Rd5 + pro0Rd4 >= 0 
p25Rd4 + p24Rd4 + p32Rd4 - p0Rd5 + pro0Rd4 >= 0 
p1Rd5 - p24Rd4 - p32Rd4 - p0Rd5 + pro0Rd4 >= -2 
p24Rd4 - p33Rd4 - p32Rd4 - p0Rd5 + pro0Rd4 >= -2 
p32Rd4 - p33Rd4 - p24Rd4 - p0Rd5 + pro0Rd4 >= -2 
p0Rd5 - p33Rd4 - p24Rd4 - p32Rd4 + pro0Rd4 >= -2 
p34Rd4 - p2Rd5 + pro1Rd4 >= 0 
p26Rd4 - p34Rd4 + pro1Rd4 >= 0 
p2Rd5 - p26Rd4 + pro1Rd4 >= 0 
p26Rd4 + p34Rd4 + p2Rd5 + pro1Rd4 <= 3 
p26Rd4 + p34Rd4 + p2Rd5 - pro1Rd4 >= 0 
p25Rd4 + p33Rd4 + p1Rd5 + pro1Rd4 - p34Rd4 >= 0 
p34Rd4 + p25Rd4 - p33Rd4 + p1Rd5 + pro1Rd4 >= 0 
p34Rd4 - p25Rd4 + p33Rd4 + p1Rd5 + pro1Rd4 >= 0 
p26Rd4 + p25Rd4 + p33Rd4 - p1Rd5 + pro1Rd4 >= 0 
p2Rd5 - p25Rd4 - p33Rd4 - p1Rd5 + pro1Rd4 >= -2 
p25Rd4 - p34Rd4 - p33Rd4 - p1Rd5 + pro1Rd4 >= -2 
p33Rd4 - p34Rd4 - p25Rd4 - p1Rd5 + pro1Rd4 >= -2 
p1Rd5 - p34Rd4 - p25Rd4 - p33Rd4 + pro1Rd4 >= -2 
p35Rd4 - p3Rd5 + pro2Rd4 >= 0 
p27Rd4 - p35Rd4 + pro2Rd4 >= 0 
p3Rd5 - p27Rd4 + pro2Rd4 >= 0 
p27Rd4 + p35Rd4 + p3Rd5 + pro2Rd4 <= 3 
p27Rd4 + p35Rd4 + p3Rd5 - pro2Rd4 >= 0 
p26Rd4 + p34Rd4 + p2Rd5 + pro2Rd4 - p35Rd4 >= 0 
p35Rd4 + p26Rd4 - p34Rd4 + p2Rd5 + pro2Rd4 >= 0 
p35Rd4 - p26Rd4 + p34Rd4 + p2Rd5 + pro2Rd4 >= 0 
p27Rd4 + p26Rd4 + p34Rd4 - p2Rd5 + pro2Rd4 >= 0 
p3Rd5 - p26Rd4 - p34Rd4 - p2Rd5 + pro2Rd4 >= -2 
p26Rd4 - p35Rd4 - p34Rd4 - p2Rd5 + pro2Rd4 >= -2 
p34Rd4 - p35Rd4 - p26Rd4 - p2Rd5 + pro2Rd4 >= -2 
p2Rd5 - p35Rd4 - p26Rd4 - p34Rd4 + pro2Rd4 >= -2 
p36Rd4 - p4Rd5 + pro3Rd4 >= 0 
p28Rd4 - p36Rd4 + pro3Rd4 >= 0 
p4Rd5 - p28Rd4 + pro3Rd4 >= 0 
p28Rd4 + p36Rd4 + p4Rd5 + pro3Rd4 <= 3 
p28Rd4 + p36Rd4 + p4Rd5 - pro3Rd4 >= 0 
p27Rd4 + p35Rd4 + p3Rd5 + pro3Rd4 - p36Rd4 >= 0 
p36Rd4 + p27Rd4 - p35Rd4 + p3Rd5 + pro3Rd4 >= 0 
p36Rd4 - p27Rd4 + p35Rd4 + p3Rd5 + pro3Rd4 >= 0 
p28Rd4 + p27Rd4 + p35Rd4 - p3Rd5 + pro3Rd4 >= 0 
p4Rd5 - p27Rd4 - p35Rd4 - p3Rd5 + pro3Rd4 >= -2 
p27Rd4 - p36Rd4 - p35Rd4 - p3Rd5 + pro3Rd4 >= -2 
p35Rd4 - p36Rd4 - p27Rd4 - p3Rd5 + pro3Rd4 >= -2 
p3Rd5 - p36Rd4 - p27Rd4 - p35Rd4 + pro3Rd4 >= -2 
p37Rd4 - p5Rd5 + pro4Rd4 >= 0 
p29Rd4 - p37Rd4 + pro4Rd4 >= 0 
p5Rd5 - p29Rd4 + pro4Rd4 >= 0 
p29Rd4 + p37Rd4 + p5Rd5 + pro4Rd4 <= 3 
p29Rd4 + p37Rd4 + p5Rd5 - pro4Rd4 >= 0 
p28Rd4 + p36Rd4 + p4Rd5 + pro4Rd4 - p37Rd4 >= 0 
p37Rd4 + p28Rd4 - p36Rd4 + p4Rd5 + pro4Rd4 >= 0 
p37Rd4 - p28Rd4 + p36Rd4 + p4Rd5 + pro4Rd4 >= 0 
p29Rd4 + p28Rd4 + p36Rd4 - p4Rd5 + pro4Rd4 >= 0 
p5Rd5 - p28Rd4 - p36Rd4 - p4Rd5 + pro4Rd4 >= -2 
p28Rd4 - p37Rd4 - p36Rd4 - p4Rd5 + pro4Rd4 >= -2 
p36Rd4 - p37Rd4 - p28Rd4 - p4Rd5 + pro4Rd4 >= -2 
p4Rd5 - p37Rd4 - p28Rd4 - p36Rd4 + pro4Rd4 >= -2 
p38Rd4 - p6Rd5 + pro5Rd4 >= 0 
p30Rd4 - p38Rd4 + pro5Rd4 >= 0 
p6Rd5 - p30Rd4 + pro5Rd4 >= 0 
p30Rd4 + p38Rd4 + p6Rd5 + pro5Rd4 <= 3 
p30Rd4 + p38Rd4 + p6Rd5 - pro5Rd4 >= 0 
p29Rd4 + p37Rd4 + p5Rd5 + pro5Rd4 - p38Rd4 >= 0 
p38Rd4 + p29Rd4 - p37Rd4 + p5Rd5 + pro5Rd4 >= 0 
p38Rd4 - p29Rd4 + p37Rd4 + p5Rd5 + pro5Rd4 >= 0 
p30Rd4 + p29Rd4 + p37Rd4 - p5Rd5 + pro5Rd4 >= 0 
p6Rd5 - p29Rd4 - p37Rd4 - p5Rd5 + pro5Rd4 >= -2 
p29Rd4 - p38Rd4 - p37Rd4 - p5Rd5 + pro5Rd4 >= -2 
p37Rd4 - p38Rd4 - p29Rd4 - p5Rd5 + pro5Rd4 >= -2 
p5Rd5 - p38Rd4 - p29Rd4 - p37Rd4 + pro5Rd4 >= -2 
p39Rd4 - p7Rd5 + pro6Rd4 >= 0 
p31Rd4 - p39Rd4 + pro6Rd4 >= 0 
p7Rd5 - p31Rd4 + pro6Rd4 >= 0 
p31Rd4 + p39Rd4 + p7Rd5 + pro6Rd4 <= 3 
p31Rd4 + p39Rd4 + p7Rd5 - pro6Rd4 >= 0 
p30Rd4 + p38Rd4 + p6Rd5 + pro6Rd4 - p39Rd4 >= 0 
p39Rd4 + p30Rd4 - p38Rd4 + p6Rd5 + pro6Rd4 >= 0 
p39Rd4 - p30Rd4 + p38Rd4 + p6Rd5 + pro6Rd4 >= 0 
p31Rd4 + p30Rd4 + p38Rd4 - p6Rd5 + pro6Rd4 >= 0 
p7Rd5 - p30Rd4 - p38Rd4 - p6Rd5 + pro6Rd4 >= -2 
p30Rd4 - p39Rd4 - p38Rd4 - p6Rd5 + pro6Rd4 >= -2 
p38Rd4 - p39Rd4 - p30Rd4 - p6Rd5 + pro6Rd4 >= -2 
p6Rd5 - p39Rd4 - p30Rd4 - p38Rd4 + pro6Rd4 >= -2 
p40Rd4 - p8Rd5 + pro7Rd4 >= 0 
p0Rd4 - p40Rd4 + pro7Rd4 >= 0 
p8Rd5 - p0Rd4 + pro7Rd4 >= 0 
p0Rd4 + p40Rd4 + p8Rd5 + pro7Rd4 <= 3 
p0Rd4 + p40Rd4 + p8Rd5 - pro7Rd4 >= 0 
p31Rd4 + p39Rd4 + p7Rd5 + pro7Rd4 - p40Rd4 >= 0 
p40Rd4 + p31Rd4 - p39Rd4 + p7Rd5 + pro7Rd4 >= 0 
p40Rd4 - p31Rd4 + p39Rd4 + p7Rd5 + pro7Rd4 >= 0 
p0Rd4 + p31Rd4 + p39Rd4 - p7Rd5 + pro7Rd4 >= 0 
p8Rd5 - p31Rd4 - p39Rd4 - p7Rd5 + pro7Rd4 >= -2 
p31Rd4 - p40Rd4 - p39Rd4 - p7Rd5 + pro7Rd4 >= -2 
p39Rd4 - p40Rd4 - p31Rd4 - p7Rd5 + pro7Rd4 >= -2 
p7Rd5 - p40Rd4 - p31Rd4 - p39Rd4 + pro7Rd4 >= -2 
p41Rd4 - p9Rd5 + pro8Rd4 >= 0 
p1Rd4 - p41Rd4 + pro8Rd4 >= 0 
p9Rd5 - p1Rd4 + pro8Rd4 >= 0 
p1Rd4 + p41Rd4 + p9Rd5 + pro8Rd4 <= 3 
p1Rd4 + p41Rd4 + p9Rd5 - pro8Rd4 >= 0 
p0Rd4 + p40Rd4 + p8Rd5 + pro8Rd4 - p41Rd4 >= 0 
p41Rd4 + p0Rd4 - p40Rd4 + p8Rd5 + pro8Rd4 >= 0 
p41Rd4 - p0Rd4 + p40Rd4 + p8Rd5 + pro8Rd4 >= 0 
p1Rd4 + p0Rd4 + p40Rd4 - p8Rd5 + pro8Rd4 >= 0 
p9Rd5 - p0Rd4 - p40Rd4 - p8Rd5 + pro8Rd4 >= -2 
p0Rd4 - p41Rd4 - p40Rd4 - p8Rd5 + pro8Rd4 >= -2 
p40Rd4 - p41Rd4 - p0Rd4 - p8Rd5 + pro8Rd4 >= -2 
p8Rd5 - p41Rd4 - p0Rd4 - p40Rd4 + pro8Rd4 >= -2 
p42Rd4 - p10Rd5 + pro9Rd4 >= 0 
p2Rd4 - p42Rd4 + pro9Rd4 >= 0 
p10Rd5 - p2Rd4 + pro9Rd4 >= 0 
p2Rd4 + p42Rd4 + p10Rd5 + pro9Rd4 <= 3 
p2Rd4 + p42Rd4 + p10Rd5 - pro9Rd4 >= 0 
p1Rd4 + p41Rd4 + p9Rd5 + pro9Rd4 - p42Rd4 >= 0 
p42Rd4 + p1Rd4 - p41Rd4 + p9Rd5 + pro9Rd4 >= 0 
p42Rd4 - p1Rd4 + p41Rd4 + p9Rd5 + pro9Rd4 >= 0 
p2Rd4 + p1Rd4 + p41Rd4 - p9Rd5 + pro9Rd4 >= 0 
p10Rd5 - p1Rd4 - p41Rd4 - p9Rd5 + pro9Rd4 >= -2 
p1Rd4 - p42Rd4 - p41Rd4 - p9Rd5 + pro9Rd4 >= -2 
p41Rd4 - p42Rd4 - p1Rd4 - p9Rd5 + pro9Rd4 >= -2 
p9Rd5 - p42Rd4 - p1Rd4 - p41Rd4 + pro9Rd4 >= -2 
p43Rd4 - p11Rd5 + pro10Rd4 >= 0 
p3Rd4 - p43Rd4 + pro10Rd4 >= 0 
p11Rd5 - p3Rd4 + pro10Rd4 >= 0 
p3Rd4 + p43Rd4 + p11Rd5 + pro10Rd4 <= 3 
p3Rd4 + p43Rd4 + p11Rd5 - pro10Rd4 >= 0 
p2Rd4 + p42Rd4 + p10Rd5 + pro10Rd4 - p43Rd4 >= 0 
p43Rd4 + p2Rd4 - p42Rd4 + p10Rd5 + pro10Rd4 >= 0 
p43Rd4 - p2Rd4 + p42Rd4 + p10Rd5 + pro10Rd4 >= 0 
p3Rd4 + p2Rd4 + p42Rd4 - p10Rd5 + pro10Rd4 >= 0 
p11Rd5 - p2Rd4 - p42Rd4 - p10Rd5 + pro10Rd4 >= -2 
p2Rd4 - p43Rd4 - p42Rd4 - p10Rd5 + pro10Rd4 >= -2 
p42Rd4 - p43Rd4 - p2Rd4 - p10Rd5 + pro10Rd4 >= -2 
p10Rd5 - p43Rd4 - p2Rd4 - p42Rd4 + pro10Rd4 >= -2 
p44Rd4 - p12Rd5 + pro11Rd4 >= 0 
p4Rd4 - p44Rd4 + pro11Rd4 >= 0 
p12Rd5 - p4Rd4 + pro11Rd4 >= 0 
p4Rd4 + p44Rd4 + p12Rd5 + pro11Rd4 <= 3 
p4Rd4 + p44Rd4 + p12Rd5 - pro11Rd4 >= 0 
p3Rd4 + p43Rd4 + p11Rd5 + pro11Rd4 - p44Rd4 >= 0 
p44Rd4 + p3Rd4 - p43Rd4 + p11Rd5 + pro11Rd4 >= 0 
p44Rd4 - p3Rd4 + p43Rd4 + p11Rd5 + pro11Rd4 >= 0 
p4Rd4 + p3Rd4 + p43Rd4 - p11Rd5 + pro11Rd4 >= 0 
p12Rd5 - p3Rd4 - p43Rd4 - p11Rd5 + pro11Rd4 >= -2 
p3Rd4 - p44Rd4 - p43Rd4 - p11Rd5 + pro11Rd4 >= -2 
p43Rd4 - p44Rd4 - p3Rd4 - p11Rd5 + pro11Rd4 >= -2 
p11Rd5 - p44Rd4 - p3Rd4 - p43Rd4 + pro11Rd4 >= -2 
p45Rd4 - p13Rd5 + pro12Rd4 >= 0 
p5Rd4 - p45Rd4 + pro12Rd4 >= 0 
p13Rd5 - p5Rd4 + pro12Rd4 >= 0 
p5Rd4 + p45Rd4 + p13Rd5 + pro12Rd4 <= 3 
p5Rd4 + p45Rd4 + p13Rd5 - pro12Rd4 >= 0 
p4Rd4 + p44Rd4 + p12Rd5 + pro12Rd4 - p45Rd4 >= 0 
p45Rd4 + p4Rd4 - p44Rd4 + p12Rd5 + pro12Rd4 >= 0 
p45Rd4 - p4Rd4 + p44Rd4 + p12Rd5 + pro12Rd4 >= 0 
p5Rd4 + p4Rd4 + p44Rd4 - p12Rd5 + pro12Rd4 >= 0 
p13Rd5 - p4Rd4 - p44Rd4 - p12Rd5 + pro12Rd4 >= -2 
p4Rd4 - p45Rd4 - p44Rd4 - p12Rd5 + pro12Rd4 >= -2 
p44Rd4 - p45Rd4 - p4Rd4 - p12Rd5 + pro12Rd4 >= -2 
p12Rd5 - p45Rd4 - p4Rd4 - p44Rd4 + pro12Rd4 >= -2 
p46Rd4 - p14Rd5 + pro13Rd4 >= 0 
p6Rd4 - p46Rd4 + pro13Rd4 >= 0 
p14Rd5 - p6Rd4 + pro13Rd4 >= 0 
p6Rd4 + p46Rd4 + p14Rd5 + pro13Rd4 <= 3 
p6Rd4 + p46Rd4 + p14Rd5 - pro13Rd4 >= 0 
p5Rd4 + p45Rd4 + p13Rd5 + pro13Rd4 - p46Rd4 >= 0 
p46Rd4 + p5Rd4 - p45Rd4 + p13Rd5 + pro13Rd4 >= 0 
p46Rd4 - p5Rd4 + p45Rd4 + p13Rd5 + pro13Rd4 >= 0 
p6Rd4 + p5Rd4 + p45Rd4 - p13Rd5 + pro13Rd4 >= 0 
p14Rd5 - p5Rd4 - p45Rd4 - p13Rd5 + pro13Rd4 >= -2 
p5Rd4 - p46Rd4 - p45Rd4 - p13Rd5 + pro13Rd4 >= -2 
p45Rd4 - p46Rd4 - p5Rd4 - p13Rd5 + pro13Rd4 >= -2 
p13Rd5 - p46Rd4 - p5Rd4 - p45Rd4 + pro13Rd4 >= -2 
p47Rd4 - p15Rd5 + pro14Rd4 >= 0 
p7Rd4 - p47Rd4 + pro14Rd4 >= 0 
p15Rd5 - p7Rd4 + pro14Rd4 >= 0 
p7Rd4 + p47Rd4 + p15Rd5 + pro14Rd4 <= 3 
p7Rd4 + p47Rd4 + p15Rd5 - pro14Rd4 >= 0 
p6Rd4 + p46Rd4 + p14Rd5 + pro14Rd4 - p47Rd4 >= 0 
p47Rd4 + p6Rd4 - p46Rd4 + p14Rd5 + pro14Rd4 >= 0 
p47Rd4 - p6Rd4 + p46Rd4 + p14Rd5 + pro14Rd4 >= 0 
p7Rd4 + p6Rd4 + p46Rd4 - p14Rd5 + pro14Rd4 >= 0 
p15Rd5 - p6Rd4 - p46Rd4 - p14Rd5 + pro14Rd4 >= -2 
p6Rd4 - p47Rd4 - p46Rd4 - p14Rd5 + pro14Rd4 >= -2 
p46Rd4 - p47Rd4 - p6Rd4 - p14Rd5 + pro14Rd4 >= -2 
p14Rd5 - p47Rd4 - p6Rd4 - p46Rd4 + pro14Rd4 >= -2 
p48Rd4 - p16Rd5 + pro15Rd4 >= 0 
p8Rd4 - p48Rd4 + pro15Rd4 >= 0 
p16Rd5 - p8Rd4 + pro15Rd4 >= 0 
p8Rd4 + p48Rd4 + p16Rd5 + pro15Rd4 <= 3 
p8Rd4 + p48Rd4 + p16Rd5 - pro15Rd4 >= 0 
p7Rd4 + p47Rd4 + p15Rd5 + pro15Rd4 - p48Rd4 >= 0 
p48Rd4 + p7Rd4 - p47Rd4 + p15Rd5 + pro15Rd4 >= 0 
p48Rd4 - p7Rd4 + p47Rd4 + p15Rd5 + pro15Rd4 >= 0 
p8Rd4 + p7Rd4 + p47Rd4 - p15Rd5 + pro15Rd4 >= 0 
p16Rd5 - p7Rd4 - p47Rd4 - p15Rd5 + pro15Rd4 >= -2 
p7Rd4 - p48Rd4 - p47Rd4 - p15Rd5 + pro15Rd4 >= -2 
p47Rd4 - p48Rd4 - p7Rd4 - p15Rd5 + pro15Rd4 >= -2 
p15Rd5 - p48Rd4 - p7Rd4 - p47Rd4 + pro15Rd4 >= -2 
p49Rd4 - p17Rd5 + pro16Rd4 >= 0 
p9Rd4 - p49Rd4 + pro16Rd4 >= 0 
p17Rd5 - p9Rd4 + pro16Rd4 >= 0 
p9Rd4 + p49Rd4 + p17Rd5 + pro16Rd4 <= 3 
p9Rd4 + p49Rd4 + p17Rd5 - pro16Rd4 >= 0 
p8Rd4 + p48Rd4 + p16Rd5 + pro16Rd4 - p49Rd4 >= 0 
p49Rd4 + p8Rd4 - p48Rd4 + p16Rd5 + pro16Rd4 >= 0 
p49Rd4 - p8Rd4 + p48Rd4 + p16Rd5 + pro16Rd4 >= 0 
p9Rd4 + p8Rd4 + p48Rd4 - p16Rd5 + pro16Rd4 >= 0 
p17Rd5 - p8Rd4 - p48Rd4 - p16Rd5 + pro16Rd4 >= -2 
p8Rd4 - p49Rd4 - p48Rd4 - p16Rd5 + pro16Rd4 >= -2 
p48Rd4 - p49Rd4 - p8Rd4 - p16Rd5 + pro16Rd4 >= -2 
p16Rd5 - p49Rd4 - p8Rd4 - p48Rd4 + pro16Rd4 >= -2 
p50Rd4 - p18Rd5 + pro17Rd4 >= 0 
p10Rd4 - p50Rd4 + pro17Rd4 >= 0 
p18Rd5 - p10Rd4 + pro17Rd4 >= 0 
p10Rd4 + p50Rd4 + p18Rd5 + pro17Rd4 <= 3 
p10Rd4 + p50Rd4 + p18Rd5 - pro17Rd4 >= 0 
p9Rd4 + p49Rd4 + p17Rd5 + pro17Rd4 - p50Rd4 >= 0 
p50Rd4 + p9Rd4 - p49Rd4 + p17Rd5 + pro17Rd4 >= 0 
p50Rd4 - p9Rd4 + p49Rd4 + p17Rd5 + pro17Rd4 >= 0 
p10Rd4 + p9Rd4 + p49Rd4 - p17Rd5 + pro17Rd4 >= 0 
p18Rd5 - p9Rd4 - p49Rd4 - p17Rd5 + pro17Rd4 >= -2 
p9Rd4 - p50Rd4 - p49Rd4 - p17Rd5 + pro17Rd4 >= -2 
p49Rd4 - p50Rd4 - p9Rd4 - p17Rd5 + pro17Rd4 >= -2 
p17Rd5 - p50Rd4 - p9Rd4 - p49Rd4 + pro17Rd4 >= -2 
p51Rd4 - p19Rd5 + pro18Rd4 >= 0 
p11Rd4 - p51Rd4 + pro18Rd4 >= 0 
p19Rd5 - p11Rd4 + pro18Rd4 >= 0 
p11Rd4 + p51Rd4 + p19Rd5 + pro18Rd4 <= 3 
p11Rd4 + p51Rd4 + p19Rd5 - pro18Rd4 >= 0 
p10Rd4 + p50Rd4 + p18Rd5 + pro18Rd4 - p51Rd4 >= 0 
p51Rd4 + p10Rd4 - p50Rd4 + p18Rd5 + pro18Rd4 >= 0 
p51Rd4 - p10Rd4 + p50Rd4 + p18Rd5 + pro18Rd4 >= 0 
p11Rd4 + p10Rd4 + p50Rd4 - p18Rd5 + pro18Rd4 >= 0 
p19Rd5 - p10Rd4 - p50Rd4 - p18Rd5 + pro18Rd4 >= -2 
p10Rd4 - p51Rd4 - p50Rd4 - p18Rd5 + pro18Rd4 >= -2 
p50Rd4 - p51Rd4 - p10Rd4 - p18Rd5 + pro18Rd4 >= -2 
p18Rd5 - p51Rd4 - p10Rd4 - p50Rd4 + pro18Rd4 >= -2 
p52Rd4 - p20Rd5 + pro19Rd4 >= 0 
p12Rd4 - p52Rd4 + pro19Rd4 >= 0 
p20Rd5 - p12Rd4 + pro19Rd4 >= 0 
p12Rd4 + p52Rd4 + p20Rd5 + pro19Rd4 <= 3 
p12Rd4 + p52Rd4 + p20Rd5 - pro19Rd4 >= 0 
p11Rd4 + p51Rd4 + p19Rd5 + pro19Rd4 - p52Rd4 >= 0 
p52Rd4 + p11Rd4 - p51Rd4 + p19Rd5 + pro19Rd4 >= 0 
p52Rd4 - p11Rd4 + p51Rd4 + p19Rd5 + pro19Rd4 >= 0 
p12Rd4 + p11Rd4 + p51Rd4 - p19Rd5 + pro19Rd4 >= 0 
p20Rd5 - p11Rd4 - p51Rd4 - p19Rd5 + pro19Rd4 >= -2 
p11Rd4 - p52Rd4 - p51Rd4 - p19Rd5 + pro19Rd4 >= -2 
p51Rd4 - p52Rd4 - p11Rd4 - p19Rd5 + pro19Rd4 >= -2 
p19Rd5 - p52Rd4 - p11Rd4 - p51Rd4 + pro19Rd4 >= -2 
p53Rd4 - p21Rd5 + pro20Rd4 >= 0 
p13Rd4 - p53Rd4 + pro20Rd4 >= 0 
p21Rd5 - p13Rd4 + pro20Rd4 >= 0 
p13Rd4 + p53Rd4 + p21Rd5 + pro20Rd4 <= 3 
p13Rd4 + p53Rd4 + p21Rd5 - pro20Rd4 >= 0 
p12Rd4 + p52Rd4 + p20Rd5 + pro20Rd4 - p53Rd4 >= 0 
p53Rd4 + p12Rd4 - p52Rd4 + p20Rd5 + pro20Rd4 >= 0 
p53Rd4 - p12Rd4 + p52Rd4 + p20Rd5 + pro20Rd4 >= 0 
p13Rd4 + p12Rd4 + p52Rd4 - p20Rd5 + pro20Rd4 >= 0 
p21Rd5 - p12Rd4 - p52Rd4 - p20Rd5 + pro20Rd4 >= -2 
p12Rd4 - p53Rd4 - p52Rd4 - p20Rd5 + pro20Rd4 >= -2 
p52Rd4 - p53Rd4 - p12Rd4 - p20Rd5 + pro20Rd4 >= -2 
p20Rd5 - p53Rd4 - p12Rd4 - p52Rd4 + pro20Rd4 >= -2 
p54Rd4 - p22Rd5 + pro21Rd4 >= 0 
p14Rd4 - p54Rd4 + pro21Rd4 >= 0 
p22Rd5 - p14Rd4 + pro21Rd4 >= 0 
p14Rd4 + p54Rd4 + p22Rd5 + pro21Rd4 <= 3 
p14Rd4 + p54Rd4 + p22Rd5 - pro21Rd4 >= 0 
p13Rd4 + p53Rd4 + p21Rd5 + pro21Rd4 - p54Rd4 >= 0 
p54Rd4 + p13Rd4 - p53Rd4 + p21Rd5 + pro21Rd4 >= 0 
p54Rd4 - p13Rd4 + p53Rd4 + p21Rd5 + pro21Rd4 >= 0 
p14Rd4 + p13Rd4 + p53Rd4 - p21Rd5 + pro21Rd4 >= 0 
p22Rd5 - p13Rd4 - p53Rd4 - p21Rd5 + pro21Rd4 >= -2 
p13Rd4 - p54Rd4 - p53Rd4 - p21Rd5 + pro21Rd4 >= -2 
p53Rd4 - p54Rd4 - p13Rd4 - p21Rd5 + pro21Rd4 >= -2 
p21Rd5 - p54Rd4 - p13Rd4 - p53Rd4 + pro21Rd4 >= -2 
p55Rd4 - p23Rd5 + pro22Rd4 >= 0 
p15Rd4 - p55Rd4 + pro22Rd4 >= 0 
p23Rd5 - p15Rd4 + pro22Rd4 >= 0 
p15Rd4 + p55Rd4 + p23Rd5 + pro22Rd4 <= 3 
p15Rd4 + p55Rd4 + p23Rd5 - pro22Rd4 >= 0 
p14Rd4 + p54Rd4 + p22Rd5 + pro22Rd4 - p55Rd4 >= 0 
p55Rd4 + p14Rd4 - p54Rd4 + p22Rd5 + pro22Rd4 >= 0 
p55Rd4 - p14Rd4 + p54Rd4 + p22Rd5 + pro22Rd4 >= 0 
p15Rd4 + p14Rd4 + p54Rd4 - p22Rd5 + pro22Rd4 >= 0 
p23Rd5 - p14Rd4 - p54Rd4 - p22Rd5 + pro22Rd4 >= -2 
p14Rd4 - p55Rd4 - p54Rd4 - p22Rd5 + pro22Rd4 >= -2 
p54Rd4 - p55Rd4 - p14Rd4 - p22Rd5 + pro22Rd4 >= -2 
p22Rd5 - p55Rd4 - p14Rd4 - p54Rd4 + pro22Rd4 >= -2 
p56Rd4 - p24Rd5 + pro23Rd4 >= 0 
p16Rd4 - p56Rd4 + pro23Rd4 >= 0 
p24Rd5 - p16Rd4 + pro23Rd4 >= 0 
p16Rd4 + p56Rd4 + p24Rd5 + pro23Rd4 <= 3 
p16Rd4 + p56Rd4 + p24Rd5 - pro23Rd4 >= 0 
p15Rd4 + p55Rd4 + p23Rd5 + pro23Rd4 - p56Rd4 >= 0 
p56Rd4 + p15Rd4 - p55Rd4 + p23Rd5 + pro23Rd4 >= 0 
p56Rd4 - p15Rd4 + p55Rd4 + p23Rd5 + pro23Rd4 >= 0 
p16Rd4 + p15Rd4 + p55Rd4 - p23Rd5 + pro23Rd4 >= 0 
p24Rd5 - p15Rd4 - p55Rd4 - p23Rd5 + pro23Rd4 >= -2 
p15Rd4 - p56Rd4 - p55Rd4 - p23Rd5 + pro23Rd4 >= -2 
p55Rd4 - p56Rd4 - p15Rd4 - p23Rd5 + pro23Rd4 >= -2 
p23Rd5 - p56Rd4 - p15Rd4 - p55Rd4 + pro23Rd4 >= -2 
p57Rd4 - p25Rd5 + pro24Rd4 >= 0 
p17Rd4 - p57Rd4 + pro24Rd4 >= 0 
p25Rd5 - p17Rd4 + pro24Rd4 >= 0 
p17Rd4 + p57Rd4 + p25Rd5 + pro24Rd4 <= 3 
p17Rd4 + p57Rd4 + p25Rd5 - pro24Rd4 >= 0 
p16Rd4 + p56Rd4 + p24Rd5 + pro24Rd4 - p57Rd4 >= 0 
p57Rd4 + p16Rd4 - p56Rd4 + p24Rd5 + pro24Rd4 >= 0 
p57Rd4 - p16Rd4 + p56Rd4 + p24Rd5 + pro24Rd4 >= 0 
p17Rd4 + p16Rd4 + p56Rd4 - p24Rd5 + pro24Rd4 >= 0 
p25Rd5 - p16Rd4 - p56Rd4 - p24Rd5 + pro24Rd4 >= -2 
p16Rd4 - p57Rd4 - p56Rd4 - p24Rd5 + pro24Rd4 >= -2 
p56Rd4 - p57Rd4 - p16Rd4 - p24Rd5 + pro24Rd4 >= -2 
p24Rd5 - p57Rd4 - p16Rd4 - p56Rd4 + pro24Rd4 >= -2 
p58Rd4 - p26Rd5 + pro25Rd4 >= 0 
p18Rd4 - p58Rd4 + pro25Rd4 >= 0 
p26Rd5 - p18Rd4 + pro25Rd4 >= 0 
p18Rd4 + p58Rd4 + p26Rd5 + pro25Rd4 <= 3 
p18Rd4 + p58Rd4 + p26Rd5 - pro25Rd4 >= 0 
p17Rd4 + p57Rd4 + p25Rd5 + pro25Rd4 - p58Rd4 >= 0 
p58Rd4 + p17Rd4 - p57Rd4 + p25Rd5 + pro25Rd4 >= 0 
p58Rd4 - p17Rd4 + p57Rd4 + p25Rd5 + pro25Rd4 >= 0 
p18Rd4 + p17Rd4 + p57Rd4 - p25Rd5 + pro25Rd4 >= 0 
p26Rd5 - p17Rd4 - p57Rd4 - p25Rd5 + pro25Rd4 >= -2 
p17Rd4 - p58Rd4 - p57Rd4 - p25Rd5 + pro25Rd4 >= -2 
p57Rd4 - p58Rd4 - p17Rd4 - p25Rd5 + pro25Rd4 >= -2 
p25Rd5 - p58Rd4 - p17Rd4 - p57Rd4 + pro25Rd4 >= -2 
p59Rd4 - p27Rd5 + pro26Rd4 >= 0 
p19Rd4 - p59Rd4 + pro26Rd4 >= 0 
p27Rd5 - p19Rd4 + pro26Rd4 >= 0 
p19Rd4 + p59Rd4 + p27Rd5 + pro26Rd4 <= 3 
p19Rd4 + p59Rd4 + p27Rd5 - pro26Rd4 >= 0 
p18Rd4 + p58Rd4 + p26Rd5 + pro26Rd4 - p59Rd4 >= 0 
p59Rd4 + p18Rd4 - p58Rd4 + p26Rd5 + pro26Rd4 >= 0 
p59Rd4 - p18Rd4 + p58Rd4 + p26Rd5 + pro26Rd4 >= 0 
p19Rd4 + p18Rd4 + p58Rd4 - p26Rd5 + pro26Rd4 >= 0 
p27Rd5 - p18Rd4 - p58Rd4 - p26Rd5 + pro26Rd4 >= -2 
p18Rd4 - p59Rd4 - p58Rd4 - p26Rd5 + pro26Rd4 >= -2 
p58Rd4 - p59Rd4 - p18Rd4 - p26Rd5 + pro26Rd4 >= -2 
p26Rd5 - p59Rd4 - p18Rd4 - p58Rd4 + pro26Rd4 >= -2 
p60Rd4 - p28Rd5 + pro27Rd4 >= 0 
p20Rd4 - p60Rd4 + pro27Rd4 >= 0 
p28Rd5 - p20Rd4 + pro27Rd4 >= 0 
p20Rd4 + p60Rd4 + p28Rd5 + pro27Rd4 <= 3 
p20Rd4 + p60Rd4 + p28Rd5 - pro27Rd4 >= 0 
p19Rd4 + p59Rd4 + p27Rd5 + pro27Rd4 - p60Rd4 >= 0 
p60Rd4 + p19Rd4 - p59Rd4 + p27Rd5 + pro27Rd4 >= 0 
p60Rd4 - p19Rd4 + p59Rd4 + p27Rd5 + pro27Rd4 >= 0 
p20Rd4 + p19Rd4 + p59Rd4 - p27Rd5 + pro27Rd4 >= 0 
p28Rd5 - p19Rd4 - p59Rd4 - p27Rd5 + pro27Rd4 >= -2 
p19Rd4 - p60Rd4 - p59Rd4 - p27Rd5 + pro27Rd4 >= -2 
p59Rd4 - p60Rd4 - p19Rd4 - p27Rd5 + pro27Rd4 >= -2 
p27Rd5 - p60Rd4 - p19Rd4 - p59Rd4 + pro27Rd4 >= -2 
p61Rd4 - p29Rd5 + pro28Rd4 >= 0 
p21Rd4 - p61Rd4 + pro28Rd4 >= 0 
p29Rd5 - p21Rd4 + pro28Rd4 >= 0 
p21Rd4 + p61Rd4 + p29Rd5 + pro28Rd4 <= 3 
p21Rd4 + p61Rd4 + p29Rd5 - pro28Rd4 >= 0 
p20Rd4 + p60Rd4 + p28Rd5 + pro28Rd4 - p61Rd4 >= 0 
p61Rd4 + p20Rd4 - p60Rd4 + p28Rd5 + pro28Rd4 >= 0 
p61Rd4 - p20Rd4 + p60Rd4 + p28Rd5 + pro28Rd4 >= 0 
p21Rd4 + p20Rd4 + p60Rd4 - p28Rd5 + pro28Rd4 >= 0 
p29Rd5 - p20Rd4 - p60Rd4 - p28Rd5 + pro28Rd4 >= -2 
p20Rd4 - p61Rd4 - p60Rd4 - p28Rd5 + pro28Rd4 >= -2 
p60Rd4 - p61Rd4 - p20Rd4 - p28Rd5 + pro28Rd4 >= -2 
p28Rd5 - p61Rd4 - p20Rd4 - p60Rd4 + pro28Rd4 >= -2 
p62Rd4 - p30Rd5 + pro29Rd4 >= 0 
p22Rd4 - p62Rd4 + pro29Rd4 >= 0 
p30Rd5 - p22Rd4 + pro29Rd4 >= 0 
p22Rd4 + p62Rd4 + p30Rd5 + pro29Rd4 <= 3 
p22Rd4 + p62Rd4 + p30Rd5 - pro29Rd4 >= 0 
p21Rd4 + p61Rd4 + p29Rd5 + pro29Rd4 - p62Rd4 >= 0 
p62Rd4 + p21Rd4 - p61Rd4 + p29Rd5 + pro29Rd4 >= 0 
p62Rd4 - p21Rd4 + p61Rd4 + p29Rd5 + pro29Rd4 >= 0 
p22Rd4 + p21Rd4 + p61Rd4 - p29Rd5 + pro29Rd4 >= 0 
p30Rd5 - p21Rd4 - p61Rd4 - p29Rd5 + pro29Rd4 >= -2 
p21Rd4 - p62Rd4 - p61Rd4 - p29Rd5 + pro29Rd4 >= -2 
p61Rd4 - p62Rd4 - p21Rd4 - p29Rd5 + pro29Rd4 >= -2 
p29Rd5 - p62Rd4 - p21Rd4 - p61Rd4 + pro29Rd4 >= -2 
p63Rd4 - p31Rd5 + pro30Rd4 >= 0 
p23Rd4 - p63Rd4 + pro30Rd4 >= 0 
p31Rd5 - p23Rd4 + pro30Rd4 >= 0 
p23Rd4 + p63Rd4 + p31Rd5 + pro30Rd4 <= 3 
p23Rd4 + p63Rd4 + p31Rd5 - pro30Rd4 >= 0 
p22Rd4 + p62Rd4 + p30Rd5 + pro30Rd4 - p63Rd4 >= 0 
p63Rd4 + p22Rd4 - p62Rd4 + p30Rd5 + pro30Rd4 >= 0 
p63Rd4 - p22Rd4 + p62Rd4 + p30Rd5 + pro30Rd4 >= 0 
p23Rd4 + p22Rd4 + p62Rd4 - p30Rd5 + pro30Rd4 >= 0 
p31Rd5 - p22Rd4 - p62Rd4 - p30Rd5 + pro30Rd4 >= -2 
p22Rd4 - p63Rd4 - p62Rd4 - p30Rd5 + pro30Rd4 >= -2 
p62Rd4 - p63Rd4 - p22Rd4 - p30Rd5 + pro30Rd4 >= -2 
p30Rd5 - p63Rd4 - p22Rd4 - p62Rd4 + pro30Rd4 >= -2 
p23Rd4 + p63Rd4 + p31Rd5 <= 2 
p23Rd4 + p63Rd4 + p31Rd5 - 2 temp4 >= 0 
temp4 - p23Rd4 >= 0 
temp4 - p63Rd4 >= 0 
temp4 - p31Rd5 >= 0 
p35Rd5 + p32Rd6 - p0Rd6 >= 0
p35Rd5 - p32Rd6 + p0Rd6 >= 0
- p35Rd5 + p32Rd6 + p0Rd6 >= 0
p35Rd5 + p32Rd6 + p0Rd6 <= 2
p36Rd5 + p33Rd6 - p1Rd6 >= 0
p36Rd5 - p33Rd6 + p1Rd6 >= 0
- p36Rd5 + p33Rd6 + p1Rd6 >= 0
p36Rd5 + p33Rd6 + p1Rd6 <= 2
p37Rd5 + p34Rd6 - p2Rd6 >= 0
p37Rd5 - p34Rd6 + p2Rd6 >= 0
- p37Rd5 + p34Rd6 + p2Rd6 >= 0
p37Rd5 + p34Rd6 + p2Rd6 <= 2
p38Rd5 + p35Rd6 - p3Rd6 >= 0
p38Rd5 - p35Rd6 + p3Rd6 >= 0
- p38Rd5 + p35Rd6 + p3Rd6 >= 0
p38Rd5 + p35Rd6 + p3Rd6 <= 2
p39Rd5 + p36Rd6 - p4Rd6 >= 0
p39Rd5 - p36Rd6 + p4Rd6 >= 0
- p39Rd5 + p36Rd6 + p4Rd6 >= 0
p39Rd5 + p36Rd6 + p4Rd6 <= 2
p40Rd5 + p37Rd6 - p5Rd6 >= 0
p40Rd5 - p37Rd6 + p5Rd6 >= 0
- p40Rd5 + p37Rd6 + p5Rd6 >= 0
p40Rd5 + p37Rd6 + p5Rd6 <= 2
p41Rd5 + p38Rd6 - p6Rd6 >= 0
p41Rd5 - p38Rd6 + p6Rd6 >= 0
- p41Rd5 + p38Rd6 + p6Rd6 >= 0
p41Rd5 + p38Rd6 + p6Rd6 <= 2
p42Rd5 + p39Rd6 - p7Rd6 >= 0
p42Rd5 - p39Rd6 + p7Rd6 >= 0
- p42Rd5 + p39Rd6 + p7Rd6 >= 0
p42Rd5 + p39Rd6 + p7Rd6 <= 2
p43Rd5 + p40Rd6 - p8Rd6 >= 0
p43Rd5 - p40Rd6 + p8Rd6 >= 0
- p43Rd5 + p40Rd6 + p8Rd6 >= 0
p43Rd5 + p40Rd6 + p8Rd6 <= 2
p44Rd5 + p41Rd6 - p9Rd6 >= 0
p44Rd5 - p41Rd6 + p9Rd6 >= 0
- p44Rd5 + p41Rd6 + p9Rd6 >= 0
p44Rd5 + p41Rd6 + p9Rd6 <= 2
p45Rd5 + p42Rd6 - p10Rd6 >= 0
p45Rd5 - p42Rd6 + p10Rd6 >= 0
- p45Rd5 + p42Rd6 + p10Rd6 >= 0
p45Rd5 + p42Rd6 + p10Rd6 <= 2
p46Rd5 + p43Rd6 - p11Rd6 >= 0
p46Rd5 - p43Rd6 + p11Rd6 >= 0
- p46Rd5 + p43Rd6 + p11Rd6 >= 0
p46Rd5 + p43Rd6 + p11Rd6 <= 2
p47Rd5 + p44Rd6 - p12Rd6 >= 0
p47Rd5 - p44Rd6 + p12Rd6 >= 0
- p47Rd5 + p44Rd6 + p12Rd6 >= 0
p47Rd5 + p44Rd6 + p12Rd6 <= 2
p48Rd5 + p45Rd6 - p13Rd6 >= 0
p48Rd5 - p45Rd6 + p13Rd6 >= 0
- p48Rd5 + p45Rd6 + p13Rd6 >= 0
p48Rd5 + p45Rd6 + p13Rd6 <= 2
p49Rd5 + p46Rd6 - p14Rd6 >= 0
p49Rd5 - p46Rd6 + p14Rd6 >= 0
- p49Rd5 + p46Rd6 + p14Rd6 >= 0
p49Rd5 + p46Rd6 + p14Rd6 <= 2
p50Rd5 + p47Rd6 - p15Rd6 >= 0
p50Rd5 - p47Rd6 + p15Rd6 >= 0
- p50Rd5 + p47Rd6 + p15Rd6 >= 0
p50Rd5 + p47Rd6 + p15Rd6 <= 2
p51Rd5 + p48Rd6 - p16Rd6 >= 0
p51Rd5 - p48Rd6 + p16Rd6 >= 0
- p51Rd5 + p48Rd6 + p16Rd6 >= 0
p51Rd5 + p48Rd6 + p16Rd6 <= 2
p52Rd5 + p49Rd6 - p17Rd6 >= 0
p52Rd5 - p49Rd6 + p17Rd6 >= 0
- p52Rd5 + p49Rd6 + p17Rd6 >= 0
p52Rd5 + p49Rd6 + p17Rd6 <= 2
p53Rd5 + p50Rd6 - p18Rd6 >= 0
p53Rd5 - p50Rd6 + p18Rd6 >= 0
- p53Rd5 + p50Rd6 + p18Rd6 >= 0
p53Rd5 + p50Rd6 + p18Rd6 <= 2
p54Rd5 + p51Rd6 - p19Rd6 >= 0
p54Rd5 - p51Rd6 + p19Rd6 >= 0
- p54Rd5 + p51Rd6 + p19Rd6 >= 0
p54Rd5 + p51Rd6 + p19Rd6 <= 2
p55Rd5 + p52Rd6 - p20Rd6 >= 0
p55Rd5 - p52Rd6 + p20Rd6 >= 0
- p55Rd5 + p52Rd6 + p20Rd6 >= 0
p55Rd5 + p52Rd6 + p20Rd6 <= 2
p56Rd5 + p53Rd6 - p21Rd6 >= 0
p56Rd5 - p53Rd6 + p21Rd6 >= 0
- p56Rd5 + p53Rd6 + p21Rd6 >= 0
p56Rd5 + p53Rd6 + p21Rd6 <= 2
p57Rd5 + p54Rd6 - p22Rd6 >= 0
p57Rd5 - p54Rd6 + p22Rd6 >= 0
- p57Rd5 + p54Rd6 + p22Rd6 >= 0
p57Rd5 + p54Rd6 + p22Rd6 <= 2
p58Rd5 + p55Rd6 - p23Rd6 >= 0
p58Rd5 - p55Rd6 + p23Rd6 >= 0
- p58Rd5 + p55Rd6 + p23Rd6 >= 0
p58Rd5 + p55Rd6 + p23Rd6 <= 2
p59Rd5 + p56Rd6 - p24Rd6 >= 0
p59Rd5 - p56Rd6 + p24Rd6 >= 0
- p59Rd5 + p56Rd6 + p24Rd6 >= 0
p59Rd5 + p56Rd6 + p24Rd6 <= 2
p60Rd5 + p57Rd6 - p25Rd6 >= 0
p60Rd5 - p57Rd6 + p25Rd6 >= 0
- p60Rd5 + p57Rd6 + p25Rd6 >= 0
p60Rd5 + p57Rd6 + p25Rd6 <= 2
p61Rd5 + p58Rd6 - p26Rd6 >= 0
p61Rd5 - p58Rd6 + p26Rd6 >= 0
- p61Rd5 + p58Rd6 + p26Rd6 >= 0
p61Rd5 + p58Rd6 + p26Rd6 <= 2
p62Rd5 + p59Rd6 - p27Rd6 >= 0
p62Rd5 - p59Rd6 + p27Rd6 >= 0
- p62Rd5 + p59Rd6 + p27Rd6 >= 0
p62Rd5 + p59Rd6 + p27Rd6 <= 2
p63Rd5 + p60Rd6 - p28Rd6 >= 0
p63Rd5 - p60Rd6 + p28Rd6 >= 0
- p63Rd5 + p60Rd6 + p28Rd6 >= 0
p63Rd5 + p60Rd6 + p28Rd6 <= 2
p32Rd5 + p61Rd6 - p29Rd6 >= 0
p32Rd5 - p61Rd6 + p29Rd6 >= 0
- p32Rd5 + p61Rd6 + p29Rd6 >= 0
p32Rd5 + p61Rd6 + p29Rd6 <= 2
p33Rd5 + p62Rd6 - p30Rd6 >= 0
p33Rd5 - p62Rd6 + p30Rd6 >= 0
- p33Rd5 + p62Rd6 + p30Rd6 >= 0
p33Rd5 + p62Rd6 + p30Rd6 <= 2
p34Rd5 + p63Rd6 - p31Rd6 >= 0
p34Rd5 - p63Rd6 + p31Rd6 >= 0
- p34Rd5 + p63Rd6 + p31Rd6 >= 0
p34Rd5 + p63Rd6 + p31Rd6 <= 2
p33Rd5 - p1Rd6 + pro0Rd5 >= 0 
p25Rd5 - p33Rd5 + pro0Rd5 >= 0 
p1Rd6 - p25Rd5 + pro0Rd5 >= 0 
p25Rd5 + p33Rd5 + p1Rd6 + pro0Rd5 <= 3 
p25Rd5 + p33Rd5 + p1Rd6 - pro0Rd5 >= 0 
p24Rd5 + p32Rd5 + p0Rd6 + pro0Rd5 - p33Rd5 >= 0 
p33Rd5 + p24Rd5 - p32Rd5 + p0Rd6 + pro0Rd5 >= 0 
p33Rd5 - p24Rd5 + p32Rd5 + p0Rd6 + pro0Rd5 >= 0 
p25Rd5 + p24Rd5 + p32Rd5 - p0Rd6 + pro0Rd5 >= 0 
p1Rd6 - p24Rd5 - p32Rd5 - p0Rd6 + pro0Rd5 >= -2 
p24Rd5 - p33Rd5 - p32Rd5 - p0Rd6 + pro0Rd5 >= -2 
p32Rd5 - p33Rd5 - p24Rd5 - p0Rd6 + pro0Rd5 >= -2 
p0Rd6 - p33Rd5 - p24Rd5 - p32Rd5 + pro0Rd5 >= -2 
p34Rd5 - p2Rd6 + pro1Rd5 >= 0 
p26Rd5 - p34Rd5 + pro1Rd5 >= 0 
p2Rd6 - p26Rd5 + pro1Rd5 >= 0 
p26Rd5 + p34Rd5 + p2Rd6 + pro1Rd5 <= 3 
p26Rd5 + p34Rd5 + p2Rd6 - pro1Rd5 >= 0 
p25Rd5 + p33Rd5 + p1Rd6 + pro1Rd5 - p34Rd5 >= 0 
p34Rd5 + p25Rd5 - p33Rd5 + p1Rd6 + pro1Rd5 >= 0 
p34Rd5 - p25Rd5 + p33Rd5 + p1Rd6 + pro1Rd5 >= 0 
p26Rd5 + p25Rd5 + p33Rd5 - p1Rd6 + pro1Rd5 >= 0 
p2Rd6 - p25Rd5 - p33Rd5 - p1Rd6 + pro1Rd5 >= -2 
p25Rd5 - p34Rd5 - p33Rd5 - p1Rd6 + pro1Rd5 >= -2 
p33Rd5 - p34Rd5 - p25Rd5 - p1Rd6 + pro1Rd5 >= -2 
p1Rd6 - p34Rd5 - p25Rd5 - p33Rd5 + pro1Rd5 >= -2 
p35Rd5 - p3Rd6 + pro2Rd5 >= 0 
p27Rd5 - p35Rd5 + pro2Rd5 >= 0 
p3Rd6 - p27Rd5 + pro2Rd5 >= 0 
p27Rd5 + p35Rd5 + p3Rd6 + pro2Rd5 <= 3 
p27Rd5 + p35Rd5 + p3Rd6 - pro2Rd5 >= 0 
p26Rd5 + p34Rd5 + p2Rd6 + pro2Rd5 - p35Rd5 >= 0 
p35Rd5 + p26Rd5 - p34Rd5 + p2Rd6 + pro2Rd5 >= 0 
p35Rd5 - p26Rd5 + p34Rd5 + p2Rd6 + pro2Rd5 >= 0 
p27Rd5 + p26Rd5 + p34Rd5 - p2Rd6 + pro2Rd5 >= 0 
p3Rd6 - p26Rd5 - p34Rd5 - p2Rd6 + pro2Rd5 >= -2 
p26Rd5 - p35Rd5 - p34Rd5 - p2Rd6 + pro2Rd5 >= -2 
p34Rd5 - p35Rd5 - p26Rd5 - p2Rd6 + pro2Rd5 >= -2 
p2Rd6 - p35Rd5 - p26Rd5 - p34Rd5 + pro2Rd5 >= -2 
p36Rd5 - p4Rd6 + pro3Rd5 >= 0 
p28Rd5 - p36Rd5 + pro3Rd5 >= 0 
p4Rd6 - p28Rd5 + pro3Rd5 >= 0 
p28Rd5 + p36Rd5 + p4Rd6 + pro3Rd5 <= 3 
p28Rd5 + p36Rd5 + p4Rd6 - pro3Rd5 >= 0 
p27Rd5 + p35Rd5 + p3Rd6 + pro3Rd5 - p36Rd5 >= 0 
p36Rd5 + p27Rd5 - p35Rd5 + p3Rd6 + pro3Rd5 >= 0 
p36Rd5 - p27Rd5 + p35Rd5 + p3Rd6 + pro3Rd5 >= 0 
p28Rd5 + p27Rd5 + p35Rd5 - p3Rd6 + pro3Rd5 >= 0 
p4Rd6 - p27Rd5 - p35Rd5 - p3Rd6 + pro3Rd5 >= -2 
p27Rd5 - p36Rd5 - p35Rd5 - p3Rd6 + pro3Rd5 >= -2 
p35Rd5 - p36Rd5 - p27Rd5 - p3Rd6 + pro3Rd5 >= -2 
p3Rd6 - p36Rd5 - p27Rd5 - p35Rd5 + pro3Rd5 >= -2 
p37Rd5 - p5Rd6 + pro4Rd5 >= 0 
p29Rd5 - p37Rd5 + pro4Rd5 >= 0 
p5Rd6 - p29Rd5 + pro4Rd5 >= 0 
p29Rd5 + p37Rd5 + p5Rd6 + pro4Rd5 <= 3 
p29Rd5 + p37Rd5 + p5Rd6 - pro4Rd5 >= 0 
p28Rd5 + p36Rd5 + p4Rd6 + pro4Rd5 - p37Rd5 >= 0 
p37Rd5 + p28Rd5 - p36Rd5 + p4Rd6 + pro4Rd5 >= 0 
p37Rd5 - p28Rd5 + p36Rd5 + p4Rd6 + pro4Rd5 >= 0 
p29Rd5 + p28Rd5 + p36Rd5 - p4Rd6 + pro4Rd5 >= 0 
p5Rd6 - p28Rd5 - p36Rd5 - p4Rd6 + pro4Rd5 >= -2 
p28Rd5 - p37Rd5 - p36Rd5 - p4Rd6 + pro4Rd5 >= -2 
p36Rd5 - p37Rd5 - p28Rd5 - p4Rd6 + pro4Rd5 >= -2 
p4Rd6 - p37Rd5 - p28Rd5 - p36Rd5 + pro4Rd5 >= -2 
p38Rd5 - p6Rd6 + pro5Rd5 >= 0 
p30Rd5 - p38Rd5 + pro5Rd5 >= 0 
p6Rd6 - p30Rd5 + pro5Rd5 >= 0 
p30Rd5 + p38Rd5 + p6Rd6 + pro5Rd5 <= 3 
p30Rd5 + p38Rd5 + p6Rd6 - pro5Rd5 >= 0 
p29Rd5 + p37Rd5 + p5Rd6 + pro5Rd5 - p38Rd5 >= 0 
p38Rd5 + p29Rd5 - p37Rd5 + p5Rd6 + pro5Rd5 >= 0 
p38Rd5 - p29Rd5 + p37Rd5 + p5Rd6 + pro5Rd5 >= 0 
p30Rd5 + p29Rd5 + p37Rd5 - p5Rd6 + pro5Rd5 >= 0 
p6Rd6 - p29Rd5 - p37Rd5 - p5Rd6 + pro5Rd5 >= -2 
p29Rd5 - p38Rd5 - p37Rd5 - p5Rd6 + pro5Rd5 >= -2 
p37Rd5 - p38Rd5 - p29Rd5 - p5Rd6 + pro5Rd5 >= -2 
p5Rd6 - p38Rd5 - p29Rd5 - p37Rd5 + pro5Rd5 >= -2 
p39Rd5 - p7Rd6 + pro6Rd5 >= 0 
p31Rd5 - p39Rd5 + pro6Rd5 >= 0 
p7Rd6 - p31Rd5 + pro6Rd5 >= 0 
p31Rd5 + p39Rd5 + p7Rd6 + pro6Rd5 <= 3 
p31Rd5 + p39Rd5 + p7Rd6 - pro6Rd5 >= 0 
p30Rd5 + p38Rd5 + p6Rd6 + pro6Rd5 - p39Rd5 >= 0 
p39Rd5 + p30Rd5 - p38Rd5 + p6Rd6 + pro6Rd5 >= 0 
p39Rd5 - p30Rd5 + p38Rd5 + p6Rd6 + pro6Rd5 >= 0 
p31Rd5 + p30Rd5 + p38Rd5 - p6Rd6 + pro6Rd5 >= 0 
p7Rd6 - p30Rd5 - p38Rd5 - p6Rd6 + pro6Rd5 >= -2 
p30Rd5 - p39Rd5 - p38Rd5 - p6Rd6 + pro6Rd5 >= -2 
p38Rd5 - p39Rd5 - p30Rd5 - p6Rd6 + pro6Rd5 >= -2 
p6Rd6 - p39Rd5 - p30Rd5 - p38Rd5 + pro6Rd5 >= -2 
p40Rd5 - p8Rd6 + pro7Rd5 >= 0 
p0Rd5 - p40Rd5 + pro7Rd5 >= 0 
p8Rd6 - p0Rd5 + pro7Rd5 >= 0 
p0Rd5 + p40Rd5 + p8Rd6 + pro7Rd5 <= 3 
p0Rd5 + p40Rd5 + p8Rd6 - pro7Rd5 >= 0 
p31Rd5 + p39Rd5 + p7Rd6 + pro7Rd5 - p40Rd5 >= 0 
p40Rd5 + p31Rd5 - p39Rd5 + p7Rd6 + pro7Rd5 >= 0 
p40Rd5 - p31Rd5 + p39Rd5 + p7Rd6 + pro7Rd5 >= 0 
p0Rd5 + p31Rd5 + p39Rd5 - p7Rd6 + pro7Rd5 >= 0 
p8Rd6 - p31Rd5 - p39Rd5 - p7Rd6 + pro7Rd5 >= -2 
p31Rd5 - p40Rd5 - p39Rd5 - p7Rd6 + pro7Rd5 >= -2 
p39Rd5 - p40Rd5 - p31Rd5 - p7Rd6 + pro7Rd5 >= -2 
p7Rd6 - p40Rd5 - p31Rd5 - p39Rd5 + pro7Rd5 >= -2 
p41Rd5 - p9Rd6 + pro8Rd5 >= 0 
p1Rd5 - p41Rd5 + pro8Rd5 >= 0 
p9Rd6 - p1Rd5 + pro8Rd5 >= 0 
p1Rd5 + p41Rd5 + p9Rd6 + pro8Rd5 <= 3 
p1Rd5 + p41Rd5 + p9Rd6 - pro8Rd5 >= 0 
p0Rd5 + p40Rd5 + p8Rd6 + pro8Rd5 - p41Rd5 >= 0 
p41Rd5 + p0Rd5 - p40Rd5 + p8Rd6 + pro8Rd5 >= 0 
p41Rd5 - p0Rd5 + p40Rd5 + p8Rd6 + pro8Rd5 >= 0 
p1Rd5 + p0Rd5 + p40Rd5 - p8Rd6 + pro8Rd5 >= 0 
p9Rd6 - p0Rd5 - p40Rd5 - p8Rd6 + pro8Rd5 >= -2 
p0Rd5 - p41Rd5 - p40Rd5 - p8Rd6 + pro8Rd5 >= -2 
p40Rd5 - p41Rd5 - p0Rd5 - p8Rd6 + pro8Rd5 >= -2 
p8Rd6 - p41Rd5 - p0Rd5 - p40Rd5 + pro8Rd5 >= -2 
p42Rd5 - p10Rd6 + pro9Rd5 >= 0 
p2Rd5 - p42Rd5 + pro9Rd5 >= 0 
p10Rd6 - p2Rd5 + pro9Rd5 >= 0 
p2Rd5 + p42Rd5 + p10Rd6 + pro9Rd5 <= 3 
p2Rd5 + p42Rd5 + p10Rd6 - pro9Rd5 >= 0 
p1Rd5 + p41Rd5 + p9Rd6 + pro9Rd5 - p42Rd5 >= 0 
p42Rd5 + p1Rd5 - p41Rd5 + p9Rd6 + pro9Rd5 >= 0 
p42Rd5 - p1Rd5 + p41Rd5 + p9Rd6 + pro9Rd5 >= 0 
p2Rd5 + p1Rd5 + p41Rd5 - p9Rd6 + pro9Rd5 >= 0 
p10Rd6 - p1Rd5 - p41Rd5 - p9Rd6 + pro9Rd5 >= -2 
p1Rd5 - p42Rd5 - p41Rd5 - p9Rd6 + pro9Rd5 >= -2 
p41Rd5 - p42Rd5 - p1Rd5 - p9Rd6 + pro9Rd5 >= -2 
p9Rd6 - p42Rd5 - p1Rd5 - p41Rd5 + pro9Rd5 >= -2 
p43Rd5 - p11Rd6 + pro10Rd5 >= 0 
p3Rd5 - p43Rd5 + pro10Rd5 >= 0 
p11Rd6 - p3Rd5 + pro10Rd5 >= 0 
p3Rd5 + p43Rd5 + p11Rd6 + pro10Rd5 <= 3 
p3Rd5 + p43Rd5 + p11Rd6 - pro10Rd5 >= 0 
p2Rd5 + p42Rd5 + p10Rd6 + pro10Rd5 - p43Rd5 >= 0 
p43Rd5 + p2Rd5 - p42Rd5 + p10Rd6 + pro10Rd5 >= 0 
p43Rd5 - p2Rd5 + p42Rd5 + p10Rd6 + pro10Rd5 >= 0 
p3Rd5 + p2Rd5 + p42Rd5 - p10Rd6 + pro10Rd5 >= 0 
p11Rd6 - p2Rd5 - p42Rd5 - p10Rd6 + pro10Rd5 >= -2 
p2Rd5 - p43Rd5 - p42Rd5 - p10Rd6 + pro10Rd5 >= -2 
p42Rd5 - p43Rd5 - p2Rd5 - p10Rd6 + pro10Rd5 >= -2 
p10Rd6 - p43Rd5 - p2Rd5 - p42Rd5 + pro10Rd5 >= -2 
p44Rd5 - p12Rd6 + pro11Rd5 >= 0 
p4Rd5 - p44Rd5 + pro11Rd5 >= 0 
p12Rd6 - p4Rd5 + pro11Rd5 >= 0 
p4Rd5 + p44Rd5 + p12Rd6 + pro11Rd5 <= 3 
p4Rd5 + p44Rd5 + p12Rd6 - pro11Rd5 >= 0 
p3Rd5 + p43Rd5 + p11Rd6 + pro11Rd5 - p44Rd5 >= 0 
p44Rd5 + p3Rd5 - p43Rd5 + p11Rd6 + pro11Rd5 >= 0 
p44Rd5 - p3Rd5 + p43Rd5 + p11Rd6 + pro11Rd5 >= 0 
p4Rd5 + p3Rd5 + p43Rd5 - p11Rd6 + pro11Rd5 >= 0 
p12Rd6 - p3Rd5 - p43Rd5 - p11Rd6 + pro11Rd5 >= -2 
p3Rd5 - p44Rd5 - p43Rd5 - p11Rd6 + pro11Rd5 >= -2 
p43Rd5 - p44Rd5 - p3Rd5 - p11Rd6 + pro11Rd5 >= -2 
p11Rd6 - p44Rd5 - p3Rd5 - p43Rd5 + pro11Rd5 >= -2 
p45Rd5 - p13Rd6 + pro12Rd5 >= 0 
p5Rd5 - p45Rd5 + pro12Rd5 >= 0 
p13Rd6 - p5Rd5 + pro12Rd5 >= 0 
p5Rd5 + p45Rd5 + p13Rd6 + pro12Rd5 <= 3 
p5Rd5 + p45Rd5 + p13Rd6 - pro12Rd5 >= 0 
p4Rd5 + p44Rd5 + p12Rd6 + pro12Rd5 - p45Rd5 >= 0 
p45Rd5 + p4Rd5 - p44Rd5 + p12Rd6 + pro12Rd5 >= 0 
p45Rd5 - p4Rd5 + p44Rd5 + p12Rd6 + pro12Rd5 >= 0 
p5Rd5 + p4Rd5 + p44Rd5 - p12Rd6 + pro12Rd5 >= 0 
p13Rd6 - p4Rd5 - p44Rd5 - p12Rd6 + pro12Rd5 >= -2 
p4Rd5 - p45Rd5 - p44Rd5 - p12Rd6 + pro12Rd5 >= -2 
p44Rd5 - p45Rd5 - p4Rd5 - p12Rd6 + pro12Rd5 >= -2 
p12Rd6 - p45Rd5 - p4Rd5 - p44Rd5 + pro12Rd5 >= -2 
p46Rd5 - p14Rd6 + pro13Rd5 >= 0 
p6Rd5 - p46Rd5 + pro13Rd5 >= 0 
p14Rd6 - p6Rd5 + pro13Rd5 >= 0 
p6Rd5 + p46Rd5 + p14Rd6 + pro13Rd5 <= 3 
p6Rd5 + p46Rd5 + p14Rd6 - pro13Rd5 >= 0 
p5Rd5 + p45Rd5 + p13Rd6 + pro13Rd5 - p46Rd5 >= 0 
p46Rd5 + p5Rd5 - p45Rd5 + p13Rd6 + pro13Rd5 >= 0 
p46Rd5 - p5Rd5 + p45Rd5 + p13Rd6 + pro13Rd5 >= 0 
p6Rd5 + p5Rd5 + p45Rd5 - p13Rd6 + pro13Rd5 >= 0 
p14Rd6 - p5Rd5 - p45Rd5 - p13Rd6 + pro13Rd5 >= -2 
p5Rd5 - p46Rd5 - p45Rd5 - p13Rd6 + pro13Rd5 >= -2 
p45Rd5 - p46Rd5 - p5Rd5 - p13Rd6 + pro13Rd5 >= -2 
p13Rd6 - p46Rd5 - p5Rd5 - p45Rd5 + pro13Rd5 >= -2 
p47Rd5 - p15Rd6 + pro14Rd5 >= 0 
p7Rd5 - p47Rd5 + pro14Rd5 >= 0 
p15Rd6 - p7Rd5 + pro14Rd5 >= 0 
p7Rd5 + p47Rd5 + p15Rd6 + pro14Rd5 <= 3 
p7Rd5 + p47Rd5 + p15Rd6 - pro14Rd5 >= 0 
p6Rd5 + p46Rd5 + p14Rd6 + pro14Rd5 - p47Rd5 >= 0 
p47Rd5 + p6Rd5 - p46Rd5 + p14Rd6 + pro14Rd5 >= 0 
p47Rd5 - p6Rd5 + p46Rd5 + p14Rd6 + pro14Rd5 >= 0 
p7Rd5 + p6Rd5 + p46Rd5 - p14Rd6 + pro14Rd5 >= 0 
p15Rd6 - p6Rd5 - p46Rd5 - p14Rd6 + pro14Rd5 >= -2 
p6Rd5 - p47Rd5 - p46Rd5 - p14Rd6 + pro14Rd5 >= -2 
p46Rd5 - p47Rd5 - p6Rd5 - p14Rd6 + pro14Rd5 >= -2 
p14Rd6 - p47Rd5 - p6Rd5 - p46Rd5 + pro14Rd5 >= -2 
p48Rd5 - p16Rd6 + pro15Rd5 >= 0 
p8Rd5 - p48Rd5 + pro15Rd5 >= 0 
p16Rd6 - p8Rd5 + pro15Rd5 >= 0 
p8Rd5 + p48Rd5 + p16Rd6 + pro15Rd5 <= 3 
p8Rd5 + p48Rd5 + p16Rd6 - pro15Rd5 >= 0 
p7Rd5 + p47Rd5 + p15Rd6 + pro15Rd5 - p48Rd5 >= 0 
p48Rd5 + p7Rd5 - p47Rd5 + p15Rd6 + pro15Rd5 >= 0 
p48Rd5 - p7Rd5 + p47Rd5 + p15Rd6 + pro15Rd5 >= 0 
p8Rd5 + p7Rd5 + p47Rd5 - p15Rd6 + pro15Rd5 >= 0 
p16Rd6 - p7Rd5 - p47Rd5 - p15Rd6 + pro15Rd5 >= -2 
p7Rd5 - p48Rd5 - p47Rd5 - p15Rd6 + pro15Rd5 >= -2 
p47Rd5 - p48Rd5 - p7Rd5 - p15Rd6 + pro15Rd5 >= -2 
p15Rd6 - p48Rd5 - p7Rd5 - p47Rd5 + pro15Rd5 >= -2 
p49Rd5 - p17Rd6 + pro16Rd5 >= 0 
p9Rd5 - p49Rd5 + pro16Rd5 >= 0 
p17Rd6 - p9Rd5 + pro16Rd5 >= 0 
p9Rd5 + p49Rd5 + p17Rd6 + pro16Rd5 <= 3 
p9Rd5 + p49Rd5 + p17Rd6 - pro16Rd5 >= 0 
p8Rd5 + p48Rd5 + p16Rd6 + pro16Rd5 - p49Rd5 >= 0 
p49Rd5 + p8Rd5 - p48Rd5 + p16Rd6 + pro16Rd5 >= 0 
p49Rd5 - p8Rd5 + p48Rd5 + p16Rd6 + pro16Rd5 >= 0 
p9Rd5 + p8Rd5 + p48Rd5 - p16Rd6 + pro16Rd5 >= 0 
p17Rd6 - p8Rd5 - p48Rd5 - p16Rd6 + pro16Rd5 >= -2 
p8Rd5 - p49Rd5 - p48Rd5 - p16Rd6 + pro16Rd5 >= -2 
p48Rd5 - p49Rd5 - p8Rd5 - p16Rd6 + pro16Rd5 >= -2 
p16Rd6 - p49Rd5 - p8Rd5 - p48Rd5 + pro16Rd5 >= -2 
p50Rd5 - p18Rd6 + pro17Rd5 >= 0 
p10Rd5 - p50Rd5 + pro17Rd5 >= 0 
p18Rd6 - p10Rd5 + pro17Rd5 >= 0 
p10Rd5 + p50Rd5 + p18Rd6 + pro17Rd5 <= 3 
p10Rd5 + p50Rd5 + p18Rd6 - pro17Rd5 >= 0 
p9Rd5 + p49Rd5 + p17Rd6 + pro17Rd5 - p50Rd5 >= 0 
p50Rd5 + p9Rd5 - p49Rd5 + p17Rd6 + pro17Rd5 >= 0 
p50Rd5 - p9Rd5 + p49Rd5 + p17Rd6 + pro17Rd5 >= 0 
p10Rd5 + p9Rd5 + p49Rd5 - p17Rd6 + pro17Rd5 >= 0 
p18Rd6 - p9Rd5 - p49Rd5 - p17Rd6 + pro17Rd5 >= -2 
p9Rd5 - p50Rd5 - p49Rd5 - p17Rd6 + pro17Rd5 >= -2 
p49Rd5 - p50Rd5 - p9Rd5 - p17Rd6 + pro17Rd5 >= -2 
p17Rd6 - p50Rd5 - p9Rd5 - p49Rd5 + pro17Rd5 >= -2 
p51Rd5 - p19Rd6 + pro18Rd5 >= 0 
p11Rd5 - p51Rd5 + pro18Rd5 >= 0 
p19Rd6 - p11Rd5 + pro18Rd5 >= 0 
p11Rd5 + p51Rd5 + p19Rd6 + pro18Rd5 <= 3 
p11Rd5 + p51Rd5 + p19Rd6 - pro18Rd5 >= 0 
p10Rd5 + p50Rd5 + p18Rd6 + pro18Rd5 - p51Rd5 >= 0 
p51Rd5 + p10Rd5 - p50Rd5 + p18Rd6 + pro18Rd5 >= 0 
p51Rd5 - p10Rd5 + p50Rd5 + p18Rd6 + pro18Rd5 >= 0 
p11Rd5 + p10Rd5 + p50Rd5 - p18Rd6 + pro18Rd5 >= 0 
p19Rd6 - p10Rd5 - p50Rd5 - p18Rd6 + pro18Rd5 >= -2 
p10Rd5 - p51Rd5 - p50Rd5 - p18Rd6 + pro18Rd5 >= -2 
p50Rd5 - p51Rd5 - p10Rd5 - p18Rd6 + pro18Rd5 >= -2 
p18Rd6 - p51Rd5 - p10Rd5 - p50Rd5 + pro18Rd5 >= -2 
p52Rd5 - p20Rd6 + pro19Rd5 >= 0 
p12Rd5 - p52Rd5 + pro19Rd5 >= 0 
p20Rd6 - p12Rd5 + pro19Rd5 >= 0 
p12Rd5 + p52Rd5 + p20Rd6 + pro19Rd5 <= 3 
p12Rd5 + p52Rd5 + p20Rd6 - pro19Rd5 >= 0 
p11Rd5 + p51Rd5 + p19Rd6 + pro19Rd5 - p52Rd5 >= 0 
p52Rd5 + p11Rd5 - p51Rd5 + p19Rd6 + pro19Rd5 >= 0 
p52Rd5 - p11Rd5 + p51Rd5 + p19Rd6 + pro19Rd5 >= 0 
p12Rd5 + p11Rd5 + p51Rd5 - p19Rd6 + pro19Rd5 >= 0 
p20Rd6 - p11Rd5 - p51Rd5 - p19Rd6 + pro19Rd5 >= -2 
p11Rd5 - p52Rd5 - p51Rd5 - p19Rd6 + pro19Rd5 >= -2 
p51Rd5 - p52Rd5 - p11Rd5 - p19Rd6 + pro19Rd5 >= -2 
p19Rd6 - p52Rd5 - p11Rd5 - p51Rd5 + pro19Rd5 >= -2 
p53Rd5 - p21Rd6 + pro20Rd5 >= 0 
p13Rd5 - p53Rd5 + pro20Rd5 >= 0 
p21Rd6 - p13Rd5 + pro20Rd5 >= 0 
p13Rd5 + p53Rd5 + p21Rd6 + pro20Rd5 <= 3 
p13Rd5 + p53Rd5 + p21Rd6 - pro20Rd5 >= 0 
p12Rd5 + p52Rd5 + p20Rd6 + pro20Rd5 - p53Rd5 >= 0 
p53Rd5 + p12Rd5 - p52Rd5 + p20Rd6 + pro20Rd5 >= 0 
p53Rd5 - p12Rd5 + p52Rd5 + p20Rd6 + pro20Rd5 >= 0 
p13Rd5 + p12Rd5 + p52Rd5 - p20Rd6 + pro20Rd5 >= 0 
p21Rd6 - p12Rd5 - p52Rd5 - p20Rd6 + pro20Rd5 >= -2 
p12Rd5 - p53Rd5 - p52Rd5 - p20Rd6 + pro20Rd5 >= -2 
p52Rd5 - p53Rd5 - p12Rd5 - p20Rd6 + pro20Rd5 >= -2 
p20Rd6 - p53Rd5 - p12Rd5 - p52Rd5 + pro20Rd5 >= -2 
p54Rd5 - p22Rd6 + pro21Rd5 >= 0 
p14Rd5 - p54Rd5 + pro21Rd5 >= 0 
p22Rd6 - p14Rd5 + pro21Rd5 >= 0 
p14Rd5 + p54Rd5 + p22Rd6 + pro21Rd5 <= 3 
p14Rd5 + p54Rd5 + p22Rd6 - pro21Rd5 >= 0 
p13Rd5 + p53Rd5 + p21Rd6 + pro21Rd5 - p54Rd5 >= 0 
p54Rd5 + p13Rd5 - p53Rd5 + p21Rd6 + pro21Rd5 >= 0 
p54Rd5 - p13Rd5 + p53Rd5 + p21Rd6 + pro21Rd5 >= 0 
p14Rd5 + p13Rd5 + p53Rd5 - p21Rd6 + pro21Rd5 >= 0 
p22Rd6 - p13Rd5 - p53Rd5 - p21Rd6 + pro21Rd5 >= -2 
p13Rd5 - p54Rd5 - p53Rd5 - p21Rd6 + pro21Rd5 >= -2 
p53Rd5 - p54Rd5 - p13Rd5 - p21Rd6 + pro21Rd5 >= -2 
p21Rd6 - p54Rd5 - p13Rd5 - p53Rd5 + pro21Rd5 >= -2 
p55Rd5 - p23Rd6 + pro22Rd5 >= 0 
p15Rd5 - p55Rd5 + pro22Rd5 >= 0 
p23Rd6 - p15Rd5 + pro22Rd5 >= 0 
p15Rd5 + p55Rd5 + p23Rd6 + pro22Rd5 <= 3 
p15Rd5 + p55Rd5 + p23Rd6 - pro22Rd5 >= 0 
p14Rd5 + p54Rd5 + p22Rd6 + pro22Rd5 - p55Rd5 >= 0 
p55Rd5 + p14Rd5 - p54Rd5 + p22Rd6 + pro22Rd5 >= 0 
p55Rd5 - p14Rd5 + p54Rd5 + p22Rd6 + pro22Rd5 >= 0 
p15Rd5 + p14Rd5 + p54Rd5 - p22Rd6 + pro22Rd5 >= 0 
p23Rd6 - p14Rd5 - p54Rd5 - p22Rd6 + pro22Rd5 >= -2 
p14Rd5 - p55Rd5 - p54Rd5 - p22Rd6 + pro22Rd5 >= -2 
p54Rd5 - p55Rd5 - p14Rd5 - p22Rd6 + pro22Rd5 >= -2 
p22Rd6 - p55Rd5 - p14Rd5 - p54Rd5 + pro22Rd5 >= -2 
p56Rd5 - p24Rd6 + pro23Rd5 >= 0 
p16Rd5 - p56Rd5 + pro23Rd5 >= 0 
p24Rd6 - p16Rd5 + pro23Rd5 >= 0 
p16Rd5 + p56Rd5 + p24Rd6 + pro23Rd5 <= 3 
p16Rd5 + p56Rd5 + p24Rd6 - pro23Rd5 >= 0 
p15Rd5 + p55Rd5 + p23Rd6 + pro23Rd5 - p56Rd5 >= 0 
p56Rd5 + p15Rd5 - p55Rd5 + p23Rd6 + pro23Rd5 >= 0 
p56Rd5 - p15Rd5 + p55Rd5 + p23Rd6 + pro23Rd5 >= 0 
p16Rd5 + p15Rd5 + p55Rd5 - p23Rd6 + pro23Rd5 >= 0 
p24Rd6 - p15Rd5 - p55Rd5 - p23Rd6 + pro23Rd5 >= -2 
p15Rd5 - p56Rd5 - p55Rd5 - p23Rd6 + pro23Rd5 >= -2 
p55Rd5 - p56Rd5 - p15Rd5 - p23Rd6 + pro23Rd5 >= -2 
p23Rd6 - p56Rd5 - p15Rd5 - p55Rd5 + pro23Rd5 >= -2 
p57Rd5 - p25Rd6 + pro24Rd5 >= 0 
p17Rd5 - p57Rd5 + pro24Rd5 >= 0 
p25Rd6 - p17Rd5 + pro24Rd5 >= 0 
p17Rd5 + p57Rd5 + p25Rd6 + pro24Rd5 <= 3 
p17Rd5 + p57Rd5 + p25Rd6 - pro24Rd5 >= 0 
p16Rd5 + p56Rd5 + p24Rd6 + pro24Rd5 - p57Rd5 >= 0 
p57Rd5 + p16Rd5 - p56Rd5 + p24Rd6 + pro24Rd5 >= 0 
p57Rd5 - p16Rd5 + p56Rd5 + p24Rd6 + pro24Rd5 >= 0 
p17Rd5 + p16Rd5 + p56Rd5 - p24Rd6 + pro24Rd5 >= 0 
p25Rd6 - p16Rd5 - p56Rd5 - p24Rd6 + pro24Rd5 >= -2 
p16Rd5 - p57Rd5 - p56Rd5 - p24Rd6 + pro24Rd5 >= -2 
p56Rd5 - p57Rd5 - p16Rd5 - p24Rd6 + pro24Rd5 >= -2 
p24Rd6 - p57Rd5 - p16Rd5 - p56Rd5 + pro24Rd5 >= -2 
p58Rd5 - p26Rd6 + pro25Rd5 >= 0 
p18Rd5 - p58Rd5 + pro25Rd5 >= 0 
p26Rd6 - p18Rd5 + pro25Rd5 >= 0 
p18Rd5 + p58Rd5 + p26Rd6 + pro25Rd5 <= 3 
p18Rd5 + p58Rd5 + p26Rd6 - pro25Rd5 >= 0 
p17Rd5 + p57Rd5 + p25Rd6 + pro25Rd5 - p58Rd5 >= 0 
p58Rd5 + p17Rd5 - p57Rd5 + p25Rd6 + pro25Rd5 >= 0 
p58Rd5 - p17Rd5 + p57Rd5 + p25Rd6 + pro25Rd5 >= 0 
p18Rd5 + p17Rd5 + p57Rd5 - p25Rd6 + pro25Rd5 >= 0 
p26Rd6 - p17Rd5 - p57Rd5 - p25Rd6 + pro25Rd5 >= -2 
p17Rd5 - p58Rd5 - p57Rd5 - p25Rd6 + pro25Rd5 >= -2 
p57Rd5 - p58Rd5 - p17Rd5 - p25Rd6 + pro25Rd5 >= -2 
p25Rd6 - p58Rd5 - p17Rd5 - p57Rd5 + pro25Rd5 >= -2 
p59Rd5 - p27Rd6 + pro26Rd5 >= 0 
p19Rd5 - p59Rd5 + pro26Rd5 >= 0 
p27Rd6 - p19Rd5 + pro26Rd5 >= 0 
p19Rd5 + p59Rd5 + p27Rd6 + pro26Rd5 <= 3 
p19Rd5 + p59Rd5 + p27Rd6 - pro26Rd5 >= 0 
p18Rd5 + p58Rd5 + p26Rd6 + pro26Rd5 - p59Rd5 >= 0 
p59Rd5 + p18Rd5 - p58Rd5 + p26Rd6 + pro26Rd5 >= 0 
p59Rd5 - p18Rd5 + p58Rd5 + p26Rd6 + pro26Rd5 >= 0 
p19Rd5 + p18Rd5 + p58Rd5 - p26Rd6 + pro26Rd5 >= 0 
p27Rd6 - p18Rd5 - p58Rd5 - p26Rd6 + pro26Rd5 >= -2 
p18Rd5 - p59Rd5 - p58Rd5 - p26Rd6 + pro26Rd5 >= -2 
p58Rd5 - p59Rd5 - p18Rd5 - p26Rd6 + pro26Rd5 >= -2 
p26Rd6 - p59Rd5 - p18Rd5 - p58Rd5 + pro26Rd5 >= -2 
p60Rd5 - p28Rd6 + pro27Rd5 >= 0 
p20Rd5 - p60Rd5 + pro27Rd5 >= 0 
p28Rd6 - p20Rd5 + pro27Rd5 >= 0 
p20Rd5 + p60Rd5 + p28Rd6 + pro27Rd5 <= 3 
p20Rd5 + p60Rd5 + p28Rd6 - pro27Rd5 >= 0 
p19Rd5 + p59Rd5 + p27Rd6 + pro27Rd5 - p60Rd5 >= 0 
p60Rd5 + p19Rd5 - p59Rd5 + p27Rd6 + pro27Rd5 >= 0 
p60Rd5 - p19Rd5 + p59Rd5 + p27Rd6 + pro27Rd5 >= 0 
p20Rd5 + p19Rd5 + p59Rd5 - p27Rd6 + pro27Rd5 >= 0 
p28Rd6 - p19Rd5 - p59Rd5 - p27Rd6 + pro27Rd5 >= -2 
p19Rd5 - p60Rd5 - p59Rd5 - p27Rd6 + pro27Rd5 >= -2 
p59Rd5 - p60Rd5 - p19Rd5 - p27Rd6 + pro27Rd5 >= -2 
p27Rd6 - p60Rd5 - p19Rd5 - p59Rd5 + pro27Rd5 >= -2 
p61Rd5 - p29Rd6 + pro28Rd5 >= 0 
p21Rd5 - p61Rd5 + pro28Rd5 >= 0 
p29Rd6 - p21Rd5 + pro28Rd5 >= 0 
p21Rd5 + p61Rd5 + p29Rd6 + pro28Rd5 <= 3 
p21Rd5 + p61Rd5 + p29Rd6 - pro28Rd5 >= 0 
p20Rd5 + p60Rd5 + p28Rd6 + pro28Rd5 - p61Rd5 >= 0 
p61Rd5 + p20Rd5 - p60Rd5 + p28Rd6 + pro28Rd5 >= 0 
p61Rd5 - p20Rd5 + p60Rd5 + p28Rd6 + pro28Rd5 >= 0 
p21Rd5 + p20Rd5 + p60Rd5 - p28Rd6 + pro28Rd5 >= 0 
p29Rd6 - p20Rd5 - p60Rd5 - p28Rd6 + pro28Rd5 >= -2 
p20Rd5 - p61Rd5 - p60Rd5 - p28Rd6 + pro28Rd5 >= -2 
p60Rd5 - p61Rd5 - p20Rd5 - p28Rd6 + pro28Rd5 >= -2 
p28Rd6 - p61Rd5 - p20Rd5 - p60Rd5 + pro28Rd5 >= -2 
p62Rd5 - p30Rd6 + pro29Rd5 >= 0 
p22Rd5 - p62Rd5 + pro29Rd5 >= 0 
p30Rd6 - p22Rd5 + pro29Rd5 >= 0 
p22Rd5 + p62Rd5 + p30Rd6 + pro29Rd5 <= 3 
p22Rd5 + p62Rd5 + p30Rd6 - pro29Rd5 >= 0 
p21Rd5 + p61Rd5 + p29Rd6 + pro29Rd5 - p62Rd5 >= 0 
p62Rd5 + p21Rd5 - p61Rd5 + p29Rd6 + pro29Rd5 >= 0 
p62Rd5 - p21Rd5 + p61Rd5 + p29Rd6 + pro29Rd5 >= 0 
p22Rd5 + p21Rd5 + p61Rd5 - p29Rd6 + pro29Rd5 >= 0 
p30Rd6 - p21Rd5 - p61Rd5 - p29Rd6 + pro29Rd5 >= -2 
p21Rd5 - p62Rd5 - p61Rd5 - p29Rd6 + pro29Rd5 >= -2 
p61Rd5 - p62Rd5 - p21Rd5 - p29Rd6 + pro29Rd5 >= -2 
p29Rd6 - p62Rd5 - p21Rd5 - p61Rd5 + pro29Rd5 >= -2 
p63Rd5 - p31Rd6 + pro30Rd5 >= 0 
p23Rd5 - p63Rd5 + pro30Rd5 >= 0 
p31Rd6 - p23Rd5 + pro30Rd5 >= 0 
p23Rd5 + p63Rd5 + p31Rd6 + pro30Rd5 <= 3 
p23Rd5 + p63Rd5 + p31Rd6 - pro30Rd5 >= 0 
p22Rd5 + p62Rd5 + p30Rd6 + pro30Rd5 - p63Rd5 >= 0 
p63Rd5 + p22Rd5 - p62Rd5 + p30Rd6 + pro30Rd5 >= 0 
p63Rd5 - p22Rd5 + p62Rd5 + p30Rd6 + pro30Rd5 >= 0 
p23Rd5 + p22Rd5 + p62Rd5 - p30Rd6 + pro30Rd5 >= 0 
p31Rd6 - p22Rd5 - p62Rd5 - p30Rd6 + pro30Rd5 >= -2 
p22Rd5 - p63Rd5 - p62Rd5 - p30Rd6 + pro30Rd5 >= -2 
p62Rd5 - p63Rd5 - p22Rd5 - p30Rd6 + pro30Rd5 >= -2 
p30Rd6 - p63Rd5 - p22Rd5 - p62Rd5 + pro30Rd5 >= -2 
p23Rd5 + p63Rd5 + p31Rd6 <= 2 
p23Rd5 + p63Rd5 + p31Rd6 - 2 temp5 >= 0 
temp5 - p23Rd5 >= 0 
temp5 - p63Rd5 >= 0 
temp5 - p31Rd6 >= 0 
p35Rd6 + p32Rd7 - p0Rd7 >= 0
p35Rd6 - p32Rd7 + p0Rd7 >= 0
- p35Rd6 + p32Rd7 + p0Rd7 >= 0
p35Rd6 + p32Rd7 + p0Rd7 <= 2
p36Rd6 + p33Rd7 - p1Rd7 >= 0
p36Rd6 - p33Rd7 + p1Rd7 >= 0
- p36Rd6 + p33Rd7 + p1Rd7 >= 0
p36Rd6 + p33Rd7 + p1Rd7 <= 2
p37Rd6 + p34Rd7 - p2Rd7 >= 0
p37Rd6 - p34Rd7 + p2Rd7 >= 0
- p37Rd6 + p34Rd7 + p2Rd7 >= 0
p37Rd6 + p34Rd7 + p2Rd7 <= 2
p38Rd6 + p35Rd7 - p3Rd7 >= 0
p38Rd6 - p35Rd7 + p3Rd7 >= 0
- p38Rd6 + p35Rd7 + p3Rd7 >= 0
p38Rd6 + p35Rd7 + p3Rd7 <= 2
p39Rd6 + p36Rd7 - p4Rd7 >= 0
p39Rd6 - p36Rd7 + p4Rd7 >= 0
- p39Rd6 + p36Rd7 + p4Rd7 >= 0
p39Rd6 + p36Rd7 + p4Rd7 <= 2
p40Rd6 + p37Rd7 - p5Rd7 >= 0
p40Rd6 - p37Rd7 + p5Rd7 >= 0
- p40Rd6 + p37Rd7 + p5Rd7 >= 0
p40Rd6 + p37Rd7 + p5Rd7 <= 2
p41Rd6 + p38Rd7 - p6Rd7 >= 0
p41Rd6 - p38Rd7 + p6Rd7 >= 0
- p41Rd6 + p38Rd7 + p6Rd7 >= 0
p41Rd6 + p38Rd7 + p6Rd7 <= 2
p42Rd6 + p39Rd7 - p7Rd7 >= 0
p42Rd6 - p39Rd7 + p7Rd7 >= 0
- p42Rd6 + p39Rd7 + p7Rd7 >= 0
p42Rd6 + p39Rd7 + p7Rd7 <= 2
p43Rd6 + p40Rd7 - p8Rd7 >= 0
p43Rd6 - p40Rd7 + p8Rd7 >= 0
- p43Rd6 + p40Rd7 + p8Rd7 >= 0
p43Rd6 + p40Rd7 + p8Rd7 <= 2
p44Rd6 + p41Rd7 - p9Rd7 >= 0
p44Rd6 - p41Rd7 + p9Rd7 >= 0
- p44Rd6 + p41Rd7 + p9Rd7 >= 0
p44Rd6 + p41Rd7 + p9Rd7 <= 2
p45Rd6 + p42Rd7 - p10Rd7 >= 0
p45Rd6 - p42Rd7 + p10Rd7 >= 0
- p45Rd6 + p42Rd7 + p10Rd7 >= 0
p45Rd6 + p42Rd7 + p10Rd7 <= 2
p46Rd6 + p43Rd7 - p11Rd7 >= 0
p46Rd6 - p43Rd7 + p11Rd7 >= 0
- p46Rd6 + p43Rd7 + p11Rd7 >= 0
p46Rd6 + p43Rd7 + p11Rd7 <= 2
p47Rd6 + p44Rd7 - p12Rd7 >= 0
p47Rd6 - p44Rd7 + p12Rd7 >= 0
- p47Rd6 + p44Rd7 + p12Rd7 >= 0
p47Rd6 + p44Rd7 + p12Rd7 <= 2
p48Rd6 + p45Rd7 - p13Rd7 >= 0
p48Rd6 - p45Rd7 + p13Rd7 >= 0
- p48Rd6 + p45Rd7 + p13Rd7 >= 0
p48Rd6 + p45Rd7 + p13Rd7 <= 2
p49Rd6 + p46Rd7 - p14Rd7 >= 0
p49Rd6 - p46Rd7 + p14Rd7 >= 0
- p49Rd6 + p46Rd7 + p14Rd7 >= 0
p49Rd6 + p46Rd7 + p14Rd7 <= 2
p50Rd6 + p47Rd7 - p15Rd7 >= 0
p50Rd6 - p47Rd7 + p15Rd7 >= 0
- p50Rd6 + p47Rd7 + p15Rd7 >= 0
p50Rd6 + p47Rd7 + p15Rd7 <= 2
p51Rd6 + p48Rd7 - p16Rd7 >= 0
p51Rd6 - p48Rd7 + p16Rd7 >= 0
- p51Rd6 + p48Rd7 + p16Rd7 >= 0
p51Rd6 + p48Rd7 + p16Rd7 <= 2
p52Rd6 + p49Rd7 - p17Rd7 >= 0
p52Rd6 - p49Rd7 + p17Rd7 >= 0
- p52Rd6 + p49Rd7 + p17Rd7 >= 0
p52Rd6 + p49Rd7 + p17Rd7 <= 2
p53Rd6 + p50Rd7 - p18Rd7 >= 0
p53Rd6 - p50Rd7 + p18Rd7 >= 0
- p53Rd6 + p50Rd7 + p18Rd7 >= 0
p53Rd6 + p50Rd7 + p18Rd7 <= 2
p54Rd6 + p51Rd7 - p19Rd7 >= 0
p54Rd6 - p51Rd7 + p19Rd7 >= 0
- p54Rd6 + p51Rd7 + p19Rd7 >= 0
p54Rd6 + p51Rd7 + p19Rd7 <= 2
p55Rd6 + p52Rd7 - p20Rd7 >= 0
p55Rd6 - p52Rd7 + p20Rd7 >= 0
- p55Rd6 + p52Rd7 + p20Rd7 >= 0
p55Rd6 + p52Rd7 + p20Rd7 <= 2
p56Rd6 + p53Rd7 - p21Rd7 >= 0
p56Rd6 - p53Rd7 + p21Rd7 >= 0
- p56Rd6 + p53Rd7 + p21Rd7 >= 0
p56Rd6 + p53Rd7 + p21Rd7 <= 2
p57Rd6 + p54Rd7 - p22Rd7 >= 0
p57Rd6 - p54Rd7 + p22Rd7 >= 0
- p57Rd6 + p54Rd7 + p22Rd7 >= 0
p57Rd6 + p54Rd7 + p22Rd7 <= 2
p58Rd6 + p55Rd7 - p23Rd7 >= 0
p58Rd6 - p55Rd7 + p23Rd7 >= 0
- p58Rd6 + p55Rd7 + p23Rd7 >= 0
p58Rd6 + p55Rd7 + p23Rd7 <= 2
p59Rd6 + p56Rd7 - p24Rd7 >= 0
p59Rd6 - p56Rd7 + p24Rd7 >= 0
- p59Rd6 + p56Rd7 + p24Rd7 >= 0
p59Rd6 + p56Rd7 + p24Rd7 <= 2
p60Rd6 + p57Rd7 - p25Rd7 >= 0
p60Rd6 - p57Rd7 + p25Rd7 >= 0
- p60Rd6 + p57Rd7 + p25Rd7 >= 0
p60Rd6 + p57Rd7 + p25Rd7 <= 2
p61Rd6 + p58Rd7 - p26Rd7 >= 0
p61Rd6 - p58Rd7 + p26Rd7 >= 0
- p61Rd6 + p58Rd7 + p26Rd7 >= 0
p61Rd6 + p58Rd7 + p26Rd7 <= 2
p62Rd6 + p59Rd7 - p27Rd7 >= 0
p62Rd6 - p59Rd7 + p27Rd7 >= 0
- p62Rd6 + p59Rd7 + p27Rd7 >= 0
p62Rd6 + p59Rd7 + p27Rd7 <= 2
p63Rd6 + p60Rd7 - p28Rd7 >= 0
p63Rd6 - p60Rd7 + p28Rd7 >= 0
- p63Rd6 + p60Rd7 + p28Rd7 >= 0
p63Rd6 + p60Rd7 + p28Rd7 <= 2
p32Rd6 + p61Rd7 - p29Rd7 >= 0
p32Rd6 - p61Rd7 + p29Rd7 >= 0
- p32Rd6 + p61Rd7 + p29Rd7 >= 0
p32Rd6 + p61Rd7 + p29Rd7 <= 2
p33Rd6 + p62Rd7 - p30Rd7 >= 0
p33Rd6 - p62Rd7 + p30Rd7 >= 0
- p33Rd6 + p62Rd7 + p30Rd7 >= 0
p33Rd6 + p62Rd7 + p30Rd7 <= 2
p34Rd6 + p63Rd7 - p31Rd7 >= 0
p34Rd6 - p63Rd7 + p31Rd7 >= 0
- p34Rd6 + p63Rd7 + p31Rd7 >= 0
p34Rd6 + p63Rd7 + p31Rd7 <= 2
p33Rd6 - p1Rd7 + pro0Rd6 >= 0 
p25Rd6 - p33Rd6 + pro0Rd6 >= 0 
p1Rd7 - p25Rd6 + pro0Rd6 >= 0 
p25Rd6 + p33Rd6 + p1Rd7 + pro0Rd6 <= 3 
p25Rd6 + p33Rd6 + p1Rd7 - pro0Rd6 >= 0 
p24Rd6 + p32Rd6 + p0Rd7 + pro0Rd6 - p33Rd6 >= 0 
p33Rd6 + p24Rd6 - p32Rd6 + p0Rd7 + pro0Rd6 >= 0 
p33Rd6 - p24Rd6 + p32Rd6 + p0Rd7 + pro0Rd6 >= 0 
p25Rd6 + p24Rd6 + p32Rd6 - p0Rd7 + pro0Rd6 >= 0 
p1Rd7 - p24Rd6 - p32Rd6 - p0Rd7 + pro0Rd6 >= -2 
p24Rd6 - p33Rd6 - p32Rd6 - p0Rd7 + pro0Rd6 >= -2 
p32Rd6 - p33Rd6 - p24Rd6 - p0Rd7 + pro0Rd6 >= -2 
p0Rd7 - p33Rd6 - p24Rd6 - p32Rd6 + pro0Rd6 >= -2 
p34Rd6 - p2Rd7 + pro1Rd6 >= 0 
p26Rd6 - p34Rd6 + pro1Rd6 >= 0 
p2Rd7 - p26Rd6 + pro1Rd6 >= 0 
p26Rd6 + p34Rd6 + p2Rd7 + pro1Rd6 <= 3 
p26Rd6 + p34Rd6 + p2Rd7 - pro1Rd6 >= 0 
p25Rd6 + p33Rd6 + p1Rd7 + pro1Rd6 - p34Rd6 >= 0 
p34Rd6 + p25Rd6 - p33Rd6 + p1Rd7 + pro1Rd6 >= 0 
p34Rd6 - p25Rd6 + p33Rd6 + p1Rd7 + pro1Rd6 >= 0 
p26Rd6 + p25Rd6 + p33Rd6 - p1Rd7 + pro1Rd6 >= 0 
p2Rd7 - p25Rd6 - p33Rd6 - p1Rd7 + pro1Rd6 >= -2 
p25Rd6 - p34Rd6 - p33Rd6 - p1Rd7 + pro1Rd6 >= -2 
p33Rd6 - p34Rd6 - p25Rd6 - p1Rd7 + pro1Rd6 >= -2 
p1Rd7 - p34Rd6 - p25Rd6 - p33Rd6 + pro1Rd6 >= -2 
p35Rd6 - p3Rd7 + pro2Rd6 >= 0 
p27Rd6 - p35Rd6 + pro2Rd6 >= 0 
p3Rd7 - p27Rd6 + pro2Rd6 >= 0 
p27Rd6 + p35Rd6 + p3Rd7 + pro2Rd6 <= 3 
p27Rd6 + p35Rd6 + p3Rd7 - pro2Rd6 >= 0 
p26Rd6 + p34Rd6 + p2Rd7 + pro2Rd6 - p35Rd6 >= 0 
p35Rd6 + p26Rd6 - p34Rd6 + p2Rd7 + pro2Rd6 >= 0 
p35Rd6 - p26Rd6 + p34Rd6 + p2Rd7 + pro2Rd6 >= 0 
p27Rd6 + p26Rd6 + p34Rd6 - p2Rd7 + pro2Rd6 >= 0 
p3Rd7 - p26Rd6 - p34Rd6 - p2Rd7 + pro2Rd6 >= -2 
p26Rd6 - p35Rd6 - p34Rd6 - p2Rd7 + pro2Rd6 >= -2 
p34Rd6 - p35Rd6 - p26Rd6 - p2Rd7 + pro2Rd6 >= -2 
p2Rd7 - p35Rd6 - p26Rd6 - p34Rd6 + pro2Rd6 >= -2 
p36Rd6 - p4Rd7 + pro3Rd6 >= 0 
p28Rd6 - p36Rd6 + pro3Rd6 >= 0 
p4Rd7 - p28Rd6 + pro3Rd6 >= 0 
p28Rd6 + p36Rd6 + p4Rd7 + pro3Rd6 <= 3 
p28Rd6 + p36Rd6 + p4Rd7 - pro3Rd6 >= 0 
p27Rd6 + p35Rd6 + p3Rd7 + pro3Rd6 - p36Rd6 >= 0 
p36Rd6 + p27Rd6 - p35Rd6 + p3Rd7 + pro3Rd6 >= 0 
p36Rd6 - p27Rd6 + p35Rd6 + p3Rd7 + pro3Rd6 >= 0 
p28Rd6 + p27Rd6 + p35Rd6 - p3Rd7 + pro3Rd6 >= 0 
p4Rd7 - p27Rd6 - p35Rd6 - p3Rd7 + pro3Rd6 >= -2 
p27Rd6 - p36Rd6 - p35Rd6 - p3Rd7 + pro3Rd6 >= -2 
p35Rd6 - p36Rd6 - p27Rd6 - p3Rd7 + pro3Rd6 >= -2 
p3Rd7 - p36Rd6 - p27Rd6 - p35Rd6 + pro3Rd6 >= -2 
p37Rd6 - p5Rd7 + pro4Rd6 >= 0 
p29Rd6 - p37Rd6 + pro4Rd6 >= 0 
p5Rd7 - p29Rd6 + pro4Rd6 >= 0 
p29Rd6 + p37Rd6 + p5Rd7 + pro4Rd6 <= 3 
p29Rd6 + p37Rd6 + p5Rd7 - pro4Rd6 >= 0 
p28Rd6 + p36Rd6 + p4Rd7 + pro4Rd6 - p37Rd6 >= 0 
p37Rd6 + p28Rd6 - p36Rd6 + p4Rd7 + pro4Rd6 >= 0 
p37Rd6 - p28Rd6 + p36Rd6 + p4Rd7 + pro4Rd6 >= 0 
p29Rd6 + p28Rd6 + p36Rd6 - p4Rd7 + pro4Rd6 >= 0 
p5Rd7 - p28Rd6 - p36Rd6 - p4Rd7 + pro4Rd6 >= -2 
p28Rd6 - p37Rd6 - p36Rd6 - p4Rd7 + pro4Rd6 >= -2 
p36Rd6 - p37Rd6 - p28Rd6 - p4Rd7 + pro4Rd6 >= -2 
p4Rd7 - p37Rd6 - p28Rd6 - p36Rd6 + pro4Rd6 >= -2 
p38Rd6 - p6Rd7 + pro5Rd6 >= 0 
p30Rd6 - p38Rd6 + pro5Rd6 >= 0 
p6Rd7 - p30Rd6 + pro5Rd6 >= 0 
p30Rd6 + p38Rd6 + p6Rd7 + pro5Rd6 <= 3 
p30Rd6 + p38Rd6 + p6Rd7 - pro5Rd6 >= 0 
p29Rd6 + p37Rd6 + p5Rd7 + pro5Rd6 - p38Rd6 >= 0 
p38Rd6 + p29Rd6 - p37Rd6 + p5Rd7 + pro5Rd6 >= 0 
p38Rd6 - p29Rd6 + p37Rd6 + p5Rd7 + pro5Rd6 >= 0 
p30Rd6 + p29Rd6 + p37Rd6 - p5Rd7 + pro5Rd6 >= 0 
p6Rd7 - p29Rd6 - p37Rd6 - p5Rd7 + pro5Rd6 >= -2 
p29Rd6 - p38Rd6 - p37Rd6 - p5Rd7 + pro5Rd6 >= -2 
p37Rd6 - p38Rd6 - p29Rd6 - p5Rd7 + pro5Rd6 >= -2 
p5Rd7 - p38Rd6 - p29Rd6 - p37Rd6 + pro5Rd6 >= -2 
p39Rd6 - p7Rd7 + pro6Rd6 >= 0 
p31Rd6 - p39Rd6 + pro6Rd6 >= 0 
p7Rd7 - p31Rd6 + pro6Rd6 >= 0 
p31Rd6 + p39Rd6 + p7Rd7 + pro6Rd6 <= 3 
p31Rd6 + p39Rd6 + p7Rd7 - pro6Rd6 >= 0 
p30Rd6 + p38Rd6 + p6Rd7 + pro6Rd6 - p39Rd6 >= 0 
p39Rd6 + p30Rd6 - p38Rd6 + p6Rd7 + pro6Rd6 >= 0 
p39Rd6 - p30Rd6 + p38Rd6 + p6Rd7 + pro6Rd6 >= 0 
p31Rd6 + p30Rd6 + p38Rd6 - p6Rd7 + pro6Rd6 >= 0 
p7Rd7 - p30Rd6 - p38Rd6 - p6Rd7 + pro6Rd6 >= -2 
p30Rd6 - p39Rd6 - p38Rd6 - p6Rd7 + pro6Rd6 >= -2 
p38Rd6 - p39Rd6 - p30Rd6 - p6Rd7 + pro6Rd6 >= -2 
p6Rd7 - p39Rd6 - p30Rd6 - p38Rd6 + pro6Rd6 >= -2 
p40Rd6 - p8Rd7 + pro7Rd6 >= 0 
p0Rd6 - p40Rd6 + pro7Rd6 >= 0 
p8Rd7 - p0Rd6 + pro7Rd6 >= 0 
p0Rd6 + p40Rd6 + p8Rd7 + pro7Rd6 <= 3 
p0Rd6 + p40Rd6 + p8Rd7 - pro7Rd6 >= 0 
p31Rd6 + p39Rd6 + p7Rd7 + pro7Rd6 - p40Rd6 >= 0 
p40Rd6 + p31Rd6 - p39Rd6 + p7Rd7 + pro7Rd6 >= 0 
p40Rd6 - p31Rd6 + p39Rd6 + p7Rd7 + pro7Rd6 >= 0 
p0Rd6 + p31Rd6 + p39Rd6 - p7Rd7 + pro7Rd6 >= 0 
p8Rd7 - p31Rd6 - p39Rd6 - p7Rd7 + pro7Rd6 >= -2 
p31Rd6 - p40Rd6 - p39Rd6 - p7Rd7 + pro7Rd6 >= -2 
p39Rd6 - p40Rd6 - p31Rd6 - p7Rd7 + pro7Rd6 >= -2 
p7Rd7 - p40Rd6 - p31Rd6 - p39Rd6 + pro7Rd6 >= -2 
p41Rd6 - p9Rd7 + pro8Rd6 >= 0 
p1Rd6 - p41Rd6 + pro8Rd6 >= 0 
p9Rd7 - p1Rd6 + pro8Rd6 >= 0 
p1Rd6 + p41Rd6 + p9Rd7 + pro8Rd6 <= 3 
p1Rd6 + p41Rd6 + p9Rd7 - pro8Rd6 >= 0 
p0Rd6 + p40Rd6 + p8Rd7 + pro8Rd6 - p41Rd6 >= 0 
p41Rd6 + p0Rd6 - p40Rd6 + p8Rd7 + pro8Rd6 >= 0 
p41Rd6 - p0Rd6 + p40Rd6 + p8Rd7 + pro8Rd6 >= 0 
p1Rd6 + p0Rd6 + p40Rd6 - p8Rd7 + pro8Rd6 >= 0 
p9Rd7 - p0Rd6 - p40Rd6 - p8Rd7 + pro8Rd6 >= -2 
p0Rd6 - p41Rd6 - p40Rd6 - p8Rd7 + pro8Rd6 >= -2 
p40Rd6 - p41Rd6 - p0Rd6 - p8Rd7 + pro8Rd6 >= -2 
p8Rd7 - p41Rd6 - p0Rd6 - p40Rd6 + pro8Rd6 >= -2 
p42Rd6 - p10Rd7 + pro9Rd6 >= 0 
p2Rd6 - p42Rd6 + pro9Rd6 >= 0 
p10Rd7 - p2Rd6 + pro9Rd6 >= 0 
p2Rd6 + p42Rd6 + p10Rd7 + pro9Rd6 <= 3 
p2Rd6 + p42Rd6 + p10Rd7 - pro9Rd6 >= 0 
p1Rd6 + p41Rd6 + p9Rd7 + pro9Rd6 - p42Rd6 >= 0 
p42Rd6 + p1Rd6 - p41Rd6 + p9Rd7 + pro9Rd6 >= 0 
p42Rd6 - p1Rd6 + p41Rd6 + p9Rd7 + pro9Rd6 >= 0 
p2Rd6 + p1Rd6 + p41Rd6 - p9Rd7 + pro9Rd6 >= 0 
p10Rd7 - p1Rd6 - p41Rd6 - p9Rd7 + pro9Rd6 >= -2 
p1Rd6 - p42Rd6 - p41Rd6 - p9Rd7 + pro9Rd6 >= -2 
p41Rd6 - p42Rd6 - p1Rd6 - p9Rd7 + pro9Rd6 >= -2 
p9Rd7 - p42Rd6 - p1Rd6 - p41Rd6 + pro9Rd6 >= -2 
p43Rd6 - p11Rd7 + pro10Rd6 >= 0 
p3Rd6 - p43Rd6 + pro10Rd6 >= 0 
p11Rd7 - p3Rd6 + pro10Rd6 >= 0 
p3Rd6 + p43Rd6 + p11Rd7 + pro10Rd6 <= 3 
p3Rd6 + p43Rd6 + p11Rd7 - pro10Rd6 >= 0 
p2Rd6 + p42Rd6 + p10Rd7 + pro10Rd6 - p43Rd6 >= 0 
p43Rd6 + p2Rd6 - p42Rd6 + p10Rd7 + pro10Rd6 >= 0 
p43Rd6 - p2Rd6 + p42Rd6 + p10Rd7 + pro10Rd6 >= 0 
p3Rd6 + p2Rd6 + p42Rd6 - p10Rd7 + pro10Rd6 >= 0 
p11Rd7 - p2Rd6 - p42Rd6 - p10Rd7 + pro10Rd6 >= -2 
p2Rd6 - p43Rd6 - p42Rd6 - p10Rd7 + pro10Rd6 >= -2 
p42Rd6 - p43Rd6 - p2Rd6 - p10Rd7 + pro10Rd6 >= -2 
p10Rd7 - p43Rd6 - p2Rd6 - p42Rd6 + pro10Rd6 >= -2 
p44Rd6 - p12Rd7 + pro11Rd6 >= 0 
p4Rd6 - p44Rd6 + pro11Rd6 >= 0 
p12Rd7 - p4Rd6 + pro11Rd6 >= 0 
p4Rd6 + p44Rd6 + p12Rd7 + pro11Rd6 <= 3 
p4Rd6 + p44Rd6 + p12Rd7 - pro11Rd6 >= 0 
p3Rd6 + p43Rd6 + p11Rd7 + pro11Rd6 - p44Rd6 >= 0 
p44Rd6 + p3Rd6 - p43Rd6 + p11Rd7 + pro11Rd6 >= 0 
p44Rd6 - p3Rd6 + p43Rd6 + p11Rd7 + pro11Rd6 >= 0 
p4Rd6 + p3Rd6 + p43Rd6 - p11Rd7 + pro11Rd6 >= 0 
p12Rd7 - p3Rd6 - p43Rd6 - p11Rd7 + pro11Rd6 >= -2 
p3Rd6 - p44Rd6 - p43Rd6 - p11Rd7 + pro11Rd6 >= -2 
p43Rd6 - p44Rd6 - p3Rd6 - p11Rd7 + pro11Rd6 >= -2 
p11Rd7 - p44Rd6 - p3Rd6 - p43Rd6 + pro11Rd6 >= -2 
p45Rd6 - p13Rd7 + pro12Rd6 >= 0 
p5Rd6 - p45Rd6 + pro12Rd6 >= 0 
p13Rd7 - p5Rd6 + pro12Rd6 >= 0 
p5Rd6 + p45Rd6 + p13Rd7 + pro12Rd6 <= 3 
p5Rd6 + p45Rd6 + p13Rd7 - pro12Rd6 >= 0 
p4Rd6 + p44Rd6 + p12Rd7 + pro12Rd6 - p45Rd6 >= 0 
p45Rd6 + p4Rd6 - p44Rd6 + p12Rd7 + pro12Rd6 >= 0 
p45Rd6 - p4Rd6 + p44Rd6 + p12Rd7 + pro12Rd6 >= 0 
p5Rd6 + p4Rd6 + p44Rd6 - p12Rd7 + pro12Rd6 >= 0 
p13Rd7 - p4Rd6 - p44Rd6 - p12Rd7 + pro12Rd6 >= -2 
p4Rd6 - p45Rd6 - p44Rd6 - p12Rd7 + pro12Rd6 >= -2 
p44Rd6 - p45Rd6 - p4Rd6 - p12Rd7 + pro12Rd6 >= -2 
p12Rd7 - p45Rd6 - p4Rd6 - p44Rd6 + pro12Rd6 >= -2 
p46Rd6 - p14Rd7 + pro13Rd6 >= 0 
p6Rd6 - p46Rd6 + pro13Rd6 >= 0 
p14Rd7 - p6Rd6 + pro13Rd6 >= 0 
p6Rd6 + p46Rd6 + p14Rd7 + pro13Rd6 <= 3 
p6Rd6 + p46Rd6 + p14Rd7 - pro13Rd6 >= 0 
p5Rd6 + p45Rd6 + p13Rd7 + pro13Rd6 - p46Rd6 >= 0 
p46Rd6 + p5Rd6 - p45Rd6 + p13Rd7 + pro13Rd6 >= 0 
p46Rd6 - p5Rd6 + p45Rd6 + p13Rd7 + pro13Rd6 >= 0 
p6Rd6 + p5Rd6 + p45Rd6 - p13Rd7 + pro13Rd6 >= 0 
p14Rd7 - p5Rd6 - p45Rd6 - p13Rd7 + pro13Rd6 >= -2 
p5Rd6 - p46Rd6 - p45Rd6 - p13Rd7 + pro13Rd6 >= -2 
p45Rd6 - p46Rd6 - p5Rd6 - p13Rd7 + pro13Rd6 >= -2 
p13Rd7 - p46Rd6 - p5Rd6 - p45Rd6 + pro13Rd6 >= -2 
p47Rd6 - p15Rd7 + pro14Rd6 >= 0 
p7Rd6 - p47Rd6 + pro14Rd6 >= 0 
p15Rd7 - p7Rd6 + pro14Rd6 >= 0 
p7Rd6 + p47Rd6 + p15Rd7 + pro14Rd6 <= 3 
p7Rd6 + p47Rd6 + p15Rd7 - pro14Rd6 >= 0 
p6Rd6 + p46Rd6 + p14Rd7 + pro14Rd6 - p47Rd6 >= 0 
p47Rd6 + p6Rd6 - p46Rd6 + p14Rd7 + pro14Rd6 >= 0 
p47Rd6 - p6Rd6 + p46Rd6 + p14Rd7 + pro14Rd6 >= 0 
p7Rd6 + p6Rd6 + p46Rd6 - p14Rd7 + pro14Rd6 >= 0 
p15Rd7 - p6Rd6 - p46Rd6 - p14Rd7 + pro14Rd6 >= -2 
p6Rd6 - p47Rd6 - p46Rd6 - p14Rd7 + pro14Rd6 >= -2 
p46Rd6 - p47Rd6 - p6Rd6 - p14Rd7 + pro14Rd6 >= -2 
p14Rd7 - p47Rd6 - p6Rd6 - p46Rd6 + pro14Rd6 >= -2 
p48Rd6 - p16Rd7 + pro15Rd6 >= 0 
p8Rd6 - p48Rd6 + pro15Rd6 >= 0 
p16Rd7 - p8Rd6 + pro15Rd6 >= 0 
p8Rd6 + p48Rd6 + p16Rd7 + pro15Rd6 <= 3 
p8Rd6 + p48Rd6 + p16Rd7 - pro15Rd6 >= 0 
p7Rd6 + p47Rd6 + p15Rd7 + pro15Rd6 - p48Rd6 >= 0 
p48Rd6 + p7Rd6 - p47Rd6 + p15Rd7 + pro15Rd6 >= 0 
p48Rd6 - p7Rd6 + p47Rd6 + p15Rd7 + pro15Rd6 >= 0 
p8Rd6 + p7Rd6 + p47Rd6 - p15Rd7 + pro15Rd6 >= 0 
p16Rd7 - p7Rd6 - p47Rd6 - p15Rd7 + pro15Rd6 >= -2 
p7Rd6 - p48Rd6 - p47Rd6 - p15Rd7 + pro15Rd6 >= -2 
p47Rd6 - p48Rd6 - p7Rd6 - p15Rd7 + pro15Rd6 >= -2 
p15Rd7 - p48Rd6 - p7Rd6 - p47Rd6 + pro15Rd6 >= -2 
p49Rd6 - p17Rd7 + pro16Rd6 >= 0 
p9Rd6 - p49Rd6 + pro16Rd6 >= 0 
p17Rd7 - p9Rd6 + pro16Rd6 >= 0 
p9Rd6 + p49Rd6 + p17Rd7 + pro16Rd6 <= 3 
p9Rd6 + p49Rd6 + p17Rd7 - pro16Rd6 >= 0 
p8Rd6 + p48Rd6 + p16Rd7 + pro16Rd6 - p49Rd6 >= 0 
p49Rd6 + p8Rd6 - p48Rd6 + p16Rd7 + pro16Rd6 >= 0 
p49Rd6 - p8Rd6 + p48Rd6 + p16Rd7 + pro16Rd6 >= 0 
p9Rd6 + p8Rd6 + p48Rd6 - p16Rd7 + pro16Rd6 >= 0 
p17Rd7 - p8Rd6 - p48Rd6 - p16Rd7 + pro16Rd6 >= -2 
p8Rd6 - p49Rd6 - p48Rd6 - p16Rd7 + pro16Rd6 >= -2 
p48Rd6 - p49Rd6 - p8Rd6 - p16Rd7 + pro16Rd6 >= -2 
p16Rd7 - p49Rd6 - p8Rd6 - p48Rd6 + pro16Rd6 >= -2 
p50Rd6 - p18Rd7 + pro17Rd6 >= 0 
p10Rd6 - p50Rd6 + pro17Rd6 >= 0 
p18Rd7 - p10Rd6 + pro17Rd6 >= 0 
p10Rd6 + p50Rd6 + p18Rd7 + pro17Rd6 <= 3 
p10Rd6 + p50Rd6 + p18Rd7 - pro17Rd6 >= 0 
p9Rd6 + p49Rd6 + p17Rd7 + pro17Rd6 - p50Rd6 >= 0 
p50Rd6 + p9Rd6 - p49Rd6 + p17Rd7 + pro17Rd6 >= 0 
p50Rd6 - p9Rd6 + p49Rd6 + p17Rd7 + pro17Rd6 >= 0 
p10Rd6 + p9Rd6 + p49Rd6 - p17Rd7 + pro17Rd6 >= 0 
p18Rd7 - p9Rd6 - p49Rd6 - p17Rd7 + pro17Rd6 >= -2 
p9Rd6 - p50Rd6 - p49Rd6 - p17Rd7 + pro17Rd6 >= -2 
p49Rd6 - p50Rd6 - p9Rd6 - p17Rd7 + pro17Rd6 >= -2 
p17Rd7 - p50Rd6 - p9Rd6 - p49Rd6 + pro17Rd6 >= -2 
p51Rd6 - p19Rd7 + pro18Rd6 >= 0 
p11Rd6 - p51Rd6 + pro18Rd6 >= 0 
p19Rd7 - p11Rd6 + pro18Rd6 >= 0 
p11Rd6 + p51Rd6 + p19Rd7 + pro18Rd6 <= 3 
p11Rd6 + p51Rd6 + p19Rd7 - pro18Rd6 >= 0 
p10Rd6 + p50Rd6 + p18Rd7 + pro18Rd6 - p51Rd6 >= 0 
p51Rd6 + p10Rd6 - p50Rd6 + p18Rd7 + pro18Rd6 >= 0 
p51Rd6 - p10Rd6 + p50Rd6 + p18Rd7 + pro18Rd6 >= 0 
p11Rd6 + p10Rd6 + p50Rd6 - p18Rd7 + pro18Rd6 >= 0 
p19Rd7 - p10Rd6 - p50Rd6 - p18Rd7 + pro18Rd6 >= -2 
p10Rd6 - p51Rd6 - p50Rd6 - p18Rd7 + pro18Rd6 >= -2 
p50Rd6 - p51Rd6 - p10Rd6 - p18Rd7 + pro18Rd6 >= -2 
p18Rd7 - p51Rd6 - p10Rd6 - p50Rd6 + pro18Rd6 >= -2 
p52Rd6 - p20Rd7 + pro19Rd6 >= 0 
p12Rd6 - p52Rd6 + pro19Rd6 >= 0 
p20Rd7 - p12Rd6 + pro19Rd6 >= 0 
p12Rd6 + p52Rd6 + p20Rd7 + pro19Rd6 <= 3 
p12Rd6 + p52Rd6 + p20Rd7 - pro19Rd6 >= 0 
p11Rd6 + p51Rd6 + p19Rd7 + pro19Rd6 - p52Rd6 >= 0 
p52Rd6 + p11Rd6 - p51Rd6 + p19Rd7 + pro19Rd6 >= 0 
p52Rd6 - p11Rd6 + p51Rd6 + p19Rd7 + pro19Rd6 >= 0 
p12Rd6 + p11Rd6 + p51Rd6 - p19Rd7 + pro19Rd6 >= 0 
p20Rd7 - p11Rd6 - p51Rd6 - p19Rd7 + pro19Rd6 >= -2 
p11Rd6 - p52Rd6 - p51Rd6 - p19Rd7 + pro19Rd6 >= -2 
p51Rd6 - p52Rd6 - p11Rd6 - p19Rd7 + pro19Rd6 >= -2 
p19Rd7 - p52Rd6 - p11Rd6 - p51Rd6 + pro19Rd6 >= -2 
p53Rd6 - p21Rd7 + pro20Rd6 >= 0 
p13Rd6 - p53Rd6 + pro20Rd6 >= 0 
p21Rd7 - p13Rd6 + pro20Rd6 >= 0 
p13Rd6 + p53Rd6 + p21Rd7 + pro20Rd6 <= 3 
p13Rd6 + p53Rd6 + p21Rd7 - pro20Rd6 >= 0 
p12Rd6 + p52Rd6 + p20Rd7 + pro20Rd6 - p53Rd6 >= 0 
p53Rd6 + p12Rd6 - p52Rd6 + p20Rd7 + pro20Rd6 >= 0 
p53Rd6 - p12Rd6 + p52Rd6 + p20Rd7 + pro20Rd6 >= 0 
p13Rd6 + p12Rd6 + p52Rd6 - p20Rd7 + pro20Rd6 >= 0 
p21Rd7 - p12Rd6 - p52Rd6 - p20Rd7 + pro20Rd6 >= -2 
p12Rd6 - p53Rd6 - p52Rd6 - p20Rd7 + pro20Rd6 >= -2 
p52Rd6 - p53Rd6 - p12Rd6 - p20Rd7 + pro20Rd6 >= -2 
p20Rd7 - p53Rd6 - p12Rd6 - p52Rd6 + pro20Rd6 >= -2 
p54Rd6 - p22Rd7 + pro21Rd6 >= 0 
p14Rd6 - p54Rd6 + pro21Rd6 >= 0 
p22Rd7 - p14Rd6 + pro21Rd6 >= 0 
p14Rd6 + p54Rd6 + p22Rd7 + pro21Rd6 <= 3 
p14Rd6 + p54Rd6 + p22Rd7 - pro21Rd6 >= 0 
p13Rd6 + p53Rd6 + p21Rd7 + pro21Rd6 - p54Rd6 >= 0 
p54Rd6 + p13Rd6 - p53Rd6 + p21Rd7 + pro21Rd6 >= 0 
p54Rd6 - p13Rd6 + p53Rd6 + p21Rd7 + pro21Rd6 >= 0 
p14Rd6 + p13Rd6 + p53Rd6 - p21Rd7 + pro21Rd6 >= 0 
p22Rd7 - p13Rd6 - p53Rd6 - p21Rd7 + pro21Rd6 >= -2 
p13Rd6 - p54Rd6 - p53Rd6 - p21Rd7 + pro21Rd6 >= -2 
p53Rd6 - p54Rd6 - p13Rd6 - p21Rd7 + pro21Rd6 >= -2 
p21Rd7 - p54Rd6 - p13Rd6 - p53Rd6 + pro21Rd6 >= -2 
p55Rd6 - p23Rd7 + pro22Rd6 >= 0 
p15Rd6 - p55Rd6 + pro22Rd6 >= 0 
p23Rd7 - p15Rd6 + pro22Rd6 >= 0 
p15Rd6 + p55Rd6 + p23Rd7 + pro22Rd6 <= 3 
p15Rd6 + p55Rd6 + p23Rd7 - pro22Rd6 >= 0 
p14Rd6 + p54Rd6 + p22Rd7 + pro22Rd6 - p55Rd6 >= 0 
p55Rd6 + p14Rd6 - p54Rd6 + p22Rd7 + pro22Rd6 >= 0 
p55Rd6 - p14Rd6 + p54Rd6 + p22Rd7 + pro22Rd6 >= 0 
p15Rd6 + p14Rd6 + p54Rd6 - p22Rd7 + pro22Rd6 >= 0 
p23Rd7 - p14Rd6 - p54Rd6 - p22Rd7 + pro22Rd6 >= -2 
p14Rd6 - p55Rd6 - p54Rd6 - p22Rd7 + pro22Rd6 >= -2 
p54Rd6 - p55Rd6 - p14Rd6 - p22Rd7 + pro22Rd6 >= -2 
p22Rd7 - p55Rd6 - p14Rd6 - p54Rd6 + pro22Rd6 >= -2 
p56Rd6 - p24Rd7 + pro23Rd6 >= 0 
p16Rd6 - p56Rd6 + pro23Rd6 >= 0 
p24Rd7 - p16Rd6 + pro23Rd6 >= 0 
p16Rd6 + p56Rd6 + p24Rd7 + pro23Rd6 <= 3 
p16Rd6 + p56Rd6 + p24Rd7 - pro23Rd6 >= 0 
p15Rd6 + p55Rd6 + p23Rd7 + pro23Rd6 - p56Rd6 >= 0 
p56Rd6 + p15Rd6 - p55Rd6 + p23Rd7 + pro23Rd6 >= 0 
p56Rd6 - p15Rd6 + p55Rd6 + p23Rd7 + pro23Rd6 >= 0 
p16Rd6 + p15Rd6 + p55Rd6 - p23Rd7 + pro23Rd6 >= 0 
p24Rd7 - p15Rd6 - p55Rd6 - p23Rd7 + pro23Rd6 >= -2 
p15Rd6 - p56Rd6 - p55Rd6 - p23Rd7 + pro23Rd6 >= -2 
p55Rd6 - p56Rd6 - p15Rd6 - p23Rd7 + pro23Rd6 >= -2 
p23Rd7 - p56Rd6 - p15Rd6 - p55Rd6 + pro23Rd6 >= -2 
p57Rd6 - p25Rd7 + pro24Rd6 >= 0 
p17Rd6 - p57Rd6 + pro24Rd6 >= 0 
p25Rd7 - p17Rd6 + pro24Rd6 >= 0 
p17Rd6 + p57Rd6 + p25Rd7 + pro24Rd6 <= 3 
p17Rd6 + p57Rd6 + p25Rd7 - pro24Rd6 >= 0 
p16Rd6 + p56Rd6 + p24Rd7 + pro24Rd6 - p57Rd6 >= 0 
p57Rd6 + p16Rd6 - p56Rd6 + p24Rd7 + pro24Rd6 >= 0 
p57Rd6 - p16Rd6 + p56Rd6 + p24Rd7 + pro24Rd6 >= 0 
p17Rd6 + p16Rd6 + p56Rd6 - p24Rd7 + pro24Rd6 >= 0 
p25Rd7 - p16Rd6 - p56Rd6 - p24Rd7 + pro24Rd6 >= -2 
p16Rd6 - p57Rd6 - p56Rd6 - p24Rd7 + pro24Rd6 >= -2 
p56Rd6 - p57Rd6 - p16Rd6 - p24Rd7 + pro24Rd6 >= -2 
p24Rd7 - p57Rd6 - p16Rd6 - p56Rd6 + pro24Rd6 >= -2 
p58Rd6 - p26Rd7 + pro25Rd6 >= 0 
p18Rd6 - p58Rd6 + pro25Rd6 >= 0 
p26Rd7 - p18Rd6 + pro25Rd6 >= 0 
p18Rd6 + p58Rd6 + p26Rd7 + pro25Rd6 <= 3 
p18Rd6 + p58Rd6 + p26Rd7 - pro25Rd6 >= 0 
p17Rd6 + p57Rd6 + p25Rd7 + pro25Rd6 - p58Rd6 >= 0 
p58Rd6 + p17Rd6 - p57Rd6 + p25Rd7 + pro25Rd6 >= 0 
p58Rd6 - p17Rd6 + p57Rd6 + p25Rd7 + pro25Rd6 >= 0 
p18Rd6 + p17Rd6 + p57Rd6 - p25Rd7 + pro25Rd6 >= 0 
p26Rd7 - p17Rd6 - p57Rd6 - p25Rd7 + pro25Rd6 >= -2 
p17Rd6 - p58Rd6 - p57Rd6 - p25Rd7 + pro25Rd6 >= -2 
p57Rd6 - p58Rd6 - p17Rd6 - p25Rd7 + pro25Rd6 >= -2 
p25Rd7 - p58Rd6 - p17Rd6 - p57Rd6 + pro25Rd6 >= -2 
p59Rd6 - p27Rd7 + pro26Rd6 >= 0 
p19Rd6 - p59Rd6 + pro26Rd6 >= 0 
p27Rd7 - p19Rd6 + pro26Rd6 >= 0 
p19Rd6 + p59Rd6 + p27Rd7 + pro26Rd6 <= 3 
p19Rd6 + p59Rd6 + p27Rd7 - pro26Rd6 >= 0 
p18Rd6 + p58Rd6 + p26Rd7 + pro26Rd6 - p59Rd6 >= 0 
p59Rd6 + p18Rd6 - p58Rd6 + p26Rd7 + pro26Rd6 >= 0 
p59Rd6 - p18Rd6 + p58Rd6 + p26Rd7 + pro26Rd6 >= 0 
p19Rd6 + p18Rd6 + p58Rd6 - p26Rd7 + pro26Rd6 >= 0 
p27Rd7 - p18Rd6 - p58Rd6 - p26Rd7 + pro26Rd6 >= -2 
p18Rd6 - p59Rd6 - p58Rd6 - p26Rd7 + pro26Rd6 >= -2 
p58Rd6 - p59Rd6 - p18Rd6 - p26Rd7 + pro26Rd6 >= -2 
p26Rd7 - p59Rd6 - p18Rd6 - p58Rd6 + pro26Rd6 >= -2 
p60Rd6 - p28Rd7 + pro27Rd6 >= 0 
p20Rd6 - p60Rd6 + pro27Rd6 >= 0 
p28Rd7 - p20Rd6 + pro27Rd6 >= 0 
p20Rd6 + p60Rd6 + p28Rd7 + pro27Rd6 <= 3 
p20Rd6 + p60Rd6 + p28Rd7 - pro27Rd6 >= 0 
p19Rd6 + p59Rd6 + p27Rd7 + pro27Rd6 - p60Rd6 >= 0 
p60Rd6 + p19Rd6 - p59Rd6 + p27Rd7 + pro27Rd6 >= 0 
p60Rd6 - p19Rd6 + p59Rd6 + p27Rd7 + pro27Rd6 >= 0 
p20Rd6 + p19Rd6 + p59Rd6 - p27Rd7 + pro27Rd6 >= 0 
p28Rd7 - p19Rd6 - p59Rd6 - p27Rd7 + pro27Rd6 >= -2 
p19Rd6 - p60Rd6 - p59Rd6 - p27Rd7 + pro27Rd6 >= -2 
p59Rd6 - p60Rd6 - p19Rd6 - p27Rd7 + pro27Rd6 >= -2 
p27Rd7 - p60Rd6 - p19Rd6 - p59Rd6 + pro27Rd6 >= -2 
p61Rd6 - p29Rd7 + pro28Rd6 >= 0 
p21Rd6 - p61Rd6 + pro28Rd6 >= 0 
p29Rd7 - p21Rd6 + pro28Rd6 >= 0 
p21Rd6 + p61Rd6 + p29Rd7 + pro28Rd6 <= 3 
p21Rd6 + p61Rd6 + p29Rd7 - pro28Rd6 >= 0 
p20Rd6 + p60Rd6 + p28Rd7 + pro28Rd6 - p61Rd6 >= 0 
p61Rd6 + p20Rd6 - p60Rd6 + p28Rd7 + pro28Rd6 >= 0 
p61Rd6 - p20Rd6 + p60Rd6 + p28Rd7 + pro28Rd6 >= 0 
p21Rd6 + p20Rd6 + p60Rd6 - p28Rd7 + pro28Rd6 >= 0 
p29Rd7 - p20Rd6 - p60Rd6 - p28Rd7 + pro28Rd6 >= -2 
p20Rd6 - p61Rd6 - p60Rd6 - p28Rd7 + pro28Rd6 >= -2 
p60Rd6 - p61Rd6 - p20Rd6 - p28Rd7 + pro28Rd6 >= -2 
p28Rd7 - p61Rd6 - p20Rd6 - p60Rd6 + pro28Rd6 >= -2 
p62Rd6 - p30Rd7 + pro29Rd6 >= 0 
p22Rd6 - p62Rd6 + pro29Rd6 >= 0 
p30Rd7 - p22Rd6 + pro29Rd6 >= 0 
p22Rd6 + p62Rd6 + p30Rd7 + pro29Rd6 <= 3 
p22Rd6 + p62Rd6 + p30Rd7 - pro29Rd6 >= 0 
p21Rd6 + p61Rd6 + p29Rd7 + pro29Rd6 - p62Rd6 >= 0 
p62Rd6 + p21Rd6 - p61Rd6 + p29Rd7 + pro29Rd6 >= 0 
p62Rd6 - p21Rd6 + p61Rd6 + p29Rd7 + pro29Rd6 >= 0 
p22Rd6 + p21Rd6 + p61Rd6 - p29Rd7 + pro29Rd6 >= 0 
p30Rd7 - p21Rd6 - p61Rd6 - p29Rd7 + pro29Rd6 >= -2 
p21Rd6 - p62Rd6 - p61Rd6 - p29Rd7 + pro29Rd6 >= -2 
p61Rd6 - p62Rd6 - p21Rd6 - p29Rd7 + pro29Rd6 >= -2 
p29Rd7 - p62Rd6 - p21Rd6 - p61Rd6 + pro29Rd6 >= -2 
p63Rd6 - p31Rd7 + pro30Rd6 >= 0 
p23Rd6 - p63Rd6 + pro30Rd6 >= 0 
p31Rd7 - p23Rd6 + pro30Rd6 >= 0 
p23Rd6 + p63Rd6 + p31Rd7 + pro30Rd6 <= 3 
p23Rd6 + p63Rd6 + p31Rd7 - pro30Rd6 >= 0 
p22Rd6 + p62Rd6 + p30Rd7 + pro30Rd6 - p63Rd6 >= 0 
p63Rd6 + p22Rd6 - p62Rd6 + p30Rd7 + pro30Rd6 >= 0 
p63Rd6 - p22Rd6 + p62Rd6 + p30Rd7 + pro30Rd6 >= 0 
p23Rd6 + p22Rd6 + p62Rd6 - p30Rd7 + pro30Rd6 >= 0 
p31Rd7 - p22Rd6 - p62Rd6 - p30Rd7 + pro30Rd6 >= -2 
p22Rd6 - p63Rd6 - p62Rd6 - p30Rd7 + pro30Rd6 >= -2 
p62Rd6 - p63Rd6 - p22Rd6 - p30Rd7 + pro30Rd6 >= -2 
p30Rd7 - p63Rd6 - p22Rd6 - p62Rd6 + pro30Rd6 >= -2 
p23Rd6 + p63Rd6 + p31Rd7 <= 2 
p23Rd6 + p63Rd6 + p31Rd7 - 2 temp6 >= 0 
temp6 - p23Rd6 >= 0 
temp6 - p63Rd6 >= 0 
temp6 - p31Rd7 >= 0 
p35Rd7 + p32Rd8 - p0Rd8 >= 0
p35Rd7 - p32Rd8 + p0Rd8 >= 0
- p35Rd7 + p32Rd8 + p0Rd8 >= 0
p35Rd7 + p32Rd8 + p0Rd8 <= 2
p36Rd7 + p33Rd8 - p1Rd8 >= 0
p36Rd7 - p33Rd8 + p1Rd8 >= 0
- p36Rd7 + p33Rd8 + p1Rd8 >= 0
p36Rd7 + p33Rd8 + p1Rd8 <= 2
p37Rd7 + p34Rd8 - p2Rd8 >= 0
p37Rd7 - p34Rd8 + p2Rd8 >= 0
- p37Rd7 + p34Rd8 + p2Rd8 >= 0
p37Rd7 + p34Rd8 + p2Rd8 <= 2
p38Rd7 + p35Rd8 - p3Rd8 >= 0
p38Rd7 - p35Rd8 + p3Rd8 >= 0
- p38Rd7 + p35Rd8 + p3Rd8 >= 0
p38Rd7 + p35Rd8 + p3Rd8 <= 2
p39Rd7 + p36Rd8 - p4Rd8 >= 0
p39Rd7 - p36Rd8 + p4Rd8 >= 0
- p39Rd7 + p36Rd8 + p4Rd8 >= 0
p39Rd7 + p36Rd8 + p4Rd8 <= 2
p40Rd7 + p37Rd8 - p5Rd8 >= 0
p40Rd7 - p37Rd8 + p5Rd8 >= 0
- p40Rd7 + p37Rd8 + p5Rd8 >= 0
p40Rd7 + p37Rd8 + p5Rd8 <= 2
p41Rd7 + p38Rd8 - p6Rd8 >= 0
p41Rd7 - p38Rd8 + p6Rd8 >= 0
- p41Rd7 + p38Rd8 + p6Rd8 >= 0
p41Rd7 + p38Rd8 + p6Rd8 <= 2
p42Rd7 + p39Rd8 - p7Rd8 >= 0
p42Rd7 - p39Rd8 + p7Rd8 >= 0
- p42Rd7 + p39Rd8 + p7Rd8 >= 0
p42Rd7 + p39Rd8 + p7Rd8 <= 2
p43Rd7 + p40Rd8 - p8Rd8 >= 0
p43Rd7 - p40Rd8 + p8Rd8 >= 0
- p43Rd7 + p40Rd8 + p8Rd8 >= 0
p43Rd7 + p40Rd8 + p8Rd8 <= 2
p44Rd7 + p41Rd8 - p9Rd8 >= 0
p44Rd7 - p41Rd8 + p9Rd8 >= 0
- p44Rd7 + p41Rd8 + p9Rd8 >= 0
p44Rd7 + p41Rd8 + p9Rd8 <= 2
p45Rd7 + p42Rd8 - p10Rd8 >= 0
p45Rd7 - p42Rd8 + p10Rd8 >= 0
- p45Rd7 + p42Rd8 + p10Rd8 >= 0
p45Rd7 + p42Rd8 + p10Rd8 <= 2
p46Rd7 + p43Rd8 - p11Rd8 >= 0
p46Rd7 - p43Rd8 + p11Rd8 >= 0
- p46Rd7 + p43Rd8 + p11Rd8 >= 0
p46Rd7 + p43Rd8 + p11Rd8 <= 2
p47Rd7 + p44Rd8 - p12Rd8 >= 0
p47Rd7 - p44Rd8 + p12Rd8 >= 0
- p47Rd7 + p44Rd8 + p12Rd8 >= 0
p47Rd7 + p44Rd8 + p12Rd8 <= 2
p48Rd7 + p45Rd8 - p13Rd8 >= 0
p48Rd7 - p45Rd8 + p13Rd8 >= 0
- p48Rd7 + p45Rd8 + p13Rd8 >= 0
p48Rd7 + p45Rd8 + p13Rd8 <= 2
p49Rd7 + p46Rd8 - p14Rd8 >= 0
p49Rd7 - p46Rd8 + p14Rd8 >= 0
- p49Rd7 + p46Rd8 + p14Rd8 >= 0
p49Rd7 + p46Rd8 + p14Rd8 <= 2
p50Rd7 + p47Rd8 - p15Rd8 >= 0
p50Rd7 - p47Rd8 + p15Rd8 >= 0
- p50Rd7 + p47Rd8 + p15Rd8 >= 0
p50Rd7 + p47Rd8 + p15Rd8 <= 2
p51Rd7 + p48Rd8 - p16Rd8 >= 0
p51Rd7 - p48Rd8 + p16Rd8 >= 0
- p51Rd7 + p48Rd8 + p16Rd8 >= 0
p51Rd7 + p48Rd8 + p16Rd8 <= 2
p52Rd7 + p49Rd8 - p17Rd8 >= 0
p52Rd7 - p49Rd8 + p17Rd8 >= 0
- p52Rd7 + p49Rd8 + p17Rd8 >= 0
p52Rd7 + p49Rd8 + p17Rd8 <= 2
p53Rd7 + p50Rd8 - p18Rd8 >= 0
p53Rd7 - p50Rd8 + p18Rd8 >= 0
- p53Rd7 + p50Rd8 + p18Rd8 >= 0
p53Rd7 + p50Rd8 + p18Rd8 <= 2
p54Rd7 + p51Rd8 - p19Rd8 >= 0
p54Rd7 - p51Rd8 + p19Rd8 >= 0
- p54Rd7 + p51Rd8 + p19Rd8 >= 0
p54Rd7 + p51Rd8 + p19Rd8 <= 2
p55Rd7 + p52Rd8 - p20Rd8 >= 0
p55Rd7 - p52Rd8 + p20Rd8 >= 0
- p55Rd7 + p52Rd8 + p20Rd8 >= 0
p55Rd7 + p52Rd8 + p20Rd8 <= 2
p56Rd7 + p53Rd8 - p21Rd8 >= 0
p56Rd7 - p53Rd8 + p21Rd8 >= 0
- p56Rd7 + p53Rd8 + p21Rd8 >= 0
p56Rd7 + p53Rd8 + p21Rd8 <= 2
p57Rd7 + p54Rd8 - p22Rd8 >= 0
p57Rd7 - p54Rd8 + p22Rd8 >= 0
- p57Rd7 + p54Rd8 + p22Rd8 >= 0
p57Rd7 + p54Rd8 + p22Rd8 <= 2
p58Rd7 + p55Rd8 - p23Rd8 >= 0
p58Rd7 - p55Rd8 + p23Rd8 >= 0
- p58Rd7 + p55Rd8 + p23Rd8 >= 0
p58Rd7 + p55Rd8 + p23Rd8 <= 2
p59Rd7 + p56Rd8 - p24Rd8 >= 0
p59Rd7 - p56Rd8 + p24Rd8 >= 0
- p59Rd7 + p56Rd8 + p24Rd8 >= 0
p59Rd7 + p56Rd8 + p24Rd8 <= 2
p60Rd7 + p57Rd8 - p25Rd8 >= 0
p60Rd7 - p57Rd8 + p25Rd8 >= 0
- p60Rd7 + p57Rd8 + p25Rd8 >= 0
p60Rd7 + p57Rd8 + p25Rd8 <= 2
p61Rd7 + p58Rd8 - p26Rd8 >= 0
p61Rd7 - p58Rd8 + p26Rd8 >= 0
- p61Rd7 + p58Rd8 + p26Rd8 >= 0
p61Rd7 + p58Rd8 + p26Rd8 <= 2
p62Rd7 + p59Rd8 - p27Rd8 >= 0
p62Rd7 - p59Rd8 + p27Rd8 >= 0
- p62Rd7 + p59Rd8 + p27Rd8 >= 0
p62Rd7 + p59Rd8 + p27Rd8 <= 2
p63Rd7 + p60Rd8 - p28Rd8 >= 0
p63Rd7 - p60Rd8 + p28Rd8 >= 0
- p63Rd7 + p60Rd8 + p28Rd8 >= 0
p63Rd7 + p60Rd8 + p28Rd8 <= 2
p32Rd7 + p61Rd8 - p29Rd8 >= 0
p32Rd7 - p61Rd8 + p29Rd8 >= 0
- p32Rd7 + p61Rd8 + p29Rd8 >= 0
p32Rd7 + p61Rd8 + p29Rd8 <= 2
p33Rd7 + p62Rd8 - p30Rd8 >= 0
p33Rd7 - p62Rd8 + p30Rd8 >= 0
- p33Rd7 + p62Rd8 + p30Rd8 >= 0
p33Rd7 + p62Rd8 + p30Rd8 <= 2
p34Rd7 + p63Rd8 - p31Rd8 >= 0
p34Rd7 - p63Rd8 + p31Rd8 >= 0
- p34Rd7 + p63Rd8 + p31Rd8 >= 0
p34Rd7 + p63Rd8 + p31Rd8 <= 2
p33Rd7 - p1Rd8 + pro0Rd7 >= 0 
p25Rd7 - p33Rd7 + pro0Rd7 >= 0 
p1Rd8 - p25Rd7 + pro0Rd7 >= 0 
p25Rd7 + p33Rd7 + p1Rd8 + pro0Rd7 <= 3 
p25Rd7 + p33Rd7 + p1Rd8 - pro0Rd7 >= 0 
p24Rd7 + p32Rd7 + p0Rd8 + pro0Rd7 - p33Rd7 >= 0 
p33Rd7 + p24Rd7 - p32Rd7 + p0Rd8 + pro0Rd7 >= 0 
p33Rd7 - p24Rd7 + p32Rd7 + p0Rd8 + pro0Rd7 >= 0 
p25Rd7 + p24Rd7 + p32Rd7 - p0Rd8 + pro0Rd7 >= 0 
p1Rd8 - p24Rd7 - p32Rd7 - p0Rd8 + pro0Rd7 >= -2 
p24Rd7 - p33Rd7 - p32Rd7 - p0Rd8 + pro0Rd7 >= -2 
p32Rd7 - p33Rd7 - p24Rd7 - p0Rd8 + pro0Rd7 >= -2 
p0Rd8 - p33Rd7 - p24Rd7 - p32Rd7 + pro0Rd7 >= -2 
p34Rd7 - p2Rd8 + pro1Rd7 >= 0 
p26Rd7 - p34Rd7 + pro1Rd7 >= 0 
p2Rd8 - p26Rd7 + pro1Rd7 >= 0 
p26Rd7 + p34Rd7 + p2Rd8 + pro1Rd7 <= 3 
p26Rd7 + p34Rd7 + p2Rd8 - pro1Rd7 >= 0 
p25Rd7 + p33Rd7 + p1Rd8 + pro1Rd7 - p34Rd7 >= 0 
p34Rd7 + p25Rd7 - p33Rd7 + p1Rd8 + pro1Rd7 >= 0 
p34Rd7 - p25Rd7 + p33Rd7 + p1Rd8 + pro1Rd7 >= 0 
p26Rd7 + p25Rd7 + p33Rd7 - p1Rd8 + pro1Rd7 >= 0 
p2Rd8 - p25Rd7 - p33Rd7 - p1Rd8 + pro1Rd7 >= -2 
p25Rd7 - p34Rd7 - p33Rd7 - p1Rd8 + pro1Rd7 >= -2 
p33Rd7 - p34Rd7 - p25Rd7 - p1Rd8 + pro1Rd7 >= -2 
p1Rd8 - p34Rd7 - p25Rd7 - p33Rd7 + pro1Rd7 >= -2 
p35Rd7 - p3Rd8 + pro2Rd7 >= 0 
p27Rd7 - p35Rd7 + pro2Rd7 >= 0 
p3Rd8 - p27Rd7 + pro2Rd7 >= 0 
p27Rd7 + p35Rd7 + p3Rd8 + pro2Rd7 <= 3 
p27Rd7 + p35Rd7 + p3Rd8 - pro2Rd7 >= 0 
p26Rd7 + p34Rd7 + p2Rd8 + pro2Rd7 - p35Rd7 >= 0 
p35Rd7 + p26Rd7 - p34Rd7 + p2Rd8 + pro2Rd7 >= 0 
p35Rd7 - p26Rd7 + p34Rd7 + p2Rd8 + pro2Rd7 >= 0 
p27Rd7 + p26Rd7 + p34Rd7 - p2Rd8 + pro2Rd7 >= 0 
p3Rd8 - p26Rd7 - p34Rd7 - p2Rd8 + pro2Rd7 >= -2 
p26Rd7 - p35Rd7 - p34Rd7 - p2Rd8 + pro2Rd7 >= -2 
p34Rd7 - p35Rd7 - p26Rd7 - p2Rd8 + pro2Rd7 >= -2 
p2Rd8 - p35Rd7 - p26Rd7 - p34Rd7 + pro2Rd7 >= -2 
p36Rd7 - p4Rd8 + pro3Rd7 >= 0 
p28Rd7 - p36Rd7 + pro3Rd7 >= 0 
p4Rd8 - p28Rd7 + pro3Rd7 >= 0 
p28Rd7 + p36Rd7 + p4Rd8 + pro3Rd7 <= 3 
p28Rd7 + p36Rd7 + p4Rd8 - pro3Rd7 >= 0 
p27Rd7 + p35Rd7 + p3Rd8 + pro3Rd7 - p36Rd7 >= 0 
p36Rd7 + p27Rd7 - p35Rd7 + p3Rd8 + pro3Rd7 >= 0 
p36Rd7 - p27Rd7 + p35Rd7 + p3Rd8 + pro3Rd7 >= 0 
p28Rd7 + p27Rd7 + p35Rd7 - p3Rd8 + pro3Rd7 >= 0 
p4Rd8 - p27Rd7 - p35Rd7 - p3Rd8 + pro3Rd7 >= -2 
p27Rd7 - p36Rd7 - p35Rd7 - p3Rd8 + pro3Rd7 >= -2 
p35Rd7 - p36Rd7 - p27Rd7 - p3Rd8 + pro3Rd7 >= -2 
p3Rd8 - p36Rd7 - p27Rd7 - p35Rd7 + pro3Rd7 >= -2 
p37Rd7 - p5Rd8 + pro4Rd7 >= 0 
p29Rd7 - p37Rd7 + pro4Rd7 >= 0 
p5Rd8 - p29Rd7 + pro4Rd7 >= 0 
p29Rd7 + p37Rd7 + p5Rd8 + pro4Rd7 <= 3 
p29Rd7 + p37Rd7 + p5Rd8 - pro4Rd7 >= 0 
p28Rd7 + p36Rd7 + p4Rd8 + pro4Rd7 - p37Rd7 >= 0 
p37Rd7 + p28Rd7 - p36Rd7 + p4Rd8 + pro4Rd7 >= 0 
p37Rd7 - p28Rd7 + p36Rd7 + p4Rd8 + pro4Rd7 >= 0 
p29Rd7 + p28Rd7 + p36Rd7 - p4Rd8 + pro4Rd7 >= 0 
p5Rd8 - p28Rd7 - p36Rd7 - p4Rd8 + pro4Rd7 >= -2 
p28Rd7 - p37Rd7 - p36Rd7 - p4Rd8 + pro4Rd7 >= -2 
p36Rd7 - p37Rd7 - p28Rd7 - p4Rd8 + pro4Rd7 >= -2 
p4Rd8 - p37Rd7 - p28Rd7 - p36Rd7 + pro4Rd7 >= -2 
p38Rd7 - p6Rd8 + pro5Rd7 >= 0 
p30Rd7 - p38Rd7 + pro5Rd7 >= 0 
p6Rd8 - p30Rd7 + pro5Rd7 >= 0 
p30Rd7 + p38Rd7 + p6Rd8 + pro5Rd7 <= 3 
p30Rd7 + p38Rd7 + p6Rd8 - pro5Rd7 >= 0 
p29Rd7 + p37Rd7 + p5Rd8 + pro5Rd7 - p38Rd7 >= 0 
p38Rd7 + p29Rd7 - p37Rd7 + p5Rd8 + pro5Rd7 >= 0 
p38Rd7 - p29Rd7 + p37Rd7 + p5Rd8 + pro5Rd7 >= 0 
p30Rd7 + p29Rd7 + p37Rd7 - p5Rd8 + pro5Rd7 >= 0 
p6Rd8 - p29Rd7 - p37Rd7 - p5Rd8 + pro5Rd7 >= -2 
p29Rd7 - p38Rd7 - p37Rd7 - p5Rd8 + pro5Rd7 >= -2 
p37Rd7 - p38Rd7 - p29Rd7 - p5Rd8 + pro5Rd7 >= -2 
p5Rd8 - p38Rd7 - p29Rd7 - p37Rd7 + pro5Rd7 >= -2 
p39Rd7 - p7Rd8 + pro6Rd7 >= 0 
p31Rd7 - p39Rd7 + pro6Rd7 >= 0 
p7Rd8 - p31Rd7 + pro6Rd7 >= 0 
p31Rd7 + p39Rd7 + p7Rd8 + pro6Rd7 <= 3 
p31Rd7 + p39Rd7 + p7Rd8 - pro6Rd7 >= 0 
p30Rd7 + p38Rd7 + p6Rd8 + pro6Rd7 - p39Rd7 >= 0 
p39Rd7 + p30Rd7 - p38Rd7 + p6Rd8 + pro6Rd7 >= 0 
p39Rd7 - p30Rd7 + p38Rd7 + p6Rd8 + pro6Rd7 >= 0 
p31Rd7 + p30Rd7 + p38Rd7 - p6Rd8 + pro6Rd7 >= 0 
p7Rd8 - p30Rd7 - p38Rd7 - p6Rd8 + pro6Rd7 >= -2 
p30Rd7 - p39Rd7 - p38Rd7 - p6Rd8 + pro6Rd7 >= -2 
p38Rd7 - p39Rd7 - p30Rd7 - p6Rd8 + pro6Rd7 >= -2 
p6Rd8 - p39Rd7 - p30Rd7 - p38Rd7 + pro6Rd7 >= -2 
p40Rd7 - p8Rd8 + pro7Rd7 >= 0 
p0Rd7 - p40Rd7 + pro7Rd7 >= 0 
p8Rd8 - p0Rd7 + pro7Rd7 >= 0 
p0Rd7 + p40Rd7 + p8Rd8 + pro7Rd7 <= 3 
p0Rd7 + p40Rd7 + p8Rd8 - pro7Rd7 >= 0 
p31Rd7 + p39Rd7 + p7Rd8 + pro7Rd7 - p40Rd7 >= 0 
p40Rd7 + p31Rd7 - p39Rd7 + p7Rd8 + pro7Rd7 >= 0 
p40Rd7 - p31Rd7 + p39Rd7 + p7Rd8 + pro7Rd7 >= 0 
p0Rd7 + p31Rd7 + p39Rd7 - p7Rd8 + pro7Rd7 >= 0 
p8Rd8 - p31Rd7 - p39Rd7 - p7Rd8 + pro7Rd7 >= -2 
p31Rd7 - p40Rd7 - p39Rd7 - p7Rd8 + pro7Rd7 >= -2 
p39Rd7 - p40Rd7 - p31Rd7 - p7Rd8 + pro7Rd7 >= -2 
p7Rd8 - p40Rd7 - p31Rd7 - p39Rd7 + pro7Rd7 >= -2 
p41Rd7 - p9Rd8 + pro8Rd7 >= 0 
p1Rd7 - p41Rd7 + pro8Rd7 >= 0 
p9Rd8 - p1Rd7 + pro8Rd7 >= 0 
p1Rd7 + p41Rd7 + p9Rd8 + pro8Rd7 <= 3 
p1Rd7 + p41Rd7 + p9Rd8 - pro8Rd7 >= 0 
p0Rd7 + p40Rd7 + p8Rd8 + pro8Rd7 - p41Rd7 >= 0 
p41Rd7 + p0Rd7 - p40Rd7 + p8Rd8 + pro8Rd7 >= 0 
p41Rd7 - p0Rd7 + p40Rd7 + p8Rd8 + pro8Rd7 >= 0 
p1Rd7 + p0Rd7 + p40Rd7 - p8Rd8 + pro8Rd7 >= 0 
p9Rd8 - p0Rd7 - p40Rd7 - p8Rd8 + pro8Rd7 >= -2 
p0Rd7 - p41Rd7 - p40Rd7 - p8Rd8 + pro8Rd7 >= -2 
p40Rd7 - p41Rd7 - p0Rd7 - p8Rd8 + pro8Rd7 >= -2 
p8Rd8 - p41Rd7 - p0Rd7 - p40Rd7 + pro8Rd7 >= -2 
p42Rd7 - p10Rd8 + pro9Rd7 >= 0 
p2Rd7 - p42Rd7 + pro9Rd7 >= 0 
p10Rd8 - p2Rd7 + pro9Rd7 >= 0 
p2Rd7 + p42Rd7 + p10Rd8 + pro9Rd7 <= 3 
p2Rd7 + p42Rd7 + p10Rd8 - pro9Rd7 >= 0 
p1Rd7 + p41Rd7 + p9Rd8 + pro9Rd7 - p42Rd7 >= 0 
p42Rd7 + p1Rd7 - p41Rd7 + p9Rd8 + pro9Rd7 >= 0 
p42Rd7 - p1Rd7 + p41Rd7 + p9Rd8 + pro9Rd7 >= 0 
p2Rd7 + p1Rd7 + p41Rd7 - p9Rd8 + pro9Rd7 >= 0 
p10Rd8 - p1Rd7 - p41Rd7 - p9Rd8 + pro9Rd7 >= -2 
p1Rd7 - p42Rd7 - p41Rd7 - p9Rd8 + pro9Rd7 >= -2 
p41Rd7 - p42Rd7 - p1Rd7 - p9Rd8 + pro9Rd7 >= -2 
p9Rd8 - p42Rd7 - p1Rd7 - p41Rd7 + pro9Rd7 >= -2 
p43Rd7 - p11Rd8 + pro10Rd7 >= 0 
p3Rd7 - p43Rd7 + pro10Rd7 >= 0 
p11Rd8 - p3Rd7 + pro10Rd7 >= 0 
p3Rd7 + p43Rd7 + p11Rd8 + pro10Rd7 <= 3 
p3Rd7 + p43Rd7 + p11Rd8 - pro10Rd7 >= 0 
p2Rd7 + p42Rd7 + p10Rd8 + pro10Rd7 - p43Rd7 >= 0 
p43Rd7 + p2Rd7 - p42Rd7 + p10Rd8 + pro10Rd7 >= 0 
p43Rd7 - p2Rd7 + p42Rd7 + p10Rd8 + pro10Rd7 >= 0 
p3Rd7 + p2Rd7 + p42Rd7 - p10Rd8 + pro10Rd7 >= 0 
p11Rd8 - p2Rd7 - p42Rd7 - p10Rd8 + pro10Rd7 >= -2 
p2Rd7 - p43Rd7 - p42Rd7 - p10Rd8 + pro10Rd7 >= -2 
p42Rd7 - p43Rd7 - p2Rd7 - p10Rd8 + pro10Rd7 >= -2 
p10Rd8 - p43Rd7 - p2Rd7 - p42Rd7 + pro10Rd7 >= -2 
p44Rd7 - p12Rd8 + pro11Rd7 >= 0 
p4Rd7 - p44Rd7 + pro11Rd7 >= 0 
p12Rd8 - p4Rd7 + pro11Rd7 >= 0 
p4Rd7 + p44Rd7 + p12Rd8 + pro11Rd7 <= 3 
p4Rd7 + p44Rd7 + p12Rd8 - pro11Rd7 >= 0 
p3Rd7 + p43Rd7 + p11Rd8 + pro11Rd7 - p44Rd7 >= 0 
p44Rd7 + p3Rd7 - p43Rd7 + p11Rd8 + pro11Rd7 >= 0 
p44Rd7 - p3Rd7 + p43Rd7 + p11Rd8 + pro11Rd7 >= 0 
p4Rd7 + p3Rd7 + p43Rd7 - p11Rd8 + pro11Rd7 >= 0 
p12Rd8 - p3Rd7 - p43Rd7 - p11Rd8 + pro11Rd7 >= -2 
p3Rd7 - p44Rd7 - p43Rd7 - p11Rd8 + pro11Rd7 >= -2 
p43Rd7 - p44Rd7 - p3Rd7 - p11Rd8 + pro11Rd7 >= -2 
p11Rd8 - p44Rd7 - p3Rd7 - p43Rd7 + pro11Rd7 >= -2 
p45Rd7 - p13Rd8 + pro12Rd7 >= 0 
p5Rd7 - p45Rd7 + pro12Rd7 >= 0 
p13Rd8 - p5Rd7 + pro12Rd7 >= 0 
p5Rd7 + p45Rd7 + p13Rd8 + pro12Rd7 <= 3 
p5Rd7 + p45Rd7 + p13Rd8 - pro12Rd7 >= 0 
p4Rd7 + p44Rd7 + p12Rd8 + pro12Rd7 - p45Rd7 >= 0 
p45Rd7 + p4Rd7 - p44Rd7 + p12Rd8 + pro12Rd7 >= 0 
p45Rd7 - p4Rd7 + p44Rd7 + p12Rd8 + pro12Rd7 >= 0 
p5Rd7 + p4Rd7 + p44Rd7 - p12Rd8 + pro12Rd7 >= 0 
p13Rd8 - p4Rd7 - p44Rd7 - p12Rd8 + pro12Rd7 >= -2 
p4Rd7 - p45Rd7 - p44Rd7 - p12Rd8 + pro12Rd7 >= -2 
p44Rd7 - p45Rd7 - p4Rd7 - p12Rd8 + pro12Rd7 >= -2 
p12Rd8 - p45Rd7 - p4Rd7 - p44Rd7 + pro12Rd7 >= -2 
p46Rd7 - p14Rd8 + pro13Rd7 >= 0 
p6Rd7 - p46Rd7 + pro13Rd7 >= 0 
p14Rd8 - p6Rd7 + pro13Rd7 >= 0 
p6Rd7 + p46Rd7 + p14Rd8 + pro13Rd7 <= 3 
p6Rd7 + p46Rd7 + p14Rd8 - pro13Rd7 >= 0 
p5Rd7 + p45Rd7 + p13Rd8 + pro13Rd7 - p46Rd7 >= 0 
p46Rd7 + p5Rd7 - p45Rd7 + p13Rd8 + pro13Rd7 >= 0 
p46Rd7 - p5Rd7 + p45Rd7 + p13Rd8 + pro13Rd7 >= 0 
p6Rd7 + p5Rd7 + p45Rd7 - p13Rd8 + pro13Rd7 >= 0 
p14Rd8 - p5Rd7 - p45Rd7 - p13Rd8 + pro13Rd7 >= -2 
p5Rd7 - p46Rd7 - p45Rd7 - p13Rd8 + pro13Rd7 >= -2 
p45Rd7 - p46Rd7 - p5Rd7 - p13Rd8 + pro13Rd7 >= -2 
p13Rd8 - p46Rd7 - p5Rd7 - p45Rd7 + pro13Rd7 >= -2 
p47Rd7 - p15Rd8 + pro14Rd7 >= 0 
p7Rd7 - p47Rd7 + pro14Rd7 >= 0 
p15Rd8 - p7Rd7 + pro14Rd7 >= 0 
p7Rd7 + p47Rd7 + p15Rd8 + pro14Rd7 <= 3 
p7Rd7 + p47Rd7 + p15Rd8 - pro14Rd7 >= 0 
p6Rd7 + p46Rd7 + p14Rd8 + pro14Rd7 - p47Rd7 >= 0 
p47Rd7 + p6Rd7 - p46Rd7 + p14Rd8 + pro14Rd7 >= 0 
p47Rd7 - p6Rd7 + p46Rd7 + p14Rd8 + pro14Rd7 >= 0 
p7Rd7 + p6Rd7 + p46Rd7 - p14Rd8 + pro14Rd7 >= 0 
p15Rd8 - p6Rd7 - p46Rd7 - p14Rd8 + pro14Rd7 >= -2 
p6Rd7 - p47Rd7 - p46Rd7 - p14Rd8 + pro14Rd7 >= -2 
p46Rd7 - p47Rd7 - p6Rd7 - p14Rd8 + pro14Rd7 >= -2 
p14Rd8 - p47Rd7 - p6Rd7 - p46Rd7 + pro14Rd7 >= -2 
p48Rd7 - p16Rd8 + pro15Rd7 >= 0 
p8Rd7 - p48Rd7 + pro15Rd7 >= 0 
p16Rd8 - p8Rd7 + pro15Rd7 >= 0 
p8Rd7 + p48Rd7 + p16Rd8 + pro15Rd7 <= 3 
p8Rd7 + p48Rd7 + p16Rd8 - pro15Rd7 >= 0 
p7Rd7 + p47Rd7 + p15Rd8 + pro15Rd7 - p48Rd7 >= 0 
p48Rd7 + p7Rd7 - p47Rd7 + p15Rd8 + pro15Rd7 >= 0 
p48Rd7 - p7Rd7 + p47Rd7 + p15Rd8 + pro15Rd7 >= 0 
p8Rd7 + p7Rd7 + p47Rd7 - p15Rd8 + pro15Rd7 >= 0 
p16Rd8 - p7Rd7 - p47Rd7 - p15Rd8 + pro15Rd7 >= -2 
p7Rd7 - p48Rd7 - p47Rd7 - p15Rd8 + pro15Rd7 >= -2 
p47Rd7 - p48Rd7 - p7Rd7 - p15Rd8 + pro15Rd7 >= -2 
p15Rd8 - p48Rd7 - p7Rd7 - p47Rd7 + pro15Rd7 >= -2 
p49Rd7 - p17Rd8 + pro16Rd7 >= 0 
p9Rd7 - p49Rd7 + pro16Rd7 >= 0 
p17Rd8 - p9Rd7 + pro16Rd7 >= 0 
p9Rd7 + p49Rd7 + p17Rd8 + pro16Rd7 <= 3 
p9Rd7 + p49Rd7 + p17Rd8 - pro16Rd7 >= 0 
p8Rd7 + p48Rd7 + p16Rd8 + pro16Rd7 - p49Rd7 >= 0 
p49Rd7 + p8Rd7 - p48Rd7 + p16Rd8 + pro16Rd7 >= 0 
p49Rd7 - p8Rd7 + p48Rd7 + p16Rd8 + pro16Rd7 >= 0 
p9Rd7 + p8Rd7 + p48Rd7 - p16Rd8 + pro16Rd7 >= 0 
p17Rd8 - p8Rd7 - p48Rd7 - p16Rd8 + pro16Rd7 >= -2 
p8Rd7 - p49Rd7 - p48Rd7 - p16Rd8 + pro16Rd7 >= -2 
p48Rd7 - p49Rd7 - p8Rd7 - p16Rd8 + pro16Rd7 >= -2 
p16Rd8 - p49Rd7 - p8Rd7 - p48Rd7 + pro16Rd7 >= -2 
p50Rd7 - p18Rd8 + pro17Rd7 >= 0 
p10Rd7 - p50Rd7 + pro17Rd7 >= 0 
p18Rd8 - p10Rd7 + pro17Rd7 >= 0 
p10Rd7 + p50Rd7 + p18Rd8 + pro17Rd7 <= 3 
p10Rd7 + p50Rd7 + p18Rd8 - pro17Rd7 >= 0 
p9Rd7 + p49Rd7 + p17Rd8 + pro17Rd7 - p50Rd7 >= 0 
p50Rd7 + p9Rd7 - p49Rd7 + p17Rd8 + pro17Rd7 >= 0 
p50Rd7 - p9Rd7 + p49Rd7 + p17Rd8 + pro17Rd7 >= 0 
p10Rd7 + p9Rd7 + p49Rd7 - p17Rd8 + pro17Rd7 >= 0 
p18Rd8 - p9Rd7 - p49Rd7 - p17Rd8 + pro17Rd7 >= -2 
p9Rd7 - p50Rd7 - p49Rd7 - p17Rd8 + pro17Rd7 >= -2 
p49Rd7 - p50Rd7 - p9Rd7 - p17Rd8 + pro17Rd7 >= -2 
p17Rd8 - p50Rd7 - p9Rd7 - p49Rd7 + pro17Rd7 >= -2 
p51Rd7 - p19Rd8 + pro18Rd7 >= 0 
p11Rd7 - p51Rd7 + pro18Rd7 >= 0 
p19Rd8 - p11Rd7 + pro18Rd7 >= 0 
p11Rd7 + p51Rd7 + p19Rd8 + pro18Rd7 <= 3 
p11Rd7 + p51Rd7 + p19Rd8 - pro18Rd7 >= 0 
p10Rd7 + p50Rd7 + p18Rd8 + pro18Rd7 - p51Rd7 >= 0 
p51Rd7 + p10Rd7 - p50Rd7 + p18Rd8 + pro18Rd7 >= 0 
p51Rd7 - p10Rd7 + p50Rd7 + p18Rd8 + pro18Rd7 >= 0 
p11Rd7 + p10Rd7 + p50Rd7 - p18Rd8 + pro18Rd7 >= 0 
p19Rd8 - p10Rd7 - p50Rd7 - p18Rd8 + pro18Rd7 >= -2 
p10Rd7 - p51Rd7 - p50Rd7 - p18Rd8 + pro18Rd7 >= -2 
p50Rd7 - p51Rd7 - p10Rd7 - p18Rd8 + pro18Rd7 >= -2 
p18Rd8 - p51Rd7 - p10Rd7 - p50Rd7 + pro18Rd7 >= -2 
p52Rd7 - p20Rd8 + pro19Rd7 >= 0 
p12Rd7 - p52Rd7 + pro19Rd7 >= 0 
p20Rd8 - p12Rd7 + pro19Rd7 >= 0 
p12Rd7 + p52Rd7 + p20Rd8 + pro19Rd7 <= 3 
p12Rd7 + p52Rd7 + p20Rd8 - pro19Rd7 >= 0 
p11Rd7 + p51Rd7 + p19Rd8 + pro19Rd7 - p52Rd7 >= 0 
p52Rd7 + p11Rd7 - p51Rd7 + p19Rd8 + pro19Rd7 >= 0 
p52Rd7 - p11Rd7 + p51Rd7 + p19Rd8 + pro19Rd7 >= 0 
p12Rd7 + p11Rd7 + p51Rd7 - p19Rd8 + pro19Rd7 >= 0 
p20Rd8 - p11Rd7 - p51Rd7 - p19Rd8 + pro19Rd7 >= -2 
p11Rd7 - p52Rd7 - p51Rd7 - p19Rd8 + pro19Rd7 >= -2 
p51Rd7 - p52Rd7 - p11Rd7 - p19Rd8 + pro19Rd7 >= -2 
p19Rd8 - p52Rd7 - p11Rd7 - p51Rd7 + pro19Rd7 >= -2 
p53Rd7 - p21Rd8 + pro20Rd7 >= 0 
p13Rd7 - p53Rd7 + pro20Rd7 >= 0 
p21Rd8 - p13Rd7 + pro20Rd7 >= 0 
p13Rd7 + p53Rd7 + p21Rd8 + pro20Rd7 <= 3 
p13Rd7 + p53Rd7 + p21Rd8 - pro20Rd7 >= 0 
p12Rd7 + p52Rd7 + p20Rd8 + pro20Rd7 - p53Rd7 >= 0 
p53Rd7 + p12Rd7 - p52Rd7 + p20Rd8 + pro20Rd7 >= 0 
p53Rd7 - p12Rd7 + p52Rd7 + p20Rd8 + pro20Rd7 >= 0 
p13Rd7 + p12Rd7 + p52Rd7 - p20Rd8 + pro20Rd7 >= 0 
p21Rd8 - p12Rd7 - p52Rd7 - p20Rd8 + pro20Rd7 >= -2 
p12Rd7 - p53Rd7 - p52Rd7 - p20Rd8 + pro20Rd7 >= -2 
p52Rd7 - p53Rd7 - p12Rd7 - p20Rd8 + pro20Rd7 >= -2 
p20Rd8 - p53Rd7 - p12Rd7 - p52Rd7 + pro20Rd7 >= -2 
p54Rd7 - p22Rd8 + pro21Rd7 >= 0 
p14Rd7 - p54Rd7 + pro21Rd7 >= 0 
p22Rd8 - p14Rd7 + pro21Rd7 >= 0 
p14Rd7 + p54Rd7 + p22Rd8 + pro21Rd7 <= 3 
p14Rd7 + p54Rd7 + p22Rd8 - pro21Rd7 >= 0 
p13Rd7 + p53Rd7 + p21Rd8 + pro21Rd7 - p54Rd7 >= 0 
p54Rd7 + p13Rd7 - p53Rd7 + p21Rd8 + pro21Rd7 >= 0 
p54Rd7 - p13Rd7 + p53Rd7 + p21Rd8 + pro21Rd7 >= 0 
p14Rd7 + p13Rd7 + p53Rd7 - p21Rd8 + pro21Rd7 >= 0 
p22Rd8 - p13Rd7 - p53Rd7 - p21Rd8 + pro21Rd7 >= -2 
p13Rd7 - p54Rd7 - p53Rd7 - p21Rd8 + pro21Rd7 >= -2 
p53Rd7 - p54Rd7 - p13Rd7 - p21Rd8 + pro21Rd7 >= -2 
p21Rd8 - p54Rd7 - p13Rd7 - p53Rd7 + pro21Rd7 >= -2 
p55Rd7 - p23Rd8 + pro22Rd7 >= 0 
p15Rd7 - p55Rd7 + pro22Rd7 >= 0 
p23Rd8 - p15Rd7 + pro22Rd7 >= 0 
p15Rd7 + p55Rd7 + p23Rd8 + pro22Rd7 <= 3 
p15Rd7 + p55Rd7 + p23Rd8 - pro22Rd7 >= 0 
p14Rd7 + p54Rd7 + p22Rd8 + pro22Rd7 - p55Rd7 >= 0 
p55Rd7 + p14Rd7 - p54Rd7 + p22Rd8 + pro22Rd7 >= 0 
p55Rd7 - p14Rd7 + p54Rd7 + p22Rd8 + pro22Rd7 >= 0 
p15Rd7 + p14Rd7 + p54Rd7 - p22Rd8 + pro22Rd7 >= 0 
p23Rd8 - p14Rd7 - p54Rd7 - p22Rd8 + pro22Rd7 >= -2 
p14Rd7 - p55Rd7 - p54Rd7 - p22Rd8 + pro22Rd7 >= -2 
p54Rd7 - p55Rd7 - p14Rd7 - p22Rd8 + pro22Rd7 >= -2 
p22Rd8 - p55Rd7 - p14Rd7 - p54Rd7 + pro22Rd7 >= -2 
p56Rd7 - p24Rd8 + pro23Rd7 >= 0 
p16Rd7 - p56Rd7 + pro23Rd7 >= 0 
p24Rd8 - p16Rd7 + pro23Rd7 >= 0 
p16Rd7 + p56Rd7 + p24Rd8 + pro23Rd7 <= 3 
p16Rd7 + p56Rd7 + p24Rd8 - pro23Rd7 >= 0 
p15Rd7 + p55Rd7 + p23Rd8 + pro23Rd7 - p56Rd7 >= 0 
p56Rd7 + p15Rd7 - p55Rd7 + p23Rd8 + pro23Rd7 >= 0 
p56Rd7 - p15Rd7 + p55Rd7 + p23Rd8 + pro23Rd7 >= 0 
p16Rd7 + p15Rd7 + p55Rd7 - p23Rd8 + pro23Rd7 >= 0 
p24Rd8 - p15Rd7 - p55Rd7 - p23Rd8 + pro23Rd7 >= -2 
p15Rd7 - p56Rd7 - p55Rd7 - p23Rd8 + pro23Rd7 >= -2 
p55Rd7 - p56Rd7 - p15Rd7 - p23Rd8 + pro23Rd7 >= -2 
p23Rd8 - p56Rd7 - p15Rd7 - p55Rd7 + pro23Rd7 >= -2 
p57Rd7 - p25Rd8 + pro24Rd7 >= 0 
p17Rd7 - p57Rd7 + pro24Rd7 >= 0 
p25Rd8 - p17Rd7 + pro24Rd7 >= 0 
p17Rd7 + p57Rd7 + p25Rd8 + pro24Rd7 <= 3 
p17Rd7 + p57Rd7 + p25Rd8 - pro24Rd7 >= 0 
p16Rd7 + p56Rd7 + p24Rd8 + pro24Rd7 - p57Rd7 >= 0 
p57Rd7 + p16Rd7 - p56Rd7 + p24Rd8 + pro24Rd7 >= 0 
p57Rd7 - p16Rd7 + p56Rd7 + p24Rd8 + pro24Rd7 >= 0 
p17Rd7 + p16Rd7 + p56Rd7 - p24Rd8 + pro24Rd7 >= 0 
p25Rd8 - p16Rd7 - p56Rd7 - p24Rd8 + pro24Rd7 >= -2 
p16Rd7 - p57Rd7 - p56Rd7 - p24Rd8 + pro24Rd7 >= -2 
p56Rd7 - p57Rd7 - p16Rd7 - p24Rd8 + pro24Rd7 >= -2 
p24Rd8 - p57Rd7 - p16Rd7 - p56Rd7 + pro24Rd7 >= -2 
p58Rd7 - p26Rd8 + pro25Rd7 >= 0 
p18Rd7 - p58Rd7 + pro25Rd7 >= 0 
p26Rd8 - p18Rd7 + pro25Rd7 >= 0 
p18Rd7 + p58Rd7 + p26Rd8 + pro25Rd7 <= 3 
p18Rd7 + p58Rd7 + p26Rd8 - pro25Rd7 >= 0 
p17Rd7 + p57Rd7 + p25Rd8 + pro25Rd7 - p58Rd7 >= 0 
p58Rd7 + p17Rd7 - p57Rd7 + p25Rd8 + pro25Rd7 >= 0 
p58Rd7 - p17Rd7 + p57Rd7 + p25Rd8 + pro25Rd7 >= 0 
p18Rd7 + p17Rd7 + p57Rd7 - p25Rd8 + pro25Rd7 >= 0 
p26Rd8 - p17Rd7 - p57Rd7 - p25Rd8 + pro25Rd7 >= -2 
p17Rd7 - p58Rd7 - p57Rd7 - p25Rd8 + pro25Rd7 >= -2 
p57Rd7 - p58Rd7 - p17Rd7 - p25Rd8 + pro25Rd7 >= -2 
p25Rd8 - p58Rd7 - p17Rd7 - p57Rd7 + pro25Rd7 >= -2 
p59Rd7 - p27Rd8 + pro26Rd7 >= 0 
p19Rd7 - p59Rd7 + pro26Rd7 >= 0 
p27Rd8 - p19Rd7 + pro26Rd7 >= 0 
p19Rd7 + p59Rd7 + p27Rd8 + pro26Rd7 <= 3 
p19Rd7 + p59Rd7 + p27Rd8 - pro26Rd7 >= 0 
p18Rd7 + p58Rd7 + p26Rd8 + pro26Rd7 - p59Rd7 >= 0 
p59Rd7 + p18Rd7 - p58Rd7 + p26Rd8 + pro26Rd7 >= 0 
p59Rd7 - p18Rd7 + p58Rd7 + p26Rd8 + pro26Rd7 >= 0 
p19Rd7 + p18Rd7 + p58Rd7 - p26Rd8 + pro26Rd7 >= 0 
p27Rd8 - p18Rd7 - p58Rd7 - p26Rd8 + pro26Rd7 >= -2 
p18Rd7 - p59Rd7 - p58Rd7 - p26Rd8 + pro26Rd7 >= -2 
p58Rd7 - p59Rd7 - p18Rd7 - p26Rd8 + pro26Rd7 >= -2 
p26Rd8 - p59Rd7 - p18Rd7 - p58Rd7 + pro26Rd7 >= -2 
p60Rd7 - p28Rd8 + pro27Rd7 >= 0 
p20Rd7 - p60Rd7 + pro27Rd7 >= 0 
p28Rd8 - p20Rd7 + pro27Rd7 >= 0 
p20Rd7 + p60Rd7 + p28Rd8 + pro27Rd7 <= 3 
p20Rd7 + p60Rd7 + p28Rd8 - pro27Rd7 >= 0 
p19Rd7 + p59Rd7 + p27Rd8 + pro27Rd7 - p60Rd7 >= 0 
p60Rd7 + p19Rd7 - p59Rd7 + p27Rd8 + pro27Rd7 >= 0 
p60Rd7 - p19Rd7 + p59Rd7 + p27Rd8 + pro27Rd7 >= 0 
p20Rd7 + p19Rd7 + p59Rd7 - p27Rd8 + pro27Rd7 >= 0 
p28Rd8 - p19Rd7 - p59Rd7 - p27Rd8 + pro27Rd7 >= -2 
p19Rd7 - p60Rd7 - p59Rd7 - p27Rd8 + pro27Rd7 >= -2 
p59Rd7 - p60Rd7 - p19Rd7 - p27Rd8 + pro27Rd7 >= -2 
p27Rd8 - p60Rd7 - p19Rd7 - p59Rd7 + pro27Rd7 >= -2 
p61Rd7 - p29Rd8 + pro28Rd7 >= 0 
p21Rd7 - p61Rd7 + pro28Rd7 >= 0 
p29Rd8 - p21Rd7 + pro28Rd7 >= 0 
p21Rd7 + p61Rd7 + p29Rd8 + pro28Rd7 <= 3 
p21Rd7 + p61Rd7 + p29Rd8 - pro28Rd7 >= 0 
p20Rd7 + p60Rd7 + p28Rd8 + pro28Rd7 - p61Rd7 >= 0 
p61Rd7 + p20Rd7 - p60Rd7 + p28Rd8 + pro28Rd7 >= 0 
p61Rd7 - p20Rd7 + p60Rd7 + p28Rd8 + pro28Rd7 >= 0 
p21Rd7 + p20Rd7 + p60Rd7 - p28Rd8 + pro28Rd7 >= 0 
p29Rd8 - p20Rd7 - p60Rd7 - p28Rd8 + pro28Rd7 >= -2 
p20Rd7 - p61Rd7 - p60Rd7 - p28Rd8 + pro28Rd7 >= -2 
p60Rd7 - p61Rd7 - p20Rd7 - p28Rd8 + pro28Rd7 >= -2 
p28Rd8 - p61Rd7 - p20Rd7 - p60Rd7 + pro28Rd7 >= -2 
p62Rd7 - p30Rd8 + pro29Rd7 >= 0 
p22Rd7 - p62Rd7 + pro29Rd7 >= 0 
p30Rd8 - p22Rd7 + pro29Rd7 >= 0 
p22Rd7 + p62Rd7 + p30Rd8 + pro29Rd7 <= 3 
p22Rd7 + p62Rd7 + p30Rd8 - pro29Rd7 >= 0 
p21Rd7 + p61Rd7 + p29Rd8 + pro29Rd7 - p62Rd7 >= 0 
p62Rd7 + p21Rd7 - p61Rd7 + p29Rd8 + pro29Rd7 >= 0 
p62Rd7 - p21Rd7 + p61Rd7 + p29Rd8 + pro29Rd7 >= 0 
p22Rd7 + p21Rd7 + p61Rd7 - p29Rd8 + pro29Rd7 >= 0 
p30Rd8 - p21Rd7 - p61Rd7 - p29Rd8 + pro29Rd7 >= -2 
p21Rd7 - p62Rd7 - p61Rd7 - p29Rd8 + pro29Rd7 >= -2 
p61Rd7 - p62Rd7 - p21Rd7 - p29Rd8 + pro29Rd7 >= -2 
p29Rd8 - p62Rd7 - p21Rd7 - p61Rd7 + pro29Rd7 >= -2 
p63Rd7 - p31Rd8 + pro30Rd7 >= 0 
p23Rd7 - p63Rd7 + pro30Rd7 >= 0 
p31Rd8 - p23Rd7 + pro30Rd7 >= 0 
p23Rd7 + p63Rd7 + p31Rd8 + pro30Rd7 <= 3 
p23Rd7 + p63Rd7 + p31Rd8 - pro30Rd7 >= 0 
p22Rd7 + p62Rd7 + p30Rd8 + pro30Rd7 - p63Rd7 >= 0 
p63Rd7 + p22Rd7 - p62Rd7 + p30Rd8 + pro30Rd7 >= 0 
p63Rd7 - p22Rd7 + p62Rd7 + p30Rd8 + pro30Rd7 >= 0 
p23Rd7 + p22Rd7 + p62Rd7 - p30Rd8 + pro30Rd7 >= 0 
p31Rd8 - p22Rd7 - p62Rd7 - p30Rd8 + pro30Rd7 >= -2 
p22Rd7 - p63Rd7 - p62Rd7 - p30Rd8 + pro30Rd7 >= -2 
p62Rd7 - p63Rd7 - p22Rd7 - p30Rd8 + pro30Rd7 >= -2 
p30Rd8 - p63Rd7 - p22Rd7 - p62Rd7 + pro30Rd7 >= -2 
p23Rd7 + p63Rd7 + p31Rd8 <= 2 
p23Rd7 + p63Rd7 + p31Rd8 - 2 temp7 >= 0 
temp7 - p23Rd7 >= 0 
temp7 - p63Rd7 >= 0 
temp7 - p31Rd8 >= 0 
p35Rd8 + p32Rd9 - p0Rd9 >= 0
p35Rd8 - p32Rd9 + p0Rd9 >= 0
- p35Rd8 + p32Rd9 + p0Rd9 >= 0
p35Rd8 + p32Rd9 + p0Rd9 <= 2
p36Rd8 + p33Rd9 - p1Rd9 >= 0
p36Rd8 - p33Rd9 + p1Rd9 >= 0
- p36Rd8 + p33Rd9 + p1Rd9 >= 0
p36Rd8 + p33Rd9 + p1Rd9 <= 2
p37Rd8 + p34Rd9 - p2Rd9 >= 0
p37Rd8 - p34Rd9 + p2Rd9 >= 0
- p37Rd8 + p34Rd9 + p2Rd9 >= 0
p37Rd8 + p34Rd9 + p2Rd9 <= 2
p38Rd8 + p35Rd9 - p3Rd9 >= 0
p38Rd8 - p35Rd9 + p3Rd9 >= 0
- p38Rd8 + p35Rd9 + p3Rd9 >= 0
p38Rd8 + p35Rd9 + p3Rd9 <= 2
p39Rd8 + p36Rd9 - p4Rd9 >= 0
p39Rd8 - p36Rd9 + p4Rd9 >= 0
- p39Rd8 + p36Rd9 + p4Rd9 >= 0
p39Rd8 + p36Rd9 + p4Rd9 <= 2
p40Rd8 + p37Rd9 - p5Rd9 >= 0
p40Rd8 - p37Rd9 + p5Rd9 >= 0
- p40Rd8 + p37Rd9 + p5Rd9 >= 0
p40Rd8 + p37Rd9 + p5Rd9 <= 2
p41Rd8 + p38Rd9 - p6Rd9 >= 0
p41Rd8 - p38Rd9 + p6Rd9 >= 0
- p41Rd8 + p38Rd9 + p6Rd9 >= 0
p41Rd8 + p38Rd9 + p6Rd9 <= 2
p42Rd8 + p39Rd9 - p7Rd9 >= 0
p42Rd8 - p39Rd9 + p7Rd9 >= 0
- p42Rd8 + p39Rd9 + p7Rd9 >= 0
p42Rd8 + p39Rd9 + p7Rd9 <= 2
p43Rd8 + p40Rd9 - p8Rd9 >= 0
p43Rd8 - p40Rd9 + p8Rd9 >= 0
- p43Rd8 + p40Rd9 + p8Rd9 >= 0
p43Rd8 + p40Rd9 + p8Rd9 <= 2
p44Rd8 + p41Rd9 - p9Rd9 >= 0
p44Rd8 - p41Rd9 + p9Rd9 >= 0
- p44Rd8 + p41Rd9 + p9Rd9 >= 0
p44Rd8 + p41Rd9 + p9Rd9 <= 2
p45Rd8 + p42Rd9 - p10Rd9 >= 0
p45Rd8 - p42Rd9 + p10Rd9 >= 0
- p45Rd8 + p42Rd9 + p10Rd9 >= 0
p45Rd8 + p42Rd9 + p10Rd9 <= 2
p46Rd8 + p43Rd9 - p11Rd9 >= 0
p46Rd8 - p43Rd9 + p11Rd9 >= 0
- p46Rd8 + p43Rd9 + p11Rd9 >= 0
p46Rd8 + p43Rd9 + p11Rd9 <= 2
p47Rd8 + p44Rd9 - p12Rd9 >= 0
p47Rd8 - p44Rd9 + p12Rd9 >= 0
- p47Rd8 + p44Rd9 + p12Rd9 >= 0
p47Rd8 + p44Rd9 + p12Rd9 <= 2
p48Rd8 + p45Rd9 - p13Rd9 >= 0
p48Rd8 - p45Rd9 + p13Rd9 >= 0
- p48Rd8 + p45Rd9 + p13Rd9 >= 0
p48Rd8 + p45Rd9 + p13Rd9 <= 2
p49Rd8 + p46Rd9 - p14Rd9 >= 0
p49Rd8 - p46Rd9 + p14Rd9 >= 0
- p49Rd8 + p46Rd9 + p14Rd9 >= 0
p49Rd8 + p46Rd9 + p14Rd9 <= 2
p50Rd8 + p47Rd9 - p15Rd9 >= 0
p50Rd8 - p47Rd9 + p15Rd9 >= 0
- p50Rd8 + p47Rd9 + p15Rd9 >= 0
p50Rd8 + p47Rd9 + p15Rd9 <= 2
p51Rd8 + p48Rd9 - p16Rd9 >= 0
p51Rd8 - p48Rd9 + p16Rd9 >= 0
- p51Rd8 + p48Rd9 + p16Rd9 >= 0
p51Rd8 + p48Rd9 + p16Rd9 <= 2
p52Rd8 + p49Rd9 - p17Rd9 >= 0
p52Rd8 - p49Rd9 + p17Rd9 >= 0
- p52Rd8 + p49Rd9 + p17Rd9 >= 0
p52Rd8 + p49Rd9 + p17Rd9 <= 2
p53Rd8 + p50Rd9 - p18Rd9 >= 0
p53Rd8 - p50Rd9 + p18Rd9 >= 0
- p53Rd8 + p50Rd9 + p18Rd9 >= 0
p53Rd8 + p50Rd9 + p18Rd9 <= 2
p54Rd8 + p51Rd9 - p19Rd9 >= 0
p54Rd8 - p51Rd9 + p19Rd9 >= 0
- p54Rd8 + p51Rd9 + p19Rd9 >= 0
p54Rd8 + p51Rd9 + p19Rd9 <= 2
p55Rd8 + p52Rd9 - p20Rd9 >= 0
p55Rd8 - p52Rd9 + p20Rd9 >= 0
- p55Rd8 + p52Rd9 + p20Rd9 >= 0
p55Rd8 + p52Rd9 + p20Rd9 <= 2
p56Rd8 + p53Rd9 - p21Rd9 >= 0
p56Rd8 - p53Rd9 + p21Rd9 >= 0
- p56Rd8 + p53Rd9 + p21Rd9 >= 0
p56Rd8 + p53Rd9 + p21Rd9 <= 2
p57Rd8 + p54Rd9 - p22Rd9 >= 0
p57Rd8 - p54Rd9 + p22Rd9 >= 0
- p57Rd8 + p54Rd9 + p22Rd9 >= 0
p57Rd8 + p54Rd9 + p22Rd9 <= 2
p58Rd8 + p55Rd9 - p23Rd9 >= 0
p58Rd8 - p55Rd9 + p23Rd9 >= 0
- p58Rd8 + p55Rd9 + p23Rd9 >= 0
p58Rd8 + p55Rd9 + p23Rd9 <= 2
p59Rd8 + p56Rd9 - p24Rd9 >= 0
p59Rd8 - p56Rd9 + p24Rd9 >= 0
- p59Rd8 + p56Rd9 + p24Rd9 >= 0
p59Rd8 + p56Rd9 + p24Rd9 <= 2
p60Rd8 + p57Rd9 - p25Rd9 >= 0
p60Rd8 - p57Rd9 + p25Rd9 >= 0
- p60Rd8 + p57Rd9 + p25Rd9 >= 0
p60Rd8 + p57Rd9 + p25Rd9 <= 2
p61Rd8 + p58Rd9 - p26Rd9 >= 0
p61Rd8 - p58Rd9 + p26Rd9 >= 0
- p61Rd8 + p58Rd9 + p26Rd9 >= 0
p61Rd8 + p58Rd9 + p26Rd9 <= 2
p62Rd8 + p59Rd9 - p27Rd9 >= 0
p62Rd8 - p59Rd9 + p27Rd9 >= 0
- p62Rd8 + p59Rd9 + p27Rd9 >= 0
p62Rd8 + p59Rd9 + p27Rd9 <= 2
p63Rd8 + p60Rd9 - p28Rd9 >= 0
p63Rd8 - p60Rd9 + p28Rd9 >= 0
- p63Rd8 + p60Rd9 + p28Rd9 >= 0
p63Rd8 + p60Rd9 + p28Rd9 <= 2
p32Rd8 + p61Rd9 - p29Rd9 >= 0
p32Rd8 - p61Rd9 + p29Rd9 >= 0
- p32Rd8 + p61Rd9 + p29Rd9 >= 0
p32Rd8 + p61Rd9 + p29Rd9 <= 2
p33Rd8 + p62Rd9 - p30Rd9 >= 0
p33Rd8 - p62Rd9 + p30Rd9 >= 0
- p33Rd8 + p62Rd9 + p30Rd9 >= 0
p33Rd8 + p62Rd9 + p30Rd9 <= 2
p34Rd8 + p63Rd9 - p31Rd9 >= 0
p34Rd8 - p63Rd9 + p31Rd9 >= 0
- p34Rd8 + p63Rd9 + p31Rd9 >= 0
p34Rd8 + p63Rd9 + p31Rd9 <= 2
p33Rd8 - p1Rd9 + pro0Rd8 >= 0 
p25Rd8 - p33Rd8 + pro0Rd8 >= 0 
p1Rd9 - p25Rd8 + pro0Rd8 >= 0 
p25Rd8 + p33Rd8 + p1Rd9 + pro0Rd8 <= 3 
p25Rd8 + p33Rd8 + p1Rd9 - pro0Rd8 >= 0 
p24Rd8 + p32Rd8 + p0Rd9 + pro0Rd8 - p33Rd8 >= 0 
p33Rd8 + p24Rd8 - p32Rd8 + p0Rd9 + pro0Rd8 >= 0 
p33Rd8 - p24Rd8 + p32Rd8 + p0Rd9 + pro0Rd8 >= 0 
p25Rd8 + p24Rd8 + p32Rd8 - p0Rd9 + pro0Rd8 >= 0 
p1Rd9 - p24Rd8 - p32Rd8 - p0Rd9 + pro0Rd8 >= -2 
p24Rd8 - p33Rd8 - p32Rd8 - p0Rd9 + pro0Rd8 >= -2 
p32Rd8 - p33Rd8 - p24Rd8 - p0Rd9 + pro0Rd8 >= -2 
p0Rd9 - p33Rd8 - p24Rd8 - p32Rd8 + pro0Rd8 >= -2 
p34Rd8 - p2Rd9 + pro1Rd8 >= 0 
p26Rd8 - p34Rd8 + pro1Rd8 >= 0 
p2Rd9 - p26Rd8 + pro1Rd8 >= 0 
p26Rd8 + p34Rd8 + p2Rd9 + pro1Rd8 <= 3 
p26Rd8 + p34Rd8 + p2Rd9 - pro1Rd8 >= 0 
p25Rd8 + p33Rd8 + p1Rd9 + pro1Rd8 - p34Rd8 >= 0 
p34Rd8 + p25Rd8 - p33Rd8 + p1Rd9 + pro1Rd8 >= 0 
p34Rd8 - p25Rd8 + p33Rd8 + p1Rd9 + pro1Rd8 >= 0 
p26Rd8 + p25Rd8 + p33Rd8 - p1Rd9 + pro1Rd8 >= 0 
p2Rd9 - p25Rd8 - p33Rd8 - p1Rd9 + pro1Rd8 >= -2 
p25Rd8 - p34Rd8 - p33Rd8 - p1Rd9 + pro1Rd8 >= -2 
p33Rd8 - p34Rd8 - p25Rd8 - p1Rd9 + pro1Rd8 >= -2 
p1Rd9 - p34Rd8 - p25Rd8 - p33Rd8 + pro1Rd8 >= -2 
p35Rd8 - p3Rd9 + pro2Rd8 >= 0 
p27Rd8 - p35Rd8 + pro2Rd8 >= 0 
p3Rd9 - p27Rd8 + pro2Rd8 >= 0 
p27Rd8 + p35Rd8 + p3Rd9 + pro2Rd8 <= 3 
p27Rd8 + p35Rd8 + p3Rd9 - pro2Rd8 >= 0 
p26Rd8 + p34Rd8 + p2Rd9 + pro2Rd8 - p35Rd8 >= 0 
p35Rd8 + p26Rd8 - p34Rd8 + p2Rd9 + pro2Rd8 >= 0 
p35Rd8 - p26Rd8 + p34Rd8 + p2Rd9 + pro2Rd8 >= 0 
p27Rd8 + p26Rd8 + p34Rd8 - p2Rd9 + pro2Rd8 >= 0 
p3Rd9 - p26Rd8 - p34Rd8 - p2Rd9 + pro2Rd8 >= -2 
p26Rd8 - p35Rd8 - p34Rd8 - p2Rd9 + pro2Rd8 >= -2 
p34Rd8 - p35Rd8 - p26Rd8 - p2Rd9 + pro2Rd8 >= -2 
p2Rd9 - p35Rd8 - p26Rd8 - p34Rd8 + pro2Rd8 >= -2 
p36Rd8 - p4Rd9 + pro3Rd8 >= 0 
p28Rd8 - p36Rd8 + pro3Rd8 >= 0 
p4Rd9 - p28Rd8 + pro3Rd8 >= 0 
p28Rd8 + p36Rd8 + p4Rd9 + pro3Rd8 <= 3 
p28Rd8 + p36Rd8 + p4Rd9 - pro3Rd8 >= 0 
p27Rd8 + p35Rd8 + p3Rd9 + pro3Rd8 - p36Rd8 >= 0 
p36Rd8 + p27Rd8 - p35Rd8 + p3Rd9 + pro3Rd8 >= 0 
p36Rd8 - p27Rd8 + p35Rd8 + p3Rd9 + pro3Rd8 >= 0 
p28Rd8 + p27Rd8 + p35Rd8 - p3Rd9 + pro3Rd8 >= 0 
p4Rd9 - p27Rd8 - p35Rd8 - p3Rd9 + pro3Rd8 >= -2 
p27Rd8 - p36Rd8 - p35Rd8 - p3Rd9 + pro3Rd8 >= -2 
p35Rd8 - p36Rd8 - p27Rd8 - p3Rd9 + pro3Rd8 >= -2 
p3Rd9 - p36Rd8 - p27Rd8 - p35Rd8 + pro3Rd8 >= -2 
p37Rd8 - p5Rd9 + pro4Rd8 >= 0 
p29Rd8 - p37Rd8 + pro4Rd8 >= 0 
p5Rd9 - p29Rd8 + pro4Rd8 >= 0 
p29Rd8 + p37Rd8 + p5Rd9 + pro4Rd8 <= 3 
p29Rd8 + p37Rd8 + p5Rd9 - pro4Rd8 >= 0 
p28Rd8 + p36Rd8 + p4Rd9 + pro4Rd8 - p37Rd8 >= 0 
p37Rd8 + p28Rd8 - p36Rd8 + p4Rd9 + pro4Rd8 >= 0 
p37Rd8 - p28Rd8 + p36Rd8 + p4Rd9 + pro4Rd8 >= 0 
p29Rd8 + p28Rd8 + p36Rd8 - p4Rd9 + pro4Rd8 >= 0 
p5Rd9 - p28Rd8 - p36Rd8 - p4Rd9 + pro4Rd8 >= -2 
p28Rd8 - p37Rd8 - p36Rd8 - p4Rd9 + pro4Rd8 >= -2 
p36Rd8 - p37Rd8 - p28Rd8 - p4Rd9 + pro4Rd8 >= -2 
p4Rd9 - p37Rd8 - p28Rd8 - p36Rd8 + pro4Rd8 >= -2 
p38Rd8 - p6Rd9 + pro5Rd8 >= 0 
p30Rd8 - p38Rd8 + pro5Rd8 >= 0 
p6Rd9 - p30Rd8 + pro5Rd8 >= 0 
p30Rd8 + p38Rd8 + p6Rd9 + pro5Rd8 <= 3 
p30Rd8 + p38Rd8 + p6Rd9 - pro5Rd8 >= 0 
p29Rd8 + p37Rd8 + p5Rd9 + pro5Rd8 - p38Rd8 >= 0 
p38Rd8 + p29Rd8 - p37Rd8 + p5Rd9 + pro5Rd8 >= 0 
p38Rd8 - p29Rd8 + p37Rd8 + p5Rd9 + pro5Rd8 >= 0 
p30Rd8 + p29Rd8 + p37Rd8 - p5Rd9 + pro5Rd8 >= 0 
p6Rd9 - p29Rd8 - p37Rd8 - p5Rd9 + pro5Rd8 >= -2 
p29Rd8 - p38Rd8 - p37Rd8 - p5Rd9 + pro5Rd8 >= -2 
p37Rd8 - p38Rd8 - p29Rd8 - p5Rd9 + pro5Rd8 >= -2 
p5Rd9 - p38Rd8 - p29Rd8 - p37Rd8 + pro5Rd8 >= -2 
p39Rd8 - p7Rd9 + pro6Rd8 >= 0 
p31Rd8 - p39Rd8 + pro6Rd8 >= 0 
p7Rd9 - p31Rd8 + pro6Rd8 >= 0 
p31Rd8 + p39Rd8 + p7Rd9 + pro6Rd8 <= 3 
p31Rd8 + p39Rd8 + p7Rd9 - pro6Rd8 >= 0 
p30Rd8 + p38Rd8 + p6Rd9 + pro6Rd8 - p39Rd8 >= 0 
p39Rd8 + p30Rd8 - p38Rd8 + p6Rd9 + pro6Rd8 >= 0 
p39Rd8 - p30Rd8 + p38Rd8 + p6Rd9 + pro6Rd8 >= 0 
p31Rd8 + p30Rd8 + p38Rd8 - p6Rd9 + pro6Rd8 >= 0 
p7Rd9 - p30Rd8 - p38Rd8 - p6Rd9 + pro6Rd8 >= -2 
p30Rd8 - p39Rd8 - p38Rd8 - p6Rd9 + pro6Rd8 >= -2 
p38Rd8 - p39Rd8 - p30Rd8 - p6Rd9 + pro6Rd8 >= -2 
p6Rd9 - p39Rd8 - p30Rd8 - p38Rd8 + pro6Rd8 >= -2 
p40Rd8 - p8Rd9 + pro7Rd8 >= 0 
p0Rd8 - p40Rd8 + pro7Rd8 >= 0 
p8Rd9 - p0Rd8 + pro7Rd8 >= 0 
p0Rd8 + p40Rd8 + p8Rd9 + pro7Rd8 <= 3 
p0Rd8 + p40Rd8 + p8Rd9 - pro7Rd8 >= 0 
p31Rd8 + p39Rd8 + p7Rd9 + pro7Rd8 - p40Rd8 >= 0 
p40Rd8 + p31Rd8 - p39Rd8 + p7Rd9 + pro7Rd8 >= 0 
p40Rd8 - p31Rd8 + p39Rd8 + p7Rd9 + pro7Rd8 >= 0 
p0Rd8 + p31Rd8 + p39Rd8 - p7Rd9 + pro7Rd8 >= 0 
p8Rd9 - p31Rd8 - p39Rd8 - p7Rd9 + pro7Rd8 >= -2 
p31Rd8 - p40Rd8 - p39Rd8 - p7Rd9 + pro7Rd8 >= -2 
p39Rd8 - p40Rd8 - p31Rd8 - p7Rd9 + pro7Rd8 >= -2 
p7Rd9 - p40Rd8 - p31Rd8 - p39Rd8 + pro7Rd8 >= -2 
p41Rd8 - p9Rd9 + pro8Rd8 >= 0 
p1Rd8 - p41Rd8 + pro8Rd8 >= 0 
p9Rd9 - p1Rd8 + pro8Rd8 >= 0 
p1Rd8 + p41Rd8 + p9Rd9 + pro8Rd8 <= 3 
p1Rd8 + p41Rd8 + p9Rd9 - pro8Rd8 >= 0 
p0Rd8 + p40Rd8 + p8Rd9 + pro8Rd8 - p41Rd8 >= 0 
p41Rd8 + p0Rd8 - p40Rd8 + p8Rd9 + pro8Rd8 >= 0 
p41Rd8 - p0Rd8 + p40Rd8 + p8Rd9 + pro8Rd8 >= 0 
p1Rd8 + p0Rd8 + p40Rd8 - p8Rd9 + pro8Rd8 >= 0 
p9Rd9 - p0Rd8 - p40Rd8 - p8Rd9 + pro8Rd8 >= -2 
p0Rd8 - p41Rd8 - p40Rd8 - p8Rd9 + pro8Rd8 >= -2 
p40Rd8 - p41Rd8 - p0Rd8 - p8Rd9 + pro8Rd8 >= -2 
p8Rd9 - p41Rd8 - p0Rd8 - p40Rd8 + pro8Rd8 >= -2 
p42Rd8 - p10Rd9 + pro9Rd8 >= 0 
p2Rd8 - p42Rd8 + pro9Rd8 >= 0 
p10Rd9 - p2Rd8 + pro9Rd8 >= 0 
p2Rd8 + p42Rd8 + p10Rd9 + pro9Rd8 <= 3 
p2Rd8 + p42Rd8 + p10Rd9 - pro9Rd8 >= 0 
p1Rd8 + p41Rd8 + p9Rd9 + pro9Rd8 - p42Rd8 >= 0 
p42Rd8 + p1Rd8 - p41Rd8 + p9Rd9 + pro9Rd8 >= 0 
p42Rd8 - p1Rd8 + p41Rd8 + p9Rd9 + pro9Rd8 >= 0 
p2Rd8 + p1Rd8 + p41Rd8 - p9Rd9 + pro9Rd8 >= 0 
p10Rd9 - p1Rd8 - p41Rd8 - p9Rd9 + pro9Rd8 >= -2 
p1Rd8 - p42Rd8 - p41Rd8 - p9Rd9 + pro9Rd8 >= -2 
p41Rd8 - p42Rd8 - p1Rd8 - p9Rd9 + pro9Rd8 >= -2 
p9Rd9 - p42Rd8 - p1Rd8 - p41Rd8 + pro9Rd8 >= -2 
p43Rd8 - p11Rd9 + pro10Rd8 >= 0 
p3Rd8 - p43Rd8 + pro10Rd8 >= 0 
p11Rd9 - p3Rd8 + pro10Rd8 >= 0 
p3Rd8 + p43Rd8 + p11Rd9 + pro10Rd8 <= 3 
p3Rd8 + p43Rd8 + p11Rd9 - pro10Rd8 >= 0 
p2Rd8 + p42Rd8 + p10Rd9 + pro10Rd8 - p43Rd8 >= 0 
p43Rd8 + p2Rd8 - p42Rd8 + p10Rd9 + pro10Rd8 >= 0 
p43Rd8 - p2Rd8 + p42Rd8 + p10Rd9 + pro10Rd8 >= 0 
p3Rd8 + p2Rd8 + p42Rd8 - p10Rd9 + pro10Rd8 >= 0 
p11Rd9 - p2Rd8 - p42Rd8 - p10Rd9 + pro10Rd8 >= -2 
p2Rd8 - p43Rd8 - p42Rd8 - p10Rd9 + pro10Rd8 >= -2 
p42Rd8 - p43Rd8 - p2Rd8 - p10Rd9 + pro10Rd8 >= -2 
p10Rd9 - p43Rd8 - p2Rd8 - p42Rd8 + pro10Rd8 >= -2 
p44Rd8 - p12Rd9 + pro11Rd8 >= 0 
p4Rd8 - p44Rd8 + pro11Rd8 >= 0 
p12Rd9 - p4Rd8 + pro11Rd8 >= 0 
p4Rd8 + p44Rd8 + p12Rd9 + pro11Rd8 <= 3 
p4Rd8 + p44Rd8 + p12Rd9 - pro11Rd8 >= 0 
p3Rd8 + p43Rd8 + p11Rd9 + pro11Rd8 - p44Rd8 >= 0 
p44Rd8 + p3Rd8 - p43Rd8 + p11Rd9 + pro11Rd8 >= 0 
p44Rd8 - p3Rd8 + p43Rd8 + p11Rd9 + pro11Rd8 >= 0 
p4Rd8 + p3Rd8 + p43Rd8 - p11Rd9 + pro11Rd8 >= 0 
p12Rd9 - p3Rd8 - p43Rd8 - p11Rd9 + pro11Rd8 >= -2 
p3Rd8 - p44Rd8 - p43Rd8 - p11Rd9 + pro11Rd8 >= -2 
p43Rd8 - p44Rd8 - p3Rd8 - p11Rd9 + pro11Rd8 >= -2 
p11Rd9 - p44Rd8 - p3Rd8 - p43Rd8 + pro11Rd8 >= -2 
p45Rd8 - p13Rd9 + pro12Rd8 >= 0 
p5Rd8 - p45Rd8 + pro12Rd8 >= 0 
p13Rd9 - p5Rd8 + pro12Rd8 >= 0 
p5Rd8 + p45Rd8 + p13Rd9 + pro12Rd8 <= 3 
p5Rd8 + p45Rd8 + p13Rd9 - pro12Rd8 >= 0 
p4Rd8 + p44Rd8 + p12Rd9 + pro12Rd8 - p45Rd8 >= 0 
p45Rd8 + p4Rd8 - p44Rd8 + p12Rd9 + pro12Rd8 >= 0 
p45Rd8 - p4Rd8 + p44Rd8 + p12Rd9 + pro12Rd8 >= 0 
p5Rd8 + p4Rd8 + p44Rd8 - p12Rd9 + pro12Rd8 >= 0 
p13Rd9 - p4Rd8 - p44Rd8 - p12Rd9 + pro12Rd8 >= -2 
p4Rd8 - p45Rd8 - p44Rd8 - p12Rd9 + pro12Rd8 >= -2 
p44Rd8 - p45Rd8 - p4Rd8 - p12Rd9 + pro12Rd8 >= -2 
p12Rd9 - p45Rd8 - p4Rd8 - p44Rd8 + pro12Rd8 >= -2 
p46Rd8 - p14Rd9 + pro13Rd8 >= 0 
p6Rd8 - p46Rd8 + pro13Rd8 >= 0 
p14Rd9 - p6Rd8 + pro13Rd8 >= 0 
p6Rd8 + p46Rd8 + p14Rd9 + pro13Rd8 <= 3 
p6Rd8 + p46Rd8 + p14Rd9 - pro13Rd8 >= 0 
p5Rd8 + p45Rd8 + p13Rd9 + pro13Rd8 - p46Rd8 >= 0 
p46Rd8 + p5Rd8 - p45Rd8 + p13Rd9 + pro13Rd8 >= 0 
p46Rd8 - p5Rd8 + p45Rd8 + p13Rd9 + pro13Rd8 >= 0 
p6Rd8 + p5Rd8 + p45Rd8 - p13Rd9 + pro13Rd8 >= 0 
p14Rd9 - p5Rd8 - p45Rd8 - p13Rd9 + pro13Rd8 >= -2 
p5Rd8 - p46Rd8 - p45Rd8 - p13Rd9 + pro13Rd8 >= -2 
p45Rd8 - p46Rd8 - p5Rd8 - p13Rd9 + pro13Rd8 >= -2 
p13Rd9 - p46Rd8 - p5Rd8 - p45Rd8 + pro13Rd8 >= -2 
p47Rd8 - p15Rd9 + pro14Rd8 >= 0 
p7Rd8 - p47Rd8 + pro14Rd8 >= 0 
p15Rd9 - p7Rd8 + pro14Rd8 >= 0 
p7Rd8 + p47Rd8 + p15Rd9 + pro14Rd8 <= 3 
p7Rd8 + p47Rd8 + p15Rd9 - pro14Rd8 >= 0 
p6Rd8 + p46Rd8 + p14Rd9 + pro14Rd8 - p47Rd8 >= 0 
p47Rd8 + p6Rd8 - p46Rd8 + p14Rd9 + pro14Rd8 >= 0 
p47Rd8 - p6Rd8 + p46Rd8 + p14Rd9 + pro14Rd8 >= 0 
p7Rd8 + p6Rd8 + p46Rd8 - p14Rd9 + pro14Rd8 >= 0 
p15Rd9 - p6Rd8 - p46Rd8 - p14Rd9 + pro14Rd8 >= -2 
p6Rd8 - p47Rd8 - p46Rd8 - p14Rd9 + pro14Rd8 >= -2 
p46Rd8 - p47Rd8 - p6Rd8 - p14Rd9 + pro14Rd8 >= -2 
p14Rd9 - p47Rd8 - p6Rd8 - p46Rd8 + pro14Rd8 >= -2 
p48Rd8 - p16Rd9 + pro15Rd8 >= 0 
p8Rd8 - p48Rd8 + pro15Rd8 >= 0 
p16Rd9 - p8Rd8 + pro15Rd8 >= 0 
p8Rd8 + p48Rd8 + p16Rd9 + pro15Rd8 <= 3 
p8Rd8 + p48Rd8 + p16Rd9 - pro15Rd8 >= 0 
p7Rd8 + p47Rd8 + p15Rd9 + pro15Rd8 - p48Rd8 >= 0 
p48Rd8 + p7Rd8 - p47Rd8 + p15Rd9 + pro15Rd8 >= 0 
p48Rd8 - p7Rd8 + p47Rd8 + p15Rd9 + pro15Rd8 >= 0 
p8Rd8 + p7Rd8 + p47Rd8 - p15Rd9 + pro15Rd8 >= 0 
p16Rd9 - p7Rd8 - p47Rd8 - p15Rd9 + pro15Rd8 >= -2 
p7Rd8 - p48Rd8 - p47Rd8 - p15Rd9 + pro15Rd8 >= -2 
p47Rd8 - p48Rd8 - p7Rd8 - p15Rd9 + pro15Rd8 >= -2 
p15Rd9 - p48Rd8 - p7Rd8 - p47Rd8 + pro15Rd8 >= -2 
p49Rd8 - p17Rd9 + pro16Rd8 >= 0 
p9Rd8 - p49Rd8 + pro16Rd8 >= 0 
p17Rd9 - p9Rd8 + pro16Rd8 >= 0 
p9Rd8 + p49Rd8 + p17Rd9 + pro16Rd8 <= 3 
p9Rd8 + p49Rd8 + p17Rd9 - pro16Rd8 >= 0 
p8Rd8 + p48Rd8 + p16Rd9 + pro16Rd8 - p49Rd8 >= 0 
p49Rd8 + p8Rd8 - p48Rd8 + p16Rd9 + pro16Rd8 >= 0 
p49Rd8 - p8Rd8 + p48Rd8 + p16Rd9 + pro16Rd8 >= 0 
p9Rd8 + p8Rd8 + p48Rd8 - p16Rd9 + pro16Rd8 >= 0 
p17Rd9 - p8Rd8 - p48Rd8 - p16Rd9 + pro16Rd8 >= -2 
p8Rd8 - p49Rd8 - p48Rd8 - p16Rd9 + pro16Rd8 >= -2 
p48Rd8 - p49Rd8 - p8Rd8 - p16Rd9 + pro16Rd8 >= -2 
p16Rd9 - p49Rd8 - p8Rd8 - p48Rd8 + pro16Rd8 >= -2 
p50Rd8 - p18Rd9 + pro17Rd8 >= 0 
p10Rd8 - p50Rd8 + pro17Rd8 >= 0 
p18Rd9 - p10Rd8 + pro17Rd8 >= 0 
p10Rd8 + p50Rd8 + p18Rd9 + pro17Rd8 <= 3 
p10Rd8 + p50Rd8 + p18Rd9 - pro17Rd8 >= 0 
p9Rd8 + p49Rd8 + p17Rd9 + pro17Rd8 - p50Rd8 >= 0 
p50Rd8 + p9Rd8 - p49Rd8 + p17Rd9 + pro17Rd8 >= 0 
p50Rd8 - p9Rd8 + p49Rd8 + p17Rd9 + pro17Rd8 >= 0 
p10Rd8 + p9Rd8 + p49Rd8 - p17Rd9 + pro17Rd8 >= 0 
p18Rd9 - p9Rd8 - p49Rd8 - p17Rd9 + pro17Rd8 >= -2 
p9Rd8 - p50Rd8 - p49Rd8 - p17Rd9 + pro17Rd8 >= -2 
p49Rd8 - p50Rd8 - p9Rd8 - p17Rd9 + pro17Rd8 >= -2 
p17Rd9 - p50Rd8 - p9Rd8 - p49Rd8 + pro17Rd8 >= -2 
p51Rd8 - p19Rd9 + pro18Rd8 >= 0 
p11Rd8 - p51Rd8 + pro18Rd8 >= 0 
p19Rd9 - p11Rd8 + pro18Rd8 >= 0 
p11Rd8 + p51Rd8 + p19Rd9 + pro18Rd8 <= 3 
p11Rd8 + p51Rd8 + p19Rd9 - pro18Rd8 >= 0 
p10Rd8 + p50Rd8 + p18Rd9 + pro18Rd8 - p51Rd8 >= 0 
p51Rd8 + p10Rd8 - p50Rd8 + p18Rd9 + pro18Rd8 >= 0 
p51Rd8 - p10Rd8 + p50Rd8 + p18Rd9 + pro18Rd8 >= 0 
p11Rd8 + p10Rd8 + p50Rd8 - p18Rd9 + pro18Rd8 >= 0 
p19Rd9 - p10Rd8 - p50Rd8 - p18Rd9 + pro18Rd8 >= -2 
p10Rd8 - p51Rd8 - p50Rd8 - p18Rd9 + pro18Rd8 >= -2 
p50Rd8 - p51Rd8 - p10Rd8 - p18Rd9 + pro18Rd8 >= -2 
p18Rd9 - p51Rd8 - p10Rd8 - p50Rd8 + pro18Rd8 >= -2 
p52Rd8 - p20Rd9 + pro19Rd8 >= 0 
p12Rd8 - p52Rd8 + pro19Rd8 >= 0 
p20Rd9 - p12Rd8 + pro19Rd8 >= 0 
p12Rd8 + p52Rd8 + p20Rd9 + pro19Rd8 <= 3 
p12Rd8 + p52Rd8 + p20Rd9 - pro19Rd8 >= 0 
p11Rd8 + p51Rd8 + p19Rd9 + pro19Rd8 - p52Rd8 >= 0 
p52Rd8 + p11Rd8 - p51Rd8 + p19Rd9 + pro19Rd8 >= 0 
p52Rd8 - p11Rd8 + p51Rd8 + p19Rd9 + pro19Rd8 >= 0 
p12Rd8 + p11Rd8 + p51Rd8 - p19Rd9 + pro19Rd8 >= 0 
p20Rd9 - p11Rd8 - p51Rd8 - p19Rd9 + pro19Rd8 >= -2 
p11Rd8 - p52Rd8 - p51Rd8 - p19Rd9 + pro19Rd8 >= -2 
p51Rd8 - p52Rd8 - p11Rd8 - p19Rd9 + pro19Rd8 >= -2 
p19Rd9 - p52Rd8 - p11Rd8 - p51Rd8 + pro19Rd8 >= -2 
p53Rd8 - p21Rd9 + pro20Rd8 >= 0 
p13Rd8 - p53Rd8 + pro20Rd8 >= 0 
p21Rd9 - p13Rd8 + pro20Rd8 >= 0 
p13Rd8 + p53Rd8 + p21Rd9 + pro20Rd8 <= 3 
p13Rd8 + p53Rd8 + p21Rd9 - pro20Rd8 >= 0 
p12Rd8 + p52Rd8 + p20Rd9 + pro20Rd8 - p53Rd8 >= 0 
p53Rd8 + p12Rd8 - p52Rd8 + p20Rd9 + pro20Rd8 >= 0 
p53Rd8 - p12Rd8 + p52Rd8 + p20Rd9 + pro20Rd8 >= 0 
p13Rd8 + p12Rd8 + p52Rd8 - p20Rd9 + pro20Rd8 >= 0 
p21Rd9 - p12Rd8 - p52Rd8 - p20Rd9 + pro20Rd8 >= -2 
p12Rd8 - p53Rd8 - p52Rd8 - p20Rd9 + pro20Rd8 >= -2 
p52Rd8 - p53Rd8 - p12Rd8 - p20Rd9 + pro20Rd8 >= -2 
p20Rd9 - p53Rd8 - p12Rd8 - p52Rd8 + pro20Rd8 >= -2 
p54Rd8 - p22Rd9 + pro21Rd8 >= 0 
p14Rd8 - p54Rd8 + pro21Rd8 >= 0 
p22Rd9 - p14Rd8 + pro21Rd8 >= 0 
p14Rd8 + p54Rd8 + p22Rd9 + pro21Rd8 <= 3 
p14Rd8 + p54Rd8 + p22Rd9 - pro21Rd8 >= 0 
p13Rd8 + p53Rd8 + p21Rd9 + pro21Rd8 - p54Rd8 >= 0 
p54Rd8 + p13Rd8 - p53Rd8 + p21Rd9 + pro21Rd8 >= 0 
p54Rd8 - p13Rd8 + p53Rd8 + p21Rd9 + pro21Rd8 >= 0 
p14Rd8 + p13Rd8 + p53Rd8 - p21Rd9 + pro21Rd8 >= 0 
p22Rd9 - p13Rd8 - p53Rd8 - p21Rd9 + pro21Rd8 >= -2 
p13Rd8 - p54Rd8 - p53Rd8 - p21Rd9 + pro21Rd8 >= -2 
p53Rd8 - p54Rd8 - p13Rd8 - p21Rd9 + pro21Rd8 >= -2 
p21Rd9 - p54Rd8 - p13Rd8 - p53Rd8 + pro21Rd8 >= -2 
p55Rd8 - p23Rd9 + pro22Rd8 >= 0 
p15Rd8 - p55Rd8 + pro22Rd8 >= 0 
p23Rd9 - p15Rd8 + pro22Rd8 >= 0 
p15Rd8 + p55Rd8 + p23Rd9 + pro22Rd8 <= 3 
p15Rd8 + p55Rd8 + p23Rd9 - pro22Rd8 >= 0 
p14Rd8 + p54Rd8 + p22Rd9 + pro22Rd8 - p55Rd8 >= 0 
p55Rd8 + p14Rd8 - p54Rd8 + p22Rd9 + pro22Rd8 >= 0 
p55Rd8 - p14Rd8 + p54Rd8 + p22Rd9 + pro22Rd8 >= 0 
p15Rd8 + p14Rd8 + p54Rd8 - p22Rd9 + pro22Rd8 >= 0 
p23Rd9 - p14Rd8 - p54Rd8 - p22Rd9 + pro22Rd8 >= -2 
p14Rd8 - p55Rd8 - p54Rd8 - p22Rd9 + pro22Rd8 >= -2 
p54Rd8 - p55Rd8 - p14Rd8 - p22Rd9 + pro22Rd8 >= -2 
p22Rd9 - p55Rd8 - p14Rd8 - p54Rd8 + pro22Rd8 >= -2 
p56Rd8 - p24Rd9 + pro23Rd8 >= 0 
p16Rd8 - p56Rd8 + pro23Rd8 >= 0 
p24Rd9 - p16Rd8 + pro23Rd8 >= 0 
p16Rd8 + p56Rd8 + p24Rd9 + pro23Rd8 <= 3 
p16Rd8 + p56Rd8 + p24Rd9 - pro23Rd8 >= 0 
p15Rd8 + p55Rd8 + p23Rd9 + pro23Rd8 - p56Rd8 >= 0 
p56Rd8 + p15Rd8 - p55Rd8 + p23Rd9 + pro23Rd8 >= 0 
p56Rd8 - p15Rd8 + p55Rd8 + p23Rd9 + pro23Rd8 >= 0 
p16Rd8 + p15Rd8 + p55Rd8 - p23Rd9 + pro23Rd8 >= 0 
p24Rd9 - p15Rd8 - p55Rd8 - p23Rd9 + pro23Rd8 >= -2 
p15Rd8 - p56Rd8 - p55Rd8 - p23Rd9 + pro23Rd8 >= -2 
p55Rd8 - p56Rd8 - p15Rd8 - p23Rd9 + pro23Rd8 >= -2 
p23Rd9 - p56Rd8 - p15Rd8 - p55Rd8 + pro23Rd8 >= -2 
p57Rd8 - p25Rd9 + pro24Rd8 >= 0 
p17Rd8 - p57Rd8 + pro24Rd8 >= 0 
p25Rd9 - p17Rd8 + pro24Rd8 >= 0 
p17Rd8 + p57Rd8 + p25Rd9 + pro24Rd8 <= 3 
p17Rd8 + p57Rd8 + p25Rd9 - pro24Rd8 >= 0 
p16Rd8 + p56Rd8 + p24Rd9 + pro24Rd8 - p57Rd8 >= 0 
p57Rd8 + p16Rd8 - p56Rd8 + p24Rd9 + pro24Rd8 >= 0 
p57Rd8 - p16Rd8 + p56Rd8 + p24Rd9 + pro24Rd8 >= 0 
p17Rd8 + p16Rd8 + p56Rd8 - p24Rd9 + pro24Rd8 >= 0 
p25Rd9 - p16Rd8 - p56Rd8 - p24Rd9 + pro24Rd8 >= -2 
p16Rd8 - p57Rd8 - p56Rd8 - p24Rd9 + pro24Rd8 >= -2 
p56Rd8 - p57Rd8 - p16Rd8 - p24Rd9 + pro24Rd8 >= -2 
p24Rd9 - p57Rd8 - p16Rd8 - p56Rd8 + pro24Rd8 >= -2 
p58Rd8 - p26Rd9 + pro25Rd8 >= 0 
p18Rd8 - p58Rd8 + pro25Rd8 >= 0 
p26Rd9 - p18Rd8 + pro25Rd8 >= 0 
p18Rd8 + p58Rd8 + p26Rd9 + pro25Rd8 <= 3 
p18Rd8 + p58Rd8 + p26Rd9 - pro25Rd8 >= 0 
p17Rd8 + p57Rd8 + p25Rd9 + pro25Rd8 - p58Rd8 >= 0 
p58Rd8 + p17Rd8 - p57Rd8 + p25Rd9 + pro25Rd8 >= 0 
p58Rd8 - p17Rd8 + p57Rd8 + p25Rd9 + pro25Rd8 >= 0 
p18Rd8 + p17Rd8 + p57Rd8 - p25Rd9 + pro25Rd8 >= 0 
p26Rd9 - p17Rd8 - p57Rd8 - p25Rd9 + pro25Rd8 >= -2 
p17Rd8 - p58Rd8 - p57Rd8 - p25Rd9 + pro25Rd8 >= -2 
p57Rd8 - p58Rd8 - p17Rd8 - p25Rd9 + pro25Rd8 >= -2 
p25Rd9 - p58Rd8 - p17Rd8 - p57Rd8 + pro25Rd8 >= -2 
p59Rd8 - p27Rd9 + pro26Rd8 >= 0 
p19Rd8 - p59Rd8 + pro26Rd8 >= 0 
p27Rd9 - p19Rd8 + pro26Rd8 >= 0 
p19Rd8 + p59Rd8 + p27Rd9 + pro26Rd8 <= 3 
p19Rd8 + p59Rd8 + p27Rd9 - pro26Rd8 >= 0 
p18Rd8 + p58Rd8 + p26Rd9 + pro26Rd8 - p59Rd8 >= 0 
p59Rd8 + p18Rd8 - p58Rd8 + p26Rd9 + pro26Rd8 >= 0 
p59Rd8 - p18Rd8 + p58Rd8 + p26Rd9 + pro26Rd8 >= 0 
p19Rd8 + p18Rd8 + p58Rd8 - p26Rd9 + pro26Rd8 >= 0 
p27Rd9 - p18Rd8 - p58Rd8 - p26Rd9 + pro26Rd8 >= -2 
p18Rd8 - p59Rd8 - p58Rd8 - p26Rd9 + pro26Rd8 >= -2 
p58Rd8 - p59Rd8 - p18Rd8 - p26Rd9 + pro26Rd8 >= -2 
p26Rd9 - p59Rd8 - p18Rd8 - p58Rd8 + pro26Rd8 >= -2 
p60Rd8 - p28Rd9 + pro27Rd8 >= 0 
p20Rd8 - p60Rd8 + pro27Rd8 >= 0 
p28Rd9 - p20Rd8 + pro27Rd8 >= 0 
p20Rd8 + p60Rd8 + p28Rd9 + pro27Rd8 <= 3 
p20Rd8 + p60Rd8 + p28Rd9 - pro27Rd8 >= 0 
p19Rd8 + p59Rd8 + p27Rd9 + pro27Rd8 - p60Rd8 >= 0 
p60Rd8 + p19Rd8 - p59Rd8 + p27Rd9 + pro27Rd8 >= 0 
p60Rd8 - p19Rd8 + p59Rd8 + p27Rd9 + pro27Rd8 >= 0 
p20Rd8 + p19Rd8 + p59Rd8 - p27Rd9 + pro27Rd8 >= 0 
p28Rd9 - p19Rd8 - p59Rd8 - p27Rd9 + pro27Rd8 >= -2 
p19Rd8 - p60Rd8 - p59Rd8 - p27Rd9 + pro27Rd8 >= -2 
p59Rd8 - p60Rd8 - p19Rd8 - p27Rd9 + pro27Rd8 >= -2 
p27Rd9 - p60Rd8 - p19Rd8 - p59Rd8 + pro27Rd8 >= -2 
p61Rd8 - p29Rd9 + pro28Rd8 >= 0 
p21Rd8 - p61Rd8 + pro28Rd8 >= 0 
p29Rd9 - p21Rd8 + pro28Rd8 >= 0 
p21Rd8 + p61Rd8 + p29Rd9 + pro28Rd8 <= 3 
p21Rd8 + p61Rd8 + p29Rd9 - pro28Rd8 >= 0 
p20Rd8 + p60Rd8 + p28Rd9 + pro28Rd8 - p61Rd8 >= 0 
p61Rd8 + p20Rd8 - p60Rd8 + p28Rd9 + pro28Rd8 >= 0 
p61Rd8 - p20Rd8 + p60Rd8 + p28Rd9 + pro28Rd8 >= 0 
p21Rd8 + p20Rd8 + p60Rd8 - p28Rd9 + pro28Rd8 >= 0 
p29Rd9 - p20Rd8 - p60Rd8 - p28Rd9 + pro28Rd8 >= -2 
p20Rd8 - p61Rd8 - p60Rd8 - p28Rd9 + pro28Rd8 >= -2 
p60Rd8 - p61Rd8 - p20Rd8 - p28Rd9 + pro28Rd8 >= -2 
p28Rd9 - p61Rd8 - p20Rd8 - p60Rd8 + pro28Rd8 >= -2 
p62Rd8 - p30Rd9 + pro29Rd8 >= 0 
p22Rd8 - p62Rd8 + pro29Rd8 >= 0 
p30Rd9 - p22Rd8 + pro29Rd8 >= 0 
p22Rd8 + p62Rd8 + p30Rd9 + pro29Rd8 <= 3 
p22Rd8 + p62Rd8 + p30Rd9 - pro29Rd8 >= 0 
p21Rd8 + p61Rd8 + p29Rd9 + pro29Rd8 - p62Rd8 >= 0 
p62Rd8 + p21Rd8 - p61Rd8 + p29Rd9 + pro29Rd8 >= 0 
p62Rd8 - p21Rd8 + p61Rd8 + p29Rd9 + pro29Rd8 >= 0 
p22Rd8 + p21Rd8 + p61Rd8 - p29Rd9 + pro29Rd8 >= 0 
p30Rd9 - p21Rd8 - p61Rd8 - p29Rd9 + pro29Rd8 >= -2 
p21Rd8 - p62Rd8 - p61Rd8 - p29Rd9 + pro29Rd8 >= -2 
p61Rd8 - p62Rd8 - p21Rd8 - p29Rd9 + pro29Rd8 >= -2 
p29Rd9 - p62Rd8 - p21Rd8 - p61Rd8 + pro29Rd8 >= -2 
p63Rd8 - p31Rd9 + pro30Rd8 >= 0 
p23Rd8 - p63Rd8 + pro30Rd8 >= 0 
p31Rd9 - p23Rd8 + pro30Rd8 >= 0 
p23Rd8 + p63Rd8 + p31Rd9 + pro30Rd8 <= 3 
p23Rd8 + p63Rd8 + p31Rd9 - pro30Rd8 >= 0 
p22Rd8 + p62Rd8 + p30Rd9 + pro30Rd8 - p63Rd8 >= 0 
p63Rd8 + p22Rd8 - p62Rd8 + p30Rd9 + pro30Rd8 >= 0 
p63Rd8 - p22Rd8 + p62Rd8 + p30Rd9 + pro30Rd8 >= 0 
p23Rd8 + p22Rd8 + p62Rd8 - p30Rd9 + pro30Rd8 >= 0 
p31Rd9 - p22Rd8 - p62Rd8 - p30Rd9 + pro30Rd8 >= -2 
p22Rd8 - p63Rd8 - p62Rd8 - p30Rd9 + pro30Rd8 >= -2 
p62Rd8 - p63Rd8 - p22Rd8 - p30Rd9 + pro30Rd8 >= -2 
p30Rd9 - p63Rd8 - p22Rd8 - p62Rd8 + pro30Rd8 >= -2 
p23Rd8 + p63Rd8 + p31Rd9 <= 2 
p23Rd8 + p63Rd8 + p31Rd9 - 2 temp8 >= 0 
temp8 - p23Rd8 >= 0 
temp8 - p63Rd8 >= 0 
temp8 - p31Rd9 >= 0 
p35Rd9 + p32Rd10 - p0Rd10 >= 0
p35Rd9 - p32Rd10 + p0Rd10 >= 0
- p35Rd9 + p32Rd10 + p0Rd10 >= 0
p35Rd9 + p32Rd10 + p0Rd10 <= 2
p36Rd9 + p33Rd10 - p1Rd10 >= 0
p36Rd9 - p33Rd10 + p1Rd10 >= 0
- p36Rd9 + p33Rd10 + p1Rd10 >= 0
p36Rd9 + p33Rd10 + p1Rd10 <= 2
p37Rd9 + p34Rd10 - p2Rd10 >= 0
p37Rd9 - p34Rd10 + p2Rd10 >= 0
- p37Rd9 + p34Rd10 + p2Rd10 >= 0
p37Rd9 + p34Rd10 + p2Rd10 <= 2
p38Rd9 + p35Rd10 - p3Rd10 >= 0
p38Rd9 - p35Rd10 + p3Rd10 >= 0
- p38Rd9 + p35Rd10 + p3Rd10 >= 0
p38Rd9 + p35Rd10 + p3Rd10 <= 2
p39Rd9 + p36Rd10 - p4Rd10 >= 0
p39Rd9 - p36Rd10 + p4Rd10 >= 0
- p39Rd9 + p36Rd10 + p4Rd10 >= 0
p39Rd9 + p36Rd10 + p4Rd10 <= 2
p40Rd9 + p37Rd10 - p5Rd10 >= 0
p40Rd9 - p37Rd10 + p5Rd10 >= 0
- p40Rd9 + p37Rd10 + p5Rd10 >= 0
p40Rd9 + p37Rd10 + p5Rd10 <= 2
p41Rd9 + p38Rd10 - p6Rd10 >= 0
p41Rd9 - p38Rd10 + p6Rd10 >= 0
- p41Rd9 + p38Rd10 + p6Rd10 >= 0
p41Rd9 + p38Rd10 + p6Rd10 <= 2
p42Rd9 + p39Rd10 - p7Rd10 >= 0
p42Rd9 - p39Rd10 + p7Rd10 >= 0
- p42Rd9 + p39Rd10 + p7Rd10 >= 0
p42Rd9 + p39Rd10 + p7Rd10 <= 2
p43Rd9 + p40Rd10 - p8Rd10 >= 0
p43Rd9 - p40Rd10 + p8Rd10 >= 0
- p43Rd9 + p40Rd10 + p8Rd10 >= 0
p43Rd9 + p40Rd10 + p8Rd10 <= 2
p44Rd9 + p41Rd10 - p9Rd10 >= 0
p44Rd9 - p41Rd10 + p9Rd10 >= 0
- p44Rd9 + p41Rd10 + p9Rd10 >= 0
p44Rd9 + p41Rd10 + p9Rd10 <= 2
p45Rd9 + p42Rd10 - p10Rd10 >= 0
p45Rd9 - p42Rd10 + p10Rd10 >= 0
- p45Rd9 + p42Rd10 + p10Rd10 >= 0
p45Rd9 + p42Rd10 + p10Rd10 <= 2
p46Rd9 + p43Rd10 - p11Rd10 >= 0
p46Rd9 - p43Rd10 + p11Rd10 >= 0
- p46Rd9 + p43Rd10 + p11Rd10 >= 0
p46Rd9 + p43Rd10 + p11Rd10 <= 2
p47Rd9 + p44Rd10 - p12Rd10 >= 0
p47Rd9 - p44Rd10 + p12Rd10 >= 0
- p47Rd9 + p44Rd10 + p12Rd10 >= 0
p47Rd9 + p44Rd10 + p12Rd10 <= 2
p48Rd9 + p45Rd10 - p13Rd10 >= 0
p48Rd9 - p45Rd10 + p13Rd10 >= 0
- p48Rd9 + p45Rd10 + p13Rd10 >= 0
p48Rd9 + p45Rd10 + p13Rd10 <= 2
p49Rd9 + p46Rd10 - p14Rd10 >= 0
p49Rd9 - p46Rd10 + p14Rd10 >= 0
- p49Rd9 + p46Rd10 + p14Rd10 >= 0
p49Rd9 + p46Rd10 + p14Rd10 <= 2
p50Rd9 + p47Rd10 - p15Rd10 >= 0
p50Rd9 - p47Rd10 + p15Rd10 >= 0
- p50Rd9 + p47Rd10 + p15Rd10 >= 0
p50Rd9 + p47Rd10 + p15Rd10 <= 2
p51Rd9 + p48Rd10 - p16Rd10 >= 0
p51Rd9 - p48Rd10 + p16Rd10 >= 0
- p51Rd9 + p48Rd10 + p16Rd10 >= 0
p51Rd9 + p48Rd10 + p16Rd10 <= 2
p52Rd9 + p49Rd10 - p17Rd10 >= 0
p52Rd9 - p49Rd10 + p17Rd10 >= 0
- p52Rd9 + p49Rd10 + p17Rd10 >= 0
p52Rd9 + p49Rd10 + p17Rd10 <= 2
p53Rd9 + p50Rd10 - p18Rd10 >= 0
p53Rd9 - p50Rd10 + p18Rd10 >= 0
- p53Rd9 + p50Rd10 + p18Rd10 >= 0
p53Rd9 + p50Rd10 + p18Rd10 <= 2
p54Rd9 + p51Rd10 - p19Rd10 >= 0
p54Rd9 - p51Rd10 + p19Rd10 >= 0
- p54Rd9 + p51Rd10 + p19Rd10 >= 0
p54Rd9 + p51Rd10 + p19Rd10 <= 2
p55Rd9 + p52Rd10 - p20Rd10 >= 0
p55Rd9 - p52Rd10 + p20Rd10 >= 0
- p55Rd9 + p52Rd10 + p20Rd10 >= 0
p55Rd9 + p52Rd10 + p20Rd10 <= 2
p56Rd9 + p53Rd10 - p21Rd10 >= 0
p56Rd9 - p53Rd10 + p21Rd10 >= 0
- p56Rd9 + p53Rd10 + p21Rd10 >= 0
p56Rd9 + p53Rd10 + p21Rd10 <= 2
p57Rd9 + p54Rd10 - p22Rd10 >= 0
p57Rd9 - p54Rd10 + p22Rd10 >= 0
- p57Rd9 + p54Rd10 + p22Rd10 >= 0
p57Rd9 + p54Rd10 + p22Rd10 <= 2
p58Rd9 + p55Rd10 - p23Rd10 >= 0
p58Rd9 - p55Rd10 + p23Rd10 >= 0
- p58Rd9 + p55Rd10 + p23Rd10 >= 0
p58Rd9 + p55Rd10 + p23Rd10 <= 2
p59Rd9 + p56Rd10 - p24Rd10 >= 0
p59Rd9 - p56Rd10 + p24Rd10 >= 0
- p59Rd9 + p56Rd10 + p24Rd10 >= 0
p59Rd9 + p56Rd10 + p24Rd10 <= 2
p60Rd9 + p57Rd10 - p25Rd10 >= 0
p60Rd9 - p57Rd10 + p25Rd10 >= 0
- p60Rd9 + p57Rd10 + p25Rd10 >= 0
p60Rd9 + p57Rd10 + p25Rd10 <= 2
p61Rd9 + p58Rd10 - p26Rd10 >= 0
p61Rd9 - p58Rd10 + p26Rd10 >= 0
- p61Rd9 + p58Rd10 + p26Rd10 >= 0
p61Rd9 + p58Rd10 + p26Rd10 <= 2
p62Rd9 + p59Rd10 - p27Rd10 >= 0
p62Rd9 - p59Rd10 + p27Rd10 >= 0
- p62Rd9 + p59Rd10 + p27Rd10 >= 0
p62Rd9 + p59Rd10 + p27Rd10 <= 2
p63Rd9 + p60Rd10 - p28Rd10 >= 0
p63Rd9 - p60Rd10 + p28Rd10 >= 0
- p63Rd9 + p60Rd10 + p28Rd10 >= 0
p63Rd9 + p60Rd10 + p28Rd10 <= 2
p32Rd9 + p61Rd10 - p29Rd10 >= 0
p32Rd9 - p61Rd10 + p29Rd10 >= 0
- p32Rd9 + p61Rd10 + p29Rd10 >= 0
p32Rd9 + p61Rd10 + p29Rd10 <= 2
p33Rd9 + p62Rd10 - p30Rd10 >= 0
p33Rd9 - p62Rd10 + p30Rd10 >= 0
- p33Rd9 + p62Rd10 + p30Rd10 >= 0
p33Rd9 + p62Rd10 + p30Rd10 <= 2
p34Rd9 + p63Rd10 - p31Rd10 >= 0
p34Rd9 - p63Rd10 + p31Rd10 >= 0
- p34Rd9 + p63Rd10 + p31Rd10 >= 0
p34Rd9 + p63Rd10 + p31Rd10 <= 2
p33Rd9 - p1Rd10 + pro0Rd9 >= 0 
p25Rd9 - p33Rd9 + pro0Rd9 >= 0 
p1Rd10 - p25Rd9 + pro0Rd9 >= 0 
p25Rd9 + p33Rd9 + p1Rd10 + pro0Rd9 <= 3 
p25Rd9 + p33Rd9 + p1Rd10 - pro0Rd9 >= 0 
p24Rd9 + p32Rd9 + p0Rd10 + pro0Rd9 - p33Rd9 >= 0 
p33Rd9 + p24Rd9 - p32Rd9 + p0Rd10 + pro0Rd9 >= 0 
p33Rd9 - p24Rd9 + p32Rd9 + p0Rd10 + pro0Rd9 >= 0 
p25Rd9 + p24Rd9 + p32Rd9 - p0Rd10 + pro0Rd9 >= 0 
p1Rd10 - p24Rd9 - p32Rd9 - p0Rd10 + pro0Rd9 >= -2 
p24Rd9 - p33Rd9 - p32Rd9 - p0Rd10 + pro0Rd9 >= -2 
p32Rd9 - p33Rd9 - p24Rd9 - p0Rd10 + pro0Rd9 >= -2 
p0Rd10 - p33Rd9 - p24Rd9 - p32Rd9 + pro0Rd9 >= -2 
p34Rd9 - p2Rd10 + pro1Rd9 >= 0 
p26Rd9 - p34Rd9 + pro1Rd9 >= 0 
p2Rd10 - p26Rd9 + pro1Rd9 >= 0 
p26Rd9 + p34Rd9 + p2Rd10 + pro1Rd9 <= 3 
p26Rd9 + p34Rd9 + p2Rd10 - pro1Rd9 >= 0 
p25Rd9 + p33Rd9 + p1Rd10 + pro1Rd9 - p34Rd9 >= 0 
p34Rd9 + p25Rd9 - p33Rd9 + p1Rd10 + pro1Rd9 >= 0 
p34Rd9 - p25Rd9 + p33Rd9 + p1Rd10 + pro1Rd9 >= 0 
p26Rd9 + p25Rd9 + p33Rd9 - p1Rd10 + pro1Rd9 >= 0 
p2Rd10 - p25Rd9 - p33Rd9 - p1Rd10 + pro1Rd9 >= -2 
p25Rd9 - p34Rd9 - p33Rd9 - p1Rd10 + pro1Rd9 >= -2 
p33Rd9 - p34Rd9 - p25Rd9 - p1Rd10 + pro1Rd9 >= -2 
p1Rd10 - p34Rd9 - p25Rd9 - p33Rd9 + pro1Rd9 >= -2 
p35Rd9 - p3Rd10 + pro2Rd9 >= 0 
p27Rd9 - p35Rd9 + pro2Rd9 >= 0 
p3Rd10 - p27Rd9 + pro2Rd9 >= 0 
p27Rd9 + p35Rd9 + p3Rd10 + pro2Rd9 <= 3 
p27Rd9 + p35Rd9 + p3Rd10 - pro2Rd9 >= 0 
p26Rd9 + p34Rd9 + p2Rd10 + pro2Rd9 - p35Rd9 >= 0 
p35Rd9 + p26Rd9 - p34Rd9 + p2Rd10 + pro2Rd9 >= 0 
p35Rd9 - p26Rd9 + p34Rd9 + p2Rd10 + pro2Rd9 >= 0 
p27Rd9 + p26Rd9 + p34Rd9 - p2Rd10 + pro2Rd9 >= 0 
p3Rd10 - p26Rd9 - p34Rd9 - p2Rd10 + pro2Rd9 >= -2 
p26Rd9 - p35Rd9 - p34Rd9 - p2Rd10 + pro2Rd9 >= -2 
p34Rd9 - p35Rd9 - p26Rd9 - p2Rd10 + pro2Rd9 >= -2 
p2Rd10 - p35Rd9 - p26Rd9 - p34Rd9 + pro2Rd9 >= -2 
p36Rd9 - p4Rd10 + pro3Rd9 >= 0 
p28Rd9 - p36Rd9 + pro3Rd9 >= 0 
p4Rd10 - p28Rd9 + pro3Rd9 >= 0 
p28Rd9 + p36Rd9 + p4Rd10 + pro3Rd9 <= 3 
p28Rd9 + p36Rd9 + p4Rd10 - pro3Rd9 >= 0 
p27Rd9 + p35Rd9 + p3Rd10 + pro3Rd9 - p36Rd9 >= 0 
p36Rd9 + p27Rd9 - p35Rd9 + p3Rd10 + pro3Rd9 >= 0 
p36Rd9 - p27Rd9 + p35Rd9 + p3Rd10 + pro3Rd9 >= 0 
p28Rd9 + p27Rd9 + p35Rd9 - p3Rd10 + pro3Rd9 >= 0 
p4Rd10 - p27Rd9 - p35Rd9 - p3Rd10 + pro3Rd9 >= -2 
p27Rd9 - p36Rd9 - p35Rd9 - p3Rd10 + pro3Rd9 >= -2 
p35Rd9 - p36Rd9 - p27Rd9 - p3Rd10 + pro3Rd9 >= -2 
p3Rd10 - p36Rd9 - p27Rd9 - p35Rd9 + pro3Rd9 >= -2 
p37Rd9 - p5Rd10 + pro4Rd9 >= 0 
p29Rd9 - p37Rd9 + pro4Rd9 >= 0 
p5Rd10 - p29Rd9 + pro4Rd9 >= 0 
p29Rd9 + p37Rd9 + p5Rd10 + pro4Rd9 <= 3 
p29Rd9 + p37Rd9 + p5Rd10 - pro4Rd9 >= 0 
p28Rd9 + p36Rd9 + p4Rd10 + pro4Rd9 - p37Rd9 >= 0 
p37Rd9 + p28Rd9 - p36Rd9 + p4Rd10 + pro4Rd9 >= 0 
p37Rd9 - p28Rd9 + p36Rd9 + p4Rd10 + pro4Rd9 >= 0 
p29Rd9 + p28Rd9 + p36Rd9 - p4Rd10 + pro4Rd9 >= 0 
p5Rd10 - p28Rd9 - p36Rd9 - p4Rd10 + pro4Rd9 >= -2 
p28Rd9 - p37Rd9 - p36Rd9 - p4Rd10 + pro4Rd9 >= -2 
p36Rd9 - p37Rd9 - p28Rd9 - p4Rd10 + pro4Rd9 >= -2 
p4Rd10 - p37Rd9 - p28Rd9 - p36Rd9 + pro4Rd9 >= -2 
p38Rd9 - p6Rd10 + pro5Rd9 >= 0 
p30Rd9 - p38Rd9 + pro5Rd9 >= 0 
p6Rd10 - p30Rd9 + pro5Rd9 >= 0 
p30Rd9 + p38Rd9 + p6Rd10 + pro5Rd9 <= 3 
p30Rd9 + p38Rd9 + p6Rd10 - pro5Rd9 >= 0 
p29Rd9 + p37Rd9 + p5Rd10 + pro5Rd9 - p38Rd9 >= 0 
p38Rd9 + p29Rd9 - p37Rd9 + p5Rd10 + pro5Rd9 >= 0 
p38Rd9 - p29Rd9 + p37Rd9 + p5Rd10 + pro5Rd9 >= 0 
p30Rd9 + p29Rd9 + p37Rd9 - p5Rd10 + pro5Rd9 >= 0 
p6Rd10 - p29Rd9 - p37Rd9 - p5Rd10 + pro5Rd9 >= -2 
p29Rd9 - p38Rd9 - p37Rd9 - p5Rd10 + pro5Rd9 >= -2 
p37Rd9 - p38Rd9 - p29Rd9 - p5Rd10 + pro5Rd9 >= -2 
p5Rd10 - p38Rd9 - p29Rd9 - p37Rd9 + pro5Rd9 >= -2 
p39Rd9 - p7Rd10 + pro6Rd9 >= 0 
p31Rd9 - p39Rd9 + pro6Rd9 >= 0 
p7Rd10 - p31Rd9 + pro6Rd9 >= 0 
p31Rd9 + p39Rd9 + p7Rd10 + pro6Rd9 <= 3 
p31Rd9 + p39Rd9 + p7Rd10 - pro6Rd9 >= 0 
p30Rd9 + p38Rd9 + p6Rd10 + pro6Rd9 - p39Rd9 >= 0 
p39Rd9 + p30Rd9 - p38Rd9 + p6Rd10 + pro6Rd9 >= 0 
p39Rd9 - p30Rd9 + p38Rd9 + p6Rd10 + pro6Rd9 >= 0 
p31Rd9 + p30Rd9 + p38Rd9 - p6Rd10 + pro6Rd9 >= 0 
p7Rd10 - p30Rd9 - p38Rd9 - p6Rd10 + pro6Rd9 >= -2 
p30Rd9 - p39Rd9 - p38Rd9 - p6Rd10 + pro6Rd9 >= -2 
p38Rd9 - p39Rd9 - p30Rd9 - p6Rd10 + pro6Rd9 >= -2 
p6Rd10 - p39Rd9 - p30Rd9 - p38Rd9 + pro6Rd9 >= -2 
p40Rd9 - p8Rd10 + pro7Rd9 >= 0 
p0Rd9 - p40Rd9 + pro7Rd9 >= 0 
p8Rd10 - p0Rd9 + pro7Rd9 >= 0 
p0Rd9 + p40Rd9 + p8Rd10 + pro7Rd9 <= 3 
p0Rd9 + p40Rd9 + p8Rd10 - pro7Rd9 >= 0 
p31Rd9 + p39Rd9 + p7Rd10 + pro7Rd9 - p40Rd9 >= 0 
p40Rd9 + p31Rd9 - p39Rd9 + p7Rd10 + pro7Rd9 >= 0 
p40Rd9 - p31Rd9 + p39Rd9 + p7Rd10 + pro7Rd9 >= 0 
p0Rd9 + p31Rd9 + p39Rd9 - p7Rd10 + pro7Rd9 >= 0 
p8Rd10 - p31Rd9 - p39Rd9 - p7Rd10 + pro7Rd9 >= -2 
p31Rd9 - p40Rd9 - p39Rd9 - p7Rd10 + pro7Rd9 >= -2 
p39Rd9 - p40Rd9 - p31Rd9 - p7Rd10 + pro7Rd9 >= -2 
p7Rd10 - p40Rd9 - p31Rd9 - p39Rd9 + pro7Rd9 >= -2 
p41Rd9 - p9Rd10 + pro8Rd9 >= 0 
p1Rd9 - p41Rd9 + pro8Rd9 >= 0 
p9Rd10 - p1Rd9 + pro8Rd9 >= 0 
p1Rd9 + p41Rd9 + p9Rd10 + pro8Rd9 <= 3 
p1Rd9 + p41Rd9 + p9Rd10 - pro8Rd9 >= 0 
p0Rd9 + p40Rd9 + p8Rd10 + pro8Rd9 - p41Rd9 >= 0 
p41Rd9 + p0Rd9 - p40Rd9 + p8Rd10 + pro8Rd9 >= 0 
p41Rd9 - p0Rd9 + p40Rd9 + p8Rd10 + pro8Rd9 >= 0 
p1Rd9 + p0Rd9 + p40Rd9 - p8Rd10 + pro8Rd9 >= 0 
p9Rd10 - p0Rd9 - p40Rd9 - p8Rd10 + pro8Rd9 >= -2 
p0Rd9 - p41Rd9 - p40Rd9 - p8Rd10 + pro8Rd9 >= -2 
p40Rd9 - p41Rd9 - p0Rd9 - p8Rd10 + pro8Rd9 >= -2 
p8Rd10 - p41Rd9 - p0Rd9 - p40Rd9 + pro8Rd9 >= -2 
p42Rd9 - p10Rd10 + pro9Rd9 >= 0 
p2Rd9 - p42Rd9 + pro9Rd9 >= 0 
p10Rd10 - p2Rd9 + pro9Rd9 >= 0 
p2Rd9 + p42Rd9 + p10Rd10 + pro9Rd9 <= 3 
p2Rd9 + p42Rd9 + p10Rd10 - pro9Rd9 >= 0 
p1Rd9 + p41Rd9 + p9Rd10 + pro9Rd9 - p42Rd9 >= 0 
p42Rd9 + p1Rd9 - p41Rd9 + p9Rd10 + pro9Rd9 >= 0 
p42Rd9 - p1Rd9 + p41Rd9 + p9Rd10 + pro9Rd9 >= 0 
p2Rd9 + p1Rd9 + p41Rd9 - p9Rd10 + pro9Rd9 >= 0 
p10Rd10 - p1Rd9 - p41Rd9 - p9Rd10 + pro9Rd9 >= -2 
p1Rd9 - p42Rd9 - p41Rd9 - p9Rd10 + pro9Rd9 >= -2 
p41Rd9 - p42Rd9 - p1Rd9 - p9Rd10 + pro9Rd9 >= -2 
p9Rd10 - p42Rd9 - p1Rd9 - p41Rd9 + pro9Rd9 >= -2 
p43Rd9 - p11Rd10 + pro10Rd9 >= 0 
p3Rd9 - p43Rd9 + pro10Rd9 >= 0 
p11Rd10 - p3Rd9 + pro10Rd9 >= 0 
p3Rd9 + p43Rd9 + p11Rd10 + pro10Rd9 <= 3 
p3Rd9 + p43Rd9 + p11Rd10 - pro10Rd9 >= 0 
p2Rd9 + p42Rd9 + p10Rd10 + pro10Rd9 - p43Rd9 >= 0 
p43Rd9 + p2Rd9 - p42Rd9 + p10Rd10 + pro10Rd9 >= 0 
p43Rd9 - p2Rd9 + p42Rd9 + p10Rd10 + pro10Rd9 >= 0 
p3Rd9 + p2Rd9 + p42Rd9 - p10Rd10 + pro10Rd9 >= 0 
p11Rd10 - p2Rd9 - p42Rd9 - p10Rd10 + pro10Rd9 >= -2 
p2Rd9 - p43Rd9 - p42Rd9 - p10Rd10 + pro10Rd9 >= -2 
p42Rd9 - p43Rd9 - p2Rd9 - p10Rd10 + pro10Rd9 >= -2 
p10Rd10 - p43Rd9 - p2Rd9 - p42Rd9 + pro10Rd9 >= -2 
p44Rd9 - p12Rd10 + pro11Rd9 >= 0 
p4Rd9 - p44Rd9 + pro11Rd9 >= 0 
p12Rd10 - p4Rd9 + pro11Rd9 >= 0 
p4Rd9 + p44Rd9 + p12Rd10 + pro11Rd9 <= 3 
p4Rd9 + p44Rd9 + p12Rd10 - pro11Rd9 >= 0 
p3Rd9 + p43Rd9 + p11Rd10 + pro11Rd9 - p44Rd9 >= 0 
p44Rd9 + p3Rd9 - p43Rd9 + p11Rd10 + pro11Rd9 >= 0 
p44Rd9 - p3Rd9 + p43Rd9 + p11Rd10 + pro11Rd9 >= 0 
p4Rd9 + p3Rd9 + p43Rd9 - p11Rd10 + pro11Rd9 >= 0 
p12Rd10 - p3Rd9 - p43Rd9 - p11Rd10 + pro11Rd9 >= -2 
p3Rd9 - p44Rd9 - p43Rd9 - p11Rd10 + pro11Rd9 >= -2 
p43Rd9 - p44Rd9 - p3Rd9 - p11Rd10 + pro11Rd9 >= -2 
p11Rd10 - p44Rd9 - p3Rd9 - p43Rd9 + pro11Rd9 >= -2 
p45Rd9 - p13Rd10 + pro12Rd9 >= 0 
p5Rd9 - p45Rd9 + pro12Rd9 >= 0 
p13Rd10 - p5Rd9 + pro12Rd9 >= 0 
p5Rd9 + p45Rd9 + p13Rd10 + pro12Rd9 <= 3 
p5Rd9 + p45Rd9 + p13Rd10 - pro12Rd9 >= 0 
p4Rd9 + p44Rd9 + p12Rd10 + pro12Rd9 - p45Rd9 >= 0 
p45Rd9 + p4Rd9 - p44Rd9 + p12Rd10 + pro12Rd9 >= 0 
p45Rd9 - p4Rd9 + p44Rd9 + p12Rd10 + pro12Rd9 >= 0 
p5Rd9 + p4Rd9 + p44Rd9 - p12Rd10 + pro12Rd9 >= 0 
p13Rd10 - p4Rd9 - p44Rd9 - p12Rd10 + pro12Rd9 >= -2 
p4Rd9 - p45Rd9 - p44Rd9 - p12Rd10 + pro12Rd9 >= -2 
p44Rd9 - p45Rd9 - p4Rd9 - p12Rd10 + pro12Rd9 >= -2 
p12Rd10 - p45Rd9 - p4Rd9 - p44Rd9 + pro12Rd9 >= -2 
p46Rd9 - p14Rd10 + pro13Rd9 >= 0 
p6Rd9 - p46Rd9 + pro13Rd9 >= 0 
p14Rd10 - p6Rd9 + pro13Rd9 >= 0 
p6Rd9 + p46Rd9 + p14Rd10 + pro13Rd9 <= 3 
p6Rd9 + p46Rd9 + p14Rd10 - pro13Rd9 >= 0 
p5Rd9 + p45Rd9 + p13Rd10 + pro13Rd9 - p46Rd9 >= 0 
p46Rd9 + p5Rd9 - p45Rd9 + p13Rd10 + pro13Rd9 >= 0 
p46Rd9 - p5Rd9 + p45Rd9 + p13Rd10 + pro13Rd9 >= 0 
p6Rd9 + p5Rd9 + p45Rd9 - p13Rd10 + pro13Rd9 >= 0 
p14Rd10 - p5Rd9 - p45Rd9 - p13Rd10 + pro13Rd9 >= -2 
p5Rd9 - p46Rd9 - p45Rd9 - p13Rd10 + pro13Rd9 >= -2 
p45Rd9 - p46Rd9 - p5Rd9 - p13Rd10 + pro13Rd9 >= -2 
p13Rd10 - p46Rd9 - p5Rd9 - p45Rd9 + pro13Rd9 >= -2 
p47Rd9 - p15Rd10 + pro14Rd9 >= 0 
p7Rd9 - p47Rd9 + pro14Rd9 >= 0 
p15Rd10 - p7Rd9 + pro14Rd9 >= 0 
p7Rd9 + p47Rd9 + p15Rd10 + pro14Rd9 <= 3 
p7Rd9 + p47Rd9 + p15Rd10 - pro14Rd9 >= 0 
p6Rd9 + p46Rd9 + p14Rd10 + pro14Rd9 - p47Rd9 >= 0 
p47Rd9 + p6Rd9 - p46Rd9 + p14Rd10 + pro14Rd9 >= 0 
p47Rd9 - p6Rd9 + p46Rd9 + p14Rd10 + pro14Rd9 >= 0 
p7Rd9 + p6Rd9 + p46Rd9 - p14Rd10 + pro14Rd9 >= 0 
p15Rd10 - p6Rd9 - p46Rd9 - p14Rd10 + pro14Rd9 >= -2 
p6Rd9 - p47Rd9 - p46Rd9 - p14Rd10 + pro14Rd9 >= -2 
p46Rd9 - p47Rd9 - p6Rd9 - p14Rd10 + pro14Rd9 >= -2 
p14Rd10 - p47Rd9 - p6Rd9 - p46Rd9 + pro14Rd9 >= -2 
p48Rd9 - p16Rd10 + pro15Rd9 >= 0 
p8Rd9 - p48Rd9 + pro15Rd9 >= 0 
p16Rd10 - p8Rd9 + pro15Rd9 >= 0 
p8Rd9 + p48Rd9 + p16Rd10 + pro15Rd9 <= 3 
p8Rd9 + p48Rd9 + p16Rd10 - pro15Rd9 >= 0 
p7Rd9 + p47Rd9 + p15Rd10 + pro15Rd9 - p48Rd9 >= 0 
p48Rd9 + p7Rd9 - p47Rd9 + p15Rd10 + pro15Rd9 >= 0 
p48Rd9 - p7Rd9 + p47Rd9 + p15Rd10 + pro15Rd9 >= 0 
p8Rd9 + p7Rd9 + p47Rd9 - p15Rd10 + pro15Rd9 >= 0 
p16Rd10 - p7Rd9 - p47Rd9 - p15Rd10 + pro15Rd9 >= -2 
p7Rd9 - p48Rd9 - p47Rd9 - p15Rd10 + pro15Rd9 >= -2 
p47Rd9 - p48Rd9 - p7Rd9 - p15Rd10 + pro15Rd9 >= -2 
p15Rd10 - p48Rd9 - p7Rd9 - p47Rd9 + pro15Rd9 >= -2 
p49Rd9 - p17Rd10 + pro16Rd9 >= 0 
p9Rd9 - p49Rd9 + pro16Rd9 >= 0 
p17Rd10 - p9Rd9 + pro16Rd9 >= 0 
p9Rd9 + p49Rd9 + p17Rd10 + pro16Rd9 <= 3 
p9Rd9 + p49Rd9 + p17Rd10 - pro16Rd9 >= 0 
p8Rd9 + p48Rd9 + p16Rd10 + pro16Rd9 - p49Rd9 >= 0 
p49Rd9 + p8Rd9 - p48Rd9 + p16Rd10 + pro16Rd9 >= 0 
p49Rd9 - p8Rd9 + p48Rd9 + p16Rd10 + pro16Rd9 >= 0 
p9Rd9 + p8Rd9 + p48Rd9 - p16Rd10 + pro16Rd9 >= 0 
p17Rd10 - p8Rd9 - p48Rd9 - p16Rd10 + pro16Rd9 >= -2 
p8Rd9 - p49Rd9 - p48Rd9 - p16Rd10 + pro16Rd9 >= -2 
p48Rd9 - p49Rd9 - p8Rd9 - p16Rd10 + pro16Rd9 >= -2 
p16Rd10 - p49Rd9 - p8Rd9 - p48Rd9 + pro16Rd9 >= -2 
p50Rd9 - p18Rd10 + pro17Rd9 >= 0 
p10Rd9 - p50Rd9 + pro17Rd9 >= 0 
p18Rd10 - p10Rd9 + pro17Rd9 >= 0 
p10Rd9 + p50Rd9 + p18Rd10 + pro17Rd9 <= 3 
p10Rd9 + p50Rd9 + p18Rd10 - pro17Rd9 >= 0 
p9Rd9 + p49Rd9 + p17Rd10 + pro17Rd9 - p50Rd9 >= 0 
p50Rd9 + p9Rd9 - p49Rd9 + p17Rd10 + pro17Rd9 >= 0 
p50Rd9 - p9Rd9 + p49Rd9 + p17Rd10 + pro17Rd9 >= 0 
p10Rd9 + p9Rd9 + p49Rd9 - p17Rd10 + pro17Rd9 >= 0 
p18Rd10 - p9Rd9 - p49Rd9 - p17Rd10 + pro17Rd9 >= -2 
p9Rd9 - p50Rd9 - p49Rd9 - p17Rd10 + pro17Rd9 >= -2 
p49Rd9 - p50Rd9 - p9Rd9 - p17Rd10 + pro17Rd9 >= -2 
p17Rd10 - p50Rd9 - p9Rd9 - p49Rd9 + pro17Rd9 >= -2 
p51Rd9 - p19Rd10 + pro18Rd9 >= 0 
p11Rd9 - p51Rd9 + pro18Rd9 >= 0 
p19Rd10 - p11Rd9 + pro18Rd9 >= 0 
p11Rd9 + p51Rd9 + p19Rd10 + pro18Rd9 <= 3 
p11Rd9 + p51Rd9 + p19Rd10 - pro18Rd9 >= 0 
p10Rd9 + p50Rd9 + p18Rd10 + pro18Rd9 - p51Rd9 >= 0 
p51Rd9 + p10Rd9 - p50Rd9 + p18Rd10 + pro18Rd9 >= 0 
p51Rd9 - p10Rd9 + p50Rd9 + p18Rd10 + pro18Rd9 >= 0 
p11Rd9 + p10Rd9 + p50Rd9 - p18Rd10 + pro18Rd9 >= 0 
p19Rd10 - p10Rd9 - p50Rd9 - p18Rd10 + pro18Rd9 >= -2 
p10Rd9 - p51Rd9 - p50Rd9 - p18Rd10 + pro18Rd9 >= -2 
p50Rd9 - p51Rd9 - p10Rd9 - p18Rd10 + pro18Rd9 >= -2 
p18Rd10 - p51Rd9 - p10Rd9 - p50Rd9 + pro18Rd9 >= -2 
p52Rd9 - p20Rd10 + pro19Rd9 >= 0 
p12Rd9 - p52Rd9 + pro19Rd9 >= 0 
p20Rd10 - p12Rd9 + pro19Rd9 >= 0 
p12Rd9 + p52Rd9 + p20Rd10 + pro19Rd9 <= 3 
p12Rd9 + p52Rd9 + p20Rd10 - pro19Rd9 >= 0 
p11Rd9 + p51Rd9 + p19Rd10 + pro19Rd9 - p52Rd9 >= 0 
p52Rd9 + p11Rd9 - p51Rd9 + p19Rd10 + pro19Rd9 >= 0 
p52Rd9 - p11Rd9 + p51Rd9 + p19Rd10 + pro19Rd9 >= 0 
p12Rd9 + p11Rd9 + p51Rd9 - p19Rd10 + pro19Rd9 >= 0 
p20Rd10 - p11Rd9 - p51Rd9 - p19Rd10 + pro19Rd9 >= -2 
p11Rd9 - p52Rd9 - p51Rd9 - p19Rd10 + pro19Rd9 >= -2 
p51Rd9 - p52Rd9 - p11Rd9 - p19Rd10 + pro19Rd9 >= -2 
p19Rd10 - p52Rd9 - p11Rd9 - p51Rd9 + pro19Rd9 >= -2 
p53Rd9 - p21Rd10 + pro20Rd9 >= 0 
p13Rd9 - p53Rd9 + pro20Rd9 >= 0 
p21Rd10 - p13Rd9 + pro20Rd9 >= 0 
p13Rd9 + p53Rd9 + p21Rd10 + pro20Rd9 <= 3 
p13Rd9 + p53Rd9 + p21Rd10 - pro20Rd9 >= 0 
p12Rd9 + p52Rd9 + p20Rd10 + pro20Rd9 - p53Rd9 >= 0 
p53Rd9 + p12Rd9 - p52Rd9 + p20Rd10 + pro20Rd9 >= 0 
p53Rd9 - p12Rd9 + p52Rd9 + p20Rd10 + pro20Rd9 >= 0 
p13Rd9 + p12Rd9 + p52Rd9 - p20Rd10 + pro20Rd9 >= 0 
p21Rd10 - p12Rd9 - p52Rd9 - p20Rd10 + pro20Rd9 >= -2 
p12Rd9 - p53Rd9 - p52Rd9 - p20Rd10 + pro20Rd9 >= -2 
p52Rd9 - p53Rd9 - p12Rd9 - p20Rd10 + pro20Rd9 >= -2 
p20Rd10 - p53Rd9 - p12Rd9 - p52Rd9 + pro20Rd9 >= -2 
p54Rd9 - p22Rd10 + pro21Rd9 >= 0 
p14Rd9 - p54Rd9 + pro21Rd9 >= 0 
p22Rd10 - p14Rd9 + pro21Rd9 >= 0 
p14Rd9 + p54Rd9 + p22Rd10 + pro21Rd9 <= 3 
p14Rd9 + p54Rd9 + p22Rd10 - pro21Rd9 >= 0 
p13Rd9 + p53Rd9 + p21Rd10 + pro21Rd9 - p54Rd9 >= 0 
p54Rd9 + p13Rd9 - p53Rd9 + p21Rd10 + pro21Rd9 >= 0 
p54Rd9 - p13Rd9 + p53Rd9 + p21Rd10 + pro21Rd9 >= 0 
p14Rd9 + p13Rd9 + p53Rd9 - p21Rd10 + pro21Rd9 >= 0 
p22Rd10 - p13Rd9 - p53Rd9 - p21Rd10 + pro21Rd9 >= -2 
p13Rd9 - p54Rd9 - p53Rd9 - p21Rd10 + pro21Rd9 >= -2 
p53Rd9 - p54Rd9 - p13Rd9 - p21Rd10 + pro21Rd9 >= -2 
p21Rd10 - p54Rd9 - p13Rd9 - p53Rd9 + pro21Rd9 >= -2 
p55Rd9 - p23Rd10 + pro22Rd9 >= 0 
p15Rd9 - p55Rd9 + pro22Rd9 >= 0 
p23Rd10 - p15Rd9 + pro22Rd9 >= 0 
p15Rd9 + p55Rd9 + p23Rd10 + pro22Rd9 <= 3 
p15Rd9 + p55Rd9 + p23Rd10 - pro22Rd9 >= 0 
p14Rd9 + p54Rd9 + p22Rd10 + pro22Rd9 - p55Rd9 >= 0 
p55Rd9 + p14Rd9 - p54Rd9 + p22Rd10 + pro22Rd9 >= 0 
p55Rd9 - p14Rd9 + p54Rd9 + p22Rd10 + pro22Rd9 >= 0 
p15Rd9 + p14Rd9 + p54Rd9 - p22Rd10 + pro22Rd9 >= 0 
p23Rd10 - p14Rd9 - p54Rd9 - p22Rd10 + pro22Rd9 >= -2 
p14Rd9 - p55Rd9 - p54Rd9 - p22Rd10 + pro22Rd9 >= -2 
p54Rd9 - p55Rd9 - p14Rd9 - p22Rd10 + pro22Rd9 >= -2 
p22Rd10 - p55Rd9 - p14Rd9 - p54Rd9 + pro22Rd9 >= -2 
p56Rd9 - p24Rd10 + pro23Rd9 >= 0 
p16Rd9 - p56Rd9 + pro23Rd9 >= 0 
p24Rd10 - p16Rd9 + pro23Rd9 >= 0 
p16Rd9 + p56Rd9 + p24Rd10 + pro23Rd9 <= 3 
p16Rd9 + p56Rd9 + p24Rd10 - pro23Rd9 >= 0 
p15Rd9 + p55Rd9 + p23Rd10 + pro23Rd9 - p56Rd9 >= 0 
p56Rd9 + p15Rd9 - p55Rd9 + p23Rd10 + pro23Rd9 >= 0 
p56Rd9 - p15Rd9 + p55Rd9 + p23Rd10 + pro23Rd9 >= 0 
p16Rd9 + p15Rd9 + p55Rd9 - p23Rd10 + pro23Rd9 >= 0 
p24Rd10 - p15Rd9 - p55Rd9 - p23Rd10 + pro23Rd9 >= -2 
p15Rd9 - p56Rd9 - p55Rd9 - p23Rd10 + pro23Rd9 >= -2 
p55Rd9 - p56Rd9 - p15Rd9 - p23Rd10 + pro23Rd9 >= -2 
p23Rd10 - p56Rd9 - p15Rd9 - p55Rd9 + pro23Rd9 >= -2 
p57Rd9 - p25Rd10 + pro24Rd9 >= 0 
p17Rd9 - p57Rd9 + pro24Rd9 >= 0 
p25Rd10 - p17Rd9 + pro24Rd9 >= 0 
p17Rd9 + p57Rd9 + p25Rd10 + pro24Rd9 <= 3 
p17Rd9 + p57Rd9 + p25Rd10 - pro24Rd9 >= 0 
p16Rd9 + p56Rd9 + p24Rd10 + pro24Rd9 - p57Rd9 >= 0 
p57Rd9 + p16Rd9 - p56Rd9 + p24Rd10 + pro24Rd9 >= 0 
p57Rd9 - p16Rd9 + p56Rd9 + p24Rd10 + pro24Rd9 >= 0 
p17Rd9 + p16Rd9 + p56Rd9 - p24Rd10 + pro24Rd9 >= 0 
p25Rd10 - p16Rd9 - p56Rd9 - p24Rd10 + pro24Rd9 >= -2 
p16Rd9 - p57Rd9 - p56Rd9 - p24Rd10 + pro24Rd9 >= -2 
p56Rd9 - p57Rd9 - p16Rd9 - p24Rd10 + pro24Rd9 >= -2 
p24Rd10 - p57Rd9 - p16Rd9 - p56Rd9 + pro24Rd9 >= -2 
p58Rd9 - p26Rd10 + pro25Rd9 >= 0 
p18Rd9 - p58Rd9 + pro25Rd9 >= 0 
p26Rd10 - p18Rd9 + pro25Rd9 >= 0 
p18Rd9 + p58Rd9 + p26Rd10 + pro25Rd9 <= 3 
p18Rd9 + p58Rd9 + p26Rd10 - pro25Rd9 >= 0 
p17Rd9 + p57Rd9 + p25Rd10 + pro25Rd9 - p58Rd9 >= 0 
p58Rd9 + p17Rd9 - p57Rd9 + p25Rd10 + pro25Rd9 >= 0 
p58Rd9 - p17Rd9 + p57Rd9 + p25Rd10 + pro25Rd9 >= 0 
p18Rd9 + p17Rd9 + p57Rd9 - p25Rd10 + pro25Rd9 >= 0 
p26Rd10 - p17Rd9 - p57Rd9 - p25Rd10 + pro25Rd9 >= -2 
p17Rd9 - p58Rd9 - p57Rd9 - p25Rd10 + pro25Rd9 >= -2 
p57Rd9 - p58Rd9 - p17Rd9 - p25Rd10 + pro25Rd9 >= -2 
p25Rd10 - p58Rd9 - p17Rd9 - p57Rd9 + pro25Rd9 >= -2 
p59Rd9 - p27Rd10 + pro26Rd9 >= 0 
p19Rd9 - p59Rd9 + pro26Rd9 >= 0 
p27Rd10 - p19Rd9 + pro26Rd9 >= 0 
p19Rd9 + p59Rd9 + p27Rd10 + pro26Rd9 <= 3 
p19Rd9 + p59Rd9 + p27Rd10 - pro26Rd9 >= 0 
p18Rd9 + p58Rd9 + p26Rd10 + pro26Rd9 - p59Rd9 >= 0 
p59Rd9 + p18Rd9 - p58Rd9 + p26Rd10 + pro26Rd9 >= 0 
p59Rd9 - p18Rd9 + p58Rd9 + p26Rd10 + pro26Rd9 >= 0 
p19Rd9 + p18Rd9 + p58Rd9 - p26Rd10 + pro26Rd9 >= 0 
p27Rd10 - p18Rd9 - p58Rd9 - p26Rd10 + pro26Rd9 >= -2 
p18Rd9 - p59Rd9 - p58Rd9 - p26Rd10 + pro26Rd9 >= -2 
p58Rd9 - p59Rd9 - p18Rd9 - p26Rd10 + pro26Rd9 >= -2 
p26Rd10 - p59Rd9 - p18Rd9 - p58Rd9 + pro26Rd9 >= -2 
p60Rd9 - p28Rd10 + pro27Rd9 >= 0 
p20Rd9 - p60Rd9 + pro27Rd9 >= 0 
p28Rd10 - p20Rd9 + pro27Rd9 >= 0 
p20Rd9 + p60Rd9 + p28Rd10 + pro27Rd9 <= 3 
p20Rd9 + p60Rd9 + p28Rd10 - pro27Rd9 >= 0 
p19Rd9 + p59Rd9 + p27Rd10 + pro27Rd9 - p60Rd9 >= 0 
p60Rd9 + p19Rd9 - p59Rd9 + p27Rd10 + pro27Rd9 >= 0 
p60Rd9 - p19Rd9 + p59Rd9 + p27Rd10 + pro27Rd9 >= 0 
p20Rd9 + p19Rd9 + p59Rd9 - p27Rd10 + pro27Rd9 >= 0 
p28Rd10 - p19Rd9 - p59Rd9 - p27Rd10 + pro27Rd9 >= -2 
p19Rd9 - p60Rd9 - p59Rd9 - p27Rd10 + pro27Rd9 >= -2 
p59Rd9 - p60Rd9 - p19Rd9 - p27Rd10 + pro27Rd9 >= -2 
p27Rd10 - p60Rd9 - p19Rd9 - p59Rd9 + pro27Rd9 >= -2 
p61Rd9 - p29Rd10 + pro28Rd9 >= 0 
p21Rd9 - p61Rd9 + pro28Rd9 >= 0 
p29Rd10 - p21Rd9 + pro28Rd9 >= 0 
p21Rd9 + p61Rd9 + p29Rd10 + pro28Rd9 <= 3 
p21Rd9 + p61Rd9 + p29Rd10 - pro28Rd9 >= 0 
p20Rd9 + p60Rd9 + p28Rd10 + pro28Rd9 - p61Rd9 >= 0 
p61Rd9 + p20Rd9 - p60Rd9 + p28Rd10 + pro28Rd9 >= 0 
p61Rd9 - p20Rd9 + p60Rd9 + p28Rd10 + pro28Rd9 >= 0 
p21Rd9 + p20Rd9 + p60Rd9 - p28Rd10 + pro28Rd9 >= 0 
p29Rd10 - p20Rd9 - p60Rd9 - p28Rd10 + pro28Rd9 >= -2 
p20Rd9 - p61Rd9 - p60Rd9 - p28Rd10 + pro28Rd9 >= -2 
p60Rd9 - p61Rd9 - p20Rd9 - p28Rd10 + pro28Rd9 >= -2 
p28Rd10 - p61Rd9 - p20Rd9 - p60Rd9 + pro28Rd9 >= -2 
p62Rd9 - p30Rd10 + pro29Rd9 >= 0 
p22Rd9 - p62Rd9 + pro29Rd9 >= 0 
p30Rd10 - p22Rd9 + pro29Rd9 >= 0 
p22Rd9 + p62Rd9 + p30Rd10 + pro29Rd9 <= 3 
p22Rd9 + p62Rd9 + p30Rd10 - pro29Rd9 >= 0 
p21Rd9 + p61Rd9 + p29Rd10 + pro29Rd9 - p62Rd9 >= 0 
p62Rd9 + p21Rd9 - p61Rd9 + p29Rd10 + pro29Rd9 >= 0 
p62Rd9 - p21Rd9 + p61Rd9 + p29Rd10 + pro29Rd9 >= 0 
p22Rd9 + p21Rd9 + p61Rd9 - p29Rd10 + pro29Rd9 >= 0 
p30Rd10 - p21Rd9 - p61Rd9 - p29Rd10 + pro29Rd9 >= -2 
p21Rd9 - p62Rd9 - p61Rd9 - p29Rd10 + pro29Rd9 >= -2 
p61Rd9 - p62Rd9 - p21Rd9 - p29Rd10 + pro29Rd9 >= -2 
p29Rd10 - p62Rd9 - p21Rd9 - p61Rd9 + pro29Rd9 >= -2 
p63Rd9 - p31Rd10 + pro30Rd9 >= 0 
p23Rd9 - p63Rd9 + pro30Rd9 >= 0 
p31Rd10 - p23Rd9 + pro30Rd9 >= 0 
p23Rd9 + p63Rd9 + p31Rd10 + pro30Rd9 <= 3 
p23Rd9 + p63Rd9 + p31Rd10 - pro30Rd9 >= 0 
p22Rd9 + p62Rd9 + p30Rd10 + pro30Rd9 - p63Rd9 >= 0 
p63Rd9 + p22Rd9 - p62Rd9 + p30Rd10 + pro30Rd9 >= 0 
p63Rd9 - p22Rd9 + p62Rd9 + p30Rd10 + pro30Rd9 >= 0 
p23Rd9 + p22Rd9 + p62Rd9 - p30Rd10 + pro30Rd9 >= 0 
p31Rd10 - p22Rd9 - p62Rd9 - p30Rd10 + pro30Rd9 >= -2 
p22Rd9 - p63Rd9 - p62Rd9 - p30Rd10 + pro30Rd9 >= -2 
p62Rd9 - p63Rd9 - p22Rd9 - p30Rd10 + pro30Rd9 >= -2 
p30Rd10 - p63Rd9 - p22Rd9 - p62Rd9 + pro30Rd9 >= -2 
p23Rd9 + p63Rd9 + p31Rd10 <= 2 
p23Rd9 + p63Rd9 + p31Rd10 - 2 temp9 >= 0 
temp9 - p23Rd9 >= 0 
temp9 - p63Rd9 >= 0 
temp9 - p31Rd10 >= 0 
p35Rd10 + p32Rd11 - p0Rd11 >= 0
p35Rd10 - p32Rd11 + p0Rd11 >= 0
- p35Rd10 + p32Rd11 + p0Rd11 >= 0
p35Rd10 + p32Rd11 + p0Rd11 <= 2
p36Rd10 + p33Rd11 - p1Rd11 >= 0
p36Rd10 - p33Rd11 + p1Rd11 >= 0
- p36Rd10 + p33Rd11 + p1Rd11 >= 0
p36Rd10 + p33Rd11 + p1Rd11 <= 2
p37Rd10 + p34Rd11 - p2Rd11 >= 0
p37Rd10 - p34Rd11 + p2Rd11 >= 0
- p37Rd10 + p34Rd11 + p2Rd11 >= 0
p37Rd10 + p34Rd11 + p2Rd11 <= 2
p38Rd10 + p35Rd11 - p3Rd11 >= 0
p38Rd10 - p35Rd11 + p3Rd11 >= 0
- p38Rd10 + p35Rd11 + p3Rd11 >= 0
p38Rd10 + p35Rd11 + p3Rd11 <= 2
p39Rd10 + p36Rd11 - p4Rd11 >= 0
p39Rd10 - p36Rd11 + p4Rd11 >= 0
- p39Rd10 + p36Rd11 + p4Rd11 >= 0
p39Rd10 + p36Rd11 + p4Rd11 <= 2
p40Rd10 + p37Rd11 - p5Rd11 >= 0
p40Rd10 - p37Rd11 + p5Rd11 >= 0
- p40Rd10 + p37Rd11 + p5Rd11 >= 0
p40Rd10 + p37Rd11 + p5Rd11 <= 2
p41Rd10 + p38Rd11 - p6Rd11 >= 0
p41Rd10 - p38Rd11 + p6Rd11 >= 0
- p41Rd10 + p38Rd11 + p6Rd11 >= 0
p41Rd10 + p38Rd11 + p6Rd11 <= 2
p42Rd10 + p39Rd11 - p7Rd11 >= 0
p42Rd10 - p39Rd11 + p7Rd11 >= 0
- p42Rd10 + p39Rd11 + p7Rd11 >= 0
p42Rd10 + p39Rd11 + p7Rd11 <= 2
p43Rd10 + p40Rd11 - p8Rd11 >= 0
p43Rd10 - p40Rd11 + p8Rd11 >= 0
- p43Rd10 + p40Rd11 + p8Rd11 >= 0
p43Rd10 + p40Rd11 + p8Rd11 <= 2
p44Rd10 + p41Rd11 - p9Rd11 >= 0
p44Rd10 - p41Rd11 + p9Rd11 >= 0
- p44Rd10 + p41Rd11 + p9Rd11 >= 0
p44Rd10 + p41Rd11 + p9Rd11 <= 2
p45Rd10 + p42Rd11 - p10Rd11 >= 0
p45Rd10 - p42Rd11 + p10Rd11 >= 0
- p45Rd10 + p42Rd11 + p10Rd11 >= 0
p45Rd10 + p42Rd11 + p10Rd11 <= 2
p46Rd10 + p43Rd11 - p11Rd11 >= 0
p46Rd10 - p43Rd11 + p11Rd11 >= 0
- p46Rd10 + p43Rd11 + p11Rd11 >= 0
p46Rd10 + p43Rd11 + p11Rd11 <= 2
p47Rd10 + p44Rd11 - p12Rd11 >= 0
p47Rd10 - p44Rd11 + p12Rd11 >= 0
- p47Rd10 + p44Rd11 + p12Rd11 >= 0
p47Rd10 + p44Rd11 + p12Rd11 <= 2
p48Rd10 + p45Rd11 - p13Rd11 >= 0
p48Rd10 - p45Rd11 + p13Rd11 >= 0
- p48Rd10 + p45Rd11 + p13Rd11 >= 0
p48Rd10 + p45Rd11 + p13Rd11 <= 2
p49Rd10 + p46Rd11 - p14Rd11 >= 0
p49Rd10 - p46Rd11 + p14Rd11 >= 0
- p49Rd10 + p46Rd11 + p14Rd11 >= 0
p49Rd10 + p46Rd11 + p14Rd11 <= 2
p50Rd10 + p47Rd11 - p15Rd11 >= 0
p50Rd10 - p47Rd11 + p15Rd11 >= 0
- p50Rd10 + p47Rd11 + p15Rd11 >= 0
p50Rd10 + p47Rd11 + p15Rd11 <= 2
p51Rd10 + p48Rd11 - p16Rd11 >= 0
p51Rd10 - p48Rd11 + p16Rd11 >= 0
- p51Rd10 + p48Rd11 + p16Rd11 >= 0
p51Rd10 + p48Rd11 + p16Rd11 <= 2
p52Rd10 + p49Rd11 - p17Rd11 >= 0
p52Rd10 - p49Rd11 + p17Rd11 >= 0
- p52Rd10 + p49Rd11 + p17Rd11 >= 0
p52Rd10 + p49Rd11 + p17Rd11 <= 2
p53Rd10 + p50Rd11 - p18Rd11 >= 0
p53Rd10 - p50Rd11 + p18Rd11 >= 0
- p53Rd10 + p50Rd11 + p18Rd11 >= 0
p53Rd10 + p50Rd11 + p18Rd11 <= 2
p54Rd10 + p51Rd11 - p19Rd11 >= 0
p54Rd10 - p51Rd11 + p19Rd11 >= 0
- p54Rd10 + p51Rd11 + p19Rd11 >= 0
p54Rd10 + p51Rd11 + p19Rd11 <= 2
p55Rd10 + p52Rd11 - p20Rd11 >= 0
p55Rd10 - p52Rd11 + p20Rd11 >= 0
- p55Rd10 + p52Rd11 + p20Rd11 >= 0
p55Rd10 + p52Rd11 + p20Rd11 <= 2
p56Rd10 + p53Rd11 - p21Rd11 >= 0
p56Rd10 - p53Rd11 + p21Rd11 >= 0
- p56Rd10 + p53Rd11 + p21Rd11 >= 0
p56Rd10 + p53Rd11 + p21Rd11 <= 2
p57Rd10 + p54Rd11 - p22Rd11 >= 0
p57Rd10 - p54Rd11 + p22Rd11 >= 0
- p57Rd10 + p54Rd11 + p22Rd11 >= 0
p57Rd10 + p54Rd11 + p22Rd11 <= 2
p58Rd10 + p55Rd11 - p23Rd11 >= 0
p58Rd10 - p55Rd11 + p23Rd11 >= 0
- p58Rd10 + p55Rd11 + p23Rd11 >= 0
p58Rd10 + p55Rd11 + p23Rd11 <= 2
p59Rd10 + p56Rd11 - p24Rd11 >= 0
p59Rd10 - p56Rd11 + p24Rd11 >= 0
- p59Rd10 + p56Rd11 + p24Rd11 >= 0
p59Rd10 + p56Rd11 + p24Rd11 <= 2
p60Rd10 + p57Rd11 - p25Rd11 >= 0
p60Rd10 - p57Rd11 + p25Rd11 >= 0
- p60Rd10 + p57Rd11 + p25Rd11 >= 0
p60Rd10 + p57Rd11 + p25Rd11 <= 2
p61Rd10 + p58Rd11 - p26Rd11 >= 0
p61Rd10 - p58Rd11 + p26Rd11 >= 0
- p61Rd10 + p58Rd11 + p26Rd11 >= 0
p61Rd10 + p58Rd11 + p26Rd11 <= 2
p62Rd10 + p59Rd11 - p27Rd11 >= 0
p62Rd10 - p59Rd11 + p27Rd11 >= 0
- p62Rd10 + p59Rd11 + p27Rd11 >= 0
p62Rd10 + p59Rd11 + p27Rd11 <= 2
p63Rd10 + p60Rd11 - p28Rd11 >= 0
p63Rd10 - p60Rd11 + p28Rd11 >= 0
- p63Rd10 + p60Rd11 + p28Rd11 >= 0
p63Rd10 + p60Rd11 + p28Rd11 <= 2
p32Rd10 + p61Rd11 - p29Rd11 >= 0
p32Rd10 - p61Rd11 + p29Rd11 >= 0
- p32Rd10 + p61Rd11 + p29Rd11 >= 0
p32Rd10 + p61Rd11 + p29Rd11 <= 2
p33Rd10 + p62Rd11 - p30Rd11 >= 0
p33Rd10 - p62Rd11 + p30Rd11 >= 0
- p33Rd10 + p62Rd11 + p30Rd11 >= 0
p33Rd10 + p62Rd11 + p30Rd11 <= 2
p34Rd10 + p63Rd11 - p31Rd11 >= 0
p34Rd10 - p63Rd11 + p31Rd11 >= 0
- p34Rd10 + p63Rd11 + p31Rd11 >= 0
p34Rd10 + p63Rd11 + p31Rd11 <= 2
p33Rd10 - p1Rd11 + pro0Rd10 >= 0 
p25Rd10 - p33Rd10 + pro0Rd10 >= 0 
p1Rd11 - p25Rd10 + pro0Rd10 >= 0 
p25Rd10 + p33Rd10 + p1Rd11 + pro0Rd10 <= 3 
p25Rd10 + p33Rd10 + p1Rd11 - pro0Rd10 >= 0 
p24Rd10 + p32Rd10 + p0Rd11 + pro0Rd10 - p33Rd10 >= 0 
p33Rd10 + p24Rd10 - p32Rd10 + p0Rd11 + pro0Rd10 >= 0 
p33Rd10 - p24Rd10 + p32Rd10 + p0Rd11 + pro0Rd10 >= 0 
p25Rd10 + p24Rd10 + p32Rd10 - p0Rd11 + pro0Rd10 >= 0 
p1Rd11 - p24Rd10 - p32Rd10 - p0Rd11 + pro0Rd10 >= -2 
p24Rd10 - p33Rd10 - p32Rd10 - p0Rd11 + pro0Rd10 >= -2 
p32Rd10 - p33Rd10 - p24Rd10 - p0Rd11 + pro0Rd10 >= -2 
p0Rd11 - p33Rd10 - p24Rd10 - p32Rd10 + pro0Rd10 >= -2 
p34Rd10 - p2Rd11 + pro1Rd10 >= 0 
p26Rd10 - p34Rd10 + pro1Rd10 >= 0 
p2Rd11 - p26Rd10 + pro1Rd10 >= 0 
p26Rd10 + p34Rd10 + p2Rd11 + pro1Rd10 <= 3 
p26Rd10 + p34Rd10 + p2Rd11 - pro1Rd10 >= 0 
p25Rd10 + p33Rd10 + p1Rd11 + pro1Rd10 - p34Rd10 >= 0 
p34Rd10 + p25Rd10 - p33Rd10 + p1Rd11 + pro1Rd10 >= 0 
p34Rd10 - p25Rd10 + p33Rd10 + p1Rd11 + pro1Rd10 >= 0 
p26Rd10 + p25Rd10 + p33Rd10 - p1Rd11 + pro1Rd10 >= 0 
p2Rd11 - p25Rd10 - p33Rd10 - p1Rd11 + pro1Rd10 >= -2 
p25Rd10 - p34Rd10 - p33Rd10 - p1Rd11 + pro1Rd10 >= -2 
p33Rd10 - p34Rd10 - p25Rd10 - p1Rd11 + pro1Rd10 >= -2 
p1Rd11 - p34Rd10 - p25Rd10 - p33Rd10 + pro1Rd10 >= -2 
p35Rd10 - p3Rd11 + pro2Rd10 >= 0 
p27Rd10 - p35Rd10 + pro2Rd10 >= 0 
p3Rd11 - p27Rd10 + pro2Rd10 >= 0 
p27Rd10 + p35Rd10 + p3Rd11 + pro2Rd10 <= 3 
p27Rd10 + p35Rd10 + p3Rd11 - pro2Rd10 >= 0 
p26Rd10 + p34Rd10 + p2Rd11 + pro2Rd10 - p35Rd10 >= 0 
p35Rd10 + p26Rd10 - p34Rd10 + p2Rd11 + pro2Rd10 >= 0 
p35Rd10 - p26Rd10 + p34Rd10 + p2Rd11 + pro2Rd10 >= 0 
p27Rd10 + p26Rd10 + p34Rd10 - p2Rd11 + pro2Rd10 >= 0 
p3Rd11 - p26Rd10 - p34Rd10 - p2Rd11 + pro2Rd10 >= -2 
p26Rd10 - p35Rd10 - p34Rd10 - p2Rd11 + pro2Rd10 >= -2 
p34Rd10 - p35Rd10 - p26Rd10 - p2Rd11 + pro2Rd10 >= -2 
p2Rd11 - p35Rd10 - p26Rd10 - p34Rd10 + pro2Rd10 >= -2 
p36Rd10 - p4Rd11 + pro3Rd10 >= 0 
p28Rd10 - p36Rd10 + pro3Rd10 >= 0 
p4Rd11 - p28Rd10 + pro3Rd10 >= 0 
p28Rd10 + p36Rd10 + p4Rd11 + pro3Rd10 <= 3 
p28Rd10 + p36Rd10 + p4Rd11 - pro3Rd10 >= 0 
p27Rd10 + p35Rd10 + p3Rd11 + pro3Rd10 - p36Rd10 >= 0 
p36Rd10 + p27Rd10 - p35Rd10 + p3Rd11 + pro3Rd10 >= 0 
p36Rd10 - p27Rd10 + p35Rd10 + p3Rd11 + pro3Rd10 >= 0 
p28Rd10 + p27Rd10 + p35Rd10 - p3Rd11 + pro3Rd10 >= 0 
p4Rd11 - p27Rd10 - p35Rd10 - p3Rd11 + pro3Rd10 >= -2 
p27Rd10 - p36Rd10 - p35Rd10 - p3Rd11 + pro3Rd10 >= -2 
p35Rd10 - p36Rd10 - p27Rd10 - p3Rd11 + pro3Rd10 >= -2 
p3Rd11 - p36Rd10 - p27Rd10 - p35Rd10 + pro3Rd10 >= -2 
p37Rd10 - p5Rd11 + pro4Rd10 >= 0 
p29Rd10 - p37Rd10 + pro4Rd10 >= 0 
p5Rd11 - p29Rd10 + pro4Rd10 >= 0 
p29Rd10 + p37Rd10 + p5Rd11 + pro4Rd10 <= 3 
p29Rd10 + p37Rd10 + p5Rd11 - pro4Rd10 >= 0 
p28Rd10 + p36Rd10 + p4Rd11 + pro4Rd10 - p37Rd10 >= 0 
p37Rd10 + p28Rd10 - p36Rd10 + p4Rd11 + pro4Rd10 >= 0 
p37Rd10 - p28Rd10 + p36Rd10 + p4Rd11 + pro4Rd10 >= 0 
p29Rd10 + p28Rd10 + p36Rd10 - p4Rd11 + pro4Rd10 >= 0 
p5Rd11 - p28Rd10 - p36Rd10 - p4Rd11 + pro4Rd10 >= -2 
p28Rd10 - p37Rd10 - p36Rd10 - p4Rd11 + pro4Rd10 >= -2 
p36Rd10 - p37Rd10 - p28Rd10 - p4Rd11 + pro4Rd10 >= -2 
p4Rd11 - p37Rd10 - p28Rd10 - p36Rd10 + pro4Rd10 >= -2 
p38Rd10 - p6Rd11 + pro5Rd10 >= 0 
p30Rd10 - p38Rd10 + pro5Rd10 >= 0 
p6Rd11 - p30Rd10 + pro5Rd10 >= 0 
p30Rd10 + p38Rd10 + p6Rd11 + pro5Rd10 <= 3 
p30Rd10 + p38Rd10 + p6Rd11 - pro5Rd10 >= 0 
p29Rd10 + p37Rd10 + p5Rd11 + pro5Rd10 - p38Rd10 >= 0 
p38Rd10 + p29Rd10 - p37Rd10 + p5Rd11 + pro5Rd10 >= 0 
p38Rd10 - p29Rd10 + p37Rd10 + p5Rd11 + pro5Rd10 >= 0 
p30Rd10 + p29Rd10 + p37Rd10 - p5Rd11 + pro5Rd10 >= 0 
p6Rd11 - p29Rd10 - p37Rd10 - p5Rd11 + pro5Rd10 >= -2 
p29Rd10 - p38Rd10 - p37Rd10 - p5Rd11 + pro5Rd10 >= -2 
p37Rd10 - p38Rd10 - p29Rd10 - p5Rd11 + pro5Rd10 >= -2 
p5Rd11 - p38Rd10 - p29Rd10 - p37Rd10 + pro5Rd10 >= -2 
p39Rd10 - p7Rd11 + pro6Rd10 >= 0 
p31Rd10 - p39Rd10 + pro6Rd10 >= 0 
p7Rd11 - p31Rd10 + pro6Rd10 >= 0 
p31Rd10 + p39Rd10 + p7Rd11 + pro6Rd10 <= 3 
p31Rd10 + p39Rd10 + p7Rd11 - pro6Rd10 >= 0 
p30Rd10 + p38Rd10 + p6Rd11 + pro6Rd10 - p39Rd10 >= 0 
p39Rd10 + p30Rd10 - p38Rd10 + p6Rd11 + pro6Rd10 >= 0 
p39Rd10 - p30Rd10 + p38Rd10 + p6Rd11 + pro6Rd10 >= 0 
p31Rd10 + p30Rd10 + p38Rd10 - p6Rd11 + pro6Rd10 >= 0 
p7Rd11 - p30Rd10 - p38Rd10 - p6Rd11 + pro6Rd10 >= -2 
p30Rd10 - p39Rd10 - p38Rd10 - p6Rd11 + pro6Rd10 >= -2 
p38Rd10 - p39Rd10 - p30Rd10 - p6Rd11 + pro6Rd10 >= -2 
p6Rd11 - p39Rd10 - p30Rd10 - p38Rd10 + pro6Rd10 >= -2 
p40Rd10 - p8Rd11 + pro7Rd10 >= 0 
p0Rd10 - p40Rd10 + pro7Rd10 >= 0 
p8Rd11 - p0Rd10 + pro7Rd10 >= 0 
p0Rd10 + p40Rd10 + p8Rd11 + pro7Rd10 <= 3 
p0Rd10 + p40Rd10 + p8Rd11 - pro7Rd10 >= 0 
p31Rd10 + p39Rd10 + p7Rd11 + pro7Rd10 - p40Rd10 >= 0 
p40Rd10 + p31Rd10 - p39Rd10 + p7Rd11 + pro7Rd10 >= 0 
p40Rd10 - p31Rd10 + p39Rd10 + p7Rd11 + pro7Rd10 >= 0 
p0Rd10 + p31Rd10 + p39Rd10 - p7Rd11 + pro7Rd10 >= 0 
p8Rd11 - p31Rd10 - p39Rd10 - p7Rd11 + pro7Rd10 >= -2 
p31Rd10 - p40Rd10 - p39Rd10 - p7Rd11 + pro7Rd10 >= -2 
p39Rd10 - p40Rd10 - p31Rd10 - p7Rd11 + pro7Rd10 >= -2 
p7Rd11 - p40Rd10 - p31Rd10 - p39Rd10 + pro7Rd10 >= -2 
p41Rd10 - p9Rd11 + pro8Rd10 >= 0 
p1Rd10 - p41Rd10 + pro8Rd10 >= 0 
p9Rd11 - p1Rd10 + pro8Rd10 >= 0 
p1Rd10 + p41Rd10 + p9Rd11 + pro8Rd10 <= 3 
p1Rd10 + p41Rd10 + p9Rd11 - pro8Rd10 >= 0 
p0Rd10 + p40Rd10 + p8Rd11 + pro8Rd10 - p41Rd10 >= 0 
p41Rd10 + p0Rd10 - p40Rd10 + p8Rd11 + pro8Rd10 >= 0 
p41Rd10 - p0Rd10 + p40Rd10 + p8Rd11 + pro8Rd10 >= 0 
p1Rd10 + p0Rd10 + p40Rd10 - p8Rd11 + pro8Rd10 >= 0 
p9Rd11 - p0Rd10 - p40Rd10 - p8Rd11 + pro8Rd10 >= -2 
p0Rd10 - p41Rd10 - p40Rd10 - p8Rd11 + pro8Rd10 >= -2 
p40Rd10 - p41Rd10 - p0Rd10 - p8Rd11 + pro8Rd10 >= -2 
p8Rd11 - p41Rd10 - p0Rd10 - p40Rd10 + pro8Rd10 >= -2 
p42Rd10 - p10Rd11 + pro9Rd10 >= 0 
p2Rd10 - p42Rd10 + pro9Rd10 >= 0 
p10Rd11 - p2Rd10 + pro9Rd10 >= 0 
p2Rd10 + p42Rd10 + p10Rd11 + pro9Rd10 <= 3 
p2Rd10 + p42Rd10 + p10Rd11 - pro9Rd10 >= 0 
p1Rd10 + p41Rd10 + p9Rd11 + pro9Rd10 - p42Rd10 >= 0 
p42Rd10 + p1Rd10 - p41Rd10 + p9Rd11 + pro9Rd10 >= 0 
p42Rd10 - p1Rd10 + p41Rd10 + p9Rd11 + pro9Rd10 >= 0 
p2Rd10 + p1Rd10 + p41Rd10 - p9Rd11 + pro9Rd10 >= 0 
p10Rd11 - p1Rd10 - p41Rd10 - p9Rd11 + pro9Rd10 >= -2 
p1Rd10 - p42Rd10 - p41Rd10 - p9Rd11 + pro9Rd10 >= -2 
p41Rd10 - p42Rd10 - p1Rd10 - p9Rd11 + pro9Rd10 >= -2 
p9Rd11 - p42Rd10 - p1Rd10 - p41Rd10 + pro9Rd10 >= -2 
p43Rd10 - p11Rd11 + pro10Rd10 >= 0 
p3Rd10 - p43Rd10 + pro10Rd10 >= 0 
p11Rd11 - p3Rd10 + pro10Rd10 >= 0 
p3Rd10 + p43Rd10 + p11Rd11 + pro10Rd10 <= 3 
p3Rd10 + p43Rd10 + p11Rd11 - pro10Rd10 >= 0 
p2Rd10 + p42Rd10 + p10Rd11 + pro10Rd10 - p43Rd10 >= 0 
p43Rd10 + p2Rd10 - p42Rd10 + p10Rd11 + pro10Rd10 >= 0 
p43Rd10 - p2Rd10 + p42Rd10 + p10Rd11 + pro10Rd10 >= 0 
p3Rd10 + p2Rd10 + p42Rd10 - p10Rd11 + pro10Rd10 >= 0 
p11Rd11 - p2Rd10 - p42Rd10 - p10Rd11 + pro10Rd10 >= -2 
p2Rd10 - p43Rd10 - p42Rd10 - p10Rd11 + pro10Rd10 >= -2 
p42Rd10 - p43Rd10 - p2Rd10 - p10Rd11 + pro10Rd10 >= -2 
p10Rd11 - p43Rd10 - p2Rd10 - p42Rd10 + pro10Rd10 >= -2 
p44Rd10 - p12Rd11 + pro11Rd10 >= 0 
p4Rd10 - p44Rd10 + pro11Rd10 >= 0 
p12Rd11 - p4Rd10 + pro11Rd10 >= 0 
p4Rd10 + p44Rd10 + p12Rd11 + pro11Rd10 <= 3 
p4Rd10 + p44Rd10 + p12Rd11 - pro11Rd10 >= 0 
p3Rd10 + p43Rd10 + p11Rd11 + pro11Rd10 - p44Rd10 >= 0 
p44Rd10 + p3Rd10 - p43Rd10 + p11Rd11 + pro11Rd10 >= 0 
p44Rd10 - p3Rd10 + p43Rd10 + p11Rd11 + pro11Rd10 >= 0 
p4Rd10 + p3Rd10 + p43Rd10 - p11Rd11 + pro11Rd10 >= 0 
p12Rd11 - p3Rd10 - p43Rd10 - p11Rd11 + pro11Rd10 >= -2 
p3Rd10 - p44Rd10 - p43Rd10 - p11Rd11 + pro11Rd10 >= -2 
p43Rd10 - p44Rd10 - p3Rd10 - p11Rd11 + pro11Rd10 >= -2 
p11Rd11 - p44Rd10 - p3Rd10 - p43Rd10 + pro11Rd10 >= -2 
p45Rd10 - p13Rd11 + pro12Rd10 >= 0 
p5Rd10 - p45Rd10 + pro12Rd10 >= 0 
p13Rd11 - p5Rd10 + pro12Rd10 >= 0 
p5Rd10 + p45Rd10 + p13Rd11 + pro12Rd10 <= 3 
p5Rd10 + p45Rd10 + p13Rd11 - pro12Rd10 >= 0 
p4Rd10 + p44Rd10 + p12Rd11 + pro12Rd10 - p45Rd10 >= 0 
p45Rd10 + p4Rd10 - p44Rd10 + p12Rd11 + pro12Rd10 >= 0 
p45Rd10 - p4Rd10 + p44Rd10 + p12Rd11 + pro12Rd10 >= 0 
p5Rd10 + p4Rd10 + p44Rd10 - p12Rd11 + pro12Rd10 >= 0 
p13Rd11 - p4Rd10 - p44Rd10 - p12Rd11 + pro12Rd10 >= -2 
p4Rd10 - p45Rd10 - p44Rd10 - p12Rd11 + pro12Rd10 >= -2 
p44Rd10 - p45Rd10 - p4Rd10 - p12Rd11 + pro12Rd10 >= -2 
p12Rd11 - p45Rd10 - p4Rd10 - p44Rd10 + pro12Rd10 >= -2 
p46Rd10 - p14Rd11 + pro13Rd10 >= 0 
p6Rd10 - p46Rd10 + pro13Rd10 >= 0 
p14Rd11 - p6Rd10 + pro13Rd10 >= 0 
p6Rd10 + p46Rd10 + p14Rd11 + pro13Rd10 <= 3 
p6Rd10 + p46Rd10 + p14Rd11 - pro13Rd10 >= 0 
p5Rd10 + p45Rd10 + p13Rd11 + pro13Rd10 - p46Rd10 >= 0 
p46Rd10 + p5Rd10 - p45Rd10 + p13Rd11 + pro13Rd10 >= 0 
p46Rd10 - p5Rd10 + p45Rd10 + p13Rd11 + pro13Rd10 >= 0 
p6Rd10 + p5Rd10 + p45Rd10 - p13Rd11 + pro13Rd10 >= 0 
p14Rd11 - p5Rd10 - p45Rd10 - p13Rd11 + pro13Rd10 >= -2 
p5Rd10 - p46Rd10 - p45Rd10 - p13Rd11 + pro13Rd10 >= -2 
p45Rd10 - p46Rd10 - p5Rd10 - p13Rd11 + pro13Rd10 >= -2 
p13Rd11 - p46Rd10 - p5Rd10 - p45Rd10 + pro13Rd10 >= -2 
p47Rd10 - p15Rd11 + pro14Rd10 >= 0 
p7Rd10 - p47Rd10 + pro14Rd10 >= 0 
p15Rd11 - p7Rd10 + pro14Rd10 >= 0 
p7Rd10 + p47Rd10 + p15Rd11 + pro14Rd10 <= 3 
p7Rd10 + p47Rd10 + p15Rd11 - pro14Rd10 >= 0 
p6Rd10 + p46Rd10 + p14Rd11 + pro14Rd10 - p47Rd10 >= 0 
p47Rd10 + p6Rd10 - p46Rd10 + p14Rd11 + pro14Rd10 >= 0 
p47Rd10 - p6Rd10 + p46Rd10 + p14Rd11 + pro14Rd10 >= 0 
p7Rd10 + p6Rd10 + p46Rd10 - p14Rd11 + pro14Rd10 >= 0 
p15Rd11 - p6Rd10 - p46Rd10 - p14Rd11 + pro14Rd10 >= -2 
p6Rd10 - p47Rd10 - p46Rd10 - p14Rd11 + pro14Rd10 >= -2 
p46Rd10 - p47Rd10 - p6Rd10 - p14Rd11 + pro14Rd10 >= -2 
p14Rd11 - p47Rd10 - p6Rd10 - p46Rd10 + pro14Rd10 >= -2 
p48Rd10 - p16Rd11 + pro15Rd10 >= 0 
p8Rd10 - p48Rd10 + pro15Rd10 >= 0 
p16Rd11 - p8Rd10 + pro15Rd10 >= 0 
p8Rd10 + p48Rd10 + p16Rd11 + pro15Rd10 <= 3 
p8Rd10 + p48Rd10 + p16Rd11 - pro15Rd10 >= 0 
p7Rd10 + p47Rd10 + p15Rd11 + pro15Rd10 - p48Rd10 >= 0 
p48Rd10 + p7Rd10 - p47Rd10 + p15Rd11 + pro15Rd10 >= 0 
p48Rd10 - p7Rd10 + p47Rd10 + p15Rd11 + pro15Rd10 >= 0 
p8Rd10 + p7Rd10 + p47Rd10 - p15Rd11 + pro15Rd10 >= 0 
p16Rd11 - p7Rd10 - p47Rd10 - p15Rd11 + pro15Rd10 >= -2 
p7Rd10 - p48Rd10 - p47Rd10 - p15Rd11 + pro15Rd10 >= -2 
p47Rd10 - p48Rd10 - p7Rd10 - p15Rd11 + pro15Rd10 >= -2 
p15Rd11 - p48Rd10 - p7Rd10 - p47Rd10 + pro15Rd10 >= -2 
p49Rd10 - p17Rd11 + pro16Rd10 >= 0 
p9Rd10 - p49Rd10 + pro16Rd10 >= 0 
p17Rd11 - p9Rd10 + pro16Rd10 >= 0 
p9Rd10 + p49Rd10 + p17Rd11 + pro16Rd10 <= 3 
p9Rd10 + p49Rd10 + p17Rd11 - pro16Rd10 >= 0 
p8Rd10 + p48Rd10 + p16Rd11 + pro16Rd10 - p49Rd10 >= 0 
p49Rd10 + p8Rd10 - p48Rd10 + p16Rd11 + pro16Rd10 >= 0 
p49Rd10 - p8Rd10 + p48Rd10 + p16Rd11 + pro16Rd10 >= 0 
p9Rd10 + p8Rd10 + p48Rd10 - p16Rd11 + pro16Rd10 >= 0 
p17Rd11 - p8Rd10 - p48Rd10 - p16Rd11 + pro16Rd10 >= -2 
p8Rd10 - p49Rd10 - p48Rd10 - p16Rd11 + pro16Rd10 >= -2 
p48Rd10 - p49Rd10 - p8Rd10 - p16Rd11 + pro16Rd10 >= -2 
p16Rd11 - p49Rd10 - p8Rd10 - p48Rd10 + pro16Rd10 >= -2 
p50Rd10 - p18Rd11 + pro17Rd10 >= 0 
p10Rd10 - p50Rd10 + pro17Rd10 >= 0 
p18Rd11 - p10Rd10 + pro17Rd10 >= 0 
p10Rd10 + p50Rd10 + p18Rd11 + pro17Rd10 <= 3 
p10Rd10 + p50Rd10 + p18Rd11 - pro17Rd10 >= 0 
p9Rd10 + p49Rd10 + p17Rd11 + pro17Rd10 - p50Rd10 >= 0 
p50Rd10 + p9Rd10 - p49Rd10 + p17Rd11 + pro17Rd10 >= 0 
p50Rd10 - p9Rd10 + p49Rd10 + p17Rd11 + pro17Rd10 >= 0 
p10Rd10 + p9Rd10 + p49Rd10 - p17Rd11 + pro17Rd10 >= 0 
p18Rd11 - p9Rd10 - p49Rd10 - p17Rd11 + pro17Rd10 >= -2 
p9Rd10 - p50Rd10 - p49Rd10 - p17Rd11 + pro17Rd10 >= -2 
p49Rd10 - p50Rd10 - p9Rd10 - p17Rd11 + pro17Rd10 >= -2 
p17Rd11 - p50Rd10 - p9Rd10 - p49Rd10 + pro17Rd10 >= -2 
p51Rd10 - p19Rd11 + pro18Rd10 >= 0 
p11Rd10 - p51Rd10 + pro18Rd10 >= 0 
p19Rd11 - p11Rd10 + pro18Rd10 >= 0 
p11Rd10 + p51Rd10 + p19Rd11 + pro18Rd10 <= 3 
p11Rd10 + p51Rd10 + p19Rd11 - pro18Rd10 >= 0 
p10Rd10 + p50Rd10 + p18Rd11 + pro18Rd10 - p51Rd10 >= 0 
p51Rd10 + p10Rd10 - p50Rd10 + p18Rd11 + pro18Rd10 >= 0 
p51Rd10 - p10Rd10 + p50Rd10 + p18Rd11 + pro18Rd10 >= 0 
p11Rd10 + p10Rd10 + p50Rd10 - p18Rd11 + pro18Rd10 >= 0 
p19Rd11 - p10Rd10 - p50Rd10 - p18Rd11 + pro18Rd10 >= -2 
p10Rd10 - p51Rd10 - p50Rd10 - p18Rd11 + pro18Rd10 >= -2 
p50Rd10 - p51Rd10 - p10Rd10 - p18Rd11 + pro18Rd10 >= -2 
p18Rd11 - p51Rd10 - p10Rd10 - p50Rd10 + pro18Rd10 >= -2 
p52Rd10 - p20Rd11 + pro19Rd10 >= 0 
p12Rd10 - p52Rd10 + pro19Rd10 >= 0 
p20Rd11 - p12Rd10 + pro19Rd10 >= 0 
p12Rd10 + p52Rd10 + p20Rd11 + pro19Rd10 <= 3 
p12Rd10 + p52Rd10 + p20Rd11 - pro19Rd10 >= 0 
p11Rd10 + p51Rd10 + p19Rd11 + pro19Rd10 - p52Rd10 >= 0 
p52Rd10 + p11Rd10 - p51Rd10 + p19Rd11 + pro19Rd10 >= 0 
p52Rd10 - p11Rd10 + p51Rd10 + p19Rd11 + pro19Rd10 >= 0 
p12Rd10 + p11Rd10 + p51Rd10 - p19Rd11 + pro19Rd10 >= 0 
p20Rd11 - p11Rd10 - p51Rd10 - p19Rd11 + pro19Rd10 >= -2 
p11Rd10 - p52Rd10 - p51Rd10 - p19Rd11 + pro19Rd10 >= -2 
p51Rd10 - p52Rd10 - p11Rd10 - p19Rd11 + pro19Rd10 >= -2 
p19Rd11 - p52Rd10 - p11Rd10 - p51Rd10 + pro19Rd10 >= -2 
p53Rd10 - p21Rd11 + pro20Rd10 >= 0 
p13Rd10 - p53Rd10 + pro20Rd10 >= 0 
p21Rd11 - p13Rd10 + pro20Rd10 >= 0 
p13Rd10 + p53Rd10 + p21Rd11 + pro20Rd10 <= 3 
p13Rd10 + p53Rd10 + p21Rd11 - pro20Rd10 >= 0 
p12Rd10 + p52Rd10 + p20Rd11 + pro20Rd10 - p53Rd10 >= 0 
p53Rd10 + p12Rd10 - p52Rd10 + p20Rd11 + pro20Rd10 >= 0 
p53Rd10 - p12Rd10 + p52Rd10 + p20Rd11 + pro20Rd10 >= 0 
p13Rd10 + p12Rd10 + p52Rd10 - p20Rd11 + pro20Rd10 >= 0 
p21Rd11 - p12Rd10 - p52Rd10 - p20Rd11 + pro20Rd10 >= -2 
p12Rd10 - p53Rd10 - p52Rd10 - p20Rd11 + pro20Rd10 >= -2 
p52Rd10 - p53Rd10 - p12Rd10 - p20Rd11 + pro20Rd10 >= -2 
p20Rd11 - p53Rd10 - p12Rd10 - p52Rd10 + pro20Rd10 >= -2 
p54Rd10 - p22Rd11 + pro21Rd10 >= 0 
p14Rd10 - p54Rd10 + pro21Rd10 >= 0 
p22Rd11 - p14Rd10 + pro21Rd10 >= 0 
p14Rd10 + p54Rd10 + p22Rd11 + pro21Rd10 <= 3 
p14Rd10 + p54Rd10 + p22Rd11 - pro21Rd10 >= 0 
p13Rd10 + p53Rd10 + p21Rd11 + pro21Rd10 - p54Rd10 >= 0 
p54Rd10 + p13Rd10 - p53Rd10 + p21Rd11 + pro21Rd10 >= 0 
p54Rd10 - p13Rd10 + p53Rd10 + p21Rd11 + pro21Rd10 >= 0 
p14Rd10 + p13Rd10 + p53Rd10 - p21Rd11 + pro21Rd10 >= 0 
p22Rd11 - p13Rd10 - p53Rd10 - p21Rd11 + pro21Rd10 >= -2 
p13Rd10 - p54Rd10 - p53Rd10 - p21Rd11 + pro21Rd10 >= -2 
p53Rd10 - p54Rd10 - p13Rd10 - p21Rd11 + pro21Rd10 >= -2 
p21Rd11 - p54Rd10 - p13Rd10 - p53Rd10 + pro21Rd10 >= -2 
p55Rd10 - p23Rd11 + pro22Rd10 >= 0 
p15Rd10 - p55Rd10 + pro22Rd10 >= 0 
p23Rd11 - p15Rd10 + pro22Rd10 >= 0 
p15Rd10 + p55Rd10 + p23Rd11 + pro22Rd10 <= 3 
p15Rd10 + p55Rd10 + p23Rd11 - pro22Rd10 >= 0 
p14Rd10 + p54Rd10 + p22Rd11 + pro22Rd10 - p55Rd10 >= 0 
p55Rd10 + p14Rd10 - p54Rd10 + p22Rd11 + pro22Rd10 >= 0 
p55Rd10 - p14Rd10 + p54Rd10 + p22Rd11 + pro22Rd10 >= 0 
p15Rd10 + p14Rd10 + p54Rd10 - p22Rd11 + pro22Rd10 >= 0 
p23Rd11 - p14Rd10 - p54Rd10 - p22Rd11 + pro22Rd10 >= -2 
p14Rd10 - p55Rd10 - p54Rd10 - p22Rd11 + pro22Rd10 >= -2 
p54Rd10 - p55Rd10 - p14Rd10 - p22Rd11 + pro22Rd10 >= -2 
p22Rd11 - p55Rd10 - p14Rd10 - p54Rd10 + pro22Rd10 >= -2 
p56Rd10 - p24Rd11 + pro23Rd10 >= 0 
p16Rd10 - p56Rd10 + pro23Rd10 >= 0 
p24Rd11 - p16Rd10 + pro23Rd10 >= 0 
p16Rd10 + p56Rd10 + p24Rd11 + pro23Rd10 <= 3 
p16Rd10 + p56Rd10 + p24Rd11 - pro23Rd10 >= 0 
p15Rd10 + p55Rd10 + p23Rd11 + pro23Rd10 - p56Rd10 >= 0 
p56Rd10 + p15Rd10 - p55Rd10 + p23Rd11 + pro23Rd10 >= 0 
p56Rd10 - p15Rd10 + p55Rd10 + p23Rd11 + pro23Rd10 >= 0 
p16Rd10 + p15Rd10 + p55Rd10 - p23Rd11 + pro23Rd10 >= 0 
p24Rd11 - p15Rd10 - p55Rd10 - p23Rd11 + pro23Rd10 >= -2 
p15Rd10 - p56Rd10 - p55Rd10 - p23Rd11 + pro23Rd10 >= -2 
p55Rd10 - p56Rd10 - p15Rd10 - p23Rd11 + pro23Rd10 >= -2 
p23Rd11 - p56Rd10 - p15Rd10 - p55Rd10 + pro23Rd10 >= -2 
p57Rd10 - p25Rd11 + pro24Rd10 >= 0 
p17Rd10 - p57Rd10 + pro24Rd10 >= 0 
p25Rd11 - p17Rd10 + pro24Rd10 >= 0 
p17Rd10 + p57Rd10 + p25Rd11 + pro24Rd10 <= 3 
p17Rd10 + p57Rd10 + p25Rd11 - pro24Rd10 >= 0 
p16Rd10 + p56Rd10 + p24Rd11 + pro24Rd10 - p57Rd10 >= 0 
p57Rd10 + p16Rd10 - p56Rd10 + p24Rd11 + pro24Rd10 >= 0 
p57Rd10 - p16Rd10 + p56Rd10 + p24Rd11 + pro24Rd10 >= 0 
p17Rd10 + p16Rd10 + p56Rd10 - p24Rd11 + pro24Rd10 >= 0 
p25Rd11 - p16Rd10 - p56Rd10 - p24Rd11 + pro24Rd10 >= -2 
p16Rd10 - p57Rd10 - p56Rd10 - p24Rd11 + pro24Rd10 >= -2 
p56Rd10 - p57Rd10 - p16Rd10 - p24Rd11 + pro24Rd10 >= -2 
p24Rd11 - p57Rd10 - p16Rd10 - p56Rd10 + pro24Rd10 >= -2 
p58Rd10 - p26Rd11 + pro25Rd10 >= 0 
p18Rd10 - p58Rd10 + pro25Rd10 >= 0 
p26Rd11 - p18Rd10 + pro25Rd10 >= 0 
p18Rd10 + p58Rd10 + p26Rd11 + pro25Rd10 <= 3 
p18Rd10 + p58Rd10 + p26Rd11 - pro25Rd10 >= 0 
p17Rd10 + p57Rd10 + p25Rd11 + pro25Rd10 - p58Rd10 >= 0 
p58Rd10 + p17Rd10 - p57Rd10 + p25Rd11 + pro25Rd10 >= 0 
p58Rd10 - p17Rd10 + p57Rd10 + p25Rd11 + pro25Rd10 >= 0 
p18Rd10 + p17Rd10 + p57Rd10 - p25Rd11 + pro25Rd10 >= 0 
p26Rd11 - p17Rd10 - p57Rd10 - p25Rd11 + pro25Rd10 >= -2 
p17Rd10 - p58Rd10 - p57Rd10 - p25Rd11 + pro25Rd10 >= -2 
p57Rd10 - p58Rd10 - p17Rd10 - p25Rd11 + pro25Rd10 >= -2 
p25Rd11 - p58Rd10 - p17Rd10 - p57Rd10 + pro25Rd10 >= -2 
p59Rd10 - p27Rd11 + pro26Rd10 >= 0 
p19Rd10 - p59Rd10 + pro26Rd10 >= 0 
p27Rd11 - p19Rd10 + pro26Rd10 >= 0 
p19Rd10 + p59Rd10 + p27Rd11 + pro26Rd10 <= 3 
p19Rd10 + p59Rd10 + p27Rd11 - pro26Rd10 >= 0 
p18Rd10 + p58Rd10 + p26Rd11 + pro26Rd10 - p59Rd10 >= 0 
p59Rd10 + p18Rd10 - p58Rd10 + p26Rd11 + pro26Rd10 >= 0 
p59Rd10 - p18Rd10 + p58Rd10 + p26Rd11 + pro26Rd10 >= 0 
p19Rd10 + p18Rd10 + p58Rd10 - p26Rd11 + pro26Rd10 >= 0 
p27Rd11 - p18Rd10 - p58Rd10 - p26Rd11 + pro26Rd10 >= -2 
p18Rd10 - p59Rd10 - p58Rd10 - p26Rd11 + pro26Rd10 >= -2 
p58Rd10 - p59Rd10 - p18Rd10 - p26Rd11 + pro26Rd10 >= -2 
p26Rd11 - p59Rd10 - p18Rd10 - p58Rd10 + pro26Rd10 >= -2 
p60Rd10 - p28Rd11 + pro27Rd10 >= 0 
p20Rd10 - p60Rd10 + pro27Rd10 >= 0 
p28Rd11 - p20Rd10 + pro27Rd10 >= 0 
p20Rd10 + p60Rd10 + p28Rd11 + pro27Rd10 <= 3 
p20Rd10 + p60Rd10 + p28Rd11 - pro27Rd10 >= 0 
p19Rd10 + p59Rd10 + p27Rd11 + pro27Rd10 - p60Rd10 >= 0 
p60Rd10 + p19Rd10 - p59Rd10 + p27Rd11 + pro27Rd10 >= 0 
p60Rd10 - p19Rd10 + p59Rd10 + p27Rd11 + pro27Rd10 >= 0 
p20Rd10 + p19Rd10 + p59Rd10 - p27Rd11 + pro27Rd10 >= 0 
p28Rd11 - p19Rd10 - p59Rd10 - p27Rd11 + pro27Rd10 >= -2 
p19Rd10 - p60Rd10 - p59Rd10 - p27Rd11 + pro27Rd10 >= -2 
p59Rd10 - p60Rd10 - p19Rd10 - p27Rd11 + pro27Rd10 >= -2 
p27Rd11 - p60Rd10 - p19Rd10 - p59Rd10 + pro27Rd10 >= -2 
p61Rd10 - p29Rd11 + pro28Rd10 >= 0 
p21Rd10 - p61Rd10 + pro28Rd10 >= 0 
p29Rd11 - p21Rd10 + pro28Rd10 >= 0 
p21Rd10 + p61Rd10 + p29Rd11 + pro28Rd10 <= 3 
p21Rd10 + p61Rd10 + p29Rd11 - pro28Rd10 >= 0 
p20Rd10 + p60Rd10 + p28Rd11 + pro28Rd10 - p61Rd10 >= 0 
p61Rd10 + p20Rd10 - p60Rd10 + p28Rd11 + pro28Rd10 >= 0 
p61Rd10 - p20Rd10 + p60Rd10 + p28Rd11 + pro28Rd10 >= 0 
p21Rd10 + p20Rd10 + p60Rd10 - p28Rd11 + pro28Rd10 >= 0 
p29Rd11 - p20Rd10 - p60Rd10 - p28Rd11 + pro28Rd10 >= -2 
p20Rd10 - p61Rd10 - p60Rd10 - p28Rd11 + pro28Rd10 >= -2 
p60Rd10 - p61Rd10 - p20Rd10 - p28Rd11 + pro28Rd10 >= -2 
p28Rd11 - p61Rd10 - p20Rd10 - p60Rd10 + pro28Rd10 >= -2 
p62Rd10 - p30Rd11 + pro29Rd10 >= 0 
p22Rd10 - p62Rd10 + pro29Rd10 >= 0 
p30Rd11 - p22Rd10 + pro29Rd10 >= 0 
p22Rd10 + p62Rd10 + p30Rd11 + pro29Rd10 <= 3 
p22Rd10 + p62Rd10 + p30Rd11 - pro29Rd10 >= 0 
p21Rd10 + p61Rd10 + p29Rd11 + pro29Rd10 - p62Rd10 >= 0 
p62Rd10 + p21Rd10 - p61Rd10 + p29Rd11 + pro29Rd10 >= 0 
p62Rd10 - p21Rd10 + p61Rd10 + p29Rd11 + pro29Rd10 >= 0 
p22Rd10 + p21Rd10 + p61Rd10 - p29Rd11 + pro29Rd10 >= 0 
p30Rd11 - p21Rd10 - p61Rd10 - p29Rd11 + pro29Rd10 >= -2 
p21Rd10 - p62Rd10 - p61Rd10 - p29Rd11 + pro29Rd10 >= -2 
p61Rd10 - p62Rd10 - p21Rd10 - p29Rd11 + pro29Rd10 >= -2 
p29Rd11 - p62Rd10 - p21Rd10 - p61Rd10 + pro29Rd10 >= -2 
p63Rd10 - p31Rd11 + pro30Rd10 >= 0 
p23Rd10 - p63Rd10 + pro30Rd10 >= 0 
p31Rd11 - p23Rd10 + pro30Rd10 >= 0 
p23Rd10 + p63Rd10 + p31Rd11 + pro30Rd10 <= 3 
p23Rd10 + p63Rd10 + p31Rd11 - pro30Rd10 >= 0 
p22Rd10 + p62Rd10 + p30Rd11 + pro30Rd10 - p63Rd10 >= 0 
p63Rd10 + p22Rd10 - p62Rd10 + p30Rd11 + pro30Rd10 >= 0 
p63Rd10 - p22Rd10 + p62Rd10 + p30Rd11 + pro30Rd10 >= 0 
p23Rd10 + p22Rd10 + p62Rd10 - p30Rd11 + pro30Rd10 >= 0 
p31Rd11 - p22Rd10 - p62Rd10 - p30Rd11 + pro30Rd10 >= -2 
p22Rd10 - p63Rd10 - p62Rd10 - p30Rd11 + pro30Rd10 >= -2 
p62Rd10 - p63Rd10 - p22Rd10 - p30Rd11 + pro30Rd10 >= -2 
p30Rd11 - p63Rd10 - p22Rd10 - p62Rd10 + pro30Rd10 >= -2 
p23Rd10 + p63Rd10 + p31Rd11 <= 2 
p23Rd10 + p63Rd10 + p31Rd11 - 2 temp10 >= 0 
temp10 - p23Rd10 >= 0 
temp10 - p63Rd10 >= 0 
temp10 - p31Rd11 >= 0 
p35Rd11 + p32Rd12 - p0Rd12 >= 0
p35Rd11 - p32Rd12 + p0Rd12 >= 0
- p35Rd11 + p32Rd12 + p0Rd12 >= 0
p35Rd11 + p32Rd12 + p0Rd12 <= 2
p36Rd11 + p33Rd12 - p1Rd12 >= 0
p36Rd11 - p33Rd12 + p1Rd12 >= 0
- p36Rd11 + p33Rd12 + p1Rd12 >= 0
p36Rd11 + p33Rd12 + p1Rd12 <= 2
p37Rd11 + p34Rd12 - p2Rd12 >= 0
p37Rd11 - p34Rd12 + p2Rd12 >= 0
- p37Rd11 + p34Rd12 + p2Rd12 >= 0
p37Rd11 + p34Rd12 + p2Rd12 <= 2
p38Rd11 + p35Rd12 - p3Rd12 >= 0
p38Rd11 - p35Rd12 + p3Rd12 >= 0
- p38Rd11 + p35Rd12 + p3Rd12 >= 0
p38Rd11 + p35Rd12 + p3Rd12 <= 2
p39Rd11 + p36Rd12 - p4Rd12 >= 0
p39Rd11 - p36Rd12 + p4Rd12 >= 0
- p39Rd11 + p36Rd12 + p4Rd12 >= 0
p39Rd11 + p36Rd12 + p4Rd12 <= 2
p40Rd11 + p37Rd12 - p5Rd12 >= 0
p40Rd11 - p37Rd12 + p5Rd12 >= 0
- p40Rd11 + p37Rd12 + p5Rd12 >= 0
p40Rd11 + p37Rd12 + p5Rd12 <= 2
p41Rd11 + p38Rd12 - p6Rd12 >= 0
p41Rd11 - p38Rd12 + p6Rd12 >= 0
- p41Rd11 + p38Rd12 + p6Rd12 >= 0
p41Rd11 + p38Rd12 + p6Rd12 <= 2
p42Rd11 + p39Rd12 - p7Rd12 >= 0
p42Rd11 - p39Rd12 + p7Rd12 >= 0
- p42Rd11 + p39Rd12 + p7Rd12 >= 0
p42Rd11 + p39Rd12 + p7Rd12 <= 2
p43Rd11 + p40Rd12 - p8Rd12 >= 0
p43Rd11 - p40Rd12 + p8Rd12 >= 0
- p43Rd11 + p40Rd12 + p8Rd12 >= 0
p43Rd11 + p40Rd12 + p8Rd12 <= 2
p44Rd11 + p41Rd12 - p9Rd12 >= 0
p44Rd11 - p41Rd12 + p9Rd12 >= 0
- p44Rd11 + p41Rd12 + p9Rd12 >= 0
p44Rd11 + p41Rd12 + p9Rd12 <= 2
p45Rd11 + p42Rd12 - p10Rd12 >= 0
p45Rd11 - p42Rd12 + p10Rd12 >= 0
- p45Rd11 + p42Rd12 + p10Rd12 >= 0
p45Rd11 + p42Rd12 + p10Rd12 <= 2
p46Rd11 + p43Rd12 - p11Rd12 >= 0
p46Rd11 - p43Rd12 + p11Rd12 >= 0
- p46Rd11 + p43Rd12 + p11Rd12 >= 0
p46Rd11 + p43Rd12 + p11Rd12 <= 2
p47Rd11 + p44Rd12 - p12Rd12 >= 0
p47Rd11 - p44Rd12 + p12Rd12 >= 0
- p47Rd11 + p44Rd12 + p12Rd12 >= 0
p47Rd11 + p44Rd12 + p12Rd12 <= 2
p48Rd11 + p45Rd12 - p13Rd12 >= 0
p48Rd11 - p45Rd12 + p13Rd12 >= 0
- p48Rd11 + p45Rd12 + p13Rd12 >= 0
p48Rd11 + p45Rd12 + p13Rd12 <= 2
p49Rd11 + p46Rd12 - p14Rd12 >= 0
p49Rd11 - p46Rd12 + p14Rd12 >= 0
- p49Rd11 + p46Rd12 + p14Rd12 >= 0
p49Rd11 + p46Rd12 + p14Rd12 <= 2
p50Rd11 + p47Rd12 - p15Rd12 >= 0
p50Rd11 - p47Rd12 + p15Rd12 >= 0
- p50Rd11 + p47Rd12 + p15Rd12 >= 0
p50Rd11 + p47Rd12 + p15Rd12 <= 2
p51Rd11 + p48Rd12 - p16Rd12 >= 0
p51Rd11 - p48Rd12 + p16Rd12 >= 0
- p51Rd11 + p48Rd12 + p16Rd12 >= 0
p51Rd11 + p48Rd12 + p16Rd12 <= 2
p52Rd11 + p49Rd12 - p17Rd12 >= 0
p52Rd11 - p49Rd12 + p17Rd12 >= 0
- p52Rd11 + p49Rd12 + p17Rd12 >= 0
p52Rd11 + p49Rd12 + p17Rd12 <= 2
p53Rd11 + p50Rd12 - p18Rd12 >= 0
p53Rd11 - p50Rd12 + p18Rd12 >= 0
- p53Rd11 + p50Rd12 + p18Rd12 >= 0
p53Rd11 + p50Rd12 + p18Rd12 <= 2
p54Rd11 + p51Rd12 - p19Rd12 >= 0
p54Rd11 - p51Rd12 + p19Rd12 >= 0
- p54Rd11 + p51Rd12 + p19Rd12 >= 0
p54Rd11 + p51Rd12 + p19Rd12 <= 2
p55Rd11 + p52Rd12 - p20Rd12 >= 0
p55Rd11 - p52Rd12 + p20Rd12 >= 0
- p55Rd11 + p52Rd12 + p20Rd12 >= 0
p55Rd11 + p52Rd12 + p20Rd12 <= 2
p56Rd11 + p53Rd12 - p21Rd12 >= 0
p56Rd11 - p53Rd12 + p21Rd12 >= 0
- p56Rd11 + p53Rd12 + p21Rd12 >= 0
p56Rd11 + p53Rd12 + p21Rd12 <= 2
p57Rd11 + p54Rd12 - p22Rd12 >= 0
p57Rd11 - p54Rd12 + p22Rd12 >= 0
- p57Rd11 + p54Rd12 + p22Rd12 >= 0
p57Rd11 + p54Rd12 + p22Rd12 <= 2
p58Rd11 + p55Rd12 - p23Rd12 >= 0
p58Rd11 - p55Rd12 + p23Rd12 >= 0
- p58Rd11 + p55Rd12 + p23Rd12 >= 0
p58Rd11 + p55Rd12 + p23Rd12 <= 2
p59Rd11 + p56Rd12 - p24Rd12 >= 0
p59Rd11 - p56Rd12 + p24Rd12 >= 0
- p59Rd11 + p56Rd12 + p24Rd12 >= 0
p59Rd11 + p56Rd12 + p24Rd12 <= 2
p60Rd11 + p57Rd12 - p25Rd12 >= 0
p60Rd11 - p57Rd12 + p25Rd12 >= 0
- p60Rd11 + p57Rd12 + p25Rd12 >= 0
p60Rd11 + p57Rd12 + p25Rd12 <= 2
p61Rd11 + p58Rd12 - p26Rd12 >= 0
p61Rd11 - p58Rd12 + p26Rd12 >= 0
- p61Rd11 + p58Rd12 + p26Rd12 >= 0
p61Rd11 + p58Rd12 + p26Rd12 <= 2
p62Rd11 + p59Rd12 - p27Rd12 >= 0
p62Rd11 - p59Rd12 + p27Rd12 >= 0
- p62Rd11 + p59Rd12 + p27Rd12 >= 0
p62Rd11 + p59Rd12 + p27Rd12 <= 2
p63Rd11 + p60Rd12 - p28Rd12 >= 0
p63Rd11 - p60Rd12 + p28Rd12 >= 0
- p63Rd11 + p60Rd12 + p28Rd12 >= 0
p63Rd11 + p60Rd12 + p28Rd12 <= 2
p32Rd11 + p61Rd12 - p29Rd12 >= 0
p32Rd11 - p61Rd12 + p29Rd12 >= 0
- p32Rd11 + p61Rd12 + p29Rd12 >= 0
p32Rd11 + p61Rd12 + p29Rd12 <= 2
p33Rd11 + p62Rd12 - p30Rd12 >= 0
p33Rd11 - p62Rd12 + p30Rd12 >= 0
- p33Rd11 + p62Rd12 + p30Rd12 >= 0
p33Rd11 + p62Rd12 + p30Rd12 <= 2
p34Rd11 + p63Rd12 - p31Rd12 >= 0
p34Rd11 - p63Rd12 + p31Rd12 >= 0
- p34Rd11 + p63Rd12 + p31Rd12 >= 0
p34Rd11 + p63Rd12 + p31Rd12 <= 2
p33Rd11 - p1Rd12 + pro0Rd11 >= 0 
p25Rd11 - p33Rd11 + pro0Rd11 >= 0 
p1Rd12 - p25Rd11 + pro0Rd11 >= 0 
p25Rd11 + p33Rd11 + p1Rd12 + pro0Rd11 <= 3 
p25Rd11 + p33Rd11 + p1Rd12 - pro0Rd11 >= 0 
p24Rd11 + p32Rd11 + p0Rd12 + pro0Rd11 - p33Rd11 >= 0 
p33Rd11 + p24Rd11 - p32Rd11 + p0Rd12 + pro0Rd11 >= 0 
p33Rd11 - p24Rd11 + p32Rd11 + p0Rd12 + pro0Rd11 >= 0 
p25Rd11 + p24Rd11 + p32Rd11 - p0Rd12 + pro0Rd11 >= 0 
p1Rd12 - p24Rd11 - p32Rd11 - p0Rd12 + pro0Rd11 >= -2 
p24Rd11 - p33Rd11 - p32Rd11 - p0Rd12 + pro0Rd11 >= -2 
p32Rd11 - p33Rd11 - p24Rd11 - p0Rd12 + pro0Rd11 >= -2 
p0Rd12 - p33Rd11 - p24Rd11 - p32Rd11 + pro0Rd11 >= -2 
p34Rd11 - p2Rd12 + pro1Rd11 >= 0 
p26Rd11 - p34Rd11 + pro1Rd11 >= 0 
p2Rd12 - p26Rd11 + pro1Rd11 >= 0 
p26Rd11 + p34Rd11 + p2Rd12 + pro1Rd11 <= 3 
p26Rd11 + p34Rd11 + p2Rd12 - pro1Rd11 >= 0 
p25Rd11 + p33Rd11 + p1Rd12 + pro1Rd11 - p34Rd11 >= 0 
p34Rd11 + p25Rd11 - p33Rd11 + p1Rd12 + pro1Rd11 >= 0 
p34Rd11 - p25Rd11 + p33Rd11 + p1Rd12 + pro1Rd11 >= 0 
p26Rd11 + p25Rd11 + p33Rd11 - p1Rd12 + pro1Rd11 >= 0 
p2Rd12 - p25Rd11 - p33Rd11 - p1Rd12 + pro1Rd11 >= -2 
p25Rd11 - p34Rd11 - p33Rd11 - p1Rd12 + pro1Rd11 >= -2 
p33Rd11 - p34Rd11 - p25Rd11 - p1Rd12 + pro1Rd11 >= -2 
p1Rd12 - p34Rd11 - p25Rd11 - p33Rd11 + pro1Rd11 >= -2 
p35Rd11 - p3Rd12 + pro2Rd11 >= 0 
p27Rd11 - p35Rd11 + pro2Rd11 >= 0 
p3Rd12 - p27Rd11 + pro2Rd11 >= 0 
p27Rd11 + p35Rd11 + p3Rd12 + pro2Rd11 <= 3 
p27Rd11 + p35Rd11 + p3Rd12 - pro2Rd11 >= 0 
p26Rd11 + p34Rd11 + p2Rd12 + pro2Rd11 - p35Rd11 >= 0 
p35Rd11 + p26Rd11 - p34Rd11 + p2Rd12 + pro2Rd11 >= 0 
p35Rd11 - p26Rd11 + p34Rd11 + p2Rd12 + pro2Rd11 >= 0 
p27Rd11 + p26Rd11 + p34Rd11 - p2Rd12 + pro2Rd11 >= 0 
p3Rd12 - p26Rd11 - p34Rd11 - p2Rd12 + pro2Rd11 >= -2 
p26Rd11 - p35Rd11 - p34Rd11 - p2Rd12 + pro2Rd11 >= -2 
p34Rd11 - p35Rd11 - p26Rd11 - p2Rd12 + pro2Rd11 >= -2 
p2Rd12 - p35Rd11 - p26Rd11 - p34Rd11 + pro2Rd11 >= -2 
p36Rd11 - p4Rd12 + pro3Rd11 >= 0 
p28Rd11 - p36Rd11 + pro3Rd11 >= 0 
p4Rd12 - p28Rd11 + pro3Rd11 >= 0 
p28Rd11 + p36Rd11 + p4Rd12 + pro3Rd11 <= 3 
p28Rd11 + p36Rd11 + p4Rd12 - pro3Rd11 >= 0 
p27Rd11 + p35Rd11 + p3Rd12 + pro3Rd11 - p36Rd11 >= 0 
p36Rd11 + p27Rd11 - p35Rd11 + p3Rd12 + pro3Rd11 >= 0 
p36Rd11 - p27Rd11 + p35Rd11 + p3Rd12 + pro3Rd11 >= 0 
p28Rd11 + p27Rd11 + p35Rd11 - p3Rd12 + pro3Rd11 >= 0 
p4Rd12 - p27Rd11 - p35Rd11 - p3Rd12 + pro3Rd11 >= -2 
p27Rd11 - p36Rd11 - p35Rd11 - p3Rd12 + pro3Rd11 >= -2 
p35Rd11 - p36Rd11 - p27Rd11 - p3Rd12 + pro3Rd11 >= -2 
p3Rd12 - p36Rd11 - p27Rd11 - p35Rd11 + pro3Rd11 >= -2 
p37Rd11 - p5Rd12 + pro4Rd11 >= 0 
p29Rd11 - p37Rd11 + pro4Rd11 >= 0 
p5Rd12 - p29Rd11 + pro4Rd11 >= 0 
p29Rd11 + p37Rd11 + p5Rd12 + pro4Rd11 <= 3 
p29Rd11 + p37Rd11 + p5Rd12 - pro4Rd11 >= 0 
p28Rd11 + p36Rd11 + p4Rd12 + pro4Rd11 - p37Rd11 >= 0 
p37Rd11 + p28Rd11 - p36Rd11 + p4Rd12 + pro4Rd11 >= 0 
p37Rd11 - p28Rd11 + p36Rd11 + p4Rd12 + pro4Rd11 >= 0 
p29Rd11 + p28Rd11 + p36Rd11 - p4Rd12 + pro4Rd11 >= 0 
p5Rd12 - p28Rd11 - p36Rd11 - p4Rd12 + pro4Rd11 >= -2 
p28Rd11 - p37Rd11 - p36Rd11 - p4Rd12 + pro4Rd11 >= -2 
p36Rd11 - p37Rd11 - p28Rd11 - p4Rd12 + pro4Rd11 >= -2 
p4Rd12 - p37Rd11 - p28Rd11 - p36Rd11 + pro4Rd11 >= -2 
p38Rd11 - p6Rd12 + pro5Rd11 >= 0 
p30Rd11 - p38Rd11 + pro5Rd11 >= 0 
p6Rd12 - p30Rd11 + pro5Rd11 >= 0 
p30Rd11 + p38Rd11 + p6Rd12 + pro5Rd11 <= 3 
p30Rd11 + p38Rd11 + p6Rd12 - pro5Rd11 >= 0 
p29Rd11 + p37Rd11 + p5Rd12 + pro5Rd11 - p38Rd11 >= 0 
p38Rd11 + p29Rd11 - p37Rd11 + p5Rd12 + pro5Rd11 >= 0 
p38Rd11 - p29Rd11 + p37Rd11 + p5Rd12 + pro5Rd11 >= 0 
p30Rd11 + p29Rd11 + p37Rd11 - p5Rd12 + pro5Rd11 >= 0 
p6Rd12 - p29Rd11 - p37Rd11 - p5Rd12 + pro5Rd11 >= -2 
p29Rd11 - p38Rd11 - p37Rd11 - p5Rd12 + pro5Rd11 >= -2 
p37Rd11 - p38Rd11 - p29Rd11 - p5Rd12 + pro5Rd11 >= -2 
p5Rd12 - p38Rd11 - p29Rd11 - p37Rd11 + pro5Rd11 >= -2 
p39Rd11 - p7Rd12 + pro6Rd11 >= 0 
p31Rd11 - p39Rd11 + pro6Rd11 >= 0 
p7Rd12 - p31Rd11 + pro6Rd11 >= 0 
p31Rd11 + p39Rd11 + p7Rd12 + pro6Rd11 <= 3 
p31Rd11 + p39Rd11 + p7Rd12 - pro6Rd11 >= 0 
p30Rd11 + p38Rd11 + p6Rd12 + pro6Rd11 - p39Rd11 >= 0 
p39Rd11 + p30Rd11 - p38Rd11 + p6Rd12 + pro6Rd11 >= 0 
p39Rd11 - p30Rd11 + p38Rd11 + p6Rd12 + pro6Rd11 >= 0 
p31Rd11 + p30Rd11 + p38Rd11 - p6Rd12 + pro6Rd11 >= 0 
p7Rd12 - p30Rd11 - p38Rd11 - p6Rd12 + pro6Rd11 >= -2 
p30Rd11 - p39Rd11 - p38Rd11 - p6Rd12 + pro6Rd11 >= -2 
p38Rd11 - p39Rd11 - p30Rd11 - p6Rd12 + pro6Rd11 >= -2 
p6Rd12 - p39Rd11 - p30Rd11 - p38Rd11 + pro6Rd11 >= -2 
p40Rd11 - p8Rd12 + pro7Rd11 >= 0 
p0Rd11 - p40Rd11 + pro7Rd11 >= 0 
p8Rd12 - p0Rd11 + pro7Rd11 >= 0 
p0Rd11 + p40Rd11 + p8Rd12 + pro7Rd11 <= 3 
p0Rd11 + p40Rd11 + p8Rd12 - pro7Rd11 >= 0 
p31Rd11 + p39Rd11 + p7Rd12 + pro7Rd11 - p40Rd11 >= 0 
p40Rd11 + p31Rd11 - p39Rd11 + p7Rd12 + pro7Rd11 >= 0 
p40Rd11 - p31Rd11 + p39Rd11 + p7Rd12 + pro7Rd11 >= 0 
p0Rd11 + p31Rd11 + p39Rd11 - p7Rd12 + pro7Rd11 >= 0 
p8Rd12 - p31Rd11 - p39Rd11 - p7Rd12 + pro7Rd11 >= -2 
p31Rd11 - p40Rd11 - p39Rd11 - p7Rd12 + pro7Rd11 >= -2 
p39Rd11 - p40Rd11 - p31Rd11 - p7Rd12 + pro7Rd11 >= -2 
p7Rd12 - p40Rd11 - p31Rd11 - p39Rd11 + pro7Rd11 >= -2 
p41Rd11 - p9Rd12 + pro8Rd11 >= 0 
p1Rd11 - p41Rd11 + pro8Rd11 >= 0 
p9Rd12 - p1Rd11 + pro8Rd11 >= 0 
p1Rd11 + p41Rd11 + p9Rd12 + pro8Rd11 <= 3 
p1Rd11 + p41Rd11 + p9Rd12 - pro8Rd11 >= 0 
p0Rd11 + p40Rd11 + p8Rd12 + pro8Rd11 - p41Rd11 >= 0 
p41Rd11 + p0Rd11 - p40Rd11 + p8Rd12 + pro8Rd11 >= 0 
p41Rd11 - p0Rd11 + p40Rd11 + p8Rd12 + pro8Rd11 >= 0 
p1Rd11 + p0Rd11 + p40Rd11 - p8Rd12 + pro8Rd11 >= 0 
p9Rd12 - p0Rd11 - p40Rd11 - p8Rd12 + pro8Rd11 >= -2 
p0Rd11 - p41Rd11 - p40Rd11 - p8Rd12 + pro8Rd11 >= -2 
p40Rd11 - p41Rd11 - p0Rd11 - p8Rd12 + pro8Rd11 >= -2 
p8Rd12 - p41Rd11 - p0Rd11 - p40Rd11 + pro8Rd11 >= -2 
p42Rd11 - p10Rd12 + pro9Rd11 >= 0 
p2Rd11 - p42Rd11 + pro9Rd11 >= 0 
p10Rd12 - p2Rd11 + pro9Rd11 >= 0 
p2Rd11 + p42Rd11 + p10Rd12 + pro9Rd11 <= 3 
p2Rd11 + p42Rd11 + p10Rd12 - pro9Rd11 >= 0 
p1Rd11 + p41Rd11 + p9Rd12 + pro9Rd11 - p42Rd11 >= 0 
p42Rd11 + p1Rd11 - p41Rd11 + p9Rd12 + pro9Rd11 >= 0 
p42Rd11 - p1Rd11 + p41Rd11 + p9Rd12 + pro9Rd11 >= 0 
p2Rd11 + p1Rd11 + p41Rd11 - p9Rd12 + pro9Rd11 >= 0 
p10Rd12 - p1Rd11 - p41Rd11 - p9Rd12 + pro9Rd11 >= -2 
p1Rd11 - p42Rd11 - p41Rd11 - p9Rd12 + pro9Rd11 >= -2 
p41Rd11 - p42Rd11 - p1Rd11 - p9Rd12 + pro9Rd11 >= -2 
p9Rd12 - p42Rd11 - p1Rd11 - p41Rd11 + pro9Rd11 >= -2 
p43Rd11 - p11Rd12 + pro10Rd11 >= 0 
p3Rd11 - p43Rd11 + pro10Rd11 >= 0 
p11Rd12 - p3Rd11 + pro10Rd11 >= 0 
p3Rd11 + p43Rd11 + p11Rd12 + pro10Rd11 <= 3 
p3Rd11 + p43Rd11 + p11Rd12 - pro10Rd11 >= 0 
p2Rd11 + p42Rd11 + p10Rd12 + pro10Rd11 - p43Rd11 >= 0 
p43Rd11 + p2Rd11 - p42Rd11 + p10Rd12 + pro10Rd11 >= 0 
p43Rd11 - p2Rd11 + p42Rd11 + p10Rd12 + pro10Rd11 >= 0 
p3Rd11 + p2Rd11 + p42Rd11 - p10Rd12 + pro10Rd11 >= 0 
p11Rd12 - p2Rd11 - p42Rd11 - p10Rd12 + pro10Rd11 >= -2 
p2Rd11 - p43Rd11 - p42Rd11 - p10Rd12 + pro10Rd11 >= -2 
p42Rd11 - p43Rd11 - p2Rd11 - p10Rd12 + pro10Rd11 >= -2 
p10Rd12 - p43Rd11 - p2Rd11 - p42Rd11 + pro10Rd11 >= -2 
p44Rd11 - p12Rd12 + pro11Rd11 >= 0 
p4Rd11 - p44Rd11 + pro11Rd11 >= 0 
p12Rd12 - p4Rd11 + pro11Rd11 >= 0 
p4Rd11 + p44Rd11 + p12Rd12 + pro11Rd11 <= 3 
p4Rd11 + p44Rd11 + p12Rd12 - pro11Rd11 >= 0 
p3Rd11 + p43Rd11 + p11Rd12 + pro11Rd11 - p44Rd11 >= 0 
p44Rd11 + p3Rd11 - p43Rd11 + p11Rd12 + pro11Rd11 >= 0 
p44Rd11 - p3Rd11 + p43Rd11 + p11Rd12 + pro11Rd11 >= 0 
p4Rd11 + p3Rd11 + p43Rd11 - p11Rd12 + pro11Rd11 >= 0 
p12Rd12 - p3Rd11 - p43Rd11 - p11Rd12 + pro11Rd11 >= -2 
p3Rd11 - p44Rd11 - p43Rd11 - p11Rd12 + pro11Rd11 >= -2 
p43Rd11 - p44Rd11 - p3Rd11 - p11Rd12 + pro11Rd11 >= -2 
p11Rd12 - p44Rd11 - p3Rd11 - p43Rd11 + pro11Rd11 >= -2 
p45Rd11 - p13Rd12 + pro12Rd11 >= 0 
p5Rd11 - p45Rd11 + pro12Rd11 >= 0 
p13Rd12 - p5Rd11 + pro12Rd11 >= 0 
p5Rd11 + p45Rd11 + p13Rd12 + pro12Rd11 <= 3 
p5Rd11 + p45Rd11 + p13Rd12 - pro12Rd11 >= 0 
p4Rd11 + p44Rd11 + p12Rd12 + pro12Rd11 - p45Rd11 >= 0 
p45Rd11 + p4Rd11 - p44Rd11 + p12Rd12 + pro12Rd11 >= 0 
p45Rd11 - p4Rd11 + p44Rd11 + p12Rd12 + pro12Rd11 >= 0 
p5Rd11 + p4Rd11 + p44Rd11 - p12Rd12 + pro12Rd11 >= 0 
p13Rd12 - p4Rd11 - p44Rd11 - p12Rd12 + pro12Rd11 >= -2 
p4Rd11 - p45Rd11 - p44Rd11 - p12Rd12 + pro12Rd11 >= -2 
p44Rd11 - p45Rd11 - p4Rd11 - p12Rd12 + pro12Rd11 >= -2 
p12Rd12 - p45Rd11 - p4Rd11 - p44Rd11 + pro12Rd11 >= -2 
p46Rd11 - p14Rd12 + pro13Rd11 >= 0 
p6Rd11 - p46Rd11 + pro13Rd11 >= 0 
p14Rd12 - p6Rd11 + pro13Rd11 >= 0 
p6Rd11 + p46Rd11 + p14Rd12 + pro13Rd11 <= 3 
p6Rd11 + p46Rd11 + p14Rd12 - pro13Rd11 >= 0 
p5Rd11 + p45Rd11 + p13Rd12 + pro13Rd11 - p46Rd11 >= 0 
p46Rd11 + p5Rd11 - p45Rd11 + p13Rd12 + pro13Rd11 >= 0 
p46Rd11 - p5Rd11 + p45Rd11 + p13Rd12 + pro13Rd11 >= 0 
p6Rd11 + p5Rd11 + p45Rd11 - p13Rd12 + pro13Rd11 >= 0 
p14Rd12 - p5Rd11 - p45Rd11 - p13Rd12 + pro13Rd11 >= -2 
p5Rd11 - p46Rd11 - p45Rd11 - p13Rd12 + pro13Rd11 >= -2 
p45Rd11 - p46Rd11 - p5Rd11 - p13Rd12 + pro13Rd11 >= -2 
p13Rd12 - p46Rd11 - p5Rd11 - p45Rd11 + pro13Rd11 >= -2 
p47Rd11 - p15Rd12 + pro14Rd11 >= 0 
p7Rd11 - p47Rd11 + pro14Rd11 >= 0 
p15Rd12 - p7Rd11 + pro14Rd11 >= 0 
p7Rd11 + p47Rd11 + p15Rd12 + pro14Rd11 <= 3 
p7Rd11 + p47Rd11 + p15Rd12 - pro14Rd11 >= 0 
p6Rd11 + p46Rd11 + p14Rd12 + pro14Rd11 - p47Rd11 >= 0 
p47Rd11 + p6Rd11 - p46Rd11 + p14Rd12 + pro14Rd11 >= 0 
p47Rd11 - p6Rd11 + p46Rd11 + p14Rd12 + pro14Rd11 >= 0 
p7Rd11 + p6Rd11 + p46Rd11 - p14Rd12 + pro14Rd11 >= 0 
p15Rd12 - p6Rd11 - p46Rd11 - p14Rd12 + pro14Rd11 >= -2 
p6Rd11 - p47Rd11 - p46Rd11 - p14Rd12 + pro14Rd11 >= -2 
p46Rd11 - p47Rd11 - p6Rd11 - p14Rd12 + pro14Rd11 >= -2 
p14Rd12 - p47Rd11 - p6Rd11 - p46Rd11 + pro14Rd11 >= -2 
p48Rd11 - p16Rd12 + pro15Rd11 >= 0 
p8Rd11 - p48Rd11 + pro15Rd11 >= 0 
p16Rd12 - p8Rd11 + pro15Rd11 >= 0 
p8Rd11 + p48Rd11 + p16Rd12 + pro15Rd11 <= 3 
p8Rd11 + p48Rd11 + p16Rd12 - pro15Rd11 >= 0 
p7Rd11 + p47Rd11 + p15Rd12 + pro15Rd11 - p48Rd11 >= 0 
p48Rd11 + p7Rd11 - p47Rd11 + p15Rd12 + pro15Rd11 >= 0 
p48Rd11 - p7Rd11 + p47Rd11 + p15Rd12 + pro15Rd11 >= 0 
p8Rd11 + p7Rd11 + p47Rd11 - p15Rd12 + pro15Rd11 >= 0 
p16Rd12 - p7Rd11 - p47Rd11 - p15Rd12 + pro15Rd11 >= -2 
p7Rd11 - p48Rd11 - p47Rd11 - p15Rd12 + pro15Rd11 >= -2 
p47Rd11 - p48Rd11 - p7Rd11 - p15Rd12 + pro15Rd11 >= -2 
p15Rd12 - p48Rd11 - p7Rd11 - p47Rd11 + pro15Rd11 >= -2 
p49Rd11 - p17Rd12 + pro16Rd11 >= 0 
p9Rd11 - p49Rd11 + pro16Rd11 >= 0 
p17Rd12 - p9Rd11 + pro16Rd11 >= 0 
p9Rd11 + p49Rd11 + p17Rd12 + pro16Rd11 <= 3 
p9Rd11 + p49Rd11 + p17Rd12 - pro16Rd11 >= 0 
p8Rd11 + p48Rd11 + p16Rd12 + pro16Rd11 - p49Rd11 >= 0 
p49Rd11 + p8Rd11 - p48Rd11 + p16Rd12 + pro16Rd11 >= 0 
p49Rd11 - p8Rd11 + p48Rd11 + p16Rd12 + pro16Rd11 >= 0 
p9Rd11 + p8Rd11 + p48Rd11 - p16Rd12 + pro16Rd11 >= 0 
p17Rd12 - p8Rd11 - p48Rd11 - p16Rd12 + pro16Rd11 >= -2 
p8Rd11 - p49Rd11 - p48Rd11 - p16Rd12 + pro16Rd11 >= -2 
p48Rd11 - p49Rd11 - p8Rd11 - p16Rd12 + pro16Rd11 >= -2 
p16Rd12 - p49Rd11 - p8Rd11 - p48Rd11 + pro16Rd11 >= -2 
p50Rd11 - p18Rd12 + pro17Rd11 >= 0 
p10Rd11 - p50Rd11 + pro17Rd11 >= 0 
p18Rd12 - p10Rd11 + pro17Rd11 >= 0 
p10Rd11 + p50Rd11 + p18Rd12 + pro17Rd11 <= 3 
p10Rd11 + p50Rd11 + p18Rd12 - pro17Rd11 >= 0 
p9Rd11 + p49Rd11 + p17Rd12 + pro17Rd11 - p50Rd11 >= 0 
p50Rd11 + p9Rd11 - p49Rd11 + p17Rd12 + pro17Rd11 >= 0 
p50Rd11 - p9Rd11 + p49Rd11 + p17Rd12 + pro17Rd11 >= 0 
p10Rd11 + p9Rd11 + p49Rd11 - p17Rd12 + pro17Rd11 >= 0 
p18Rd12 - p9Rd11 - p49Rd11 - p17Rd12 + pro17Rd11 >= -2 
p9Rd11 - p50Rd11 - p49Rd11 - p17Rd12 + pro17Rd11 >= -2 
p49Rd11 - p50Rd11 - p9Rd11 - p17Rd12 + pro17Rd11 >= -2 
p17Rd12 - p50Rd11 - p9Rd11 - p49Rd11 + pro17Rd11 >= -2 
p51Rd11 - p19Rd12 + pro18Rd11 >= 0 
p11Rd11 - p51Rd11 + pro18Rd11 >= 0 
p19Rd12 - p11Rd11 + pro18Rd11 >= 0 
p11Rd11 + p51Rd11 + p19Rd12 + pro18Rd11 <= 3 
p11Rd11 + p51Rd11 + p19Rd12 - pro18Rd11 >= 0 
p10Rd11 + p50Rd11 + p18Rd12 + pro18Rd11 - p51Rd11 >= 0 
p51Rd11 + p10Rd11 - p50Rd11 + p18Rd12 + pro18Rd11 >= 0 
p51Rd11 - p10Rd11 + p50Rd11 + p18Rd12 + pro18Rd11 >= 0 
p11Rd11 + p10Rd11 + p50Rd11 - p18Rd12 + pro18Rd11 >= 0 
p19Rd12 - p10Rd11 - p50Rd11 - p18Rd12 + pro18Rd11 >= -2 
p10Rd11 - p51Rd11 - p50Rd11 - p18Rd12 + pro18Rd11 >= -2 
p50Rd11 - p51Rd11 - p10Rd11 - p18Rd12 + pro18Rd11 >= -2 
p18Rd12 - p51Rd11 - p10Rd11 - p50Rd11 + pro18Rd11 >= -2 
p52Rd11 - p20Rd12 + pro19Rd11 >= 0 
p12Rd11 - p52Rd11 + pro19Rd11 >= 0 
p20Rd12 - p12Rd11 + pro19Rd11 >= 0 
p12Rd11 + p52Rd11 + p20Rd12 + pro19Rd11 <= 3 
p12Rd11 + p52Rd11 + p20Rd12 - pro19Rd11 >= 0 
p11Rd11 + p51Rd11 + p19Rd12 + pro19Rd11 - p52Rd11 >= 0 
p52Rd11 + p11Rd11 - p51Rd11 + p19Rd12 + pro19Rd11 >= 0 
p52Rd11 - p11Rd11 + p51Rd11 + p19Rd12 + pro19Rd11 >= 0 
p12Rd11 + p11Rd11 + p51Rd11 - p19Rd12 + pro19Rd11 >= 0 
p20Rd12 - p11Rd11 - p51Rd11 - p19Rd12 + pro19Rd11 >= -2 
p11Rd11 - p52Rd11 - p51Rd11 - p19Rd12 + pro19Rd11 >= -2 
p51Rd11 - p52Rd11 - p11Rd11 - p19Rd12 + pro19Rd11 >= -2 
p19Rd12 - p52Rd11 - p11Rd11 - p51Rd11 + pro19Rd11 >= -2 
p53Rd11 - p21Rd12 + pro20Rd11 >= 0 
p13Rd11 - p53Rd11 + pro20Rd11 >= 0 
p21Rd12 - p13Rd11 + pro20Rd11 >= 0 
p13Rd11 + p53Rd11 + p21Rd12 + pro20Rd11 <= 3 
p13Rd11 + p53Rd11 + p21Rd12 - pro20Rd11 >= 0 
p12Rd11 + p52Rd11 + p20Rd12 + pro20Rd11 - p53Rd11 >= 0 
p53Rd11 + p12Rd11 - p52Rd11 + p20Rd12 + pro20Rd11 >= 0 
p53Rd11 - p12Rd11 + p52Rd11 + p20Rd12 + pro20Rd11 >= 0 
p13Rd11 + p12Rd11 + p52Rd11 - p20Rd12 + pro20Rd11 >= 0 
p21Rd12 - p12Rd11 - p52Rd11 - p20Rd12 + pro20Rd11 >= -2 
p12Rd11 - p53Rd11 - p52Rd11 - p20Rd12 + pro20Rd11 >= -2 
p52Rd11 - p53Rd11 - p12Rd11 - p20Rd12 + pro20Rd11 >= -2 
p20Rd12 - p53Rd11 - p12Rd11 - p52Rd11 + pro20Rd11 >= -2 
p54Rd11 - p22Rd12 + pro21Rd11 >= 0 
p14Rd11 - p54Rd11 + pro21Rd11 >= 0 
p22Rd12 - p14Rd11 + pro21Rd11 >= 0 
p14Rd11 + p54Rd11 + p22Rd12 + pro21Rd11 <= 3 
p14Rd11 + p54Rd11 + p22Rd12 - pro21Rd11 >= 0 
p13Rd11 + p53Rd11 + p21Rd12 + pro21Rd11 - p54Rd11 >= 0 
p54Rd11 + p13Rd11 - p53Rd11 + p21Rd12 + pro21Rd11 >= 0 
p54Rd11 - p13Rd11 + p53Rd11 + p21Rd12 + pro21Rd11 >= 0 
p14Rd11 + p13Rd11 + p53Rd11 - p21Rd12 + pro21Rd11 >= 0 
p22Rd12 - p13Rd11 - p53Rd11 - p21Rd12 + pro21Rd11 >= -2 
p13Rd11 - p54Rd11 - p53Rd11 - p21Rd12 + pro21Rd11 >= -2 
p53Rd11 - p54Rd11 - p13Rd11 - p21Rd12 + pro21Rd11 >= -2 
p21Rd12 - p54Rd11 - p13Rd11 - p53Rd11 + pro21Rd11 >= -2 
p55Rd11 - p23Rd12 + pro22Rd11 >= 0 
p15Rd11 - p55Rd11 + pro22Rd11 >= 0 
p23Rd12 - p15Rd11 + pro22Rd11 >= 0 
p15Rd11 + p55Rd11 + p23Rd12 + pro22Rd11 <= 3 
p15Rd11 + p55Rd11 + p23Rd12 - pro22Rd11 >= 0 
p14Rd11 + p54Rd11 + p22Rd12 + pro22Rd11 - p55Rd11 >= 0 
p55Rd11 + p14Rd11 - p54Rd11 + p22Rd12 + pro22Rd11 >= 0 
p55Rd11 - p14Rd11 + p54Rd11 + p22Rd12 + pro22Rd11 >= 0 
p15Rd11 + p14Rd11 + p54Rd11 - p22Rd12 + pro22Rd11 >= 0 
p23Rd12 - p14Rd11 - p54Rd11 - p22Rd12 + pro22Rd11 >= -2 
p14Rd11 - p55Rd11 - p54Rd11 - p22Rd12 + pro22Rd11 >= -2 
p54Rd11 - p55Rd11 - p14Rd11 - p22Rd12 + pro22Rd11 >= -2 
p22Rd12 - p55Rd11 - p14Rd11 - p54Rd11 + pro22Rd11 >= -2 
p56Rd11 - p24Rd12 + pro23Rd11 >= 0 
p16Rd11 - p56Rd11 + pro23Rd11 >= 0 
p24Rd12 - p16Rd11 + pro23Rd11 >= 0 
p16Rd11 + p56Rd11 + p24Rd12 + pro23Rd11 <= 3 
p16Rd11 + p56Rd11 + p24Rd12 - pro23Rd11 >= 0 
p15Rd11 + p55Rd11 + p23Rd12 + pro23Rd11 - p56Rd11 >= 0 
p56Rd11 + p15Rd11 - p55Rd11 + p23Rd12 + pro23Rd11 >= 0 
p56Rd11 - p15Rd11 + p55Rd11 + p23Rd12 + pro23Rd11 >= 0 
p16Rd11 + p15Rd11 + p55Rd11 - p23Rd12 + pro23Rd11 >= 0 
p24Rd12 - p15Rd11 - p55Rd11 - p23Rd12 + pro23Rd11 >= -2 
p15Rd11 - p56Rd11 - p55Rd11 - p23Rd12 + pro23Rd11 >= -2 
p55Rd11 - p56Rd11 - p15Rd11 - p23Rd12 + pro23Rd11 >= -2 
p23Rd12 - p56Rd11 - p15Rd11 - p55Rd11 + pro23Rd11 >= -2 
p57Rd11 - p25Rd12 + pro24Rd11 >= 0 
p17Rd11 - p57Rd11 + pro24Rd11 >= 0 
p25Rd12 - p17Rd11 + pro24Rd11 >= 0 
p17Rd11 + p57Rd11 + p25Rd12 + pro24Rd11 <= 3 
p17Rd11 + p57Rd11 + p25Rd12 - pro24Rd11 >= 0 
p16Rd11 + p56Rd11 + p24Rd12 + pro24Rd11 - p57Rd11 >= 0 
p57Rd11 + p16Rd11 - p56Rd11 + p24Rd12 + pro24Rd11 >= 0 
p57Rd11 - p16Rd11 + p56Rd11 + p24Rd12 + pro24Rd11 >= 0 
p17Rd11 + p16Rd11 + p56Rd11 - p24Rd12 + pro24Rd11 >= 0 
p25Rd12 - p16Rd11 - p56Rd11 - p24Rd12 + pro24Rd11 >= -2 
p16Rd11 - p57Rd11 - p56Rd11 - p24Rd12 + pro24Rd11 >= -2 
p56Rd11 - p57Rd11 - p16Rd11 - p24Rd12 + pro24Rd11 >= -2 
p24Rd12 - p57Rd11 - p16Rd11 - p56Rd11 + pro24Rd11 >= -2 
p58Rd11 - p26Rd12 + pro25Rd11 >= 0 
p18Rd11 - p58Rd11 + pro25Rd11 >= 0 
p26Rd12 - p18Rd11 + pro25Rd11 >= 0 
p18Rd11 + p58Rd11 + p26Rd12 + pro25Rd11 <= 3 
p18Rd11 + p58Rd11 + p26Rd12 - pro25Rd11 >= 0 
p17Rd11 + p57Rd11 + p25Rd12 + pro25Rd11 - p58Rd11 >= 0 
p58Rd11 + p17Rd11 - p57Rd11 + p25Rd12 + pro25Rd11 >= 0 
p58Rd11 - p17Rd11 + p57Rd11 + p25Rd12 + pro25Rd11 >= 0 
p18Rd11 + p17Rd11 + p57Rd11 - p25Rd12 + pro25Rd11 >= 0 
p26Rd12 - p17Rd11 - p57Rd11 - p25Rd12 + pro25Rd11 >= -2 
p17Rd11 - p58Rd11 - p57Rd11 - p25Rd12 + pro25Rd11 >= -2 
p57Rd11 - p58Rd11 - p17Rd11 - p25Rd12 + pro25Rd11 >= -2 
p25Rd12 - p58Rd11 - p17Rd11 - p57Rd11 + pro25Rd11 >= -2 
p59Rd11 - p27Rd12 + pro26Rd11 >= 0 
p19Rd11 - p59Rd11 + pro26Rd11 >= 0 
p27Rd12 - p19Rd11 + pro26Rd11 >= 0 
p19Rd11 + p59Rd11 + p27Rd12 + pro26Rd11 <= 3 
p19Rd11 + p59Rd11 + p27Rd12 - pro26Rd11 >= 0 
p18Rd11 + p58Rd11 + p26Rd12 + pro26Rd11 - p59Rd11 >= 0 
p59Rd11 + p18Rd11 - p58Rd11 + p26Rd12 + pro26Rd11 >= 0 
p59Rd11 - p18Rd11 + p58Rd11 + p26Rd12 + pro26Rd11 >= 0 
p19Rd11 + p18Rd11 + p58Rd11 - p26Rd12 + pro26Rd11 >= 0 
p27Rd12 - p18Rd11 - p58Rd11 - p26Rd12 + pro26Rd11 >= -2 
p18Rd11 - p59Rd11 - p58Rd11 - p26Rd12 + pro26Rd11 >= -2 
p58Rd11 - p59Rd11 - p18Rd11 - p26Rd12 + pro26Rd11 >= -2 
p26Rd12 - p59Rd11 - p18Rd11 - p58Rd11 + pro26Rd11 >= -2 
p60Rd11 - p28Rd12 + pro27Rd11 >= 0 
p20Rd11 - p60Rd11 + pro27Rd11 >= 0 
p28Rd12 - p20Rd11 + pro27Rd11 >= 0 
p20Rd11 + p60Rd11 + p28Rd12 + pro27Rd11 <= 3 
p20Rd11 + p60Rd11 + p28Rd12 - pro27Rd11 >= 0 
p19Rd11 + p59Rd11 + p27Rd12 + pro27Rd11 - p60Rd11 >= 0 
p60Rd11 + p19Rd11 - p59Rd11 + p27Rd12 + pro27Rd11 >= 0 
p60Rd11 - p19Rd11 + p59Rd11 + p27Rd12 + pro27Rd11 >= 0 
p20Rd11 + p19Rd11 + p59Rd11 - p27Rd12 + pro27Rd11 >= 0 
p28Rd12 - p19Rd11 - p59Rd11 - p27Rd12 + pro27Rd11 >= -2 
p19Rd11 - p60Rd11 - p59Rd11 - p27Rd12 + pro27Rd11 >= -2 
p59Rd11 - p60Rd11 - p19Rd11 - p27Rd12 + pro27Rd11 >= -2 
p27Rd12 - p60Rd11 - p19Rd11 - p59Rd11 + pro27Rd11 >= -2 
p61Rd11 - p29Rd12 + pro28Rd11 >= 0 
p21Rd11 - p61Rd11 + pro28Rd11 >= 0 
p29Rd12 - p21Rd11 + pro28Rd11 >= 0 
p21Rd11 + p61Rd11 + p29Rd12 + pro28Rd11 <= 3 
p21Rd11 + p61Rd11 + p29Rd12 - pro28Rd11 >= 0 
p20Rd11 + p60Rd11 + p28Rd12 + pro28Rd11 - p61Rd11 >= 0 
p61Rd11 + p20Rd11 - p60Rd11 + p28Rd12 + pro28Rd11 >= 0 
p61Rd11 - p20Rd11 + p60Rd11 + p28Rd12 + pro28Rd11 >= 0 
p21Rd11 + p20Rd11 + p60Rd11 - p28Rd12 + pro28Rd11 >= 0 
p29Rd12 - p20Rd11 - p60Rd11 - p28Rd12 + pro28Rd11 >= -2 
p20Rd11 - p61Rd11 - p60Rd11 - p28Rd12 + pro28Rd11 >= -2 
p60Rd11 - p61Rd11 - p20Rd11 - p28Rd12 + pro28Rd11 >= -2 
p28Rd12 - p61Rd11 - p20Rd11 - p60Rd11 + pro28Rd11 >= -2 
p62Rd11 - p30Rd12 + pro29Rd11 >= 0 
p22Rd11 - p62Rd11 + pro29Rd11 >= 0 
p30Rd12 - p22Rd11 + pro29Rd11 >= 0 
p22Rd11 + p62Rd11 + p30Rd12 + pro29Rd11 <= 3 
p22Rd11 + p62Rd11 + p30Rd12 - pro29Rd11 >= 0 
p21Rd11 + p61Rd11 + p29Rd12 + pro29Rd11 - p62Rd11 >= 0 
p62Rd11 + p21Rd11 - p61Rd11 + p29Rd12 + pro29Rd11 >= 0 
p62Rd11 - p21Rd11 + p61Rd11 + p29Rd12 + pro29Rd11 >= 0 
p22Rd11 + p21Rd11 + p61Rd11 - p29Rd12 + pro29Rd11 >= 0 
p30Rd12 - p21Rd11 - p61Rd11 - p29Rd12 + pro29Rd11 >= -2 
p21Rd11 - p62Rd11 - p61Rd11 - p29Rd12 + pro29Rd11 >= -2 
p61Rd11 - p62Rd11 - p21Rd11 - p29Rd12 + pro29Rd11 >= -2 
p29Rd12 - p62Rd11 - p21Rd11 - p61Rd11 + pro29Rd11 >= -2 
p63Rd11 - p31Rd12 + pro30Rd11 >= 0 
p23Rd11 - p63Rd11 + pro30Rd11 >= 0 
p31Rd12 - p23Rd11 + pro30Rd11 >= 0 
p23Rd11 + p63Rd11 + p31Rd12 + pro30Rd11 <= 3 
p23Rd11 + p63Rd11 + p31Rd12 - pro30Rd11 >= 0 
p22Rd11 + p62Rd11 + p30Rd12 + pro30Rd11 - p63Rd11 >= 0 
p63Rd11 + p22Rd11 - p62Rd11 + p30Rd12 + pro30Rd11 >= 0 
p63Rd11 - p22Rd11 + p62Rd11 + p30Rd12 + pro30Rd11 >= 0 
p23Rd11 + p22Rd11 + p62Rd11 - p30Rd12 + pro30Rd11 >= 0 
p31Rd12 - p22Rd11 - p62Rd11 - p30Rd12 + pro30Rd11 >= -2 
p22Rd11 - p63Rd11 - p62Rd11 - p30Rd12 + pro30Rd11 >= -2 
p62Rd11 - p63Rd11 - p22Rd11 - p30Rd12 + pro30Rd11 >= -2 
p30Rd12 - p63Rd11 - p22Rd11 - p62Rd11 + pro30Rd11 >= -2 
p23Rd11 + p63Rd11 + p31Rd12 <= 2 
p23Rd11 + p63Rd11 + p31Rd12 - 2 temp11 >= 0 
temp11 - p23Rd11 >= 0 
temp11 - p63Rd11 >= 0 
temp11 - p31Rd12 >= 0 
p4 = 1
p0 = 0
p1 = 0
p2 = 0
p3 = 0
p5 = 0
p6 = 0
p7 = 0
p8 = 0
p9 = 0
p10 = 0
p11 = 0
p12 = 0
p13 = 0
p14 = 0
p15 = 0
p16 = 0
p17 = 0
p18 = 0
p19 = 0
p20 = 0
p21 = 0
p22 = 0
p23 = 0
p24 = 0
p25 = 0
p26 = 0
p27 = 0
p28 = 0
p29 = 0
p30 = 0
p31 = 0
p32 = 0
p33 = 0
p34 = 0
p35 = 0
p36 = 0
p37 = 0
p38 = 0
p39 = 0
p40 = 0
p41 = 0
p42 = 0
p43 = 0
p44 = 0
p45 = 0
p46 = 0
p47 = 0
p48 = 0
p49 = 0
p50 = 0
p51 = 0
p52 = 0
p53 = 0
p54 = 0
p55 = 0
p56 = 0
p57 = 0
p58 = 0
p59 = 0
p60 = 0
p61 = 0
p62 = 0
p63 = 0


Binary
p50Rd10
pro4Rd8
pro25Rd7
p0Rd7
p43Rd12
pro8Rd7
p27
pro16Rd1
p28Rd8
p43Rd10
p28Rd12
p5
pro11Rd10
pro11Rd9
p37Rd4
p7Rd7
pro13Rd10
p35Rd2
p9Rd3
pro4Rd11
p63Rd8
p61Rd1
pro20Rd11
p58Rd2
p40Rd11
pro27Rd4
p32Rd1
pro4Rd3
p9Rd2
p44Rd2
p38Rd7
p10Rd5
p33Rd4
p36Rd3
p37Rd7
p22Rd4
p41Rd11
pro17Rd3
p39Rd11
p25Rd1
pro24Rd9
p2
pro10Rd6
p15Rd10
p4
p7Rd6
temp7
p54Rd1
p41Rd6
pro10Rd3
pro16Rd6
p52Rd12
p42Rd4
pro17Rd1
p30Rd10
pro0Rd5
p0Rd9
p24
pro24Rd10
pro15Rd1
pro20Rd8
p1Rd1
p51Rd10
pro30Rd9
p0Rd5
=
p13Rd11
pro5Rd0
p27Rd3
p35Rd11
pro16Rd7
pro4Rd4
p34Rd11
pro22Rd4
p35Rd10
p10Rd2
p11Rd3
p61Rd10
p19Rd7
p27Rd10
pro29Rd4
p36Rd6
pro7Rd7
p4Rd4
pro9Rd10
p3Rd3
p19Rd1
p57Rd10
p63Rd10
p28
p30Rd9
p29Rd8
p28Rd5
p45Rd2
pro9Rd5
p0Rd10
pro8Rd5
p5Rd7
p8Rd5
p42Rd6
p19Rd11
p34Rd1
p52
p25Rd12
p32Rd3
p52Rd5
p49
pro22Rd5
p5Rd2
p25Rd3
pro16Rd3
p47Rd12
pro2Rd4
p39Rd6
pro28Rd1
p38Rd3
p59Rd2
p15Rd11
p9Rd8
p59Rd8
p1Rd2
p60Rd7
p34Rd9
p24Rd1
p3Rd11
pro14Rd6
p42Rd11
p55Rd6
p47
p11Rd5
p54
temp2
p1Rd8
p35Rd12
p16Rd7
p52Rd7
pro24Rd2
pro2Rd10
pro12Rd0
p19Rd12
p32Rd12
p20
p59Rd1
p46Rd9
p51Rd5
pro12Rd11
pro16Rd0
p48Rd11
p18Rd11
p26Rd7
p63Rd6
p61Rd12
p21Rd5
p26Rd6
p53Rd11
p53Rd7
p31Rd10
p21Rd2
pro16Rd11
pro3Rd5
p8Rd7
pro22Rd11
pro8Rd8
p49Rd11
p50Rd3
p40Rd2
p43Rd5
p35Rd5
p20Rd6
p48Rd10
p23Rd5
pro0Rd7
p55Rd12
pro9Rd8
pro23Rd0
pro28Rd9
p49Rd2
pro16Rd9
pro21Rd2
pro9Rd11
pro12Rd3
p60Rd2
p13Rd7
p58Rd1
p24Rd8
p14Rd5
p56Rd6
p44Rd9
p60Rd12
pro15Rd3
p50Rd6
p50Rd12
p33Rd11
p23Rd2
p5Rd9
pro17Rd4
pro30Rd10
p45Rd11
pro20Rd1
p13
p47Rd10
p19
pro21Rd6
p57
pro21Rd4
pro3Rd3
p30Rd7
pro11Rd5
p28Rd4
p42Rd5
p3Rd6
pro21Rd5
p10Rd11
pro27Rd2
p12Rd6
p21Rd4
p57Rd2
p51Rd12
p14
p35Rd8
p59
p39Rd8
p11Rd12
p40Rd5
p51Rd7
temp8
pro6Rd2
p18Rd2
pro28Rd7
p56Rd8
p25Rd10
p59Rd12
p13Rd12
p29Rd10
p39Rd3
p58Rd11
p53Rd1
p8Rd6
p1Rd7
p13Rd1
pro14Rd7
p30Rd8
pro25Rd8
p62Rd11
pro3Rd8
pro22Rd2
p40Rd3
p58Rd3
pro2Rd5
p49Rd10
pro22Rd0
pro21Rd8
pro14Rd8
p54Rd3
p0Rd11
p37Rd5
p57Rd11
p25Rd6
p42Rd7
pro16Rd10
p28Rd7
p2Rd4
pro18Rd8
pro29Rd10
p54Rd5
pro16Rd8
p62
p40Rd7
p46Rd10
p62Rd7
p6Rd3
p24Rd2
p19Rd2
pro25Rd4
p1Rd5
p0Rd6
p35Rd7
p44Rd3
p60
p38Rd4
p36Rd4
p45Rd5
p47Rd3
p15Rd7
p62Rd12
p29Rd11
pro9Rd9
pro9Rd2
p62Rd6
p45Rd12
p18Rd12
p62Rd8
p8Rd1
p1Rd11
p27Rd4
p27Rd7
p33
pro2Rd2
pro1Rd5
p16Rd10
p3Rd1
pro29Rd8
p51Rd3
p32Rd6
p58
pro14Rd9
p36Rd7
pro15Rd2
p53Rd12
pro17Rd2
p60Rd4
p23Rd6
pro12Rd8
p63Rd12
pro7Rd1
p32Rd8
pro28Rd2
p11Rd11
pro5Rd5
p40Rd8
p30Rd6
pro28Rd4
p25Rd2
p38Rd11
p18
p31Rd11
p40Rd10
pro0Rd9
pro4Rd9
pro5Rd7
p54Rd9
p36Rd9
p59Rd10
p60Rd11
p48Rd3
pro23Rd1
p4Rd10
p22Rd7
pro18Rd2
p45Rd8
pro16Rd2
p45Rd6
p61Rd5
p62Rd10
p46
pro7Rd0
p53Rd2
p17Rd10
p63Rd11
p54Rd7
p17
p46Rd12
p12Rd8
pro19Rd8
p18Rd3
p30Rd5
p13Rd9
p37Rd11
p58Rd8
pro20Rd2
p29Rd5
p51Rd11
p57Rd8
p2Rd5
p58Rd5
p12Rd7
pro6Rd9
pro23Rd10
p5Rd11
p34Rd2
p49Rd3
p21Rd1
p44Rd10
pro12Rd10
p30
p61Rd6
pro19Rd5
p4Rd7
p43Rd7
pro6Rd4
p47Rd1
p55Rd1
pro2Rd8
pro15Rd8
p57Rd1
p1
pro29Rd1
p35Rd6
p42Rd12
pro17Rd0
p21
p6Rd6
p0Rd8
p39Rd9
p25
pro28Rd8
p54Rd6
p38Rd10
p9Rd4
p54Rd11
pro21Rd11
pro15Rd9
pro13Rd2
p57Rd7
p49Rd7
pro14Rd11
pro17Rd8
p61Rd7
p15Rd4
p2Rd2
p11Rd4
pro19Rd10
p35Rd1
pro0Rd0
p2Rd7
p25Rd8
pro28Rd11
pro15Rd7
p25Rd4
p43Rd8
pro29Rd6
pro6Rd0
p32Rd5
pro19Rd0
pro1Rd4
p53Rd8
p32
pro24Rd6
p3Rd10
pro21Rd0
pro5Rd4
pro4Rd1
p7Rd2
p30Rd12
p23
p6Rd10
p43Rd11
pro3Rd10
p2Rd3
p7Rd9
p41Rd7
p14Rd1
p5Rd6
p3Rd2
p26
p46Rd8
p0Rd1
p4Rd9
p61Rd9
p37Rd12
pro21Rd7
p17Rd7
p40Rd1
p20Rd3
p50Rd4
p2Rd6
p0Rd3
pro24Rd7
p32Rd11
pro27Rd10
pro20Rd3
p4Rd5
pro26Rd2
p16Rd3
pro13Rd3
p7Rd4
p44Rd5
pro18Rd3
p2Rd9
p5Rd10
p60Rd1
p48Rd2
pro12Rd2
p12Rd12
pro6Rd10
p45Rd9
p51Rd1
pro24Rd5
p53Rd10
p36Rd8
p35Rd3
pro24Rd3
p56Rd7
p9
pro0Rd6
pro3Rd7
p45Rd1
p48Rd12
pro2Rd11
p36
p50
pro29Rd5
p15Rd9
p37Rd10
p14Rd4
p34
p21Rd12
p44Rd7
pro6Rd6
pro25Rd10
p46Rd6
p12
p25Rd9
p56Rd2
p47Rd5
p29Rd7
pro4Rd7
p11Rd2
p35Rd9
p12Rd10
p30Rd1
pro27Rd5
pro29Rd7
p34Rd8
pro7Rd9
pro8Rd11
p18Rd10
pro2Rd1
p36Rd5
pro15Rd4
p8Rd2
p2Rd11
p39Rd7
pro25Rd2
p14Rd9
p25Rd7
p56Rd9
p50Rd5
p41Rd2
p45Rd10
p62Rd1
p30Rd2
pro9Rd0
p38Rd9
pro2Rd3
pro11Rd11
p6Rd9
p54Rd4
pro30Rd7
pro14Rd2
p25Rd5
p56Rd10
p3Rd5
p50Rd9
pro29Rd11
p48Rd9
pro11Rd2
p27Rd8
p9Rd5
p48Rd8
p49Rd9
p21Rd9
p48Rd7
pro17Rd5
p63Rd1
p13Rd2
pro8Rd1
p45Rd7
p62Rd9
pro6Rd1
p5Rd12
pro15Rd5
pro1Rd11
pro26Rd6
p4Rd6
p20Rd4
p23Rd10
temp9
p56Rd12
p0
p61Rd11
p41
pro6Rd5
p26Rd3
pro10Rd5
p18Rd8
p12Rd4
pro8Rd0
p12Rd1
pro5Rd10
p22Rd3
p26Rd12
p31Rd8
p47Rd7
p62Rd4
p31Rd7
pro16Rd4
p16Rd5
pro11Rd7
p7Rd8
pro27Rd6
p63
p29Rd1
p23Rd12
p13Rd4
p34Rd7
p39
pro12Rd1
p14Rd12
p13Rd10
pro20Rd9
p8Rd12
p55Rd7
temp6
pro22Rd3
p47Rd11
p57Rd12
pro23Rd6
p19Rd8
p50Rd7
pro9Rd4
p38Rd12
pro22Rd9
p9Rd12
p8
pro2Rd6
p3Rd12
p60Rd6
p29Rd6
pro0Rd10
p12Rd11
pro28Rd0
p10Rd4
p22Rd8
p39Rd10
p13Rd6
pro21Rd9
pro10Rd11
p33Rd1
pro0Rd3
pro27Rd1
p41Rd10
p22Rd1
p18Rd4
p52Rd6
temp1
p44Rd8
p25Rd11
pro23Rd7
pro10Rd2
pro27Rd0
p0Rd4
p56Rd11
p33Rd7
p26Rd9
p14Rd10
pro20Rd5
p10Rd10
pro3Rd6
p6Rd2
p42Rd3
p16Rd11
p33Rd10
pro18Rd0
p28Rd10
p60Rd3
p28Rd1
pro4Rd5
p21Rd8
pro10Rd8
p1Rd10
p14Rd6
p54Rd2
pro0Rd8
p4Rd2
p18Rd6
pro24Rd11
p33Rd2
p16Rd1
pro22Rd8
p22Rd11
pro15Rd10
p23Rd9
pro8Rd2
temp0
p3
p63Rd2
pro1Rd7
p0Rd2
p31Rd1
p42Rd8
p15Rd5
p46Rd3
p52Rd2
p19Rd5
pro17Rd11
pro11Rd0
pro15Rd0
p8Rd4
p24Rd4
pro23Rd2
temp11
p8Rd8
p8Rd10
p14Rd2
p47Rd9
p42Rd9
p19Rd3
pro2Rd7
p63Rd4
p58Rd10
pro25Rd0
p9Rd11
p41Rd8
p33Rd9
p60Rd8
p9Rd10
pro3Rd2
pro8Rd9
pro28Rd10
p5Rd1
p41Rd9
p26Rd11
p40
p58Rd12
p40Rd9
p47Rd4
p14Rd7
p55Rd3
pro28Rd5
pro26Rd8
p31Rd3
pro21Rd1
p61Rd8
p29Rd4
p38Rd2
pro25Rd5
pro5Rd3
p49Rd1
pro20Rd4
p9Rd1
p24Rd3
p31Rd6
pro18Rd6
p16
p15Rd1
p40Rd4
p18Rd1
p59Rd5
pro6Rd11
p17Rd9
p16Rd6
pro30Rd1
p15Rd3
p37Rd3
p35
p48Rd4
p8Rd3
p43Rd2
pro0Rd11
p21Rd10
p63Rd9
p10Rd3
pro15Rd6
pro1Rd9
p55Rd5
pro17Rd9
pro15Rd11
p3Rd7
p13Rd8
p2Rd8
pro21Rd3
pro26Rd5
p43Rd9
pro7Rd3
p0Rd12
pro8Rd6
p21Rd11
p27Rd11
pro10Rd10
p1Rd9
p3Rd4
pro14Rd1
pro8Rd4
pro3Rd0
pro18Rd4
p61
p11Rd8
pro1Rd1
p15Rd2
p20Rd10
p6Rd5
p30Rd11
pro19Rd2
p56
pro10Rd0
pro16Rd5
p24Rd9
p42
p15Rd12
pro14Rd3
p26Rd1
pro3Rd4
pro13Rd7
pro7Rd2
p6
p55Rd8
pro4Rd2
pro23Rd3
p15Rd6
p47Rd2
p23Rd7
p51Rd8
p63Rd7
p11Rd9
pro27Rd9
pro7Rd6
p31Rd9
pro3Rd11
p17Rd5
p30Rd3
p44Rd6
p10Rd9
p26Rd4
p16Rd9
p54Rd10
pro27Rd11
p37
p41Rd1
p27Rd1
pro3Rd1
p17Rd4
pro0Rd4
p10Rd12
pro20Rd0
p40Rd12
p22
p32Rd2
p4Rd3
p55Rd4
pro24Rd1
p42Rd10
p1Rd12
p44Rd12
p31Rd4
p10Rd7
pro22Rd10
p55
pro18Rd11
p15Rd8
p51Rd2
p5Rd8
pro12Rd4
p43
p58Rd4
p46Rd4
pro8Rd10
p11Rd1
p52Rd9
pro12Rd7
p33Rd5
p23Rd4
p59Rd3
p11Rd10
p51
pro26Rd11
p9Rd6
pro14Rd5
p38Rd5
p22Rd12
p17Rd1
pro26Rd1
p12Rd2
pro26Rd7
pro20Rd6
p51Rd9
pro19Rd9
p19Rd9
p13Rd3
p37Rd9
p32Rd4
p31
p27Rd5
p52Rd4
pro26Rd0
p49Rd5
pro30Rd0
p58Rd9
p46Rd11
pro18Rd9
p55Rd9
pro11Rd4
pro23Rd11
p61Rd4
pro13Rd0
p29Rd3
p3Rd9
p30Rd4
pro26Rd4
p41Rd12
p53Rd3
p37Rd6
p49Rd6
p58Rd6
p49Rd8
pro17Rd10
pro1Rd2
p11Rd7
p22Rd5
p22Rd2
p41Rd3
p6Rd7
temp5
p6Rd12
p7Rd10
p39Rd12
pro10Rd1
p57Rd6
p44Rd11
pro27Rd3
p56Rd5
p12Rd9
p59Rd4
p16Rd4
p46Rd5
p28Rd2
p20Rd9
p29Rd9
pro25Rd6
pro5Rd9
p7Rd12
p48Rd5
p59Rd6
pro8Rd3
pro17Rd6
p4Rd12
p33Rd12
pro4Rd6
p38Rd6
p32Rd9
p10Rd8
p46Rd2
pro23Rd9
p27Rd12
pro23Rd8
pro5Rd6
p55Rd10
p20Rd1
p21Rd7
p56Rd1
pro23Rd5
p52Rd8
p23Rd11
p11
p17Rd12
p33Rd6
p28Rd3
p33Rd3
p41Rd5
p34Rd6
pro14Rd10
pro24Rd4
pro7Rd8
p16Rd2
p24Rd5
p28Rd9
p5Rd3
pro26Rd3
p22Rd9
p10
p34Rd12
p23Rd3
p43Rd3
pro10Rd7
p62Rd2
pro5Rd2
p3Rd8
pro29Rd2
temp4
p59Rd11
temp10
pro2Rd9
pro11Rd6
pro1Rd0
p1Rd6
p14Rd8
pro19Rd4
pro22Rd6
p36Rd11
p33Rd8
pro4Rd0
p53Rd9
pro19Rd6
pro17Rd7
p47Rd6
pro29Rd3
pro26Rd9
pro24Rd8
p1Rd3
pro25Rd11
pro7Rd4
pro30Rd11
p24Rd11
pro5Rd1
pro11Rd1
p26Rd8
p12Rd5
p37Rd8
p17Rd8
p26Rd5
p44Rd4
pro18Rd10
pro25Rd9
pro13Rd4
p50Rd8
p63Rd5
pro19Rd3
pro28Rd3
pro10Rd4
pro23Rd4
p2Rd10
pro6Rd8
pro18Rd5
p42Rd1
p63Rd3
p17Rd11
p58Rd7
p54Rd12
pro22Rd1
p60Rd10
p18Rd5
p2Rd1
p57Rd5
p57Rd4
p21Rd3
p40Rd6
p38Rd8
p24Rd7
pro14Rd4
p7
p60Rd9
p10Rd6
pro18Rd7
p6Rd4
pro11Rd3
p56Rd4
p27Rd6
p37Rd2
p39Rd4
p43Rd1
p34Rd10
pro3Rd9
p49Rd4
p38
pro19Rd1
p37Rd1
p45Rd4
p1Rd4
pro30Rd2
p18Rd7
pro30Rd5
pro1Rd10
p43Rd6
p14Rd11
pro28Rd6
p48Rd6
p19Rd6
p17Rd3
pro30Rd3
p28Rd6
p60Rd5
pro9Rd3
p34Rd5
p57Rd3
pro6Rd3
p19Rd10
p16Rd8
p5Rd5
pro29Rd0
p50Rd2
pro25Rd3
pro1Rd8
p20Rd11
p62Rd3
pro27Rd7
p45
pro12Rd6
pro12Rd9
p34Rd3
p36Rd2
pro13Rd1
p52Rd3
pro9Rd1
pro1Rd3
p48
p48Rd1
p50Rd1
pro24Rd0
p55Rd2
p45Rd3
p31Rd12
p4Rd1
p18Rd9
p6Rd1
p46Rd7
p44Rd1
pro6Rd7
pro10Rd9
p59Rd9
p53
p5Rd4
p29Rd2
pro22Rd7
p7Rd5
p24Rd10
pro13Rd5
p8Rd9
p4Rd11
p57Rd9
p20Rd12
pro12Rd5
p20Rd5
p16Rd12
p46Rd1
p32Rd10
p36Rd1
p50Rd11
p7Rd1
pro30Rd6
p44
p26Rd2
p29
p13Rd5
temp3
p21Rd6
p47Rd8
p22Rd10
p20Rd7
p8Rd11
pro19Rd7
pro9Rd7
p56Rd3
pro20Rd10
p38Rd1
pro27Rd8
pro13Rd9
p39Rd1
pro7Rd5
p7Rd11
p20Rd8
pro1Rd6
pro18Rd1
pro25Rd1
p24Rd6
pro13Rd6
p23Rd1
pro0Rd1
p52Rd11
p12Rd3
p7Rd3
pro7Rd11
p9Rd9
p52Rd1
p36Rd10
p27Rd9
pro29Rd9
p31Rd5
pro13Rd11
p53Rd4
p32Rd7
p39Rd2
p17Rd6
p23Rd8
pro11Rd8
pro2Rd0
p10Rd1
pro7Rd10
p55Rd11
p6Rd11
p22Rd6
p43Rd4
pro26Rd10
p61Rd2
p26Rd10
p31Rd2
p4Rd8
p9Rd7
pro30Rd4
p28Rd11
p53Rd5
p6Rd8
pro21Rd10
p52Rd10
pro13Rd8
p51Rd4
pro4Rd10
p39Rd5
p35Rd4
p42Rd2
p24Rd12
pro14Rd0
p51Rd6
p20Rd2
p49Rd12
pro19Rd11
p11Rd6
p17Rd2
p53Rd6
p54Rd8
p2Rd12
p29Rd12
p41Rd4
pro30Rd8
p27Rd2
p61Rd3
pro0Rd2
pro9Rd6
p36Rd12
pro5Rd11
pro5Rd8
p19Rd4
pro20Rd7
p59Rd7
p15
p34Rd4
p62Rd5
p14Rd3
