c Speck32 XOR-differential SAT CNF
c word_bits=16 alpha=7 beta=2rounds=5
c in_dx=0x0001 in_dy=0x0000
c out_dx=0x0040 out_dy=0x0000
c max_weight=13
c num_vars=1317 num_clauses=3615
p cnf 1317 3615
1 0
-2 0
-3 0
-4 0
-5 0
-6 0
-7 0
-8 0
-9 0
-10 0
-11 0
-12 0
-13 0
-14 0
-15 0
-16 0
-17 0
-18 0
-19 0
-20 0
-21 0
-22 0
-23 0
-24 0
-25 0
-26 0
-27 0
-28 0
-29 0
-30 0
-31 0
-32 0
-161 0
-162 0
-163 0
-164 0
-165 0
-166 0
167 0
-168 0
-169 0
-170 0
-171 0
-172 0
-173 0
-174 0
-175 0
-176 0
-177 0
-178 0
-179 0
-180 0
-181 0
-182 0
-183 0
-184 0
-185 0
-186 0
-187 0
-188 0
-189 0
-190 0
-191 0
-192 0
8 17 -33 0
8 -17 33 0
-8 17 33 0
-8 -17 -33 0
8 17 33 193 0
-8 -17 -33 193 0
-193 -8 17 0
-193 8 -17 0
-193 -8 33 0
-193 8 -33 0
-193 9 18 34 -17 0
-193 9 18 -34 17 0
-193 9 -18 34 17 0
-193 9 -18 -34 -17 0
-193 -9 18 34 17 0
-193 -9 18 -34 -17 0
-193 -9 -18 34 -17 0
-193 -9 -18 -34 17 0
194 193 0
-194 -193 0
9 18 34 195 0
-9 -18 -34 195 0
-195 -9 18 0
-195 9 -18 0
-195 -9 34 0
-195 9 -34 0
-195 10 19 35 -18 0
-195 10 19 -35 18 0
-195 10 -19 35 18 0
-195 10 -19 -35 -18 0
-195 -10 19 35 18 0
-195 -10 19 -35 -18 0
-195 -10 -19 35 -18 0
-195 -10 -19 -35 18 0
196 195 0
-196 -195 0
10 19 35 197 0
-10 -19 -35 197 0
-197 -10 19 0
-197 10 -19 0
-197 -10 35 0
-197 10 -35 0
-197 11 20 36 -19 0
-197 11 20 -36 19 0
-197 11 -20 36 19 0
-197 11 -20 -36 -19 0
-197 -11 20 36 19 0
-197 -11 20 -36 -19 0
-197 -11 -20 36 -19 0
-197 -11 -20 -36 19 0
198 197 0
-198 -197 0
11 20 36 199 0
-11 -20 -36 199 0
-199 -11 20 0
-199 11 -20 0
-199 -11 36 0
-199 11 -36 0
-199 12 21 37 -20 0
-199 12 21 -37 20 0
-199 12 -21 37 20 0
-199 12 -21 -37 -20 0
-199 -12 21 37 20 0
-199 -12 21 -37 -20 0
-199 -12 -21 37 -20 0
-199 -12 -21 -37 20 0
200 199 0
-200 -199 0
12 21 37 201 0
-12 -21 -37 201 0
-201 -12 21 0
-201 12 -21 0
-201 -12 37 0
-201 12 -37 0
-201 13 22 38 -21 0
-201 13 22 -38 21 0
-201 13 -22 38 21 0
-201 13 -22 -38 -21 0
-201 -13 22 38 21 0
-201 -13 22 -38 -21 0
-201 -13 -22 38 -21 0
-201 -13 -22 -38 21 0
202 201 0
-202 -201 0
13 22 38 203 0
-13 -22 -38 203 0
-203 -13 22 0
-203 13 -22 0
-203 -13 38 0
-203 13 -38 0
-203 14 23 39 -22 0
-203 14 23 -39 22 0
-203 14 -23 39 22 0
-203 14 -23 -39 -22 0
-203 -14 23 39 22 0
-203 -14 23 -39 -22 0
-203 -14 -23 39 -22 0
-203 -14 -23 -39 22 0
204 203 0
-204 -203 0
14 23 39 205 0
-14 -23 -39 205 0
-205 -14 23 0
-205 14 -23 0
-205 -14 39 0
-205 14 -39 0
-205 15 24 40 -23 0
-205 15 24 -40 23 0
-205 15 -24 40 23 0
-205 15 -24 -40 -23 0
-205 -15 24 40 23 0
-205 -15 24 -40 -23 0
-205 -15 -24 40 -23 0
-205 -15 -24 -40 23 0
206 205 0
-206 -205 0
15 24 40 207 0
-15 -24 -40 207 0
-207 -15 24 0
-207 15 -24 0
-207 -15 40 0
-207 15 -40 0
-207 16 25 41 -24 0
-207 16 25 -41 24 0
-207 16 -25 41 24 0
-207 16 -25 -41 -24 0
-207 -16 25 41 24 0
-207 -16 25 -41 -24 0
-207 -16 -25 41 -24 0
-207 -16 -25 -41 24 0
208 207 0
-208 -207 0
16 25 41 209 0
-16 -25 -41 209 0
-209 -16 25 0
-209 16 -25 0
-209 -16 41 0
-209 16 -41 0
-209 1 26 42 -25 0
-209 1 26 -42 25 0
-209 1 -26 42 25 0
-209 1 -26 -42 -25 0
-209 -1 26 42 25 0
-209 -1 26 -42 -25 0
-209 -1 -26 42 -25 0
-209 -1 -26 -42 25 0
210 209 0
-210 -209 0
1 26 42 211 0
-1 -26 -42 211 0
-211 -1 26 0
-211 1 -26 0
-211 -1 42 0
-211 1 -42 0
-211 2 27 43 -26 0
-211 2 27 -43 26 0
-211 2 -27 43 26 0
-211 2 -27 -43 -26 0
-211 -2 27 43 26 0
-211 -2 27 -43 -26 0
-211 -2 -27 43 -26 0
-211 -2 -27 -43 26 0
212 211 0
-212 -211 0
2 27 43 213 0
-2 -27 -43 213 0
-213 -2 27 0
-213 2 -27 0
-213 -2 43 0
-213 2 -43 0
-213 3 28 44 -27 0
-213 3 28 -44 27 0
-213 3 -28 44 27 0
-213 3 -28 -44 -27 0
-213 -3 28 44 27 0
-213 -3 28 -44 -27 0
-213 -3 -28 44 -27 0
-213 -3 -28 -44 27 0
214 213 0
-214 -213 0
3 28 44 215 0
-3 -28 -44 215 0
-215 -3 28 0
-215 3 -28 0
-215 -3 44 0
-215 3 -44 0
-215 4 29 45 -28 0
-215 4 29 -45 28 0
-215 4 -29 45 28 0
-215 4 -29 -45 -28 0
-215 -4 29 45 28 0
-215 -4 29 -45 -28 0
-215 -4 -29 45 -28 0
-215 -4 -29 -45 28 0
216 215 0
-216 -215 0
4 29 45 217 0
-4 -29 -45 217 0
-217 -4 29 0
-217 4 -29 0
-217 -4 45 0
-217 4 -45 0
-217 5 30 46 -29 0
-217 5 30 -46 29 0
-217 5 -30 46 29 0
-217 5 -30 -46 -29 0
-217 -5 30 46 29 0
-217 -5 30 -46 -29 0
-217 -5 -30 46 -29 0
-217 -5 -30 -46 29 0
218 217 0
-218 -217 0
5 30 46 219 0
-5 -30 -46 219 0
-219 -5 30 0
-219 5 -30 0
-219 -5 46 0
-219 5 -46 0
-219 6 31 47 -30 0
-219 6 31 -47 30 0
-219 6 -31 47 30 0
-219 6 -31 -47 -30 0
-219 -6 31 47 30 0
-219 -6 31 -47 -30 0
-219 -6 -31 47 -30 0
-219 -6 -31 -47 30 0
220 219 0
-220 -219 0
6 31 47 221 0
-6 -31 -47 221 0
-221 -6 31 0
-221 6 -31 0
-221 -6 47 0
-221 6 -47 0
-221 7 32 48 -31 0
-221 7 32 -48 31 0
-221 7 -32 48 31 0
-221 7 -32 -48 -31 0
-221 -7 32 48 31 0
-221 -7 32 -48 -31 0
-221 -7 -32 48 -31 0
-221 -7 -32 -48 31 0
222 221 0
-222 -221 0
31 33 -49 0
31 -33 49 0
-31 33 49 0
-31 -33 -49 0
32 34 -50 0
32 -34 50 0
-32 34 50 0
-32 -34 -50 0
17 35 -51 0
17 -35 51 0
-17 35 51 0
-17 -35 -51 0
18 36 -52 0
18 -36 52 0
-18 36 52 0
-18 -36 -52 0
19 37 -53 0
19 -37 53 0
-19 37 53 0
-19 -37 -53 0
20 38 -54 0
20 -38 54 0
-20 38 54 0
-20 -38 -54 0
21 39 -55 0
21 -39 55 0
-21 39 55 0
-21 -39 -55 0
22 40 -56 0
22 -40 56 0
-22 40 56 0
-22 -40 -56 0
23 41 -57 0
23 -41 57 0
-23 41 57 0
-23 -41 -57 0
24 42 -58 0
24 -42 58 0
-24 42 58 0
-24 -42 -58 0
25 43 -59 0
25 -43 59 0
-25 43 59 0
-25 -43 -59 0
26 44 -60 0
26 -44 60 0
-26 44 60 0
-26 -44 -60 0
27 45 -61 0
27 -45 61 0
-27 45 61 0
-27 -45 -61 0
28 46 -62 0
28 -46 62 0
-28 46 62 0
-28 -46 -62 0
29 47 -63 0
29 -47 63 0
-29 47 63 0
-29 -47 -63 0
30 48 -64 0
30 -48 64 0
-30 48 64 0
-30 -48 -64 0
40 49 -65 0
40 -49 65 0
-40 49 65 0
-40 -49 -65 0
40 49 65 223 0
-40 -49 -65 223 0
-223 -40 49 0
-223 40 -49 0
-223 -40 65 0
-223 40 -65 0
-223 41 50 66 -49 0
-223 41 50 -66 49 0
-223 41 -50 66 49 0
-223 41 -50 -66 -49 0
-223 -41 50 66 49 0
-223 -41 50 -66 -49 0
-223 -41 -50 66 -49 0
-223 -41 -50 -66 49 0
224 223 0
-224 -223 0
41 50 66 225 0
-41 -50 -66 225 0
-225 -41 50 0
-225 41 -50 0
-225 -41 66 0
-225 41 -66 0
-225 42 51 67 -50 0
-225 42 51 -67 50 0
-225 42 -51 67 50 0
-225 42 -51 -67 -50 0
-225 -42 51 67 50 0
-225 -42 51 -67 -50 0
-225 -42 -51 67 -50 0
-225 -42 -51 -67 50 0
226 225 0
-226 -225 0
42 51 67 227 0
-42 -51 -67 227 0
-227 -42 51 0
-227 42 -51 0
-227 -42 67 0
-227 42 -67 0
-227 43 52 68 -51 0
-227 43 52 -68 51 0
-227 43 -52 68 51 0
-227 43 -52 -68 -51 0
-227 -43 52 68 51 0
-227 -43 52 -68 -51 0
-227 -43 -52 68 -51 0
-227 -43 -52 -68 51 0
228 227 0
-228 -227 0
43 52 68 229 0
-43 -52 -68 229 0
-229 -43 52 0
-229 43 -52 0
-229 -43 68 0
-229 43 -68 0
-229 44 53 69 -52 0
-229 44 53 -69 52 0
-229 44 -53 69 52 0
-229 44 -53 -69 -52 0
-229 -44 53 69 52 0
-229 -44 53 -69 -52 0
-229 -44 -53 69 -52 0
-229 -44 -53 -69 52 0
230 229 0
-230 -229 0
44 53 69 231 0
-44 -53 -69 231 0
-231 -44 53 0
-231 44 -53 0
-231 -44 69 0
-231 44 -69 0
-231 45 54 70 -53 0
-231 45 54 -70 53 0
-231 45 -54 70 53 0
-231 45 -54 -70 -53 0
-231 -45 54 70 53 0
-231 -45 54 -70 -53 0
-231 -45 -54 70 -53 0
-231 -45 -54 -70 53 0
232 231 0
-232 -231 0
45 54 70 233 0
-45 -54 -70 233 0
-233 -45 54 0
-233 45 -54 0
-233 -45 70 0
-233 45 -70 0
-233 46 55 71 -54 0
-233 46 55 -71 54 0
-233 46 -55 71 54 0
-233 46 -55 -71 -54 0
-233 -46 55 71 54 0
-233 -46 55 -71 -54 0
-233 -46 -55 71 -54 0
-233 -46 -55 -71 54 0
234 233 0
-234 -233 0
46 55 71 235 0
-46 -55 -71 235 0
-235 -46 55 0
-235 46 -55 0
-235 -46 71 0
-235 46 -71 0
-235 47 56 72 -55 0
-235 47 56 -72 55 0
-235 47 -56 72 55 0
-235 47 -56 -72 -55 0
-235 -47 56 72 55 0
-235 -47 56 -72 -55 0
-235 -47 -56 72 -55 0
-235 -47 -56 -72 55 0
236 235 0
-236 -235 0
47 56 72 237 0
-47 -56 -72 237 0
-237 -47 56 0
-237 47 -56 0
-237 -47 72 0
-237 47 -72 0
-237 48 57 73 -56 0
-237 48 57 -73 56 0
-237 48 -57 73 56 0
-237 48 -57 -73 -56 0
-237 -48 57 73 56 0
-237 -48 57 -73 -56 0
-237 -48 -57 73 -56 0
-237 -48 -57 -73 56 0
238 237 0
-238 -237 0
48 57 73 239 0
-48 -57 -73 239 0
-239 -48 57 0
-239 48 -57 0
-239 -48 73 0
-239 48 -73 0
-239 33 58 74 -57 0
-239 33 58 -74 57 0
-239 33 -58 74 57 0
-239 33 -58 -74 -57 0
-239 -33 58 74 57 0
-239 -33 58 -74 -57 0
-239 -33 -58 74 -57 0
-239 -33 -58 -74 57 0
240 239 0
-240 -239 0
33 58 74 241 0
-33 -58 -74 241 0
-241 -33 58 0
-241 33 -58 0
-241 -33 74 0
-241 33 -74 0
-241 34 59 75 -58 0
-241 34 59 -75 58 0
-241 34 -59 75 58 0
-241 34 -59 -75 -58 0
-241 -34 59 75 58 0
-241 -34 59 -75 -58 0
-241 -34 -59 75 -58 0
-241 -34 -59 -75 58 0
242 241 0
-242 -241 0
34 59 75 243 0
-34 -59 -75 243 0
-243 -34 59 0
-243 34 -59 0
-243 -34 75 0
-243 34 -75 0
-243 35 60 76 -59 0
-243 35 60 -76 59 0
-243 35 -60 76 59 0
-243 35 -60 -76 -59 0
-243 -35 60 76 59 0
-243 -35 60 -76 -59 0
-243 -35 -60 76 -59 0
-243 -35 -60 -76 59 0
244 243 0
-244 -243 0
35 60 76 245 0
-35 -60 -76 245 0
-245 -35 60 0
-245 35 -60 0
-245 -35 76 0
-245 35 -76 0
-245 36 61 77 -60 0
-245 36 61 -77 60 0
-245 36 -61 77 60 0
-245 36 -61 -77 -60 0
-245 -36 61 77 60 0
-245 -36 61 -77 -60 0
-245 -36 -61 77 -60 0
-245 -36 -61 -77 60 0
246 245 0
-246 -245 0
36 61 77 247 0
-36 -61 -77 247 0
-247 -36 61 0
-247 36 -61 0
-247 -36 77 0
-247 36 -77 0
-247 37 62 78 -61 0
-247 37 62 -78 61 0
-247 37 -62 78 61 0
-247 37 -62 -78 -61 0
-247 -37 62 78 61 0
-247 -37 62 -78 -61 0
-247 -37 -62 78 -61 0
-247 -37 -62 -78 61 0
248 247 0
-248 -247 0
37 62 78 249 0
-37 -62 -78 249 0
-249 -37 62 0
-249 37 -62 0
-249 -37 78 0
-249 37 -78 0
-249 38 63 79 -62 0
-249 38 63 -79 62 0
-249 38 -63 79 62 0
-249 38 -63 -79 -62 0
-249 -38 63 79 62 0
-249 -38 63 -79 -62 0
-249 -38 -63 79 -62 0
-249 -38 -63 -79 62 0
250 249 0
-250 -249 0
38 63 79 251 0
-38 -63 -79 251 0
-251 -38 63 0
-251 38 -63 0
-251 -38 79 0
-251 38 -79 0
-251 39 64 80 -63 0
-251 39 64 -80 63 0
-251 39 -64 80 63 0
-251 39 -64 -80 -63 0
-251 -39 64 80 63 0
-251 -39 64 -80 -63 0
-251 -39 -64 80 -63 0
-251 -39 -64 -80 63 0
252 251 0
-252 -251 0
63 65 -81 0
63 -65 81 0
-63 65 81 0
-63 -65 -81 0
64 66 -82 0
64 -66 82 0
-64 66 82 0
-64 -66 -82 0
49 67 -83 0
49 -67 83 0
-49 67 83 0
-49 -67 -83 0
50 68 -84 0
50 -68 84 0
-50 68 84 0
-50 -68 -84 0
51 69 -85 0
51 -69 85 0
-51 69 85 0
-51 -69 -85 0
52 70 -86 0
52 -70 86 0
-52 70 86 0
-52 -70 -86 0
53 71 -87 0
53 -71 87 0
-53 71 87 0
-53 -71 -87 0
54 72 -88 0
54 -72 88 0
-54 72 88 0
-54 -72 -88 0
55 73 -89 0
55 -73 89 0
-55 73 89 0
-55 -73 -89 0
56 74 -90 0
56 -74 90 0
-56 74 90 0
-56 -74 -90 0
57 75 -91 0
57 -75 91 0
-57 75 91 0
-57 -75 -91 0
58 76 -92 0
58 -76 92 0
-58 76 92 0
-58 -76 -92 0
59 77 -93 0
59 -77 93 0
-59 77 93 0
-59 -77 -93 0
60 78 -94 0
60 -78 94 0
-60 78 94 0
-60 -78 -94 0
61 79 -95 0
61 -79 95 0
-61 79 95 0
-61 -79 -95 0
62 80 -96 0
62 -80 96 0
-62 80 96 0
-62 -80 -96 0
72 81 -97 0
72 -81 97 0
-72 81 97 0
-72 -81 -97 0
72 81 97 253 0
-72 -81 -97 253 0
-253 -72 81 0
-253 72 -81 0
-253 -72 97 0
-253 72 -97 0
-253 73 82 98 -81 0
-253 73 82 -98 81 0
-253 73 -82 98 81 0
-253 73 -82 -98 -81 0
-253 -73 82 98 81 0
-253 -73 82 -98 -81 0
-253 -73 -82 98 -81 0
-253 -73 -82 -98 81 0
254 253 0
-254 -253 0
73 82 98 255 0
-73 -82 -98 255 0
-255 -73 82 0
-255 73 -82 0
-255 -73 98 0
-255 73 -98 0
-255 74 83 99 -82 0
-255 74 83 -99 82 0
-255 74 -83 99 82 0
-255 74 -83 -99 -82 0
-255 -74 83 99 82 0
-255 -74 83 -99 -82 0
-255 -74 -83 99 -82 0
-255 -74 -83 -99 82 0
256 255 0
-256 -255 0
74 83 99 257 0
-74 -83 -99 257 0
-257 -74 83 0
-257 74 -83 0
-257 -74 99 0
-257 74 -99 0
-257 75 84 100 -83 0
-257 75 84 -100 83 0
-257 75 -84 100 83 0
-257 75 -84 -100 -83 0
-257 -75 84 100 83 0
-257 -75 84 -100 -83 0
-257 -75 -84 100 -83 0
-257 -75 -84 -100 83 0
258 257 0
-258 -257 0
75 84 100 259 0
-75 -84 -100 259 0
-259 -75 84 0
-259 75 -84 0
-259 -75 100 0
-259 75 -100 0
-259 76 85 101 -84 0
-259 76 85 -101 84 0
-259 76 -85 101 84 0
-259 76 -85 -101 -84 0
-259 -76 85 101 84 0
-259 -76 85 -101 -84 0
-259 -76 -85 101 -84 0
-259 -76 -85 -101 84 0
260 259 0
-260 -259 0
76 85 101 261 0
-76 -85 -101 261 0
-261 -76 85 0
-261 76 -85 0
-261 -76 101 0
-261 76 -101 0
-261 77 86 102 -85 0
-261 77 86 -102 85 0
-261 77 -86 102 85 0
-261 77 -86 -102 -85 0
-261 -77 86 102 85 0
-261 -77 86 -102 -85 0
-261 -77 -86 102 -85 0
-261 -77 -86 -102 85 0
262 261 0
-262 -261 0
77 86 102 263 0
-77 -86 -102 263 0
-263 -77 86 0
-263 77 -86 0
-263 -77 102 0
-263 77 -102 0
-263 78 87 103 -86 0
-263 78 87 -103 86 0
-263 78 -87 103 86 0
-263 78 -87 -103 -86 0
-263 -78 87 103 86 0
-263 -78 87 -103 -86 0
-263 -78 -87 103 -86 0
-263 -78 -87 -103 86 0
264 263 0
-264 -263 0
78 87 103 265 0
-78 -87 -103 265 0
-265 -78 87 0
-265 78 -87 0
-265 -78 103 0
-265 78 -103 0
-265 79 88 104 -87 0
-265 79 88 -104 87 0
-265 79 -88 104 87 0
-265 79 -88 -104 -87 0
-265 -79 88 104 87 0
-265 -79 88 -104 -87 0
-265 -79 -88 104 -87 0
-265 -79 -88 -104 87 0
266 265 0
-266 -265 0
79 88 104 267 0
-79 -88 -104 267 0
-267 -79 88 0
-267 79 -88 0
-267 -79 104 0
-267 79 -104 0
-267 80 89 105 -88 0
-267 80 89 -105 88 0
-267 80 -89 105 88 0
-267 80 -89 -105 -88 0
-267 -80 89 105 88 0
-267 -80 89 -105 -88 0
-267 -80 -89 105 -88 0
-267 -80 -89 -105 88 0
268 267 0
-268 -267 0
80 89 105 269 0
-80 -89 -105 269 0
-269 -80 89 0
-269 80 -89 0
-269 -80 105 0
-269 80 -105 0
-269 65 90 106 -89 0
-269 65 90 -106 89 0
-269 65 -90 106 89 0
-269 65 -90 -106 -89 0
-269 -65 90 106 89 0
-269 -65 90 -106 -89 0
-269 -65 -90 106 -89 0
-269 -65 -90 -106 89 0
270 269 0
-270 -269 0
65 90 106 271 0
-65 -90 -106 271 0
-271 -65 90 0
-271 65 -90 0
-271 -65 106 0
-271 65 -106 0
-271 66 91 107 -90 0
-271 66 91 -107 90 0
-271 66 -91 107 90 0
-271 66 -91 -107 -90 0
-271 -66 91 107 90 0
-271 -66 91 -107 -90 0
-271 -66 -91 107 -90 0
-271 -66 -91 -107 90 0
272 271 0
-272 -271 0
66 91 107 273 0
-66 -91 -107 273 0
-273 -66 91 0
-273 66 -91 0
-273 -66 107 0
-273 66 -107 0
-273 67 92 108 -91 0
-273 67 92 -108 91 0
-273 67 -92 108 91 0
-273 67 -92 -108 -91 0
-273 -67 92 108 91 0
-273 -67 92 -108 -91 0
-273 -67 -92 108 -91 0
-273 -67 -92 -108 91 0
274 273 0
-274 -273 0
67 92 108 275 0
-67 -92 -108 275 0
-275 -67 92 0
-275 67 -92 0
-275 -67 108 0
-275 67 -108 0
-275 68 93 109 -92 0
-275 68 93 -109 92 0
-275 68 -93 109 92 0
-275 68 -93 -109 -92 0
-275 -68 93 109 92 0
-275 -68 93 -109 -92 0
-275 -68 -93 109 -92 0
-275 -68 -93 -109 92 0
276 275 0
-276 -275 0
68 93 109 277 0
-68 -93 -109 277 0
-277 -68 93 0
-277 68 -93 0
-277 -68 109 0
-277 68 -109 0
-277 69 94 110 -93 0
-277 69 94 -110 93 0
-277 69 -94 110 93 0
-277 69 -94 -110 -93 0
-277 -69 94 110 93 0
-277 -69 94 -110 -93 0
-277 -69 -94 110 -93 0
-277 -69 -94 -110 93 0
278 277 0
-278 -277 0
69 94 110 279 0
-69 -94 -110 279 0
-279 -69 94 0
-279 69 -94 0
-279 -69 110 0
-279 69 -110 0
-279 70 95 111 -94 0
-279 70 95 -111 94 0
-279 70 -95 111 94 0
-279 70 -95 -111 -94 0
-279 -70 95 111 94 0
-279 -70 95 -111 -94 0
-279 -70 -95 111 -94 0
-279 -70 -95 -111 94 0
280 279 0
-280 -279 0
70 95 111 281 0
-70 -95 -111 281 0
-281 -70 95 0
-281 70 -95 0
-281 -70 111 0
-281 70 -111 0
-281 71 96 112 -95 0
-281 71 96 -112 95 0
-281 71 -96 112 95 0
-281 71 -96 -112 -95 0
-281 -71 96 112 95 0
-281 -71 96 -112 -95 0
-281 -71 -96 112 -95 0
-281 -71 -96 -112 95 0
282 281 0
-282 -281 0
95 97 -113 0
95 -97 113 0
-95 97 113 0
-95 -97 -113 0
96 98 -114 0
96 -98 114 0
-96 98 114 0
-96 -98 -114 0
81 99 -115 0
81 -99 115 0
-81 99 115 0
-81 -99 -115 0
82 100 -116 0
82 -100 116 0
-82 100 116 0
-82 -100 -116 0
83 101 -117 0
83 -101 117 0
-83 101 117 0
-83 -101 -117 0
84 102 -118 0
84 -102 118 0
-84 102 118 0
-84 -102 -118 0
85 103 -119 0
85 -103 119 0
-85 103 119 0
-85 -103 -119 0
86 104 -120 0
86 -104 120 0
-86 104 120 0
-86 -104 -120 0
87 105 -121 0
87 -105 121 0
-87 105 121 0
-87 -105 -121 0
88 106 -122 0
88 -106 122 0
-88 106 122 0
-88 -106 -122 0
89 107 -123 0
89 -107 123 0
-89 107 123 0
-89 -107 -123 0
90 108 -124 0
90 -108 124 0
-90 108 124 0
-90 -108 -124 0
91 109 -125 0
91 -109 125 0
-91 109 125 0
-91 -109 -125 0
92 110 -126 0
92 -110 126 0
-92 110 126 0
-92 -110 -126 0
93 111 -127 0
93 -111 127 0
-93 111 127 0
-93 -111 -127 0
94 112 -128 0
94 -112 128 0
-94 112 128 0
-94 -112 -128 0
104 113 -129 0
104 -113 129 0
-104 113 129 0
-104 -113 -129 0
104 113 129 283 0
-104 -113 -129 283 0
-283 -104 113 0
-283 104 -113 0
-283 -104 129 0
-283 104 -129 0
-283 105 114 130 -113 0
-283 105 114 -130 113 0
-283 105 -114 130 113 0
-283 105 -114 -130 -113 0
-283 -105 114 130 113 0
-283 -105 114 -130 -113 0
-283 -105 -114 130 -113 0
-283 -105 -114 -130 113 0
284 283 0
-284 -283 0
105 114 130 285 0
-105 -114 -130 285 0
-285 -105 114 0
-285 105 -114 0
-285 -105 130 0
-285 105 -130 0
-285 106 115 131 -114 0
-285 106 115 -131 114 0
-285 106 -115 131 114 0
-285 106 -115 -131 -114 0
-285 -106 115 131 114 0
-285 -106 115 -131 -114 0
-285 -106 -115 131 -114 0
-285 -106 -115 -131 114 0
286 285 0
-286 -285 0
106 115 131 287 0
-106 -115 -131 287 0
-287 -106 115 0
-287 106 -115 0
-287 -106 131 0
-287 106 -131 0
-287 107 116 132 -115 0
-287 107 116 -132 115 0
-287 107 -116 132 115 0
-287 107 -116 -132 -115 0
-287 -107 116 132 115 0
-287 -107 116 -132 -115 0
-287 -107 -116 132 -115 0
-287 -107 -116 -132 115 0
288 287 0
-288 -287 0
107 116 132 289 0
-107 -116 -132 289 0
-289 -107 116 0
-289 107 -116 0
-289 -107 132 0
-289 107 -132 0
-289 108 117 133 -116 0
-289 108 117 -133 116 0
-289 108 -117 133 116 0
-289 108 -117 -133 -116 0
-289 -108 117 133 116 0
-289 -108 117 -133 -116 0
-289 -108 -117 133 -116 0
-289 -108 -117 -133 116 0
290 289 0
-290 -289 0
108 117 133 291 0
-108 -117 -133 291 0
-291 -108 117 0
-291 108 -117 0
-291 -108 133 0
-291 108 -133 0
-291 109 118 134 -117 0
-291 109 118 -134 117 0
-291 109 -118 134 117 0
-291 109 -118 -134 -117 0
-291 -109 118 134 117 0
-291 -109 118 -134 -117 0
-291 -109 -118 134 -117 0
-291 -109 -118 -134 117 0
292 291 0
-292 -291 0
109 118 134 293 0
-109 -118 -134 293 0
-293 -109 118 0
-293 109 -118 0
-293 -109 134 0
-293 109 -134 0
-293 110 119 135 -118 0
-293 110 119 -135 118 0
-293 110 -119 135 118 0
-293 110 -119 -135 -118 0
-293 -110 119 135 118 0
-293 -110 119 -135 -118 0
-293 -110 -119 135 -118 0
-293 -110 -119 -135 118 0
294 293 0
-294 -293 0
110 119 135 295 0
-110 -119 -135 295 0
-295 -110 119 0
-295 110 -119 0
-295 -110 135 0
-295 110 -135 0
-295 111 120 136 -119 0
-295 111 120 -136 119 0
-295 111 -120 136 119 0
-295 111 -120 -136 -119 0
-295 -111 120 136 119 0
-295 -111 120 -136 -119 0
-295 -111 -120 136 -119 0
-295 -111 -120 -136 119 0
296 295 0
-296 -295 0
111 120 136 297 0
-111 -120 -136 297 0
-297 -111 120 0
-297 111 -120 0
-297 -111 136 0
-297 111 -136 0
-297 112 121 137 -120 0
-297 112 121 -137 120 0
-297 112 -121 137 120 0
-297 112 -121 -137 -120 0
-297 -112 121 137 120 0
-297 -112 121 -137 -120 0
-297 -112 -121 137 -120 0
-297 -112 -121 -137 120 0
298 297 0
-298 -297 0
112 121 137 299 0
-112 -121 -137 299 0
-299 -112 121 0
-299 112 -121 0
-299 -112 137 0
-299 112 -137 0
-299 97 122 138 -121 0
-299 97 122 -138 121 0
-299 97 -122 138 121 0
-299 97 -122 -138 -121 0
-299 -97 122 138 121 0
-299 -97 122 -138 -121 0
-299 -97 -122 138 -121 0
-299 -97 -122 -138 121 0
300 299 0
-300 -299 0
97 122 138 301 0
-97 -122 -138 301 0
-301 -97 122 0
-301 97 -122 0
-301 -97 138 0
-301 97 -138 0
-301 98 123 139 -122 0
-301 98 123 -139 122 0
-301 98 -123 139 122 0
-301 98 -123 -139 -122 0
-301 -98 123 139 122 0
-301 -98 123 -139 -122 0
-301 -98 -123 139 -122 0
-301 -98 -123 -139 122 0
302 301 0
-302 -301 0
98 123 139 303 0
-98 -123 -139 303 0
-303 -98 123 0
-303 98 -123 0
-303 -98 139 0
-303 98 -139 0
-303 99 124 140 -123 0
-303 99 124 -140 123 0
-303 99 -124 140 123 0
-303 99 -124 -140 -123 0
-303 -99 124 140 123 0
-303 -99 124 -140 -123 0
-303 -99 -124 140 -123 0
-303 -99 -124 -140 123 0
304 303 0
-304 -303 0
99 124 140 305 0
-99 -124 -140 305 0
-305 -99 124 0
-305 99 -124 0
-305 -99 140 0
-305 99 -140 0
-305 100 125 141 -124 0
-305 100 125 -141 124 0
-305 100 -125 141 124 0
-305 100 -125 -141 -124 0
-305 -100 125 141 124 0
-305 -100 125 -141 -124 0
-305 -100 -125 141 -124 0
-305 -100 -125 -141 124 0
306 305 0
-306 -305 0
100 125 141 307 0
-100 -125 -141 307 0
-307 -100 125 0
-307 100 -125 0
-307 -100 141 0
-307 100 -141 0
-307 101 126 142 -125 0
-307 101 126 -142 125 0
-307 101 -126 142 125 0
-307 101 -126 -142 -125 0
-307 -101 126 142 125 0
-307 -101 126 -142 -125 0
-307 -101 -126 142 -125 0
-307 -101 -126 -142 125 0
308 307 0
-308 -307 0
101 126 142 309 0
-101 -126 -142 309 0
-309 -101 126 0
-309 101 -126 0
-309 -101 142 0
-309 101 -142 0
-309 102 127 143 -126 0
-309 102 127 -143 126 0
-309 102 -127 143 126 0
-309 102 -127 -143 -126 0
-309 -102 127 143 126 0
-309 -102 127 -143 -126 0
-309 -102 -127 143 -126 0
-309 -102 -127 -143 126 0
310 309 0
-310 -309 0
102 127 143 311 0
-102 -127 -143 311 0
-311 -102 127 0
-311 102 -127 0
-311 -102 143 0
-311 102 -143 0
-311 103 128 144 -127 0
-311 103 128 -144 127 0
-311 103 -128 144 127 0
-311 103 -128 -144 -127 0
-311 -103 128 144 127 0
-311 -103 128 -144 -127 0
-311 -103 -128 144 -127 0
-311 -103 -128 -144 127 0
312 311 0
-312 -311 0
127 129 -145 0
127 -129 145 0
-127 129 145 0
-127 -129 -145 0
128 130 -146 0
128 -130 146 0
-128 130 146 0
-128 -130 -146 0
113 131 -147 0
113 -131 147 0
-113 131 147 0
-113 -131 -147 0
114 132 -148 0
114 -132 148 0
-114 132 148 0
-114 -132 -148 0
115 133 -149 0
115 -133 149 0
-115 133 149 0
-115 -133 -149 0
116 134 -150 0
116 -134 150 0
-116 134 150 0
-116 -134 -150 0
117 135 -151 0
117 -135 151 0
-117 135 151 0
-117 -135 -151 0
118 136 -152 0
118 -136 152 0
-118 136 152 0
-118 -136 -152 0
119 137 -153 0
119 -137 153 0
-119 137 153 0
-119 -137 -153 0
120 138 -154 0
120 -138 154 0
-120 138 154 0
-120 -138 -154 0
121 139 -155 0
121 -139 155 0
-121 139 155 0
-121 -139 -155 0
122 140 -156 0
122 -140 156 0
-122 140 156 0
-122 -140 -156 0
123 141 -157 0
123 -141 157 0
-123 141 157 0
-123 -141 -157 0
124 142 -158 0
124 -142 158 0
-124 142 158 0
-124 -142 -158 0
125 143 -159 0
125 -143 159 0
-125 143 159 0
-125 -143 -159 0
126 144 -160 0
126 -144 160 0
-126 144 160 0
-126 -144 -160 0
136 145 -161 0
136 -145 161 0
-136 145 161 0
-136 -145 -161 0
136 145 161 313 0
-136 -145 -161 313 0
-313 -136 145 0
-313 136 -145 0
-313 -136 161 0
-313 136 -161 0
-313 137 146 162 -145 0
-313 137 146 -162 145 0
-313 137 -146 162 145 0
-313 137 -146 -162 -145 0
-313 -137 146 162 145 0
-313 -137 146 -162 -145 0
-313 -137 -146 162 -145 0
-313 -137 -146 -162 145 0
314 313 0
-314 -313 0
137 146 162 315 0
-137 -146 -162 315 0
-315 -137 146 0
-315 137 -146 0
-315 -137 162 0
-315 137 -162 0
-315 138 147 163 -146 0
-315 138 147 -163 146 0
-315 138 -147 163 146 0
-315 138 -147 -163 -146 0
-315 -138 147 163 146 0
-315 -138 147 -163 -146 0
-315 -138 -147 163 -146 0
-315 -138 -147 -163 146 0
316 315 0
-316 -315 0
138 147 163 317 0
-138 -147 -163 317 0
-317 -138 147 0
-317 138 -147 0
-317 -138 163 0
-317 138 -163 0
-317 139 148 164 -147 0
-317 139 148 -164 147 0
-317 139 -148 164 147 0
-317 139 -148 -164 -147 0
-317 -139 148 164 147 0
-317 -139 148 -164 -147 0
-317 -139 -148 164 -147 0
-317 -139 -148 -164 147 0
318 317 0
-318 -317 0
139 148 164 319 0
-139 -148 -164 319 0
-319 -139 148 0
-319 139 -148 0
-319 -139 164 0
-319 139 -164 0
-319 140 149 165 -148 0
-319 140 149 -165 148 0
-319 140 -149 165 148 0
-319 140 -149 -165 -148 0
-319 -140 149 165 148 0
-319 -140 149 -165 -148 0
-319 -140 -149 165 -148 0
-319 -140 -149 -165 148 0
320 319 0
-320 -319 0
140 149 165 321 0
-140 -149 -165 321 0
-321 -140 149 0
-321 140 -149 0
-321 -140 165 0
-321 140 -165 0
-321 141 150 166 -149 0
-321 141 150 -166 149 0
-321 141 -150 166 149 0
-321 141 -150 -166 -149 0
-321 -141 150 166 149 0
-321 -141 150 -166 -149 0
-321 -141 -150 166 -149 0
-321 -141 -150 -166 149 0
322 321 0
-322 -321 0
141 150 166 323 0
-141 -150 -166 323 0
-323 -141 150 0
-323 141 -150 0
-323 -141 166 0
-323 141 -166 0
-323 142 151 167 -150 0
-323 142 151 -167 150 0
-323 142 -151 167 150 0
-323 142 -151 -167 -150 0
-323 -142 151 167 150 0
-323 -142 151 -167 -150 0
-323 -142 -151 167 -150 0
-323 -142 -151 -167 150 0
324 323 0
-324 -323 0
142 151 167 325 0
-142 -151 -167 325 0
-325 -142 151 0
-325 142 -151 0
-325 -142 167 0
-325 142 -167 0
-325 143 152 168 -151 0
-325 143 152 -168 151 0
-325 143 -152 168 151 0
-325 143 -152 -168 -151 0
-325 -143 152 168 151 0
-325 -143 152 -168 -151 0
-325 -143 -152 168 -151 0
-325 -143 -152 -168 151 0
326 325 0
-326 -325 0
143 152 168 327 0
-143 -152 -168 327 0
-327 -143 152 0
-327 143 -152 0
-327 -143 168 0
-327 143 -168 0
-327 144 153 169 -152 0
-327 144 153 -169 152 0
-327 144 -153 169 152 0
-327 144 -153 -169 -152 0
-327 -144 153 169 152 0
-327 -144 153 -169 -152 0
-327 -144 -153 169 -152 0
-327 -144 -153 -169 152 0
328 327 0
-328 -327 0
144 153 169 329 0
-144 -153 -169 329 0
-329 -144 153 0
-329 144 -153 0
-329 -144 169 0
-329 144 -169 0
-329 129 154 170 -153 0
-329 129 154 -170 153 0
-329 129 -154 170 153 0
-329 129 -154 -170 -153 0
-329 -129 154 170 153 0
-329 -129 154 -170 -153 0
-329 -129 -154 170 -153 0
-329 -129 -154 -170 153 0
330 329 0
-330 -329 0
129 154 170 331 0
-129 -154 -170 331 0
-331 -129 154 0
-331 129 -154 0
-331 -129 170 0
-331 129 -170 0
-331 130 155 171 -154 0
-331 130 155 -171 154 0
-331 130 -155 171 154 0
-331 130 -155 -171 -154 0
-331 -130 155 171 154 0
-331 -130 155 -171 -154 0
-331 -130 -155 171 -154 0
-331 -130 -155 -171 154 0
332 331 0
-332 -331 0
130 155 171 333 0
-130 -155 -171 333 0
-333 -130 155 0
-333 130 -155 0
-333 -130 171 0
-333 130 -171 0
-333 131 156 172 -155 0
-333 131 156 -172 155 0
-333 131 -156 172 155 0
-333 131 -156 -172 -155 0
-333 -131 156 172 155 0
-333 -131 156 -172 -155 0
-333 -131 -156 172 -155 0
-333 -131 -156 -172 155 0
334 333 0
-334 -333 0
131 156 172 335 0
-131 -156 -172 335 0
-335 -131 156 0
-335 131 -156 0
-335 -131 172 0
-335 131 -172 0
-335 132 157 173 -156 0
-335 132 157 -173 156 0
-335 132 -157 173 156 0
-335 132 -157 -173 -156 0
-335 -132 157 173 156 0
-335 -132 157 -173 -156 0
-335 -132 -157 173 -156 0
-335 -132 -157 -173 156 0
336 335 0
-336 -335 0
132 157 173 337 0
-132 -157 -173 337 0
-337 -132 157 0
-337 132 -157 0
-337 -132 173 0
-337 132 -173 0
-337 133 158 174 -157 0
-337 133 158 -174 157 0
-337 133 -158 174 157 0
-337 133 -158 -174 -157 0
-337 -133 158 174 157 0
-337 -133 158 -174 -157 0
-337 -133 -158 174 -157 0
-337 -133 -158 -174 157 0
338 337 0
-338 -337 0
133 158 174 339 0
-133 -158 -174 339 0
-339 -133 158 0
-339 133 -158 0
-339 -133 174 0
-339 133 -174 0
-339 134 159 175 -158 0
-339 134 159 -175 158 0
-339 134 -159 175 158 0
-339 134 -159 -175 -158 0
-339 -134 159 175 158 0
-339 -134 159 -175 -158 0
-339 -134 -159 175 -158 0
-339 -134 -159 -175 158 0
340 339 0
-340 -339 0
134 159 175 341 0
-134 -159 -175 341 0
-341 -134 159 0
-341 134 -159 0
-341 -134 175 0
-341 134 -175 0
-341 135 160 176 -159 0
-341 135 160 -176 159 0
-341 135 -160 176 159 0
-341 135 -160 -176 -159 0
-341 -135 160 176 159 0
-341 -135 160 -176 -159 0
-341 -135 -160 176 -159 0
-341 -135 -160 -176 159 0
342 341 0
-342 -341 0
159 161 -177 0
159 -161 177 0
-159 161 177 0
-159 -161 -177 0
160 162 -178 0
160 -162 178 0
-160 162 178 0
-160 -162 -178 0
145 163 -179 0
145 -163 179 0
-145 163 179 0
-145 -163 -179 0
146 164 -180 0
146 -164 180 0
-146 164 180 0
-146 -164 -180 0
147 165 -181 0
147 -165 181 0
-147 165 181 0
-147 -165 -181 0
148 166 -182 0
148 -166 182 0
-148 166 182 0
-148 -166 -182 0
149 167 -183 0
149 -167 183 0
-149 167 183 0
-149 -167 -183 0
150 168 -184 0
150 -168 184 0
-150 168 184 0
-150 -168 -184 0
151 169 -185 0
151 -169 185 0
-151 169 185 0
-151 -169 -185 0
152 170 -186 0
152 -170 186 0
-152 170 186 0
-152 -170 -186 0
153 171 -187 0
153 -171 187 0
-153 171 187 0
-153 -171 -187 0
154 172 -188 0
154 -172 188 0
-154 172 188 0
-154 -172 -188 0
155 173 -189 0
155 -173 189 0
-155 173 189 0
-155 -173 -189 0
156 174 -190 0
156 -174 190 0
-156 174 190 0
-156 -174 -190 0
157 175 -191 0
157 -175 191 0
-157 175 191 0
-157 -175 -191 0
158 176 -192 0
158 -176 192 0
-158 176 192 0
-158 -176 -192 0
-344 0
-345 0
-346 0
-347 0
-348 0
-349 0
-350 0
-351 0
-352 0
-353 0
-354 0
-355 0
-194 343 0
-196 356 0
-198 369 0
-200 382 0
-202 395 0
-204 408 0
-206 421 0
-208 434 0
-210 447 0
-212 460 0
-214 473 0
-216 486 0
-218 499 0
-220 512 0
-222 525 0
-224 538 0
-226 551 0
-228 564 0
-230 577 0
-232 590 0
-234 603 0
-236 616 0
-238 629 0
-240 642 0
-242 655 0
-244 668 0
-246 681 0
-248 694 0
-250 707 0
-252 720 0
-254 733 0
-256 746 0
-258 759 0
-260 772 0
-262 785 0
-264 798 0
-266 811 0
-268 824 0
-270 837 0
-272 850 0
-274 863 0
-276 876 0
-278 889 0
-280 902 0
-282 915 0
-284 928 0
-286 941 0
-288 954 0
-290 967 0
-292 980 0
-294 993 0
-296 1006 0
-298 1019 0
-300 1032 0
-302 1045 0
-304 1058 0
-306 1071 0
-308 1084 0
-310 1097 0
-312 1110 0
-314 1123 0
-316 1136 0
-318 1149 0
-320 1162 0
-322 1175 0
-324 1188 0
-326 1201 0
-328 1214 0
-330 1227 0
-332 1240 0
-334 1253 0
-336 1266 0
-338 1279 0
-340 1292 0
-342 1305 0
-343 356 0
-344 357 0
-345 358 0
-346 359 0
-347 360 0
-348 361 0
-349 362 0
-350 363 0
-351 364 0
-352 365 0
-353 366 0
-354 367 0
-355 368 0
-196 -343 357 0
-196 -344 358 0
-196 -345 359 0
-196 -346 360 0
-196 -347 361 0
-196 -348 362 0
-196 -349 363 0
-196 -350 364 0
-196 -351 365 0
-196 -352 366 0
-196 -353 367 0
-196 -354 368 0
-196 -355 0
-356 369 0
-357 370 0
-358 371 0
-359 372 0
-360 373 0
-361 374 0
-362 375 0
-363 376 0
-364 377 0
-365 378 0
-366 379 0
-367 380 0
-368 381 0
-198 -356 370 0
-198 -357 371 0
-198 -358 372 0
-198 -359 373 0
-198 -360 374 0
-198 -361 375 0
-198 -362 376 0
-198 -363 377 0
-198 -364 378 0
-198 -365 379 0
-198 -366 380 0
-198 -367 381 0
-198 -368 0
-369 382 0
-370 383 0
-371 384 0
-372 385 0
-373 386 0
-374 387 0
-375 388 0
-376 389 0
-377 390 0
-378 391 0
-379 392 0
-380 393 0
-381 394 0
-200 -369 383 0
-200 -370 384 0
-200 -371 385 0
-200 -372 386 0
-200 -373 387 0
-200 -374 388 0
-200 -375 389 0
-200 -376 390 0
-200 -377 391 0
-200 -378 392 0
-200 -379 393 0
-200 -380 394 0
-200 -381 0
-382 395 0
-383 396 0
-384 397 0
-385 398 0
-386 399 0
-387 400 0
-388 401 0
-389 402 0
-390 403 0
-391 404 0
-392 405 0
-393 406 0
-394 407 0
-202 -382 396 0
-202 -383 397 0
-202 -384 398 0
-202 -385 399 0
-202 -386 400 0
-202 -387 401 0
-202 -388 402 0
-202 -389 403 0
-202 -390 404 0
-202 -391 405 0
-202 -392 406 0
-202 -393 407 0
-202 -394 0
-395 408 0
-396 409 0
-397 410 0
-398 411 0
-399 412 0
-400 413 0
-401 414 0
-402 415 0
-403 416 0
-404 417 0
-405 418 0
-406 419 0
-407 420 0
-204 -395 409 0
-204 -396 410 0
-204 -397 411 0
-204 -398 412 0
-204 -399 413 0
-204 -400 414 0
-204 -401 415 0
-204 -402 416 0
-204 -403 417 0
-204 -404 418 0
-204 -405 419 0
-204 -406 420 0
-204 -407 0
-408 421 0
-409 422 0
-410 423 0
-411 424 0
-412 425 0
-413 426 0
-414 427 0
-415 428 0
-416 429 0
-417 430 0
-418 431 0
-419 432 0
-420 433 0
-206 -408 422 0
-206 -409 423 0
-206 -410 424 0
-206 -411 425 0
-206 -412 426 0
-206 -413 427 0
-206 -414 428 0
-206 -415 429 0
-206 -416 430 0
-206 -417 431 0
-206 -418 432 0
-206 -419 433 0
-206 -420 0
-421 434 0
-422 435 0
-423 436 0
-424 437 0
-425 438 0
-426 439 0
-427 440 0
-428 441 0
-429 442 0
-430 443 0
-431 444 0
-432 445 0
-433 446 0
-208 -421 435 0
-208 -422 436 0
-208 -423 437 0
-208 -424 438 0
-208 -425 439 0
-208 -426 440 0
-208 -427 441 0
-208 -428 442 0
-208 -429 443 0
-208 -430 444 0
-208 -431 445 0
-208 -432 446 0
-208 -433 0
-434 447 0
-435 448 0
-436 449 0
-437 450 0
-438 451 0
-439 452 0
-440 453 0
-441 454 0
-442 455 0
-443 456 0
-444 457 0
-445 458 0
-446 459 0
-210 -434 448 0
-210 -435 449 0
-210 -436 450 0
-210 -437 451 0
-210 -438 452 0
-210 -439 453 0
-210 -440 454 0
-210 -441 455 0
-210 -442 456 0
-210 -443 457 0
-210 -444 458 0
-210 -445 459 0
-210 -446 0
-447 460 0
-448 461 0
-449 462 0
-450 463 0
-451 464 0
-452 465 0
-453 466 0
-454 467 0
-455 468 0
-456 469 0
-457 470 0
-458 471 0
-459 472 0
-212 -447 461 0
-212 -448 462 0
-212 -449 463 0
-212 -450 464 0
-212 -451 465 0
-212 -452 466 0
-212 -453 467 0
-212 -454 468 0
-212 -455 469 0
-212 -456 470 0
-212 -457 471 0
-212 -458 472 0
-212 -459 0
-460 473 0
-461 474 0
-462 475 0
-463 476 0
-464 477 0
-465 478 0
-466 479 0
-467 480 0
-468 481 0
-469 482 0
-470 483 0
-471 484 0
-472 485 0
-214 -460 474 0
-214 -461 475 0
-214 -462 476 0
-214 -463 477 0
-214 -464 478 0
-214 -465 479 0
-214 -466 480 0
-214 -467 481 0
-214 -468 482 0
-214 -469 483 0
-214 -470 484 0
-214 -471 485 0
-214 -472 0
-473 486 0
-474 487 0
-475 488 0
-476 489 0
-477 490 0
-478 491 0
-479 492 0
-480 493 0
-481 494 0
-482 495 0
-483 496 0
-484 497 0
-485 498 0
-216 -473 487 0
-216 -474 488 0
-216 -475 489 0
-216 -476 490 0
-216 -477 491 0
-216 -478 492 0
-216 -479 493 0
-216 -480 494 0
-216 -481 495 0
-216 -482 496 0
-216 -483 497 0
-216 -484 498 0
-216 -485 0
-486 499 0
-487 500 0
-488 501 0
-489 502 0
-490 503 0
-491 504 0
-492 505 0
-493 506 0
-494 507 0
-495 508 0
-496 509 0
-497 510 0
-498 511 0
-218 -486 500 0
-218 -487 501 0
-218 -488 502 0
-218 -489 503 0
-218 -490 504 0
-218 -491 505 0
-218 -492 506 0
-218 -493 507 0
-218 -494 508 0
-218 -495 509 0
-218 -496 510 0
-218 -497 511 0
-218 -498 0
-499 512 0
-500 513 0
-501 514 0
-502 515 0
-503 516 0
-504 517 0
-505 518 0
-506 519 0
-507 520 0
-508 521 0
-509 522 0
-510 523 0
-511 524 0
-220 -499 513 0
-220 -500 514 0
-220 -501 515 0
-220 -502 516 0
-220 -503 517 0
-220 -504 518 0
-220 -505 519 0
-220 -506 520 0
-220 -507 521 0
-220 -508 522 0
-220 -509 523 0
-220 -510 524 0
-220 -511 0
-512 525 0
-513 526 0
-514 527 0
-515 528 0
-516 529 0
-517 530 0
-518 531 0
-519 532 0
-520 533 0
-521 534 0
-522 535 0
-523 536 0
-524 537 0
-222 -512 526 0
-222 -513 527 0
-222 -514 528 0
-222 -515 529 0
-222 -516 530 0
-222 -517 531 0
-222 -518 532 0
-222 -519 533 0
-222 -520 534 0
-222 -521 535 0
-222 -522 536 0
-222 -523 537 0
-222 -524 0
-525 538 0
-526 539 0
-527 540 0
-528 541 0
-529 542 0
-530 543 0
-531 544 0
-532 545 0
-533 546 0
-534 547 0
-535 548 0
-536 549 0
-537 550 0
-224 -525 539 0
-224 -526 540 0
-224 -527 541 0
-224 -528 542 0
-224 -529 543 0
-224 -530 544 0
-224 -531 545 0
-224 -532 546 0
-224 -533 547 0
-224 -534 548 0
-224 -535 549 0
-224 -536 550 0
-224 -537 0
-538 551 0
-539 552 0
-540 553 0
-541 554 0
-542 555 0
-543 556 0
-544 557 0
-545 558 0
-546 559 0
-547 560 0
-548 561 0
-549 562 0
-550 563 0
-226 -538 552 0
-226 -539 553 0
-226 -540 554 0
-226 -541 555 0
-226 -542 556 0
-226 -543 557 0
-226 -544 558 0
-226 -545 559 0
-226 -546 560 0
-226 -547 561 0
-226 -548 562 0
-226 -549 563 0
-226 -550 0
-551 564 0
-552 565 0
-553 566 0
-554 567 0
-555 568 0
-556 569 0
-557 570 0
-558 571 0
-559 572 0
-560 573 0
-561 574 0
-562 575 0
-563 576 0
-228 -551 565 0
-228 -552 566 0
-228 -553 567 0
-228 -554 568 0
-228 -555 569 0
-228 -556 570 0
-228 -557 571 0
-228 -558 572 0
-228 -559 573 0
-228 -560 574 0
-228 -561 575 0
-228 -562 576 0
-228 -563 0
-564 577 0
-565 578 0
-566 579 0
-567 580 0
-568 581 0
-569 582 0
-570 583 0
-571 584 0
-572 585 0
-573 586 0
-574 587 0
-575 588 0
-576 589 0
-230 -564 578 0
-230 -565 579 0
-230 -566 580 0
-230 -567 581 0
-230 -568 582 0
-230 -569 583 0
-230 -570 584 0
-230 -571 585 0
-230 -572 586 0
-230 -573 587 0
-230 -574 588 0
-230 -575 589 0
-230 -576 0
-577 590 0
-578 591 0
-579 592 0
-580 593 0
-581 594 0
-582 595 0
-583 596 0
-584 597 0
-585 598 0
-586 599 0
-587 600 0
-588 601 0
-589 602 0
-232 -577 591 0
-232 -578 592 0
-232 -579 593 0
-232 -580 594 0
-232 -581 595 0
-232 -582 596 0
-232 -583 597 0
-232 -584 598 0
-232 -585 599 0
-232 -586 600 0
-232 -587 601 0
-232 -588 602 0
-232 -589 0
-590 603 0
-591 604 0
-592 605 0
-593 606 0
-594 607 0
-595 608 0
-596 609 0
-597 610 0
-598 611 0
-599 612 0
-600 613 0
-601 614 0
-602 615 0
-234 -590 604 0
-234 -591 605 0
-234 -592 606 0
-234 -593 607 0
-234 -594 608 0
-234 -595 609 0
-234 -596 610 0
-234 -597 611 0
-234 -598 612 0
-234 -599 613 0
-234 -600 614 0
-234 -601 615 0
-234 -602 0
-603 616 0
-604 617 0
-605 618 0
-606 619 0
-607 620 0
-608 621 0
-609 622 0
-610 623 0
-611 624 0
-612 625 0
-613 626 0
-614 627 0
-615 628 0
-236 -603 617 0
-236 -604 618 0
-236 -605 619 0
-236 -606 620 0
-236 -607 621 0
-236 -608 622 0
-236 -609 623 0
-236 -610 624 0
-236 -611 625 0
-236 -612 626 0
-236 -613 627 0
-236 -614 628 0
-236 -615 0
-616 629 0
-617 630 0
-618 631 0
-619 632 0
-620 633 0
-621 634 0
-622 635 0
-623 636 0
-624 637 0
-625 638 0
-626 639 0
-627 640 0
-628 641 0
-238 -616 630 0
-238 -617 631 0
-238 -618 632 0
-238 -619 633 0
-238 -620 634 0
-238 -621 635 0
-238 -622 636 0
-238 -623 637 0
-238 -624 638 0
-238 -625 639 0
-238 -626 640 0
-238 -627 641 0
-238 -628 0
-629 642 0
-630 643 0
-631 644 0
-632 645 0
-633 646 0
-634 647 0
-635 648 0
-636 649 0
-637 650 0
-638 651 0
-639 652 0
-640 653 0
-641 654 0
-240 -629 643 0
-240 -630 644 0
-240 -631 645 0
-240 -632 646 0
-240 -633 647 0
-240 -634 648 0
-240 -635 649 0
-240 -636 650 0
-240 -637 651 0
-240 -638 652 0
-240 -639 653 0
-240 -640 654 0
-240 -641 0
-642 655 0
-643 656 0
-644 657 0
-645 658 0
-646 659 0
-647 660 0
-648 661 0
-649 662 0
-650 663 0
-651 664 0
-652 665 0
-653 666 0
-654 667 0
-242 -642 656 0
-242 -643 657 0
-242 -644 658 0
-242 -645 659 0
-242 -646 660 0
-242 -647 661 0
-242 -648 662 0
-242 -649 663 0
-242 -650 664 0
-242 -651 665 0
-242 -652 666 0
-242 -653 667 0
-242 -654 0
-655 668 0
-656 669 0
-657 670 0
-658 671 0
-659 672 0
-660 673 0
-661 674 0
-662 675 0
-663 676 0
-664 677 0
-665 678 0
-666 679 0
-667 680 0
-244 -655 669 0
-244 -656 670 0
-244 -657 671 0
-244 -658 672 0
-244 -659 673 0
-244 -660 674 0
-244 -661 675 0
-244 -662 676 0
-244 -663 677 0
-244 -664 678 0
-244 -665 679 0
-244 -666 680 0
-244 -667 0
-668 681 0
-669 682 0
-670 683 0
-671 684 0
-672 685 0
-673 686 0
-674 687 0
-675 688 0
-676 689 0
-677 690 0
-678 691 0
-679 692 0
-680 693 0
-246 -668 682 0
-246 -669 683 0
-246 -670 684 0
-246 -671 685 0
-246 -672 686 0
-246 -673 687 0
-246 -674 688 0
-246 -675 689 0
-246 -676 690 0
-246 -677 691 0
-246 -678 692 0
-246 -679 693 0
-246 -680 0
-681 694 0
-682 695 0
-683 696 0
-684 697 0
-685 698 0
-686 699 0
-687 700 0
-688 701 0
-689 702 0
-690 703 0
-691 704 0
-692 705 0
-693 706 0
-248 -681 695 0
-248 -682 696 0
-248 -683 697 0
-248 -684 698 0
-248 -685 699 0
-248 -686 700 0
-248 -687 701 0
-248 -688 702 0
-248 -689 703 0
-248 -690 704 0
-248 -691 705 0
-248 -692 706 0
-248 -693 0
-694 707 0
-695 708 0
-696 709 0
-697 710 0
-698 711 0
-699 712 0
-700 713 0
-701 714 0
-702 715 0
-703 716 0
-704 717 0
-705 718 0
-706 719 0
-250 -694 708 0
-250 -695 709 0
-250 -696 710 0
-250 -697 711 0
-250 -698 712 0
-250 -699 713 0
-250 -700 714 0
-250 -701 715 0
-250 -702 716 0
-250 -703 717 0
-250 -704 718 0
-250 -705 719 0
-250 -706 0
-707 720 0
-708 721 0
-709 722 0
-710 723 0
-711 724 0
-712 725 0
-713 726 0
-714 727 0
-715 728 0
-716 729 0
-717 730 0
-718 731 0
-719 732 0
-252 -707 721 0
-252 -708 722 0
-252 -709 723 0
-252 -710 724 0
-252 -711 725 0
-252 -712 726 0
-252 -713 727 0
-252 -714 728 0
-252 -715 729 0
-252 -716 730 0
-252 -717 731 0
-252 -718 732 0
-252 -719 0
-720 733 0
-721 734 0
-722 735 0
-723 736 0
-724 737 0
-725 738 0
-726 739 0
-727 740 0
-728 741 0
-729 742 0
-730 743 0
-731 744 0
-732 745 0
-254 -720 734 0
-254 -721 735 0
-254 -722 736 0
-254 -723 737 0
-254 -724 738 0
-254 -725 739 0
-254 -726 740 0
-254 -727 741 0
-254 -728 742 0
-254 -729 743 0
-254 -730 744 0
-254 -731 745 0
-254 -732 0
-733 746 0
-734 747 0
-735 748 0
-736 749 0
-737 750 0
-738 751 0
-739 752 0
-740 753 0
-741 754 0
-742 755 0
-743 756 0
-744 757 0
-745 758 0
-256 -733 747 0
-256 -734 748 0
-256 -735 749 0
-256 -736 750 0
-256 -737 751 0
-256 -738 752 0
-256 -739 753 0
-256 -740 754 0
-256 -741 755 0
-256 -742 756 0
-256 -743 757 0
-256 -744 758 0
-256 -745 0
-746 759 0
-747 760 0
-748 761 0
-749 762 0
-750 763 0
-751 764 0
-752 765 0
-753 766 0
-754 767 0
-755 768 0
-756 769 0
-757 770 0
-758 771 0
-258 -746 760 0
-258 -747 761 0
-258 -748 762 0
-258 -749 763 0
-258 -750 764 0
-258 -751 765 0
-258 -752 766 0
-258 -753 767 0
-258 -754 768 0
-258 -755 769 0
-258 -756 770 0
-258 -757 771 0
-258 -758 0
-759 772 0
-760 773 0
-761 774 0
-762 775 0
-763 776 0
-764 777 0
-765 778 0
-766 779 0
-767 780 0
-768 781 0
-769 782 0
-770 783 0
-771 784 0
-260 -759 773 0
-260 -760 774 0
-260 -761 775 0
-260 -762 776 0
-260 -763 777 0
-260 -764 778 0
-260 -765 779 0
-260 -766 780 0
-260 -767 781 0
-260 -768 782 0
-260 -769 783 0
-260 -770 784 0
-260 -771 0
-772 785 0
-773 786 0
-774 787 0
-775 788 0
-776 789 0
-777 790 0
-778 791 0
-779 792 0
-780 793 0
-781 794 0
-782 795 0
-783 796 0
-784 797 0
-262 -772 786 0
-262 -773 787 0
-262 -774 788 0
-262 -775 789 0
-262 -776 790 0
-262 -777 791 0
-262 -778 792 0
-262 -779 793 0
-262 -780 794 0
-262 -781 795 0
-262 -782 796 0
-262 -783 797 0
-262 -784 0
-785 798 0
-786 799 0
-787 800 0
-788 801 0
-789 802 0
-790 803 0
-791 804 0
-792 805 0
-793 806 0
-794 807 0
-795 808 0
-796 809 0
-797 810 0
-264 -785 799 0
-264 -786 800 0
-264 -787 801 0
-264 -788 802 0
-264 -789 803 0
-264 -790 804 0
-264 -791 805 0
-264 -792 806 0
-264 -793 807 0
-264 -794 808 0
-264 -795 809 0
-264 -796 810 0
-264 -797 0
-798 811 0
-799 812 0
-800 813 0
-801 814 0
-802 815 0
-803 816 0
-804 817 0
-805 818 0
-806 819 0
-807 820 0
-808 821 0
-809 822 0
-810 823 0
-266 -798 812 0
-266 -799 813 0
-266 -800 814 0
-266 -801 815 0
-266 -802 816 0
-266 -803 817 0
-266 -804 818 0
-266 -805 819 0
-266 -806 820 0
-266 -807 821 0
-266 -808 822 0
-266 -809 823 0
-266 -810 0
-811 824 0
-812 825 0
-813 826 0
-814 827 0
-815 828 0
-816 829 0
-817 830 0
-818 831 0
-819 832 0
-820 833 0
-821 834 0
-822 835 0
-823 836 0
-268 -811 825 0
-268 -812 826 0
-268 -813 827 0
-268 -814 828 0
-268 -815 829 0
-268 -816 830 0
-268 -817 831 0
-268 -818 832 0
-268 -819 833 0
-268 -820 834 0
-268 -821 835 0
-268 -822 836 0
-268 -823 0
-824 837 0
-825 838 0
-826 839 0
-827 840 0
-828 841 0
-829 842 0
-830 843 0
-831 844 0
-832 845 0
-833 846 0
-834 847 0
-835 848 0
-836 849 0
-270 -824 838 0
-270 -825 839 0
-270 -826 840 0
-270 -827 841 0
-270 -828 842 0
-270 -829 843 0
-270 -830 844 0
-270 -831 845 0
-270 -832 846 0
-270 -833 847 0
-270 -834 848 0
-270 -835 849 0
-270 -836 0
-837 850 0
-838 851 0
-839 852 0
-840 853 0
-841 854 0
-842 855 0
-843 856 0
-844 857 0
-845 858 0
-846 859 0
-847 860 0
-848 861 0
-849 862 0
-272 -837 851 0
-272 -838 852 0
-272 -839 853 0
-272 -840 854 0
-272 -841 855 0
-272 -842 856 0
-272 -843 857 0
-272 -844 858 0
-272 -845 859 0
-272 -846 860 0
-272 -847 861 0
-272 -848 862 0
-272 -849 0
-850 863 0
-851 864 0
-852 865 0
-853 866 0
-854 867 0
-855 868 0
-856 869 0
-857 870 0
-858 871 0
-859 872 0
-860 873 0
-861 874 0
-862 875 0
-274 -850 864 0
-274 -851 865 0
-274 -852 866 0
-274 -853 867 0
-274 -854 868 0
-274 -855 869 0
-274 -856 870 0
-274 -857 871 0
-274 -858 872 0
-274 -859 873 0
-274 -860 874 0
-274 -861 875 0
-274 -862 0
-863 876 0
-864 877 0
-865 878 0
-866 879 0
-867 880 0
-868 881 0
-869 882 0
-870 883 0
-871 884 0
-872 885 0
-873 886 0
-874 887 0
-875 888 0
-276 -863 877 0
-276 -864 878 0
-276 -865 879 0
-276 -866 880 0
-276 -867 881 0
-276 -868 882 0
-276 -869 883 0
-276 -870 884 0
-276 -871 885 0
-276 -872 886 0
-276 -873 887 0
-276 -874 888 0
-276 -875 0
-876 889 0
-877 890 0
-878 891 0
-879 892 0
-880 893 0
-881 894 0
-882 895 0
-883 896 0
-884 897 0
-885 898 0
-886 899 0
-887 900 0
-888 901 0
-278 -876 890 0
-278 -877 891 0
-278 -878 892 0
-278 -879 893 0
-278 -880 894 0
-278 -881 895 0
-278 -882 896 0
-278 -883 897 0
-278 -884 898 0
-278 -885 899 0
-278 -886 900 0
-278 -887 901 0
-278 -888 0
-889 902 0
-890 903 0
-891 904 0
-892 905 0
-893 906 0
-894 907 0
-895 908 0
-896 909 0
-897 910 0
-898 911 0
-899 912 0
-900 913 0
-901 914 0
-280 -889 903 0
-280 -890 904 0
-280 -891 905 0
-280 -892 906 0
-280 -893 907 0
-280 -894 908 0
-280 -895 909 0
-280 -896 910 0
-280 -897 911 0
-280 -898 912 0
-280 -899 913 0
-280 -900 914 0
-280 -901 0
-902 915 0
-903 916 0
-904 917 0
-905 918 0
-906 919 0
-907 920 0
-908 921 0
-909 922 0
-910 923 0
-911 924 0
-912 925 0
-913 926 0
-914 927 0
-282 -902 916 0
-282 -903 917 0
-282 -904 918 0
-282 -905 919 0
-282 -906 920 0
-282 -907 921 0
-282 -908 922 0
-282 -909 923 0
-282 -910 924 0
-282 -911 925 0
-282 -912 926 0
-282 -913 927 0
-282 -914 0
-915 928 0
-916 929 0
-917 930 0
-918 931 0
-919 932 0
-920 933 0
-921 934 0
-922 935 0
-923 936 0
-924 937 0
-925 938 0
-926 939 0
-927 940 0
-284 -915 929 0
-284 -916 930 0
-284 -917 931 0
-284 -918 932 0
-284 -919 933 0
-284 -920 934 0
-284 -921 935 0
-284 -922 936 0
-284 -923 937 0
-284 -924 938 0
-284 -925 939 0
-284 -926 940 0
-284 -927 0
-928 941 0
-929 942 0
-930 943 0
-931 944 0
-932 945 0
-933 946 0
-934 947 0
-935 948 0
-936 949 0
-937 950 0
-938 951 0
-939 952 0
-940 953 0
-286 -928 942 0
-286 -929 943 0
-286 -930 944 0
-286 -931 945 0
-286 -932 946 0
-286 -933 947 0
-286 -934 948 0
-286 -935 949 0
-286 -936 950 0
-286 -937 951 0
-286 -938 952 0
-286 -939 953 0
-286 -940 0
-941 954 0
-942 955 0
-943 956 0
-944 957 0
-945 958 0
-946 959 0
-947 960 0
-948 961 0
-949 962 0
-950 963 0
-951 964 0
-952 965 0
-953 966 0
-288 -941 955 0
-288 -942 956 0
-288 -943 957 0
-288 -944 958 0
-288 -945 959 0
-288 -946 960 0
-288 -947 961 0
-288 -948 962 0
-288 -949 963 0
-288 -950 964 0
-288 -951 965 0
-288 -952 966 0
-288 -953 0
-954 967 0
-955 968 0
-956 969 0
-957 970 0
-958 971 0
-959 972 0
-960 973 0
-961 974 0
-962 975 0
-963 976 0
-964 977 0
-965 978 0
-966 979 0
-290 -954 968 0
-290 -955 969 0
-290 -956 970 0
-290 -957 971 0
-290 -958 972 0
-290 -959 973 0
-290 -960 974 0
-290 -961 975 0
-290 -962 976 0
-290 -963 977 0
-290 -964 978 0
-290 -965 979 0
-290 -966 0
-967 980 0
-968 981 0
-969 982 0
-970 983 0
-971 984 0
-972 985 0
-973 986 0
-974 987 0
-975 988 0
-976 989 0
-977 990 0
-978 991 0
-979 992 0
-292 -967 981 0
-292 -968 982 0
-292 -969 983 0
-292 -970 984 0
-292 -971 985 0
-292 -972 986 0
-292 -973 987 0
-292 -974 988 0
-292 -975 989 0
-292 -976 990 0
-292 -977 991 0
-292 -978 992 0
-292 -979 0
-980 993 0
-981 994 0
-982 995 0
-983 996 0
-984 997 0
-985 998 0
-986 999 0
-987 1000 0
-988 1001 0
-989 1002 0
-990 1003 0
-991 1004 0
-992 1005 0
-294 -980 994 0
-294 -981 995 0
-294 -982 996 0
-294 -983 997 0
-294 -984 998 0
-294 -985 999 0
-294 -986 1000 0
-294 -987 1001 0
-294 -988 1002 0
-294 -989 1003 0
-294 -990 1004 0
-294 -991 1005 0
-294 -992 0
-993 1006 0
-994 1007 0
-995 1008 0
-996 1009 0
-997 1010 0
-998 1011 0
-999 1012 0
-1000 1013 0
-1001 1014 0
-1002 1015 0
-1003 1016 0
-1004 1017 0
-1005 1018 0
-296 -993 1007 0
-296 -994 1008 0
-296 -995 1009 0
-296 -996 1010 0
-296 -997 1011 0
-296 -998 1012 0
-296 -999 1013 0
-296 -1000 1014 0
-296 -1001 1015 0
-296 -1002 1016 0
-296 -1003 1017 0
-296 -1004 1018 0
-296 -1005 0
-1006 1019 0
-1007 1020 0
-1008 1021 0
-1009 1022 0
-1010 1023 0
-1011 1024 0
-1012 1025 0
-1013 1026 0
-1014 1027 0
-1015 1028 0
-1016 1029 0
-1017 1030 0
-1018 1031 0
-298 -1006 1020 0
-298 -1007 1021 0
-298 -1008 1022 0
-298 -1009 1023 0
-298 -1010 1024 0
-298 -1011 1025 0
-298 -1012 1026 0
-298 -1013 1027 0
-298 -1014 1028 0
-298 -1015 1029 0
-298 -1016 1030 0
-298 -1017 1031 0
-298 -1018 0
-1019 1032 0
-1020 1033 0
-1021 1034 0
-1022 1035 0
-1023 1036 0
-1024 1037 0
-1025 1038 0
-1026 1039 0
-1027 1040 0
-1028 1041 0
-1029 1042 0
-1030 1043 0
-1031 1044 0
-300 -1019 1033 0
-300 -1020 1034 0
-300 -1021 1035 0
-300 -1022 1036 0
-300 -1023 1037 0
-300 -1024 1038 0
-300 -1025 1039 0
-300 -1026 1040 0
-300 -1027 1041 0
-300 -1028 1042 0
-300 -1029 1043 0
-300 -1030 1044 0
-300 -1031 0
-1032 1045 0
-1033 1046 0
-1034 1047 0
-1035 1048 0
-1036 1049 0
-1037 1050 0
-1038 1051 0
-1039 1052 0
-1040 1053 0
-1041 1054 0
-1042 1055 0
-1043 1056 0
-1044 1057 0
-302 -1032 1046 0
-302 -1033 1047 0
-302 -1034 1048 0
-302 -1035 1049 0
-302 -1036 1050 0
-302 -1037 1051 0
-302 -1038 1052 0
-302 -1039 1053 0
-302 -1040 1054 0
-302 -1041 1055 0
-302 -1042 1056 0
-302 -1043 1057 0
-302 -1044 0
-1045 1058 0
-1046 1059 0
-1047 1060 0
-1048 1061 0
-1049 1062 0
-1050 1063 0
-1051 1064 0
-1052 1065 0
-1053 1066 0
-1054 1067 0
-1055 1068 0
-1056 1069 0
-1057 1070 0
-304 -1045 1059 0
-304 -1046 1060 0
-304 -1047 1061 0
-304 -1048 1062 0
-304 -1049 1063 0
-304 -1050 1064 0
-304 -1051 1065 0
-304 -1052 1066 0
-304 -1053 1067 0
-304 -1054 1068 0
-304 -1055 1069 0
-304 -1056 1070 0
-304 -1057 0
-1058 1071 0
-1059 1072 0
-1060 1073 0
-1061 1074 0
-1062 1075 0
-1063 1076 0
-1064 1077 0
-1065 1078 0
-1066 1079 0
-1067 1080 0
-1068 1081 0
-1069 1082 0
-1070 1083 0
-306 -1058 1072 0
-306 -1059 1073 0
-306 -1060 1074 0
-306 -1061 1075 0
-306 -1062 1076 0
-306 -1063 1077 0
-306 -1064 1078 0
-306 -1065 1079 0
-306 -1066 1080 0
-306 -1067 1081 0
-306 -1068 1082 0
-306 -1069 1083 0
-306 -1070 0
-1071 1084 0
-1072 1085 0
-1073 1086 0
-1074 1087 0
-1075 1088 0
-1076 1089 0
-1077 1090 0
-1078 1091 0
-1079 1092 0
-1080 1093 0
-1081 1094 0
-1082 1095 0
-1083 1096 0
-308 -1071 1085 0
-308 -1072 1086 0
-308 -1073 1087 0
-308 -1074 1088 0
-308 -1075 1089 0
-308 -1076 1090 0
-308 -1077 1091 0
-308 -1078 1092 0
-308 -1079 1093 0
-308 -1080 1094 0
-308 -1081 1095 0
-308 -1082 1096 0
-308 -1083 0
-1084 1097 0
-1085 1098 0
-1086 1099 0
-1087 1100 0
-1088 1101 0
-1089 1102 0
-1090 1103 0
-1091 1104 0
-1092 1105 0
-1093 1106 0
-1094 1107 0
-1095 1108 0
-1096 1109 0
-310 -1084 1098 0
-310 -1085 1099 0
-310 -1086 1100 0
-310 -1087 1101 0
-310 -1088 1102 0
-310 -1089 1103 0
-310 -1090 1104 0
-310 -1091 1105 0
-310 -1092 1106 0
-310 -1093 1107 0
-310 -1094 1108 0
-310 -1095 1109 0
-310 -1096 0
-1097 1110 0
-1098 1111 0
-1099 1112 0
-1100 1113 0
-1101 1114 0
-1102 1115 0
-1103 1116 0
-1104 1117 0
-1105 1118 0
-1106 1119 0
-1107 1120 0
-1108 1121 0
-1109 1122 0
-312 -1097 1111 0
-312 -1098 1112 0
-312 -1099 1113 0
-312 -1100 1114 0
-312 -1101 1115 0
-312 -1102 1116 0
-312 -1103 1117 0
-312 -1104 1118 0
-312 -1105 1119 0
-312 -1106 1120 0
-312 -1107 1121 0
-312 -1108 1122 0
-312 -1109 0
-1110 1123 0
-1111 1124 0
-1112 1125 0
-1113 1126 0
-1114 1127 0
-1115 1128 0
-1116 1129 0
-1117 1130 0
-1118 1131 0
-1119 1132 0
-1120 1133 0
-1121 1134 0
-1122 1135 0
-314 -1110 1124 0
-314 -1111 1125 0
-314 -1112 1126 0
-314 -1113 1127 0
-314 -1114 1128 0
-314 -1115 1129 0
-314 -1116 1130 0
-314 -1117 1131 0
-314 -1118 1132 0
-314 -1119 1133 0
-314 -1120 1134 0
-314 -1121 1135 0
-314 -1122 0
-1123 1136 0
-1124 1137 0
-1125 1138 0
-1126 1139 0
-1127 1140 0
-1128 1141 0
-1129 1142 0
-1130 1143 0
-1131 1144 0
-1132 1145 0
-1133 1146 0
-1134 1147 0
-1135 1148 0
-316 -1123 1137 0
-316 -1124 1138 0
-316 -1125 1139 0
-316 -1126 1140 0
-316 -1127 1141 0
-316 -1128 1142 0
-316 -1129 1143 0
-316 -1130 1144 0
-316 -1131 1145 0
-316 -1132 1146 0
-316 -1133 1147 0
-316 -1134 1148 0
-316 -1135 0
-1136 1149 0
-1137 1150 0
-1138 1151 0
-1139 1152 0
-1140 1153 0
-1141 1154 0
-1142 1155 0
-1143 1156 0
-1144 1157 0
-1145 1158 0
-1146 1159 0
-1147 1160 0
-1148 1161 0
-318 -1136 1150 0
-318 -1137 1151 0
-318 -1138 1152 0
-318 -1139 1153 0
-318 -1140 1154 0
-318 -1141 1155 0
-318 -1142 1156 0
-318 -1143 1157 0
-318 -1144 1158 0
-318 -1145 1159 0
-318 -1146 1160 0
-318 -1147 1161 0
-318 -1148 0
-1149 1162 0
-1150 1163 0
-1151 1164 0
-1152 1165 0
-1153 1166 0
-1154 1167 0
-1155 1168 0
-1156 1169 0
-1157 1170 0
-1158 1171 0
-1159 1172 0
-1160 1173 0
-1161 1174 0
-320 -1149 1163 0
-320 -1150 1164 0
-320 -1151 1165 0
-320 -1152 1166 0
-320 -1153 1167 0
-320 -1154 1168 0
-320 -1155 1169 0
-320 -1156 1170 0
-320 -1157 1171 0
-320 -1158 1172 0
-320 -1159 1173 0
-320 -1160 1174 0
-320 -1161 0
-1162 1175 0
-1163 1176 0
-1164 1177 0
-1165 1178 0
-1166 1179 0
-1167 1180 0
-1168 1181 0
-1169 1182 0
-1170 1183 0
-1171 1184 0
-1172 1185 0
-1173 1186 0
-1174 1187 0
-322 -1162 1176 0
-322 -1163 1177 0
-322 -1164 1178 0
-322 -1165 1179 0
-322 -1166 1180 0
-322 -1167 1181 0
-322 -1168 1182 0
-322 -1169 1183 0
-322 -1170 1184 0
-322 -1171 1185 0
-322 -1172 1186 0
-322 -1173 1187 0
-322 -1174 0
-1175 1188 0
-1176 1189 0
-1177 1190 0
-1178 1191 0
-1179 1192 0
-1180 1193 0
-1181 1194 0
-1182 1195 0
-1183 1196 0
-1184 1197 0
-1185 1198 0
-1186 1199 0
-1187 1200 0
-324 -1175 1189 0
-324 -1176 1190 0
-324 -1177 1191 0
-324 -1178 1192 0
-324 -1179 1193 0
-324 -1180 1194 0
-324 -1181 1195 0
-324 -1182 1196 0
-324 -1183 1197 0
-324 -1184 1198 0
-324 -1185 1199 0
-324 -1186 1200 0
-324 -1187 0
-1188 1201 0
-1189 1202 0
-1190 1203 0
-1191 1204 0
-1192 1205 0
-1193 1206 0
-1194 1207 0
-1195 1208 0
-1196 1209 0
-1197 1210 0
-1198 1211 0
-1199 1212 0
-1200 1213 0
-326 -1188 1202 0
-326 -1189 1203 0
-326 -1190 1204 0
-326 -1191 1205 0
-326 -1192 1206 0
-326 -1193 1207 0
-326 -1194 1208 0
-326 -1195 1209 0
-326 -1196 1210 0
-326 -1197 1211 0
-326 -1198 1212 0
-326 -1199 1213 0
-326 -1200 0
-1201 1214 0
-1202 1215 0
-1203 1216 0
-1204 1217 0
-1205 1218 0
-1206 1219 0
-1207 1220 0
-1208 1221 0
-1209 1222 0
-1210 1223 0
-1211 1224 0
-1212 1225 0
-1213 1226 0
-328 -1201 1215 0
-328 -1202 1216 0
-328 -1203 1217 0
-328 -1204 1218 0
-328 -1205 1219 0
-328 -1206 1220 0
-328 -1207 1221 0
-328 -1208 1222 0
-328 -1209 1223 0
-328 -1210 1224 0
-328 -1211 1225 0
-328 -1212 1226 0
-328 -1213 0
-1214 1227 0
-1215 1228 0
-1216 1229 0
-1217 1230 0
-1218 1231 0
-1219 1232 0
-1220 1233 0
-1221 1234 0
-1222 1235 0
-1223 1236 0
-1224 1237 0
-1225 1238 0
-1226 1239 0
-330 -1214 1228 0
-330 -1215 1229 0
-330 -1216 1230 0
-330 -1217 1231 0
-330 -1218 1232 0
-330 -1219 1233 0
-330 -1220 1234 0
-330 -1221 1235 0
-330 -1222 1236 0
-330 -1223 1237 0
-330 -1224 1238 0
-330 -1225 1239 0
-330 -1226 0
-1227 1240 0
-1228 1241 0
-1229 1242 0
-1230 1243 0
-1231 1244 0
-1232 1245 0
-1233 1246 0
-1234 1247 0
-1235 1248 0
-1236 1249 0
-1237 1250 0
-1238 1251 0
-1239 1252 0
-332 -1227 1241 0
-332 -1228 1242 0
-332 -1229 1243 0
-332 -1230 1244 0
-332 -1231 1245 0
-332 -1232 1246 0
-332 -1233 1247 0
-332 -1234 1248 0
-332 -1235 1249 0
-332 -1236 1250 0
-332 -1237 1251 0
-332 -1238 1252 0
-332 -1239 0
-1240 1253 0
-1241 1254 0
-1242 1255 0
-1243 1256 0
-1244 1257 0
-1245 1258 0
-1246 1259 0
-1247 1260 0
-1248 1261 0
-1249 1262 0
-1250 1263 0
-1251 1264 0
-1252 1265 0
-334 -1240 1254 0
-334 -1241 1255 0
-334 -1242 1256 0
-334 -1243 1257 0
-334 -1244 1258 0
-334 -1245 1259 0
-334 -1246 1260 0
-334 -1247 1261 0
-334 -1248 1262 0
-334 -1249 1263 0
-334 -1250 1264 0
-334 -1251 1265 0
-334 -1252 0
-1253 1266 0
-1254 1267 0
-1255 1268 0
-1256 1269 0
-1257 1270 0
-1258 1271 0
-1259 1272 0
-1260 1273 0
-1261 1274 0
-1262 1275 0
-1263 1276 0
-1264 1277 0
-1265 1278 0
-336 -1253 1267 0
-336 -1254 1268 0
-336 -1255 1269 0
-336 -1256 1270 0
-336 -1257 1271 0
-336 -1258 1272 0
-336 -1259 1273 0
-336 -1260 1274 0
-336 -1261 1275 0
-336 -1262 1276 0
-336 -1263 1277 0
-336 -1264 1278 0
-336 -1265 0
-1266 1279 0
-1267 1280 0
-1268 1281 0
-1269 1282 0
-1270 1283 0
-1271 1284 0
-1272 1285 0
-1273 1286 0
-1274 1287 0
-1275 1288 0
-1276 1289 0
-1277 1290 0
-1278 1291 0
-338 -1266 1280 0
-338 -1267 1281 0
-338 -1268 1282 0
-338 -1269 1283 0
-338 -1270 1284 0
-338 -1271 1285 0
-338 -1272 1286 0
-338 -1273 1287 0
-338 -1274 1288 0
-338 -1275 1289 0
-338 -1276 1290 0
-338 -1277 1291 0
-338 -1278 0
-1279 1292 0
-1280 1293 0
-1281 1294 0
-1282 1295 0
-1283 1296 0
-1284 1297 0
-1285 1298 0
-1286 1299 0
-1287 1300 0
-1288 1301 0
-1289 1302 0
-1290 1303 0
-1291 1304 0
-340 -1279 1293 0
-340 -1280 1294 0
-340 -1281 1295 0
-340 -1282 1296 0
-340 -1283 1297 0
-340 -1284 1298 0
-340 -1285 1299 0
-340 -1286 1300 0
-340 -1287 1301 0
-340 -1288 1302 0
-340 -1289 1303 0
-340 -1290 1304 0
-340 -1291 0
-1292 1305 0
-1293 1306 0
-1294 1307 0
-1295 1308 0
-1296 1309 0
-1297 1310 0
-1298 1311 0
-1299 1312 0
-1300 1313 0
-1301 1314 0
-1302 1315 0
-1303 1316 0
-1304 1317 0
-342 -1292 1306 0
-342 -1293 1307 0
-342 -1294 1308 0
-342 -1295 1309 0
-342 -1296 1310 0
-342 -1297 1311 0
-342 -1298 1312 0
-342 -1299 1313 0
-342 -1300 1314 0
-342 -1301 1315 0
-342 -1302 1316 0
-342 -1303 1317 0
-342 -1304 0
