c Speck32 XOR-differential SAT CNF
c word_bits=16 alpha=7 beta=2 rounds=5
c in_dx=None in_dy=None
c out_dx=0x0040 out_dy=0x0000
c max_weight=23
c num_vars=2067 num_clauses=5073
p cnf 2067 5073
-161 0
-162 0
-163 0
-164 0
-165 0
-166 0
167 0
-168 0
-169 0
-170 0
-171 0
-172 0
-173 0
-174 0
-175 0
-176 0
-177 0
-178 0
-179 0
-180 0
-181 0
-182 0
-183 0
-184 0
-185 0
-186 0
-187 0
-188 0
-189 0
-190 0
-191 0
-192 0
8 17 -33 0
8 -17 33 0
-8 17 33 0
-8 -17 -33 0
8 17 33 193 0
-8 -17 -33 193 0
-193 -8 17 0
-193 8 -17 0
-193 -8 33 0
-193 8 -33 0
-193 9 18 34 -17 0
-193 9 18 -34 17 0
-193 9 -18 34 17 0
-193 9 -18 -34 -17 0
-193 -9 18 34 17 0
-193 -9 18 -34 -17 0
-193 -9 -18 34 -17 0
-193 -9 -18 -34 17 0
194 193 0
-194 -193 0
9 18 34 195 0
-9 -18 -34 195 0
-195 -9 18 0
-195 9 -18 0
-195 -9 34 0
-195 9 -34 0
-195 10 19 35 -18 0
-195 10 19 -35 18 0
-195 10 -19 35 18 0
-195 10 -19 -35 -18 0
-195 -10 19 35 18 0
-195 -10 19 -35 -18 0
-195 -10 -19 35 -18 0
-195 -10 -19 -35 18 0
196 195 0
-196 -195 0
10 19 35 197 0
-10 -19 -35 197 0
-197 -10 19 0
-197 10 -19 0
-197 -10 35 0
-197 10 -35 0
-197 11 20 36 -19 0
-197 11 20 -36 19 0
-197 11 -20 36 19 0
-197 11 -20 -36 -19 0
-197 -11 20 36 19 0
-197 -11 20 -36 -19 0
-197 -11 -20 36 -19 0
-197 -11 -20 -36 19 0
198 197 0
-198 -197 0
11 20 36 199 0
-11 -20 -36 199 0
-199 -11 20 0
-199 11 -20 0
-199 -11 36 0
-199 11 -36 0
-199 12 21 37 -20 0
-199 12 21 -37 20 0
-199 12 -21 37 20 0
-199 12 -21 -37 -20 0
-199 -12 21 37 20 0
-199 -12 21 -37 -20 0
-199 -12 -21 37 -20 0
-199 -12 -21 -37 20 0
200 199 0
-200 -199 0
12 21 37 201 0
-12 -21 -37 201 0
-201 -12 21 0
-201 12 -21 0
-201 -12 37 0
-201 12 -37 0
-201 13 22 38 -21 0
-201 13 22 -38 21 0
-201 13 -22 38 21 0
-201 13 -22 -38 -21 0
-201 -13 22 38 21 0
-201 -13 22 -38 -21 0
-201 -13 -22 38 -21 0
-201 -13 -22 -38 21 0
202 201 0
-202 -201 0
13 22 38 203 0
-13 -22 -38 203 0
-203 -13 22 0
-203 13 -22 0
-203 -13 38 0
-203 13 -38 0
-203 14 23 39 -22 0
-203 14 23 -39 22 0
-203 14 -23 39 22 0
-203 14 -23 -39 -22 0
-203 -14 23 39 22 0
-203 -14 23 -39 -22 0
-203 -14 -23 39 -22 0
-203 -14 -23 -39 22 0
204 203 0
-204 -203 0
14 23 39 205 0
-14 -23 -39 205 0
-205 -14 23 0
-205 14 -23 0
-205 -14 39 0
-205 14 -39 0
-205 15 24 40 -23 0
-205 15 24 -40 23 0
-205 15 -24 40 23 0
-205 15 -24 -40 -23 0
-205 -15 24 40 23 0
-205 -15 24 -40 -23 0
-205 -15 -24 40 -23 0
-205 -15 -24 -40 23 0
206 205 0
-206 -205 0
15 24 40 207 0
-15 -24 -40 207 0
-207 -15 24 0
-207 15 -24 0
-207 -15 40 0
-207 15 -40 0
-207 16 25 41 -24 0
-207 16 25 -41 24 0
-207 16 -25 41 24 0
-207 16 -25 -41 -24 0
-207 -16 25 41 24 0
-207 -16 25 -41 -24 0
-207 -16 -25 41 -24 0
-207 -16 -25 -41 24 0
208 207 0
-208 -207 0
16 25 41 209 0
-16 -25 -41 209 0
-209 -16 25 0
-209 16 -25 0
-209 -16 41 0
-209 16 -41 0
-209 1 26 42 -25 0
-209 1 26 -42 25 0
-209 1 -26 42 25 0
-209 1 -26 -42 -25 0
-209 -1 26 42 25 0
-209 -1 26 -42 -25 0
-209 -1 -26 42 -25 0
-209 -1 -26 -42 25 0
210 209 0
-210 -209 0
1 26 42 211 0
-1 -26 -42 211 0
-211 -1 26 0
-211 1 -26 0
-211 -1 42 0
-211 1 -42 0
-211 2 27 43 -26 0
-211 2 27 -43 26 0
-211 2 -27 43 26 0
-211 2 -27 -43 -26 0
-211 -2 27 43 26 0
-211 -2 27 -43 -26 0
-211 -2 -27 43 -26 0
-211 -2 -27 -43 26 0
212 211 0
-212 -211 0
2 27 43 213 0
-2 -27 -43 213 0
-213 -2 27 0
-213 2 -27 0
-213 -2 43 0
-213 2 -43 0
-213 3 28 44 -27 0
-213 3 28 -44 27 0
-213 3 -28 44 27 0
-213 3 -28 -44 -27 0
-213 -3 28 44 27 0
-213 -3 28 -44 -27 0
-213 -3 -28 44 -27 0
-213 -3 -28 -44 27 0
214 213 0
-214 -213 0
3 28 44 215 0
-3 -28 -44 215 0
-215 -3 28 0
-215 3 -28 0
-215 -3 44 0
-215 3 -44 0
-215 4 29 45 -28 0
-215 4 29 -45 28 0
-215 4 -29 45 28 0
-215 4 -29 -45 -28 0
-215 -4 29 45 28 0
-215 -4 29 -45 -28 0
-215 -4 -29 45 -28 0
-215 -4 -29 -45 28 0
216 215 0
-216 -215 0
4 29 45 217 0
-4 -29 -45 217 0
-217 -4 29 0
-217 4 -29 0
-217 -4 45 0
-217 4 -45 0
-217 5 30 46 -29 0
-217 5 30 -46 29 0
-217 5 -30 46 29 0
-217 5 -30 -46 -29 0
-217 -5 30 46 29 0
-217 -5 30 -46 -29 0
-217 -5 -30 46 -29 0
-217 -5 -30 -46 29 0
218 217 0
-218 -217 0
5 30 46 219 0
-5 -30 -46 219 0
-219 -5 30 0
-219 5 -30 0
-219 -5 46 0
-219 5 -46 0
-219 6 31 47 -30 0
-219 6 31 -47 30 0
-219 6 -31 47 30 0
-219 6 -31 -47 -30 0
-219 -6 31 47 30 0
-219 -6 31 -47 -30 0
-219 -6 -31 47 -30 0
-219 -6 -31 -47 30 0
220 219 0
-220 -219 0
6 31 47 221 0
-6 -31 -47 221 0
-221 -6 31 0
-221 6 -31 0
-221 -6 47 0
-221 6 -47 0
-221 7 32 48 -31 0
-221 7 32 -48 31 0
-221 7 -32 48 31 0
-221 7 -32 -48 -31 0
-221 -7 32 48 31 0
-221 -7 32 -48 -31 0
-221 -7 -32 48 -31 0
-221 -7 -32 -48 31 0
222 221 0
-222 -221 0
31 33 -49 0
31 -33 49 0
-31 33 49 0
-31 -33 -49 0
32 34 -50 0
32 -34 50 0
-32 34 50 0
-32 -34 -50 0
17 35 -51 0
17 -35 51 0
-17 35 51 0
-17 -35 -51 0
18 36 -52 0
18 -36 52 0
-18 36 52 0
-18 -36 -52 0
19 37 -53 0
19 -37 53 0
-19 37 53 0
-19 -37 -53 0
20 38 -54 0
20 -38 54 0
-20 38 54 0
-20 -38 -54 0
21 39 -55 0
21 -39 55 0
-21 39 55 0
-21 -39 -55 0
22 40 -56 0
22 -40 56 0
-22 40 56 0
-22 -40 -56 0
23 41 -57 0
23 -41 57 0
-23 41 57 0
-23 -41 -57 0
24 42 -58 0
24 -42 58 0
-24 42 58 0
-24 -42 -58 0
25 43 -59 0
25 -43 59 0
-25 43 59 0
-25 -43 -59 0
26 44 -60 0
26 -44 60 0
-26 44 60 0
-26 -44 -60 0
27 45 -61 0
27 -45 61 0
-27 45 61 0
-27 -45 -61 0
28 46 -62 0
28 -46 62 0
-28 46 62 0
-28 -46 -62 0
29 47 -63 0
29 -47 63 0
-29 47 63 0
-29 -47 -63 0
30 48 -64 0
30 -48 64 0
-30 48 64 0
-30 -48 -64 0
40 49 -65 0
40 -49 65 0
-40 49 65 0
-40 -49 -65 0
40 49 65 223 0
-40 -49 -65 223 0
-223 -40 49 0
-223 40 -49 0
-223 -40 65 0
-223 40 -65 0
-223 41 50 66 -49 0
-223 41 50 -66 49 0
-223 41 -50 66 49 0
-223 41 -50 -66 -49 0
-223 -41 50 66 49 0
-223 -41 50 -66 -49 0
-223 -41 -50 66 -49 0
-223 -41 -50 -66 49 0
224 223 0
-224 -223 0
41 50 66 225 0
-41 -50 -66 225 0
-225 -41 50 0
-225 41 -50 0
-225 -41 66 0
-225 41 -66 0
-225 42 51 67 -50 0
-225 42 51 -67 50 0
-225 42 -51 67 50 0
-225 42 -51 -67 -50 0
-225 -42 51 67 50 0
-225 -42 51 -67 -50 0
-225 -42 -51 67 -50 0
-225 -42 -51 -67 50 0
226 225 0
-226 -225 0
42 51 67 227 0
-42 -51 -67 227 0
-227 -42 51 0
-227 42 -51 0
-227 -42 67 0
-227 42 -67 0
-227 43 52 68 -51 0
-227 43 52 -68 51 0
-227 43 -52 68 51 0
-227 43 -52 -68 -51 0
-227 -43 52 68 51 0
-227 -43 52 -68 -51 0
-227 -43 -52 68 -51 0
-227 -43 -52 -68 51 0
228 227 0
-228 -227 0
43 52 68 229 0
-43 -52 -68 229 0
-229 -43 52 0
-229 43 -52 0
-229 -43 68 0
-229 43 -68 0
-229 44 53 69 -52 0
-229 44 53 -69 52 0
-229 44 -53 69 52 0
-229 44 -53 -69 -52 0
-229 -44 53 69 52 0
-229 -44 53 -69 -52 0
-229 -44 -53 69 -52 0
-229 -44 -53 -69 52 0
230 229 0
-230 -229 0
44 53 69 231 0
-44 -53 -69 231 0
-231 -44 53 0
-231 44 -53 0
-231 -44 69 0
-231 44 -69 0
-231 45 54 70 -53 0
-231 45 54 -70 53 0
-231 45 -54 70 53 0
-231 45 -54 -70 -53 0
-231 -45 54 70 53 0
-231 -45 54 -70 -53 0
-231 -45 -54 70 -53 0
-231 -45 -54 -70 53 0
232 231 0
-232 -231 0
45 54 70 233 0
-45 -54 -70 233 0
-233 -45 54 0
-233 45 -54 0
-233 -45 70 0
-233 45 -70 0
-233 46 55 71 -54 0
-233 46 55 -71 54 0
-233 46 -55 71 54 0
-233 46 -55 -71 -54 0
-233 -46 55 71 54 0
-233 -46 55 -71 -54 0
-233 -46 -55 71 -54 0
-233 -46 -55 -71 54 0
234 233 0
-234 -233 0
46 55 71 235 0
-46 -55 -71 235 0
-235 -46 55 0
-235 46 -55 0
-235 -46 71 0
-235 46 -71 0
-235 47 56 72 -55 0
-235 47 56 -72 55 0
-235 47 -56 72 55 0
-235 47 -56 -72 -55 0
-235 -47 56 72 55 0
-235 -47 56 -72 -55 0
-235 -47 -56 72 -55 0
-235 -47 -56 -72 55 0
236 235 0
-236 -235 0
47 56 72 237 0
-47 -56 -72 237 0
-237 -47 56 0
-237 47 -56 0
-237 -47 72 0
-237 47 -72 0
-237 48 57 73 -56 0
-237 48 57 -73 56 0
-237 48 -57 73 56 0
-237 48 -57 -73 -56 0
-237 -48 57 73 56 0
-237 -48 57 -73 -56 0
-237 -48 -57 73 -56 0
-237 -48 -57 -73 56 0
238 237 0
-238 -237 0
48 57 73 239 0
-48 -57 -73 239 0
-239 -48 57 0
-239 48 -57 0
-239 -48 73 0
-239 48 -73 0
-239 33 58 74 -57 0
-239 33 58 -74 57 0
-239 33 -58 74 57 0
-239 33 -58 -74 -57 0
-239 -33 58 74 57 0
-239 -33 58 -74 -57 0
-239 -33 -58 74 -57 0
-239 -33 -58 -74 57 0
240 239 0
-240 -239 0
33 58 74 241 0
-33 -58 -74 241 0
-241 -33 58 0
-241 33 -58 0
-241 -33 74 0
-241 33 -74 0
-241 34 59 75 -58 0
-241 34 59 -75 58 0
-241 34 -59 75 58 0
-241 34 -59 -75 -58 0
-241 -34 59 75 58 0
-241 -34 59 -75 -58 0
-241 -34 -59 75 -58 0
-241 -34 -59 -75 58 0
242 241 0
-242 -241 0
34 59 75 243 0
-34 -59 -75 243 0
-243 -34 59 0
-243 34 -59 0
-243 -34 75 0
-243 34 -75 0
-243 35 60 76 -59 0
-243 35 60 -76 59 0
-243 35 -60 76 59 0
-243 35 -60 -76 -59 0
-243 -35 60 76 59 0
-243 -35 60 -76 -59 0
-243 -35 -60 76 -59 0
-243 -35 -60 -76 59 0
244 243 0
-244 -243 0
35 60 76 245 0
-35 -60 -76 245 0
-245 -35 60 0
-245 35 -60 0
-245 -35 76 0
-245 35 -76 0
-245 36 61 77 -60 0
-245 36 61 -77 60 0
-245 36 -61 77 60 0
-245 36 -61 -77 -60 0
-245 -36 61 77 60 0
-245 -36 61 -77 -60 0
-245 -36 -61 77 -60 0
-245 -36 -61 -77 60 0
246 245 0
-246 -245 0
36 61 77 247 0
-36 -61 -77 247 0
-247 -36 61 0
-247 36 -61 0
-247 -36 77 0
-247 36 -77 0
-247 37 62 78 -61 0
-247 37 62 -78 61 0
-247 37 -62 78 61 0
-247 37 -62 -78 -61 0
-247 -37 62 78 61 0
-247 -37 62 -78 -61 0
-247 -37 -62 78 -61 0
-247 -37 -62 -78 61 0
248 247 0
-248 -247 0
37 62 78 249 0
-37 -62 -78 249 0
-249 -37 62 0
-249 37 -62 0
-249 -37 78 0
-249 37 -78 0
-249 38 63 79 -62 0
-249 38 63 -79 62 0
-249 38 -63 79 62 0
-249 38 -63 -79 -62 0
-249 -38 63 79 62 0
-249 -38 63 -79 -62 0
-249 -38 -63 79 -62 0
-249 -38 -63 -79 62 0
250 249 0
-250 -249 0
38 63 79 251 0
-38 -63 -79 251 0
-251 -38 63 0
-251 38 -63 0
-251 -38 79 0
-251 38 -79 0
-251 39 64 80 -63 0
-251 39 64 -80 63 0
-251 39 -64 80 63 0
-251 39 -64 -80 -63 0
-251 -39 64 80 63 0
-251 -39 64 -80 -63 0
-251 -39 -64 80 -63 0
-251 -39 -64 -80 63 0
252 251 0
-252 -251 0
63 65 -81 0
63 -65 81 0
-63 65 81 0
-63 -65 -81 0
64 66 -82 0
64 -66 82 0
-64 66 82 0
-64 -66 -82 0
49 67 -83 0
49 -67 83 0
-49 67 83 0
-49 -67 -83 0
50 68 -84 0
50 -68 84 0
-50 68 84 0
-50 -68 -84 0
51 69 -85 0
51 -69 85 0
-51 69 85 0
-51 -69 -85 0
52 70 -86 0
52 -70 86 0
-52 70 86 0
-52 -70 -86 0
53 71 -87 0
53 -71 87 0
-53 71 87 0
-53 -71 -87 0
54 72 -88 0
54 -72 88 0
-54 72 88 0
-54 -72 -88 0
55 73 -89 0
55 -73 89 0
-55 73 89 0
-55 -73 -89 0
56 74 -90 0
56 -74 90 0
-56 74 90 0
-56 -74 -90 0
57 75 -91 0
57 -75 91 0
-57 75 91 0
-57 -75 -91 0
58 76 -92 0
58 -76 92 0
-58 76 92 0
-58 -76 -92 0
59 77 -93 0
59 -77 93 0
-59 77 93 0
-59 -77 -93 0
60 78 -94 0
60 -78 94 0
-60 78 94 0
-60 -78 -94 0
61 79 -95 0
61 -79 95 0
-61 79 95 0
-61 -79 -95 0
62 80 -96 0
62 -80 96 0
-62 80 96 0
-62 -80 -96 0
72 81 -97 0
72 -81 97 0
-72 81 97 0
-72 -81 -97 0
72 81 97 253 0
-72 -81 -97 253 0
-253 -72 81 0
-253 72 -81 0
-253 -72 97 0
-253 72 -97 0
-253 73 82 98 -81 0
-253 73 82 -98 81 0
-253 73 -82 98 81 0
-253 73 -82 -98 -81 0
-253 -73 82 98 81 0
-253 -73 82 -98 -81 0
-253 -73 -82 98 -81 0
-253 -73 -82 -98 81 0
254 253 0
-254 -253 0
73 82 98 255 0
-73 -82 -98 255 0
-255 -73 82 0
-255 73 -82 0
-255 -73 98 0
-255 73 -98 0
-255 74 83 99 -82 0
-255 74 83 -99 82 0
-255 74 -83 99 82 0
-255 74 -83 -99 -82 0
-255 -74 83 99 82 0
-255 -74 83 -99 -82 0
-255 -74 -83 99 -82 0
-255 -74 -83 -99 82 0
256 255 0
-256 -255 0
74 83 99 257 0
-74 -83 -99 257 0
-257 -74 83 0
-257 74 -83 0
-257 -74 99 0
-257 74 -99 0
-257 75 84 100 -83 0
-257 75 84 -100 83 0
-257 75 -84 100 83 0
-257 75 -84 -100 -83 0
-257 -75 84 100 83 0
-257 -75 84 -100 -83 0
-257 -75 -84 100 -83 0
-257 -75 -84 -100 83 0
258 257 0
-258 -257 0
75 84 100 259 0
-75 -84 -100 259 0
-259 -75 84 0
-259 75 -84 0
-259 -75 100 0
-259 75 -100 0
-259 76 85 101 -84 0
-259 76 85 -101 84 0
-259 76 -85 101 84 0
-259 76 -85 -101 -84 0
-259 -76 85 101 84 0
-259 -76 85 -101 -84 0
-259 -76 -85 101 -84 0
-259 -76 -85 -101 84 0
260 259 0
-260 -259 0
76 85 101 261 0
-76 -85 -101 261 0
-261 -76 85 0
-261 76 -85 0
-261 -76 101 0
-261 76 -101 0
-261 77 86 102 -85 0
-261 77 86 -102 85 0
-261 77 -86 102 85 0
-261 77 -86 -102 -85 0
-261 -77 86 102 85 0
-261 -77 86 -102 -85 0
-261 -77 -86 102 -85 0
-261 -77 -86 -102 85 0
262 261 0
-262 -261 0
77 86 102 263 0
-77 -86 -102 263 0
-263 -77 86 0
-263 77 -86 0
-263 -77 102 0
-263 77 -102 0
-263 78 87 103 -86 0
-263 78 87 -103 86 0
-263 78 -87 103 86 0
-263 78 -87 -103 -86 0
-263 -78 87 103 86 0
-263 -78 87 -103 -86 0
-263 -78 -87 103 -86 0
-263 -78 -87 -103 86 0
264 263 0
-264 -263 0
78 87 103 265 0
-78 -87 -103 265 0
-265 -78 87 0
-265 78 -87 0
-265 -78 103 0
-265 78 -103 0
-265 79 88 104 -87 0
-265 79 88 -104 87 0
-265 79 -88 104 87 0
-265 79 -88 -104 -87 0
-265 -79 88 104 87 0
-265 -79 88 -104 -87 0
-265 -79 -88 104 -87 0
-265 -79 -88 -104 87 0
266 265 0
-266 -265 0
79 88 104 267 0
-79 -88 -104 267 0
-267 -79 88 0
-267 79 -88 0
-267 -79 104 0
-267 79 -104 0
-267 80 89 105 -88 0
-267 80 89 -105 88 0
-267 80 -89 105 88 0
-267 80 -89 -105 -88 0
-267 -80 89 105 88 0
-267 -80 89 -105 -88 0
-267 -80 -89 105 -88 0
-267 -80 -89 -105 88 0
268 267 0
-268 -267 0
80 89 105 269 0
-80 -89 -105 269 0
-269 -80 89 0
-269 80 -89 0
-269 -80 105 0
-269 80 -105 0
-269 65 90 106 -89 0
-269 65 90 -106 89 0
-269 65 -90 106 89 0
-269 65 -90 -106 -89 0
-269 -65 90 106 89 0
-269 -65 90 -106 -89 0
-269 -65 -90 106 -89 0
-269 -65 -90 -106 89 0
270 269 0
-270 -269 0
65 90 106 271 0
-65 -90 -106 271 0
-271 -65 90 0
-271 65 -90 0
-271 -65 106 0
-271 65 -106 0
-271 66 91 107 -90 0
-271 66 91 -107 90 0
-271 66 -91 107 90 0
-271 66 -91 -107 -90 0
-271 -66 91 107 90 0
-271 -66 91 -107 -90 0
-271 -66 -91 107 -90 0
-271 -66 -91 -107 90 0
272 271 0
-272 -271 0
66 91 107 273 0
-66 -91 -107 273 0
-273 -66 91 0
-273 66 -91 0
-273 -66 107 0
-273 66 -107 0
-273 67 92 108 -91 0
-273 67 92 -108 91 0
-273 67 -92 108 91 0
-273 67 -92 -108 -91 0
-273 -67 92 108 91 0
-273 -67 92 -108 -91 0
-273 -67 -92 108 -91 0
-273 -67 -92 -108 91 0
274 273 0
-274 -273 0
67 92 108 275 0
-67 -92 -108 275 0
-275 -67 92 0
-275 67 -92 0
-275 -67 108 0
-275 67 -108 0
-275 68 93 109 -92 0
-275 68 93 -109 92 0
-275 68 -93 109 92 0
-275 68 -93 -109 -92 0
-275 -68 93 109 92 0
-275 -68 93 -109 -92 0
-275 -68 -93 109 -92 0
-275 -68 -93 -109 92 0
276 275 0
-276 -275 0
68 93 109 277 0
-68 -93 -109 277 0
-277 -68 93 0
-277 68 -93 0
-277 -68 109 0
-277 68 -109 0
-277 69 94 110 -93 0
-277 69 94 -110 93 0
-277 69 -94 110 93 0
-277 69 -94 -110 -93 0
-277 -69 94 110 93 0
-277 -69 94 -110 -93 0
-277 -69 -94 110 -93 0
-277 -69 -94 -110 93 0
278 277 0
-278 -277 0
69 94 110 279 0
-69 -94 -110 279 0
-279 -69 94 0
-279 69 -94 0
-279 -69 110 0
-279 69 -110 0
-279 70 95 111 -94 0
-279 70 95 -111 94 0
-279 70 -95 111 94 0
-279 70 -95 -111 -94 0
-279 -70 95 111 94 0
-279 -70 95 -111 -94 0
-279 -70 -95 111 -94 0
-279 -70 -95 -111 94 0
280 279 0
-280 -279 0
70 95 111 281 0
-70 -95 -111 281 0
-281 -70 95 0
-281 70 -95 0
-281 -70 111 0
-281 70 -111 0
-281 71 96 112 -95 0
-281 71 96 -112 95 0
-281 71 -96 112 95 0
-281 71 -96 -112 -95 0
-281 -71 96 112 95 0
-281 -71 96 -112 -95 0
-281 -71 -96 112 -95 0
-281 -71 -96 -112 95 0
282 281 0
-282 -281 0
95 97 -113 0
95 -97 113 0
-95 97 113 0
-95 -97 -113 0
96 98 -114 0
96 -98 114 0
-96 98 114 0
-96 -98 -114 0
81 99 -115 0
81 -99 115 0
-81 99 115 0
-81 -99 -115 0
82 100 -116 0
82 -100 116 0
-82 100 116 0
-82 -100 -116 0
83 101 -117 0
83 -101 117 0
-83 101 117 0
-83 -101 -117 0
84 102 -118 0
84 -102 118 0
-84 102 118 0
-84 -102 -118 0
85 103 -119 0
85 -103 119 0
-85 103 119 0
-85 -103 -119 0
86 104 -120 0
86 -104 120 0
-86 104 120 0
-86 -104 -120 0
87 105 -121 0
87 -105 121 0
-87 105 121 0
-87 -105 -121 0
88 106 -122 0
88 -106 122 0
-88 106 122 0
-88 -106 -122 0
89 107 -123 0
89 -107 123 0
-89 107 123 0
-89 -107 -123 0
90 108 -124 0
90 -108 124 0
-90 108 124 0
-90 -108 -124 0
91 109 -125 0
91 -109 125 0
-91 109 125 0
-91 -109 -125 0
92 110 -126 0
92 -110 126 0
-92 110 126 0
-92 -110 -126 0
93 111 -127 0
93 -111 127 0
-93 111 127 0
-93 -111 -127 0
94 112 -128 0
94 -112 128 0
-94 112 128 0
-94 -112 -128 0
104 113 -129 0
104 -113 129 0
-104 113 129 0
-104 -113 -129 0
104 113 129 283 0
-104 -113 -129 283 0
-283 -104 113 0
-283 104 -113 0
-283 -104 129 0
-283 104 -129 0
-283 105 114 130 -113 0
-283 105 114 -130 113 0
-283 105 -114 130 113 0
-283 105 -114 -130 -113 0
-283 -105 114 130 113 0
-283 -105 114 -130 -113 0
-283 -105 -114 130 -113 0
-283 -105 -114 -130 113 0
284 283 0
-284 -283 0
105 114 130 285 0
-105 -114 -130 285 0
-285 -105 114 0
-285 105 -114 0
-285 -105 130 0
-285 105 -130 0
-285 106 115 131 -114 0
-285 106 115 -131 114 0
-285 106 -115 131 114 0
-285 106 -115 -131 -114 0
-285 -106 115 131 114 0
-285 -106 115 -131 -114 0
-285 -106 -115 131 -114 0
-285 -106 -115 -131 114 0
286 285 0
-286 -285 0
106 115 131 287 0
-106 -115 -131 287 0
-287 -106 115 0
-287 106 -115 0
-287 -106 131 0
-287 106 -131 0
-287 107 116 132 -115 0
-287 107 116 -132 115 0
-287 107 -116 132 115 0
-287 107 -116 -132 -115 0
-287 -107 116 132 115 0
-287 -107 116 -132 -115 0
-287 -107 -116 132 -115 0
-287 -107 -116 -132 115 0
288 287 0
-288 -287 0
107 116 132 289 0
-107 -116 -132 289 0
-289 -107 116 0
-289 107 -116 0
-289 -107 132 0
-289 107 -132 0
-289 108 117 133 -116 0
-289 108 117 -133 116 0
-289 108 -117 133 116 0
-289 108 -117 -133 -116 0
-289 -108 117 133 116 0
-289 -108 117 -133 -116 0
-289 -108 -117 133 -116 0
-289 -108 -117 -133 116 0
290 289 0
-290 -289 0
108 117 133 291 0
-108 -117 -133 291 0
-291 -108 117 0
-291 108 -117 0
-291 -108 133 0
-291 108 -133 0
-291 109 118 134 -117 0
-291 109 118 -134 117 0
-291 109 -118 134 117 0
-291 109 -118 -134 -117 0
-291 -109 118 134 117 0
-291 -109 118 -134 -117 0
-291 -109 -118 134 -117 0
-291 -109 -118 -134 117 0
292 291 0
-292 -291 0
109 118 134 293 0
-109 -118 -134 293 0
-293 -109 118 0
-293 109 -118 0
-293 -109 134 0
-293 109 -134 0
-293 110 119 135 -118 0
-293 110 119 -135 118 0
-293 110 -119 135 118 0
-293 110 -119 -135 -118 0
-293 -110 119 135 118 0
-293 -110 119 -135 -118 0
-293 -110 -119 135 -118 0
-293 -110 -119 -135 118 0
294 293 0
-294 -293 0
110 119 135 295 0
-110 -119 -135 295 0
-295 -110 119 0
-295 110 -119 0
-295 -110 135 0
-295 110 -135 0
-295 111 120 136 -119 0
-295 111 120 -136 119 0
-295 111 -120 136 119 0
-295 111 -120 -136 -119 0
-295 -111 120 136 119 0
-295 -111 120 -136 -119 0
-295 -111 -120 136 -119 0
-295 -111 -120 -136 119 0
296 295 0
-296 -295 0
111 120 136 297 0
-111 -120 -136 297 0
-297 -111 120 0
-297 111 -120 0
-297 -111 136 0
-297 111 -136 0
-297 112 121 137 -120 0
-297 112 121 -137 120 0
-297 112 -121 137 120 0
-297 112 -121 -137 -120 0
-297 -112 121 137 120 0
-297 -112 121 -137 -120 0
-297 -112 -121 137 -120 0
-297 -112 -121 -137 120 0
298 297 0
-298 -297 0
112 121 137 299 0
-112 -121 -137 299 0
-299 -112 121 0
-299 112 -121 0
-299 -112 137 0
-299 112 -137 0
-299 97 122 138 -121 0
-299 97 122 -138 121 0
-299 97 -122 138 121 0
-299 97 -122 -138 -121 0
-299 -97 122 138 121 0
-299 -97 122 -138 -121 0
-299 -97 -122 138 -121 0
-299 -97 -122 -138 121 0
300 299 0
-300 -299 0
97 122 138 301 0
-97 -122 -138 301 0
-301 -97 122 0
-301 97 -122 0
-301 -97 138 0
-301 97 -138 0
-301 98 123 139 -122 0
-301 98 123 -139 122 0
-301 98 -123 139 122 0
-301 98 -123 -139 -122 0
-301 -98 123 139 122 0
-301 -98 123 -139 -122 0
-301 -98 -123 139 -122 0
-301 -98 -123 -139 122 0
302 301 0
-302 -301 0
98 123 139 303 0
-98 -123 -139 303 0
-303 -98 123 0
-303 98 -123 0
-303 -98 139 0
-303 98 -139 0
-303 99 124 140 -123 0
-303 99 124 -140 123 0
-303 99 -124 140 123 0
-303 99 -124 -140 -123 0
-303 -99 124 140 123 0
-303 -99 124 -140 -123 0
-303 -99 -124 140 -123 0
-303 -99 -124 -140 123 0
304 303 0
-304 -303 0
99 124 140 305 0
-99 -124 -140 305 0
-305 -99 124 0
-305 99 -124 0
-305 -99 140 0
-305 99 -140 0
-305 100 125 141 -124 0
-305 100 125 -141 124 0
-305 100 -125 141 124 0
-305 100 -125 -141 -124 0
-305 -100 125 141 124 0
-305 -100 125 -141 -124 0
-305 -100 -125 141 -124 0
-305 -100 -125 -141 124 0
306 305 0
-306 -305 0
100 125 141 307 0
-100 -125 -141 307 0
-307 -100 125 0
-307 100 -125 0
-307 -100 141 0
-307 100 -141 0
-307 101 126 142 -125 0
-307 101 126 -142 125 0
-307 101 -126 142 125 0
-307 101 -126 -142 -125 0
-307 -101 126 142 125 0
-307 -101 126 -142 -125 0
-307 -101 -126 142 -125 0
-307 -101 -126 -142 125 0
308 307 0
-308 -307 0
101 126 142 309 0
-101 -126 -142 309 0
-309 -101 126 0
-309 101 -126 0
-309 -101 142 0
-309 101 -142 0
-309 102 127 143 -126 0
-309 102 127 -143 126 0
-309 102 -127 143 126 0
-309 102 -127 -143 -126 0
-309 -102 127 143 126 0
-309 -102 127 -143 -126 0
-309 -102 -127 143 -126 0
-309 -102 -127 -143 126 0
310 309 0
-310 -309 0
102 127 143 311 0
-102 -127 -143 311 0
-311 -102 127 0
-311 102 -127 0
-311 -102 143 0
-311 102 -143 0
-311 103 128 144 -127 0
-311 103 128 -144 127 0
-311 103 -128 144 127 0
-311 103 -128 -144 -127 0
-311 -103 128 144 127 0
-311 -103 128 -144 -127 0
-311 -103 -128 144 -127 0
-311 -103 -128 -144 127 0
312 311 0
-312 -311 0
127 129 -145 0
127 -129 145 0
-127 129 145 0
-127 -129 -145 0
128 130 -146 0
128 -130 146 0
-128 130 146 0
-128 -130 -146 0
113 131 -147 0
113 -131 147 0
-113 131 147 0
-113 -131 -147 0
114 132 -148 0
114 -132 148 0
-114 132 148 0
-114 -132 -148 0
115 133 -149 0
115 -133 149 0
-115 133 149 0
-115 -133 -149 0
116 134 -150 0
116 -134 150 0
-116 134 150 0
-116 -134 -150 0
117 135 -151 0
117 -135 151 0
-117 135 151 0
-117 -135 -151 0
118 136 -152 0
118 -136 152 0
-118 136 152 0
-118 -136 -152 0
119 137 -153 0
119 -137 153 0
-119 137 153 0
-119 -137 -153 0
120 138 -154 0
120 -138 154 0
-120 138 154 0
-120 -138 -154 0
121 139 -155 0
121 -139 155 0
-121 139 155 0
-121 -139 -155 0
122 140 -156 0
122 -140 156 0
-122 140 156 0
-122 -140 -156 0
123 141 -157 0
123 -141 157 0
-123 141 157 0
-123 -141 -157 0
124 142 -158 0
124 -142 158 0
-124 142 158 0
-124 -142 -158 0
125 143 -159 0
125 -143 159 0
-125 143 159 0
-125 -143 -159 0
126 144 -160 0
126 -144 160 0
-126 144 160 0
-126 -144 -160 0
136 145 -161 0
136 -145 161 0
-136 145 161 0
-136 -145 -161 0
136 145 161 313 0
-136 -145 -161 313 0
-313 -136 145 0
-313 136 -145 0
-313 -136 161 0
-313 136 -161 0
-313 137 146 162 -145 0
-313 137 146 -162 145 0
-313 137 -146 162 145 0
-313 137 -146 -162 -145 0
-313 -137 146 162 145 0
-313 -137 146 -162 -145 0
-313 -137 -146 162 -145 0
-313 -137 -146 -162 145 0
314 313 0
-314 -313 0
137 146 162 315 0
-137 -146 -162 315 0
-315 -137 146 0
-315 137 -146 0
-315 -137 162 0
-315 137 -162 0
-315 138 147 163 -146 0
-315 138 147 -163 146 0
-315 138 -147 163 146 0
-315 138 -147 -163 -146 0
-315 -138 147 163 146 0
-315 -138 147 -163 -146 0
-315 -138 -147 163 -146 0
-315 -138 -147 -163 146 0
316 315 0
-316 -315 0
138 147 163 317 0
-138 -147 -163 317 0
-317 -138 147 0
-317 138 -147 0
-317 -138 163 0
-317 138 -163 0
-317 139 148 164 -147 0
-317 139 148 -164 147 0
-317 139 -148 164 147 0
-317 139 -148 -164 -147 0
-317 -139 148 164 147 0
-317 -139 148 -164 -147 0
-317 -139 -148 164 -147 0
-317 -139 -148 -164 147 0
318 317 0
-318 -317 0
139 148 164 319 0
-139 -148 -164 319 0
-319 -139 148 0
-319 139 -148 0
-319 -139 164 0
-319 139 -164 0
-319 140 149 165 -148 0
-319 140 149 -165 148 0
-319 140 -149 165 148 0
-319 140 -149 -165 -148 0
-319 -140 149 165 148 0
-319 -140 149 -165 -148 0
-319 -140 -149 165 -148 0
-319 -140 -149 -165 148 0
320 319 0
-320 -319 0
140 149 165 321 0
-140 -149 -165 321 0
-321 -140 149 0
-321 140 -149 0
-321 -140 165 0
-321 140 -165 0
-321 141 150 166 -149 0
-321 141 150 -166 149 0
-321 141 -150 166 149 0
-321 141 -150 -166 -149 0
-321 -141 150 166 149 0
-321 -141 150 -166 -149 0
-321 -141 -150 166 -149 0
-321 -141 -150 -166 149 0
322 321 0
-322 -321 0
141 150 166 323 0
-141 -150 -166 323 0
-323 -141 150 0
-323 141 -150 0
-323 -141 166 0
-323 141 -166 0
-323 142 151 167 -150 0
-323 142 151 -167 150 0
-323 142 -151 167 150 0
-323 142 -151 -167 -150 0
-323 -142 151 167 150 0
-323 -142 151 -167 -150 0
-323 -142 -151 167 -150 0
-323 -142 -151 -167 150 0
324 323 0
-324 -323 0
142 151 167 325 0
-142 -151 -167 325 0
-325 -142 151 0
-325 142 -151 0
-325 -142 167 0
-325 142 -167 0
-325 143 152 168 -151 0
-325 143 152 -168 151 0
-325 143 -152 168 151 0
-325 143 -152 -168 -151 0
-325 -143 152 168 151 0
-325 -143 152 -168 -151 0
-325 -143 -152 168 -151 0
-325 -143 -152 -168 151 0
326 325 0
-326 -325 0
143 152 168 327 0
-143 -152 -168 327 0
-327 -143 152 0
-327 143 -152 0
-327 -143 168 0
-327 143 -168 0
-327 144 153 169 -152 0
-327 144 153 -169 152 0
-327 144 -153 169 152 0
-327 144 -153 -169 -152 0
-327 -144 153 169 152 0
-327 -144 153 -169 -152 0
-327 -144 -153 169 -152 0
-327 -144 -153 -169 152 0
328 327 0
-328 -327 0
144 153 169 329 0
-144 -153 -169 329 0
-329 -144 153 0
-329 144 -153 0
-329 -144 169 0
-329 144 -169 0
-329 129 154 170 -153 0
-329 129 154 -170 153 0
-329 129 -154 170 153 0
-329 129 -154 -170 -153 0
-329 -129 154 170 153 0
-329 -129 154 -170 -153 0
-329 -129 -154 170 -153 0
-329 -129 -154 -170 153 0
330 329 0
-330 -329 0
129 154 170 331 0
-129 -154 -170 331 0
-331 -129 154 0
-331 129 -154 0
-331 -129 170 0
-331 129 -170 0
-331 130 155 171 -154 0
-331 130 155 -171 154 0
-331 130 -155 171 154 0
-331 130 -155 -171 -154 0
-331 -130 155 171 154 0
-331 -130 155 -171 -154 0
-331 -130 -155 171 -154 0
-331 -130 -155 -171 154 0
332 331 0
-332 -331 0
130 155 171 333 0
-130 -155 -171 333 0
-333 -130 155 0
-333 130 -155 0
-333 -130 171 0
-333 130 -171 0
-333 131 156 172 -155 0
-333 131 156 -172 155 0
-333 131 -156 172 155 0
-333 131 -156 -172 -155 0
-333 -131 156 172 155 0
-333 -131 156 -172 -155 0
-333 -131 -156 172 -155 0
-333 -131 -156 -172 155 0
334 333 0
-334 -333 0
131 156 172 335 0
-131 -156 -172 335 0
-335 -131 156 0
-335 131 -156 0
-335 -131 172 0
-335 131 -172 0
-335 132 157 173 -156 0
-335 132 157 -173 156 0
-335 132 -157 173 156 0
-335 132 -157 -173 -156 0
-335 -132 157 173 156 0
-335 -132 157 -173 -156 0
-335 -132 -157 173 -156 0
-335 -132 -157 -173 156 0
336 335 0
-336 -335 0
132 157 173 337 0
-132 -157 -173 337 0
-337 -132 157 0
-337 132 -157 0
-337 -132 173 0
-337 132 -173 0
-337 133 158 174 -157 0
-337 133 158 -174 157 0
-337 133 -158 174 157 0
-337 133 -158 -174 -157 0
-337 -133 158 174 157 0
-337 -133 158 -174 -157 0
-337 -133 -158 174 -157 0
-337 -133 -158 -174 157 0
338 337 0
-338 -337 0
133 158 174 339 0
-133 -158 -174 339 0
-339 -133 158 0
-339 133 -158 0
-339 -133 174 0
-339 133 -174 0
-339 134 159 175 -158 0
-339 134 159 -175 158 0
-339 134 -159 175 158 0
-339 134 -159 -175 -158 0
-339 -134 159 175 158 0
-339 -134 159 -175 -158 0
-339 -134 -159 175 -158 0
-339 -134 -159 -175 158 0
340 339 0
-340 -339 0
134 159 175 341 0
-134 -159 -175 341 0
-341 -134 159 0
-341 134 -159 0
-341 -134 175 0
-341 134 -175 0
-341 135 160 176 -159 0
-341 135 160 -176 159 0
-341 135 -160 176 159 0
-341 135 -160 -176 -159 0
-341 -135 160 176 159 0
-341 -135 160 -176 -159 0
-341 -135 -160 176 -159 0
-341 -135 -160 -176 159 0
342 341 0
-342 -341 0
159 161 -177 0
159 -161 177 0
-159 161 177 0
-159 -161 -177 0
160 162 -178 0
160 -162 178 0
-160 162 178 0
-160 -162 -178 0
145 163 -179 0
145 -163 179 0
-145 163 179 0
-145 -163 -179 0
146 164 -180 0
146 -164 180 0
-146 164 180 0
-146 -164 -180 0
147 165 -181 0
147 -165 181 0
-147 165 181 0
-147 -165 -181 0
148 166 -182 0
148 -166 182 0
-148 166 182 0
-148 -166 -182 0
149 167 -183 0
149 -167 183 0
-149 167 183 0
-149 -167 -183 0
150 168 -184 0
150 -168 184 0
-150 168 184 0
-150 -168 -184 0
151 169 -185 0
151 -169 185 0
-151 169 185 0
-151 -169 -185 0
152 170 -186 0
152 -170 186 0
-152 170 186 0
-152 -170 -186 0
153 171 -187 0
153 -171 187 0
-153 171 187 0
-153 -171 -187 0
154 172 -188 0
154 -172 188 0
-154 172 188 0
-154 -172 -188 0
155 173 -189 0
155 -173 189 0
-155 173 189 0
-155 -173 -189 0
156 174 -190 0
156 -174 190 0
-156 174 190 0
-156 -174 -190 0
157 175 -191 0
157 -175 191 0
-157 175 191 0
-157 -175 -191 0
158 176 -192 0
158 -176 192 0
-158 176 192 0
-158 -176 -192 0
-344 0
-345 0
-346 0
-347 0
-348 0
-349 0
-350 0
-351 0
-352 0
-353 0
-354 0
-355 0
-356 0
-357 0
-358 0
-359 0
-360 0
-361 0
-362 0
-363 0
-364 0
-365 0
-194 343 0
-196 366 0
-198 389 0
-200 412 0
-202 435 0
-204 458 0
-206 481 0
-208 504 0
-210 527 0
-212 550 0
-214 573 0
-216 596 0
-218 619 0
-220 642 0
-222 665 0
-224 688 0
-226 711 0
-228 734 0
-230 757 0
-232 780 0
-234 803 0
-236 826 0
-238 849 0
-240 872 0
-242 895 0
-244 918 0
-246 941 0
-248 964 0
-250 987 0
-252 1010 0
-254 1033 0
-256 1056 0
-258 1079 0
-260 1102 0
-262 1125 0
-264 1148 0
-266 1171 0
-268 1194 0
-270 1217 0
-272 1240 0
-274 1263 0
-276 1286 0
-278 1309 0
-280 1332 0
-282 1355 0
-284 1378 0
-286 1401 0
-288 1424 0
-290 1447 0
-292 1470 0
-294 1493 0
-296 1516 0
-298 1539 0
-300 1562 0
-302 1585 0
-304 1608 0
-306 1631 0
-308 1654 0
-310 1677 0
-312 1700 0
-314 1723 0
-316 1746 0
-318 1769 0
-320 1792 0
-322 1815 0
-324 1838 0
-326 1861 0
-328 1884 0
-330 1907 0
-332 1930 0
-334 1953 0
-336 1976 0
-338 1999 0
-340 2022 0
-342 2045 0
-343 366 0
-344 367 0
-345 368 0
-346 369 0
-347 370 0
-348 371 0
-349 372 0
-350 373 0
-351 374 0
-352 375 0
-353 376 0
-354 377 0
-355 378 0
-356 379 0
-357 380 0
-358 381 0
-359 382 0
-360 383 0
-361 384 0
-362 385 0
-363 386 0
-364 387 0
-365 388 0
-196 -343 367 0
-196 -344 368 0
-196 -345 369 0
-196 -346 370 0
-196 -347 371 0
-196 -348 372 0
-196 -349 373 0
-196 -350 374 0
-196 -351 375 0
-196 -352 376 0
-196 -353 377 0
-196 -354 378 0
-196 -355 379 0
-196 -356 380 0
-196 -357 381 0
-196 -358 382 0
-196 -359 383 0
-196 -360 384 0
-196 -361 385 0
-196 -362 386 0
-196 -363 387 0
-196 -364 388 0
-196 -365 0
-366 389 0
-367 390 0
-368 391 0
-369 392 0
-370 393 0
-371 394 0
-372 395 0
-373 396 0
-374 397 0
-375 398 0
-376 399 0
-377 400 0
-378 401 0
-379 402 0
-380 403 0
-381 404 0
-382 405 0
-383 406 0
-384 407 0
-385 408 0
-386 409 0
-387 410 0
-388 411 0
-198 -366 390 0
-198 -367 391 0
-198 -368 392 0
-198 -369 393 0
-198 -370 394 0
-198 -371 395 0
-198 -372 396 0
-198 -373 397 0
-198 -374 398 0
-198 -375 399 0
-198 -376 400 0
-198 -377 401 0
-198 -378 402 0
-198 -379 403 0
-198 -380 404 0
-198 -381 405 0
-198 -382 406 0
-198 -383 407 0
-198 -384 408 0
-198 -385 409 0
-198 -386 410 0
-198 -387 411 0
-198 -388 0
-389 412 0
-390 413 0
-391 414 0
-392 415 0
-393 416 0
-394 417 0
-395 418 0
-396 419 0
-397 420 0
-398 421 0
-399 422 0
-400 423 0
-401 424 0
-402 425 0
-403 426 0
-404 427 0
-405 428 0
-406 429 0
-407 430 0
-408 431 0
-409 432 0
-410 433 0
-411 434 0
-200 -389 413 0
-200 -390 414 0
-200 -391 415 0
-200 -392 416 0
-200 -393 417 0
-200 -394 418 0
-200 -395 419 0
-200 -396 420 0
-200 -397 421 0
-200 -398 422 0
-200 -399 423 0
-200 -400 424 0
-200 -401 425 0
-200 -402 426 0
-200 -403 427 0
-200 -404 428 0
-200 -405 429 0
-200 -406 430 0
-200 -407 431 0
-200 -408 432 0
-200 -409 433 0
-200 -410 434 0
-200 -411 0
-412 435 0
-413 436 0
-414 437 0
-415 438 0
-416 439 0
-417 440 0
-418 441 0
-419 442 0
-420 443 0
-421 444 0
-422 445 0
-423 446 0
-424 447 0
-425 448 0
-426 449 0
-427 450 0
-428 451 0
-429 452 0
-430 453 0
-431 454 0
-432 455 0
-433 456 0
-434 457 0
-202 -412 436 0
-202 -413 437 0
-202 -414 438 0
-202 -415 439 0
-202 -416 440 0
-202 -417 441 0
-202 -418 442 0
-202 -419 443 0
-202 -420 444 0
-202 -421 445 0
-202 -422 446 0
-202 -423 447 0
-202 -424 448 0
-202 -425 449 0
-202 -426 450 0
-202 -427 451 0
-202 -428 452 0
-202 -429 453 0
-202 -430 454 0
-202 -431 455 0
-202 -432 456 0
-202 -433 457 0
-202 -434 0
-435 458 0
-436 459 0
-437 460 0
-438 461 0
-439 462 0
-440 463 0
-441 464 0
-442 465 0
-443 466 0
-444 467 0
-445 468 0
-446 469 0
-447 470 0
-448 471 0
-449 472 0
-450 473 0
-451 474 0
-452 475 0
-453 476 0
-454 477 0
-455 478 0
-456 479 0
-457 480 0
-204 -435 459 0
-204 -436 460 0
-204 -437 461 0
-204 -438 462 0
-204 -439 463 0
-204 -440 464 0
-204 -441 465 0
-204 -442 466 0
-204 -443 467 0
-204 -444 468 0
-204 -445 469 0
-204 -446 470 0
-204 -447 471 0
-204 -448 472 0
-204 -449 473 0
-204 -450 474 0
-204 -451 475 0
-204 -452 476 0
-204 -453 477 0
-204 -454 478 0
-204 -455 479 0
-204 -456 480 0
-204 -457 0
-458 481 0
-459 482 0
-460 483 0
-461 484 0
-462 485 0
-463 486 0
-464 487 0
-465 488 0
-466 489 0
-467 490 0
-468 491 0
-469 492 0
-470 493 0
-471 494 0
-472 495 0
-473 496 0
-474 497 0
-475 498 0
-476 499 0
-477 500 0
-478 501 0
-479 502 0
-480 503 0
-206 -458 482 0
-206 -459 483 0
-206 -460 484 0
-206 -461 485 0
-206 -462 486 0
-206 -463 487 0
-206 -464 488 0
-206 -465 489 0
-206 -466 490 0
-206 -467 491 0
-206 -468 492 0
-206 -469 493 0
-206 -470 494 0
-206 -471 495 0
-206 -472 496 0
-206 -473 497 0
-206 -474 498 0
-206 -475 499 0
-206 -476 500 0
-206 -477 501 0
-206 -478 502 0
-206 -479 503 0
-206 -480 0
-481 504 0
-482 505 0
-483 506 0
-484 507 0
-485 508 0
-486 509 0
-487 510 0
-488 511 0
-489 512 0
-490 513 0
-491 514 0
-492 515 0
-493 516 0
-494 517 0
-495 518 0
-496 519 0
-497 520 0
-498 521 0
-499 522 0
-500 523 0
-501 524 0
-502 525 0
-503 526 0
-208 -481 505 0
-208 -482 506 0
-208 -483 507 0
-208 -484 508 0
-208 -485 509 0
-208 -486 510 0
-208 -487 511 0
-208 -488 512 0
-208 -489 513 0
-208 -490 514 0
-208 -491 515 0
-208 -492 516 0
-208 -493 517 0
-208 -494 518 0
-208 -495 519 0
-208 -496 520 0
-208 -497 521 0
-208 -498 522 0
-208 -499 523 0
-208 -500 524 0
-208 -501 525 0
-208 -502 526 0
-208 -503 0
-504 527 0
-505 528 0
-506 529 0
-507 530 0
-508 531 0
-509 532 0
-510 533 0
-511 534 0
-512 535 0
-513 536 0
-514 537 0
-515 538 0
-516 539 0
-517 540 0
-518 541 0
-519 542 0
-520 543 0
-521 544 0
-522 545 0
-523 546 0
-524 547 0
-525 548 0
-526 549 0
-210 -504 528 0
-210 -505 529 0
-210 -506 530 0
-210 -507 531 0
-210 -508 532 0
-210 -509 533 0
-210 -510 534 0
-210 -511 535 0
-210 -512 536 0
-210 -513 537 0
-210 -514 538 0
-210 -515 539 0
-210 -516 540 0
-210 -517 541 0
-210 -518 542 0
-210 -519 543 0
-210 -520 544 0
-210 -521 545 0
-210 -522 546 0
-210 -523 547 0
-210 -524 548 0
-210 -525 549 0
-210 -526 0
-527 550 0
-528 551 0
-529 552 0
-530 553 0
-531 554 0
-532 555 0
-533 556 0
-534 557 0
-535 558 0
-536 559 0
-537 560 0
-538 561 0
-539 562 0
-540 563 0
-541 564 0
-542 565 0
-543 566 0
-544 567 0
-545 568 0
-546 569 0
-547 570 0
-548 571 0
-549 572 0
-212 -527 551 0
-212 -528 552 0
-212 -529 553 0
-212 -530 554 0
-212 -531 555 0
-212 -532 556 0
-212 -533 557 0
-212 -534 558 0
-212 -535 559 0
-212 -536 560 0
-212 -537 561 0
-212 -538 562 0
-212 -539 563 0
-212 -540 564 0
-212 -541 565 0
-212 -542 566 0
-212 -543 567 0
-212 -544 568 0
-212 -545 569 0
-212 -546 570 0
-212 -547 571 0
-212 -548 572 0
-212 -549 0
-550 573 0
-551 574 0
-552 575 0
-553 576 0
-554 577 0
-555 578 0
-556 579 0
-557 580 0
-558 581 0
-559 582 0
-560 583 0
-561 584 0
-562 585 0
-563 586 0
-564 587 0
-565 588 0
-566 589 0
-567 590 0
-568 591 0
-569 592 0
-570 593 0
-571 594 0
-572 595 0
-214 -550 574 0
-214 -551 575 0
-214 -552 576 0
-214 -553 577 0
-214 -554 578 0
-214 -555 579 0
-214 -556 580 0
-214 -557 581 0
-214 -558 582 0
-214 -559 583 0
-214 -560 584 0
-214 -561 585 0
-214 -562 586 0
-214 -563 587 0
-214 -564 588 0
-214 -565 589 0
-214 -566 590 0
-214 -567 591 0
-214 -568 592 0
-214 -569 593 0
-214 -570 594 0
-214 -571 595 0
-214 -572 0
-573 596 0
-574 597 0
-575 598 0
-576 599 0
-577 600 0
-578 601 0
-579 602 0
-580 603 0
-581 604 0
-582 605 0
-583 606 0
-584 607 0
-585 608 0
-586 609 0
-587 610 0
-588 611 0
-589 612 0
-590 613 0
-591 614 0
-592 615 0
-593 616 0
-594 617 0
-595 618 0
-216 -573 597 0
-216 -574 598 0
-216 -575 599 0
-216 -576 600 0
-216 -577 601 0
-216 -578 602 0
-216 -579 603 0
-216 -580 604 0
-216 -581 605 0
-216 -582 606 0
-216 -583 607 0
-216 -584 608 0
-216 -585 609 0
-216 -586 610 0
-216 -587 611 0
-216 -588 612 0
-216 -589 613 0
-216 -590 614 0
-216 -591 615 0
-216 -592 616 0
-216 -593 617 0
-216 -594 618 0
-216 -595 0
-596 619 0
-597 620 0
-598 621 0
-599 622 0
-600 623 0
-601 624 0
-602 625 0
-603 626 0
-604 627 0
-605 628 0
-606 629 0
-607 630 0
-608 631 0
-609 632 0
-610 633 0
-611 634 0
-612 635 0
-613 636 0
-614 637 0
-615 638 0
-616 639 0
-617 640 0
-618 641 0
-218 -596 620 0
-218 -597 621 0
-218 -598 622 0
-218 -599 623 0
-218 -600 624 0
-218 -601 625 0
-218 -602 626 0
-218 -603 627 0
-218 -604 628 0
-218 -605 629 0
-218 -606 630 0
-218 -607 631 0
-218 -608 632 0
-218 -609 633 0
-218 -610 634 0
-218 -611 635 0
-218 -612 636 0
-218 -613 637 0
-218 -614 638 0
-218 -615 639 0
-218 -616 640 0
-218 -617 641 0
-218 -618 0
-619 642 0
-620 643 0
-621 644 0
-622 645 0
-623 646 0
-624 647 0
-625 648 0
-626 649 0
-627 650 0
-628 651 0
-629 652 0
-630 653 0
-631 654 0
-632 655 0
-633 656 0
-634 657 0
-635 658 0
-636 659 0
-637 660 0
-638 661 0
-639 662 0
-640 663 0
-641 664 0
-220 -619 643 0
-220 -620 644 0
-220 -621 645 0
-220 -622 646 0
-220 -623 647 0
-220 -624 648 0
-220 -625 649 0
-220 -626 650 0
-220 -627 651 0
-220 -628 652 0
-220 -629 653 0
-220 -630 654 0
-220 -631 655 0
-220 -632 656 0
-220 -633 657 0
-220 -634 658 0
-220 -635 659 0
-220 -636 660 0
-220 -637 661 0
-220 -638 662 0
-220 -639 663 0
-220 -640 664 0
-220 -641 0
-642 665 0
-643 666 0
-644 667 0
-645 668 0
-646 669 0
-647 670 0
-648 671 0
-649 672 0
-650 673 0
-651 674 0
-652 675 0
-653 676 0
-654 677 0
-655 678 0
-656 679 0
-657 680 0
-658 681 0
-659 682 0
-660 683 0
-661 684 0
-662 685 0
-663 686 0
-664 687 0
-222 -642 666 0
-222 -643 667 0
-222 -644 668 0
-222 -645 669 0
-222 -646 670 0
-222 -647 671 0
-222 -648 672 0
-222 -649 673 0
-222 -650 674 0
-222 -651 675 0
-222 -652 676 0
-222 -653 677 0
-222 -654 678 0
-222 -655 679 0
-222 -656 680 0
-222 -657 681 0
-222 -658 682 0
-222 -659 683 0
-222 -660 684 0
-222 -661 685 0
-222 -662 686 0
-222 -663 687 0
-222 -664 0
-665 688 0
-666 689 0
-667 690 0
-668 691 0
-669 692 0
-670 693 0
-671 694 0
-672 695 0
-673 696 0
-674 697 0
-675 698 0
-676 699 0
-677 700 0
-678 701 0
-679 702 0
-680 703 0
-681 704 0
-682 705 0
-683 706 0
-684 707 0
-685 708 0
-686 709 0
-687 710 0
-224 -665 689 0
-224 -666 690 0
-224 -667 691 0
-224 -668 692 0
-224 -669 693 0
-224 -670 694 0
-224 -671 695 0
-224 -672 696 0
-224 -673 697 0
-224 -674 698 0
-224 -675 699 0
-224 -676 700 0
-224 -677 701 0
-224 -678 702 0
-224 -679 703 0
-224 -680 704 0
-224 -681 705 0
-224 -682 706 0
-224 -683 707 0
-224 -684 708 0
-224 -685 709 0
-224 -686 710 0
-224 -687 0
-688 711 0
-689 712 0
-690 713 0
-691 714 0
-692 715 0
-693 716 0
-694 717 0
-695 718 0
-696 719 0
-697 720 0
-698 721 0
-699 722 0
-700 723 0
-701 724 0
-702 725 0
-703 726 0
-704 727 0
-705 728 0
-706 729 0
-707 730 0
-708 731 0
-709 732 0
-710 733 0
-226 -688 712 0
-226 -689 713 0
-226 -690 714 0
-226 -691 715 0
-226 -692 716 0
-226 -693 717 0
-226 -694 718 0
-226 -695 719 0
-226 -696 720 0
-226 -697 721 0
-226 -698 722 0
-226 -699 723 0
-226 -700 724 0
-226 -701 725 0
-226 -702 726 0
-226 -703 727 0
-226 -704 728 0
-226 -705 729 0
-226 -706 730 0
-226 -707 731 0
-226 -708 732 0
-226 -709 733 0
-226 -710 0
-711 734 0
-712 735 0
-713 736 0
-714 737 0
-715 738 0
-716 739 0
-717 740 0
-718 741 0
-719 742 0
-720 743 0
-721 744 0
-722 745 0
-723 746 0
-724 747 0
-725 748 0
-726 749 0
-727 750 0
-728 751 0
-729 752 0
-730 753 0
-731 754 0
-732 755 0
-733 756 0
-228 -711 735 0
-228 -712 736 0
-228 -713 737 0
-228 -714 738 0
-228 -715 739 0
-228 -716 740 0
-228 -717 741 0
-228 -718 742 0
-228 -719 743 0
-228 -720 744 0
-228 -721 745 0
-228 -722 746 0
-228 -723 747 0
-228 -724 748 0
-228 -725 749 0
-228 -726 750 0
-228 -727 751 0
-228 -728 752 0
-228 -729 753 0
-228 -730 754 0
-228 -731 755 0
-228 -732 756 0
-228 -733 0
-734 757 0
-735 758 0
-736 759 0
-737 760 0
-738 761 0
-739 762 0
-740 763 0
-741 764 0
-742 765 0
-743 766 0
-744 767 0
-745 768 0
-746 769 0
-747 770 0
-748 771 0
-749 772 0
-750 773 0
-751 774 0
-752 775 0
-753 776 0
-754 777 0
-755 778 0
-756 779 0
-230 -734 758 0
-230 -735 759 0
-230 -736 760 0
-230 -737 761 0
-230 -738 762 0
-230 -739 763 0
-230 -740 764 0
-230 -741 765 0
-230 -742 766 0
-230 -743 767 0
-230 -744 768 0
-230 -745 769 0
-230 -746 770 0
-230 -747 771 0
-230 -748 772 0
-230 -749 773 0
-230 -750 774 0
-230 -751 775 0
-230 -752 776 0
-230 -753 777 0
-230 -754 778 0
-230 -755 779 0
-230 -756 0
-757 780 0
-758 781 0
-759 782 0
-760 783 0
-761 784 0
-762 785 0
-763 786 0
-764 787 0
-765 788 0
-766 789 0
-767 790 0
-768 791 0
-769 792 0
-770 793 0
-771 794 0
-772 795 0
-773 796 0
-774 797 0
-775 798 0
-776 799 0
-777 800 0
-778 801 0
-779 802 0
-232 -757 781 0
-232 -758 782 0
-232 -759 783 0
-232 -760 784 0
-232 -761 785 0
-232 -762 786 0
-232 -763 787 0
-232 -764 788 0
-232 -765 789 0
-232 -766 790 0
-232 -767 791 0
-232 -768 792 0
-232 -769 793 0
-232 -770 794 0
-232 -771 795 0
-232 -772 796 0
-232 -773 797 0
-232 -774 798 0
-232 -775 799 0
-232 -776 800 0
-232 -777 801 0
-232 -778 802 0
-232 -779 0
-780 803 0
-781 804 0
-782 805 0
-783 806 0
-784 807 0
-785 808 0
-786 809 0
-787 810 0
-788 811 0
-789 812 0
-790 813 0
-791 814 0
-792 815 0
-793 816 0
-794 817 0
-795 818 0
-796 819 0
-797 820 0
-798 821 0
-799 822 0
-800 823 0
-801 824 0
-802 825 0
-234 -780 804 0
-234 -781 805 0
-234 -782 806 0
-234 -783 807 0
-234 -784 808 0
-234 -785 809 0
-234 -786 810 0
-234 -787 811 0
-234 -788 812 0
-234 -789 813 0
-234 -790 814 0
-234 -791 815 0
-234 -792 816 0
-234 -793 817 0
-234 -794 818 0
-234 -795 819 0
-234 -796 820 0
-234 -797 821 0
-234 -798 822 0
-234 -799 823 0
-234 -800 824 0
-234 -801 825 0
-234 -802 0
-803 826 0
-804 827 0
-805 828 0
-806 829 0
-807 830 0
-808 831 0
-809 832 0
-810 833 0
-811 834 0
-812 835 0
-813 836 0
-814 837 0
-815 838 0
-816 839 0
-817 840 0
-818 841 0
-819 842 0
-820 843 0
-821 844 0
-822 845 0
-823 846 0
-824 847 0
-825 848 0
-236 -803 827 0
-236 -804 828 0
-236 -805 829 0
-236 -806 830 0
-236 -807 831 0
-236 -808 832 0
-236 -809 833 0
-236 -810 834 0
-236 -811 835 0
-236 -812 836 0
-236 -813 837 0
-236 -814 838 0
-236 -815 839 0
-236 -816 840 0
-236 -817 841 0
-236 -818 842 0
-236 -819 843 0
-236 -820 844 0
-236 -821 845 0
-236 -822 846 0
-236 -823 847 0
-236 -824 848 0
-236 -825 0
-826 849 0
-827 850 0
-828 851 0
-829 852 0
-830 853 0
-831 854 0
-832 855 0
-833 856 0
-834 857 0
-835 858 0
-836 859 0
-837 860 0
-838 861 0
-839 862 0
-840 863 0
-841 864 0
-842 865 0
-843 866 0
-844 867 0
-845 868 0
-846 869 0
-847 870 0
-848 871 0
-238 -826 850 0
-238 -827 851 0
-238 -828 852 0
-238 -829 853 0
-238 -830 854 0
-238 -831 855 0
-238 -832 856 0
-238 -833 857 0
-238 -834 858 0
-238 -835 859 0
-238 -836 860 0
-238 -837 861 0
-238 -838 862 0
-238 -839 863 0
-238 -840 864 0
-238 -841 865 0
-238 -842 866 0
-238 -843 867 0
-238 -844 868 0
-238 -845 869 0
-238 -846 870 0
-238 -847 871 0
-238 -848 0
-849 872 0
-850 873 0
-851 874 0
-852 875 0
-853 876 0
-854 877 0
-855 878 0
-856 879 0
-857 880 0
-858 881 0
-859 882 0
-860 883 0
-861 884 0
-862 885 0
-863 886 0
-864 887 0
-865 888 0
-866 889 0
-867 890 0
-868 891 0
-869 892 0
-870 893 0
-871 894 0
-240 -849 873 0
-240 -850 874 0
-240 -851 875 0
-240 -852 876 0
-240 -853 877 0
-240 -854 878 0
-240 -855 879 0
-240 -856 880 0
-240 -857 881 0
-240 -858 882 0
-240 -859 883 0
-240 -860 884 0
-240 -861 885 0
-240 -862 886 0
-240 -863 887 0
-240 -864 888 0
-240 -865 889 0
-240 -866 890 0
-240 -867 891 0
-240 -868 892 0
-240 -869 893 0
-240 -870 894 0
-240 -871 0
-872 895 0
-873 896 0
-874 897 0
-875 898 0
-876 899 0
-877 900 0
-878 901 0
-879 902 0
-880 903 0
-881 904 0
-882 905 0
-883 906 0
-884 907 0
-885 908 0
-886 909 0
-887 910 0
-888 911 0
-889 912 0
-890 913 0
-891 914 0
-892 915 0
-893 916 0
-894 917 0
-242 -872 896 0
-242 -873 897 0
-242 -874 898 0
-242 -875 899 0
-242 -876 900 0
-242 -877 901 0
-242 -878 902 0
-242 -879 903 0
-242 -880 904 0
-242 -881 905 0
-242 -882 906 0
-242 -883 907 0
-242 -884 908 0
-242 -885 909 0
-242 -886 910 0
-242 -887 911 0
-242 -888 912 0
-242 -889 913 0
-242 -890 914 0
-242 -891 915 0
-242 -892 916 0
-242 -893 917 0
-242 -894 0
-895 918 0
-896 919 0
-897 920 0
-898 921 0
-899 922 0
-900 923 0
-901 924 0
-902 925 0
-903 926 0
-904 927 0
-905 928 0
-906 929 0
-907 930 0
-908 931 0
-909 932 0
-910 933 0
-911 934 0
-912 935 0
-913 936 0
-914 937 0
-915 938 0
-916 939 0
-917 940 0
-244 -895 919 0
-244 -896 920 0
-244 -897 921 0
-244 -898 922 0
-244 -899 923 0
-244 -900 924 0
-244 -901 925 0
-244 -902 926 0
-244 -903 927 0
-244 -904 928 0
-244 -905 929 0
-244 -906 930 0
-244 -907 931 0
-244 -908 932 0
-244 -909 933 0
-244 -910 934 0
-244 -911 935 0
-244 -912 936 0
-244 -913 937 0
-244 -914 938 0
-244 -915 939 0
-244 -916 940 0
-244 -917 0
-918 941 0
-919 942 0
-920 943 0
-921 944 0
-922 945 0
-923 946 0
-924 947 0
-925 948 0
-926 949 0
-927 950 0
-928 951 0
-929 952 0
-930 953 0
-931 954 0
-932 955 0
-933 956 0
-934 957 0
-935 958 0
-936 959 0
-937 960 0
-938 961 0
-939 962 0
-940 963 0
-246 -918 942 0
-246 -919 943 0
-246 -920 944 0
-246 -921 945 0
-246 -922 946 0
-246 -923 947 0
-246 -924 948 0
-246 -925 949 0
-246 -926 950 0
-246 -927 951 0
-246 -928 952 0
-246 -929 953 0
-246 -930 954 0
-246 -931 955 0
-246 -932 956 0
-246 -933 957 0
-246 -934 958 0
-246 -935 959 0
-246 -936 960 0
-246 -937 961 0
-246 -938 962 0
-246 -939 963 0
-246 -940 0
-941 964 0
-942 965 0
-943 966 0
-944 967 0
-945 968 0
-946 969 0
-947 970 0
-948 971 0
-949 972 0
-950 973 0
-951 974 0
-952 975 0
-953 976 0
-954 977 0
-955 978 0
-956 979 0
-957 980 0
-958 981 0
-959 982 0
-960 983 0
-961 984 0
-962 985 0
-963 986 0
-248 -941 965 0
-248 -942 966 0
-248 -943 967 0
-248 -944 968 0
-248 -945 969 0
-248 -946 970 0
-248 -947 971 0
-248 -948 972 0
-248 -949 973 0
-248 -950 974 0
-248 -951 975 0
-248 -952 976 0
-248 -953 977 0
-248 -954 978 0
-248 -955 979 0
-248 -956 980 0
-248 -957 981 0
-248 -958 982 0
-248 -959 983 0
-248 -960 984 0
-248 -961 985 0
-248 -962 986 0
-248 -963 0
-964 987 0
-965 988 0
-966 989 0
-967 990 0
-968 991 0
-969 992 0
-970 993 0
-971 994 0
-972 995 0
-973 996 0
-974 997 0
-975 998 0
-976 999 0
-977 1000 0
-978 1001 0
-979 1002 0
-980 1003 0
-981 1004 0
-982 1005 0
-983 1006 0
-984 1007 0
-985 1008 0
-986 1009 0
-250 -964 988 0
-250 -965 989 0
-250 -966 990 0
-250 -967 991 0
-250 -968 992 0
-250 -969 993 0
-250 -970 994 0
-250 -971 995 0
-250 -972 996 0
-250 -973 997 0
-250 -974 998 0
-250 -975 999 0
-250 -976 1000 0
-250 -977 1001 0
-250 -978 1002 0
-250 -979 1003 0
-250 -980 1004 0
-250 -981 1005 0
-250 -982 1006 0
-250 -983 1007 0
-250 -984 1008 0
-250 -985 1009 0
-250 -986 0
-987 1010 0
-988 1011 0
-989 1012 0
-990 1013 0
-991 1014 0
-992 1015 0
-993 1016 0
-994 1017 0
-995 1018 0
-996 1019 0
-997 1020 0
-998 1021 0
-999 1022 0
-1000 1023 0
-1001 1024 0
-1002 1025 0
-1003 1026 0
-1004 1027 0
-1005 1028 0
-1006 1029 0
-1007 1030 0
-1008 1031 0
-1009 1032 0
-252 -987 1011 0
-252 -988 1012 0
-252 -989 1013 0
-252 -990 1014 0
-252 -991 1015 0
-252 -992 1016 0
-252 -993 1017 0
-252 -994 1018 0
-252 -995 1019 0
-252 -996 1020 0
-252 -997 1021 0
-252 -998 1022 0
-252 -999 1023 0
-252 -1000 1024 0
-252 -1001 1025 0
-252 -1002 1026 0
-252 -1003 1027 0
-252 -1004 1028 0
-252 -1005 1029 0
-252 -1006 1030 0
-252 -1007 1031 0
-252 -1008 1032 0
-252 -1009 0
-1010 1033 0
-1011 1034 0
-1012 1035 0
-1013 1036 0
-1014 1037 0
-1015 1038 0
-1016 1039 0
-1017 1040 0
-1018 1041 0
-1019 1042 0
-1020 1043 0
-1021 1044 0
-1022 1045 0
-1023 1046 0
-1024 1047 0
-1025 1048 0
-1026 1049 0
-1027 1050 0
-1028 1051 0
-1029 1052 0
-1030 1053 0
-1031 1054 0
-1032 1055 0
-254 -1010 1034 0
-254 -1011 1035 0
-254 -1012 1036 0
-254 -1013 1037 0
-254 -1014 1038 0
-254 -1015 1039 0
-254 -1016 1040 0
-254 -1017 1041 0
-254 -1018 1042 0
-254 -1019 1043 0
-254 -1020 1044 0
-254 -1021 1045 0
-254 -1022 1046 0
-254 -1023 1047 0
-254 -1024 1048 0
-254 -1025 1049 0
-254 -1026 1050 0
-254 -1027 1051 0
-254 -1028 1052 0
-254 -1029 1053 0
-254 -1030 1054 0
-254 -1031 1055 0
-254 -1032 0
-1033 1056 0
-1034 1057 0
-1035 1058 0
-1036 1059 0
-1037 1060 0
-1038 1061 0
-1039 1062 0
-1040 1063 0
-1041 1064 0
-1042 1065 0
-1043 1066 0
-1044 1067 0
-1045 1068 0
-1046 1069 0
-1047 1070 0
-1048 1071 0
-1049 1072 0
-1050 1073 0
-1051 1074 0
-1052 1075 0
-1053 1076 0
-1054 1077 0
-1055 1078 0
-256 -1033 1057 0
-256 -1034 1058 0
-256 -1035 1059 0
-256 -1036 1060 0
-256 -1037 1061 0
-256 -1038 1062 0
-256 -1039 1063 0
-256 -1040 1064 0
-256 -1041 1065 0
-256 -1042 1066 0
-256 -1043 1067 0
-256 -1044 1068 0
-256 -1045 1069 0
-256 -1046 1070 0
-256 -1047 1071 0
-256 -1048 1072 0
-256 -1049 1073 0
-256 -1050 1074 0
-256 -1051 1075 0
-256 -1052 1076 0
-256 -1053 1077 0
-256 -1054 1078 0
-256 -1055 0
-1056 1079 0
-1057 1080 0
-1058 1081 0
-1059 1082 0
-1060 1083 0
-1061 1084 0
-1062 1085 0
-1063 1086 0
-1064 1087 0
-1065 1088 0
-1066 1089 0
-1067 1090 0
-1068 1091 0
-1069 1092 0
-1070 1093 0
-1071 1094 0
-1072 1095 0
-1073 1096 0
-1074 1097 0
-1075 1098 0
-1076 1099 0
-1077 1100 0
-1078 1101 0
-258 -1056 1080 0
-258 -1057 1081 0
-258 -1058 1082 0
-258 -1059 1083 0
-258 -1060 1084 0
-258 -1061 1085 0
-258 -1062 1086 0
-258 -1063 1087 0
-258 -1064 1088 0
-258 -1065 1089 0
-258 -1066 1090 0
-258 -1067 1091 0
-258 -1068 1092 0
-258 -1069 1093 0
-258 -1070 1094 0
-258 -1071 1095 0
-258 -1072 1096 0
-258 -1073 1097 0
-258 -1074 1098 0
-258 -1075 1099 0
-258 -1076 1100 0
-258 -1077 1101 0
-258 -1078 0
-1079 1102 0
-1080 1103 0
-1081 1104 0
-1082 1105 0
-1083 1106 0
-1084 1107 0
-1085 1108 0
-1086 1109 0
-1087 1110 0
-1088 1111 0
-1089 1112 0
-1090 1113 0
-1091 1114 0
-1092 1115 0
-1093 1116 0
-1094 1117 0
-1095 1118 0
-1096 1119 0
-1097 1120 0
-1098 1121 0
-1099 1122 0
-1100 1123 0
-1101 1124 0
-260 -1079 1103 0
-260 -1080 1104 0
-260 -1081 1105 0
-260 -1082 1106 0
-260 -1083 1107 0
-260 -1084 1108 0
-260 -1085 1109 0
-260 -1086 1110 0
-260 -1087 1111 0
-260 -1088 1112 0
-260 -1089 1113 0
-260 -1090 1114 0
-260 -1091 1115 0
-260 -1092 1116 0
-260 -1093 1117 0
-260 -1094 1118 0
-260 -1095 1119 0
-260 -1096 1120 0
-260 -1097 1121 0
-260 -1098 1122 0
-260 -1099 1123 0
-260 -1100 1124 0
-260 -1101 0
-1102 1125 0
-1103 1126 0
-1104 1127 0
-1105 1128 0
-1106 1129 0
-1107 1130 0
-1108 1131 0
-1109 1132 0
-1110 1133 0
-1111 1134 0
-1112 1135 0
-1113 1136 0
-1114 1137 0
-1115 1138 0
-1116 1139 0
-1117 1140 0
-1118 1141 0
-1119 1142 0
-1120 1143 0
-1121 1144 0
-1122 1145 0
-1123 1146 0
-1124 1147 0
-262 -1102 1126 0
-262 -1103 1127 0
-262 -1104 1128 0
-262 -1105 1129 0
-262 -1106 1130 0
-262 -1107 1131 0
-262 -1108 1132 0
-262 -1109 1133 0
-262 -1110 1134 0
-262 -1111 1135 0
-262 -1112 1136 0
-262 -1113 1137 0
-262 -1114 1138 0
-262 -1115 1139 0
-262 -1116 1140 0
-262 -1117 1141 0
-262 -1118 1142 0
-262 -1119 1143 0
-262 -1120 1144 0
-262 -1121 1145 0
-262 -1122 1146 0
-262 -1123 1147 0
-262 -1124 0
-1125 1148 0
-1126 1149 0
-1127 1150 0
-1128 1151 0
-1129 1152 0
-1130 1153 0
-1131 1154 0
-1132 1155 0
-1133 1156 0
-1134 1157 0
-1135 1158 0
-1136 1159 0
-1137 1160 0
-1138 1161 0
-1139 1162 0
-1140 1163 0
-1141 1164 0
-1142 1165 0
-1143 1166 0
-1144 1167 0
-1145 1168 0
-1146 1169 0
-1147 1170 0
-264 -1125 1149 0
-264 -1126 1150 0
-264 -1127 1151 0
-264 -1128 1152 0
-264 -1129 1153 0
-264 -1130 1154 0
-264 -1131 1155 0
-264 -1132 1156 0
-264 -1133 1157 0
-264 -1134 1158 0
-264 -1135 1159 0
-264 -1136 1160 0
-264 -1137 1161 0
-264 -1138 1162 0
-264 -1139 1163 0
-264 -1140 1164 0
-264 -1141 1165 0
-264 -1142 1166 0
-264 -1143 1167 0
-264 -1144 1168 0
-264 -1145 1169 0
-264 -1146 1170 0
-264 -1147 0
-1148 1171 0
-1149 1172 0
-1150 1173 0
-1151 1174 0
-1152 1175 0
-1153 1176 0
-1154 1177 0
-1155 1178 0
-1156 1179 0
-1157 1180 0
-1158 1181 0
-1159 1182 0
-1160 1183 0
-1161 1184 0
-1162 1185 0
-1163 1186 0
-1164 1187 0
-1165 1188 0
-1166 1189 0
-1167 1190 0
-1168 1191 0
-1169 1192 0
-1170 1193 0
-266 -1148 1172 0
-266 -1149 1173 0
-266 -1150 1174 0
-266 -1151 1175 0
-266 -1152 1176 0
-266 -1153 1177 0
-266 -1154 1178 0
-266 -1155 1179 0
-266 -1156 1180 0
-266 -1157 1181 0
-266 -1158 1182 0
-266 -1159 1183 0
-266 -1160 1184 0
-266 -1161 1185 0
-266 -1162 1186 0
-266 -1163 1187 0
-266 -1164 1188 0
-266 -1165 1189 0
-266 -1166 1190 0
-266 -1167 1191 0
-266 -1168 1192 0
-266 -1169 1193 0
-266 -1170 0
-1171 1194 0
-1172 1195 0
-1173 1196 0
-1174 1197 0
-1175 1198 0
-1176 1199 0
-1177 1200 0
-1178 1201 0
-1179 1202 0
-1180 1203 0
-1181 1204 0
-1182 1205 0
-1183 1206 0
-1184 1207 0
-1185 1208 0
-1186 1209 0
-1187 1210 0
-1188 1211 0
-1189 1212 0
-1190 1213 0
-1191 1214 0
-1192 1215 0
-1193 1216 0
-268 -1171 1195 0
-268 -1172 1196 0
-268 -1173 1197 0
-268 -1174 1198 0
-268 -1175 1199 0
-268 -1176 1200 0
-268 -1177 1201 0
-268 -1178 1202 0
-268 -1179 1203 0
-268 -1180 1204 0
-268 -1181 1205 0
-268 -1182 1206 0
-268 -1183 1207 0
-268 -1184 1208 0
-268 -1185 1209 0
-268 -1186 1210 0
-268 -1187 1211 0
-268 -1188 1212 0
-268 -1189 1213 0
-268 -1190 1214 0
-268 -1191 1215 0
-268 -1192 1216 0
-268 -1193 0
-1194 1217 0
-1195 1218 0
-1196 1219 0
-1197 1220 0
-1198 1221 0
-1199 1222 0
-1200 1223 0
-1201 1224 0
-1202 1225 0
-1203 1226 0
-1204 1227 0
-1205 1228 0
-1206 1229 0
-1207 1230 0
-1208 1231 0
-1209 1232 0
-1210 1233 0
-1211 1234 0
-1212 1235 0
-1213 1236 0
-1214 1237 0
-1215 1238 0
-1216 1239 0
-270 -1194 1218 0
-270 -1195 1219 0
-270 -1196 1220 0
-270 -1197 1221 0
-270 -1198 1222 0
-270 -1199 1223 0
-270 -1200 1224 0
-270 -1201 1225 0
-270 -1202 1226 0
-270 -1203 1227 0
-270 -1204 1228 0
-270 -1205 1229 0
-270 -1206 1230 0
-270 -1207 1231 0
-270 -1208 1232 0
-270 -1209 1233 0
-270 -1210 1234 0
-270 -1211 1235 0
-270 -1212 1236 0
-270 -1213 1237 0
-270 -1214 1238 0
-270 -1215 1239 0
-270 -1216 0
-1217 1240 0
-1218 1241 0
-1219 1242 0
-1220 1243 0
-1221 1244 0
-1222 1245 0
-1223 1246 0
-1224 1247 0
-1225 1248 0
-1226 1249 0
-1227 1250 0
-1228 1251 0
-1229 1252 0
-1230 1253 0
-1231 1254 0
-1232 1255 0
-1233 1256 0
-1234 1257 0
-1235 1258 0
-1236 1259 0
-1237 1260 0
-1238 1261 0
-1239 1262 0
-272 -1217 1241 0
-272 -1218 1242 0
-272 -1219 1243 0
-272 -1220 1244 0
-272 -1221 1245 0
-272 -1222 1246 0
-272 -1223 1247 0
-272 -1224 1248 0
-272 -1225 1249 0
-272 -1226 1250 0
-272 -1227 1251 0
-272 -1228 1252 0
-272 -1229 1253 0
-272 -1230 1254 0
-272 -1231 1255 0
-272 -1232 1256 0
-272 -1233 1257 0
-272 -1234 1258 0
-272 -1235 1259 0
-272 -1236 1260 0
-272 -1237 1261 0
-272 -1238 1262 0
-272 -1239 0
-1240 1263 0
-1241 1264 0
-1242 1265 0
-1243 1266 0
-1244 1267 0
-1245 1268 0
-1246 1269 0
-1247 1270 0
-1248 1271 0
-1249 1272 0
-1250 1273 0
-1251 1274 0
-1252 1275 0
-1253 1276 0
-1254 1277 0
-1255 1278 0
-1256 1279 0
-1257 1280 0
-1258 1281 0
-1259 1282 0
-1260 1283 0
-1261 1284 0
-1262 1285 0
-274 -1240 1264 0
-274 -1241 1265 0
-274 -1242 1266 0
-274 -1243 1267 0
-274 -1244 1268 0
-274 -1245 1269 0
-274 -1246 1270 0
-274 -1247 1271 0
-274 -1248 1272 0
-274 -1249 1273 0
-274 -1250 1274 0
-274 -1251 1275 0
-274 -1252 1276 0
-274 -1253 1277 0
-274 -1254 1278 0
-274 -1255 1279 0
-274 -1256 1280 0
-274 -1257 1281 0
-274 -1258 1282 0
-274 -1259 1283 0
-274 -1260 1284 0
-274 -1261 1285 0
-274 -1262 0
-1263 1286 0
-1264 1287 0
-1265 1288 0
-1266 1289 0
-1267 1290 0
-1268 1291 0
-1269 1292 0
-1270 1293 0
-1271 1294 0
-1272 1295 0
-1273 1296 0
-1274 1297 0
-1275 1298 0
-1276 1299 0
-1277 1300 0
-1278 1301 0
-1279 1302 0
-1280 1303 0
-1281 1304 0
-1282 1305 0
-1283 1306 0
-1284 1307 0
-1285 1308 0
-276 -1263 1287 0
-276 -1264 1288 0
-276 -1265 1289 0
-276 -1266 1290 0
-276 -1267 1291 0
-276 -1268 1292 0
-276 -1269 1293 0
-276 -1270 1294 0
-276 -1271 1295 0
-276 -1272 1296 0
-276 -1273 1297 0
-276 -1274 1298 0
-276 -1275 1299 0
-276 -1276 1300 0
-276 -1277 1301 0
-276 -1278 1302 0
-276 -1279 1303 0
-276 -1280 1304 0
-276 -1281 1305 0
-276 -1282 1306 0
-276 -1283 1307 0
-276 -1284 1308 0
-276 -1285 0
-1286 1309 0
-1287 1310 0
-1288 1311 0
-1289 1312 0
-1290 1313 0
-1291 1314 0
-1292 1315 0
-1293 1316 0
-1294 1317 0
-1295 1318 0
-1296 1319 0
-1297 1320 0
-1298 1321 0
-1299 1322 0
-1300 1323 0
-1301 1324 0
-1302 1325 0
-1303 1326 0
-1304 1327 0
-1305 1328 0
-1306 1329 0
-1307 1330 0
-1308 1331 0
-278 -1286 1310 0
-278 -1287 1311 0
-278 -1288 1312 0
-278 -1289 1313 0
-278 -1290 1314 0
-278 -1291 1315 0
-278 -1292 1316 0
-278 -1293 1317 0
-278 -1294 1318 0
-278 -1295 1319 0
-278 -1296 1320 0
-278 -1297 1321 0
-278 -1298 1322 0
-278 -1299 1323 0
-278 -1300 1324 0
-278 -1301 1325 0
-278 -1302 1326 0
-278 -1303 1327 0
-278 -1304 1328 0
-278 -1305 1329 0
-278 -1306 1330 0
-278 -1307 1331 0
-278 -1308 0
-1309 1332 0
-1310 1333 0
-1311 1334 0
-1312 1335 0
-1313 1336 0
-1314 1337 0
-1315 1338 0
-1316 1339 0
-1317 1340 0
-1318 1341 0
-1319 1342 0
-1320 1343 0
-1321 1344 0
-1322 1345 0
-1323 1346 0
-1324 1347 0
-1325 1348 0
-1326 1349 0
-1327 1350 0
-1328 1351 0
-1329 1352 0
-1330 1353 0
-1331 1354 0
-280 -1309 1333 0
-280 -1310 1334 0
-280 -1311 1335 0
-280 -1312 1336 0
-280 -1313 1337 0
-280 -1314 1338 0
-280 -1315 1339 0
-280 -1316 1340 0
-280 -1317 1341 0
-280 -1318 1342 0
-280 -1319 1343 0
-280 -1320 1344 0
-280 -1321 1345 0
-280 -1322 1346 0
-280 -1323 1347 0
-280 -1324 1348 0
-280 -1325 1349 0
-280 -1326 1350 0
-280 -1327 1351 0
-280 -1328 1352 0
-280 -1329 1353 0
-280 -1330 1354 0
-280 -1331 0
-1332 1355 0
-1333 1356 0
-1334 1357 0
-1335 1358 0
-1336 1359 0
-1337 1360 0
-1338 1361 0
-1339 1362 0
-1340 1363 0
-1341 1364 0
-1342 1365 0
-1343 1366 0
-1344 1367 0
-1345 1368 0
-1346 1369 0
-1347 1370 0
-1348 1371 0
-1349 1372 0
-1350 1373 0
-1351 1374 0
-1352 1375 0
-1353 1376 0
-1354 1377 0
-282 -1332 1356 0
-282 -1333 1357 0
-282 -1334 1358 0
-282 -1335 1359 0
-282 -1336 1360 0
-282 -1337 1361 0
-282 -1338 1362 0
-282 -1339 1363 0
-282 -1340 1364 0
-282 -1341 1365 0
-282 -1342 1366 0
-282 -1343 1367 0
-282 -1344 1368 0
-282 -1345 1369 0
-282 -1346 1370 0
-282 -1347 1371 0
-282 -1348 1372 0
-282 -1349 1373 0
-282 -1350 1374 0
-282 -1351 1375 0
-282 -1352 1376 0
-282 -1353 1377 0
-282 -1354 0
-1355 1378 0
-1356 1379 0
-1357 1380 0
-1358 1381 0
-1359 1382 0
-1360 1383 0
-1361 1384 0
-1362 1385 0
-1363 1386 0
-1364 1387 0
-1365 1388 0
-1366 1389 0
-1367 1390 0
-1368 1391 0
-1369 1392 0
-1370 1393 0
-1371 1394 0
-1372 1395 0
-1373 1396 0
-1374 1397 0
-1375 1398 0
-1376 1399 0
-1377 1400 0
-284 -1355 1379 0
-284 -1356 1380 0
-284 -1357 1381 0
-284 -1358 1382 0
-284 -1359 1383 0
-284 -1360 1384 0
-284 -1361 1385 0
-284 -1362 1386 0
-284 -1363 1387 0
-284 -1364 1388 0
-284 -1365 1389 0
-284 -1366 1390 0
-284 -1367 1391 0
-284 -1368 1392 0
-284 -1369 1393 0
-284 -1370 1394 0
-284 -1371 1395 0
-284 -1372 1396 0
-284 -1373 1397 0
-284 -1374 1398 0
-284 -1375 1399 0
-284 -1376 1400 0
-284 -1377 0
-1378 1401 0
-1379 1402 0
-1380 1403 0
-1381 1404 0
-1382 1405 0
-1383 1406 0
-1384 1407 0
-1385 1408 0
-1386 1409 0
-1387 1410 0
-1388 1411 0
-1389 1412 0
-1390 1413 0
-1391 1414 0
-1392 1415 0
-1393 1416 0
-1394 1417 0
-1395 1418 0
-1396 1419 0
-1397 1420 0
-1398 1421 0
-1399 1422 0
-1400 1423 0
-286 -1378 1402 0
-286 -1379 1403 0
-286 -1380 1404 0
-286 -1381 1405 0
-286 -1382 1406 0
-286 -1383 1407 0
-286 -1384 1408 0
-286 -1385 1409 0
-286 -1386 1410 0
-286 -1387 1411 0
-286 -1388 1412 0
-286 -1389 1413 0
-286 -1390 1414 0
-286 -1391 1415 0
-286 -1392 1416 0
-286 -1393 1417 0
-286 -1394 1418 0
-286 -1395 1419 0
-286 -1396 1420 0
-286 -1397 1421 0
-286 -1398 1422 0
-286 -1399 1423 0
-286 -1400 0
-1401 1424 0
-1402 1425 0
-1403 1426 0
-1404 1427 0
-1405 1428 0
-1406 1429 0
-1407 1430 0
-1408 1431 0
-1409 1432 0
-1410 1433 0
-1411 1434 0
-1412 1435 0
-1413 1436 0
-1414 1437 0
-1415 1438 0
-1416 1439 0
-1417 1440 0
-1418 1441 0
-1419 1442 0
-1420 1443 0
-1421 1444 0
-1422 1445 0
-1423 1446 0
-288 -1401 1425 0
-288 -1402 1426 0
-288 -1403 1427 0
-288 -1404 1428 0
-288 -1405 1429 0
-288 -1406 1430 0
-288 -1407 1431 0
-288 -1408 1432 0
-288 -1409 1433 0
-288 -1410 1434 0
-288 -1411 1435 0
-288 -1412 1436 0
-288 -1413 1437 0
-288 -1414 1438 0
-288 -1415 1439 0
-288 -1416 1440 0
-288 -1417 1441 0
-288 -1418 1442 0
-288 -1419 1443 0
-288 -1420 1444 0
-288 -1421 1445 0
-288 -1422 1446 0
-288 -1423 0
-1424 1447 0
-1425 1448 0
-1426 1449 0
-1427 1450 0
-1428 1451 0
-1429 1452 0
-1430 1453 0
-1431 1454 0
-1432 1455 0
-1433 1456 0
-1434 1457 0
-1435 1458 0
-1436 1459 0
-1437 1460 0
-1438 1461 0
-1439 1462 0
-1440 1463 0
-1441 1464 0
-1442 1465 0
-1443 1466 0
-1444 1467 0
-1445 1468 0
-1446 1469 0
-290 -1424 1448 0
-290 -1425 1449 0
-290 -1426 1450 0
-290 -1427 1451 0
-290 -1428 1452 0
-290 -1429 1453 0
-290 -1430 1454 0
-290 -1431 1455 0
-290 -1432 1456 0
-290 -1433 1457 0
-290 -1434 1458 0
-290 -1435 1459 0
-290 -1436 1460 0
-290 -1437 1461 0
-290 -1438 1462 0
-290 -1439 1463 0
-290 -1440 1464 0
-290 -1441 1465 0
-290 -1442 1466 0
-290 -1443 1467 0
-290 -1444 1468 0
-290 -1445 1469 0
-290 -1446 0
-1447 1470 0
-1448 1471 0
-1449 1472 0
-1450 1473 0
-1451 1474 0
-1452 1475 0
-1453 1476 0
-1454 1477 0
-1455 1478 0
-1456 1479 0
-1457 1480 0
-1458 1481 0
-1459 1482 0
-1460 1483 0
-1461 1484 0
-1462 1485 0
-1463 1486 0
-1464 1487 0
-1465 1488 0
-1466 1489 0
-1467 1490 0
-1468 1491 0
-1469 1492 0
-292 -1447 1471 0
-292 -1448 1472 0
-292 -1449 1473 0
-292 -1450 1474 0
-292 -1451 1475 0
-292 -1452 1476 0
-292 -1453 1477 0
-292 -1454 1478 0
-292 -1455 1479 0
-292 -1456 1480 0
-292 -1457 1481 0
-292 -1458 1482 0
-292 -1459 1483 0
-292 -1460 1484 0
-292 -1461 1485 0
-292 -1462 1486 0
-292 -1463 1487 0
-292 -1464 1488 0
-292 -1465 1489 0
-292 -1466 1490 0
-292 -1467 1491 0
-292 -1468 1492 0
-292 -1469 0
-1470 1493 0
-1471 1494 0
-1472 1495 0
-1473 1496 0
-1474 1497 0
-1475 1498 0
-1476 1499 0
-1477 1500 0
-1478 1501 0
-1479 1502 0
-1480 1503 0
-1481 1504 0
-1482 1505 0
-1483 1506 0
-1484 1507 0
-1485 1508 0
-1486 1509 0
-1487 1510 0
-1488 1511 0
-1489 1512 0
-1490 1513 0
-1491 1514 0
-1492 1515 0
-294 -1470 1494 0
-294 -1471 1495 0
-294 -1472 1496 0
-294 -1473 1497 0
-294 -1474 1498 0
-294 -1475 1499 0
-294 -1476 1500 0
-294 -1477 1501 0
-294 -1478 1502 0
-294 -1479 1503 0
-294 -1480 1504 0
-294 -1481 1505 0
-294 -1482 1506 0
-294 -1483 1507 0
-294 -1484 1508 0
-294 -1485 1509 0
-294 -1486 1510 0
-294 -1487 1511 0
-294 -1488 1512 0
-294 -1489 1513 0
-294 -1490 1514 0
-294 -1491 1515 0
-294 -1492 0
-1493 1516 0
-1494 1517 0
-1495 1518 0
-1496 1519 0
-1497 1520 0
-1498 1521 0
-1499 1522 0
-1500 1523 0
-1501 1524 0
-1502 1525 0
-1503 1526 0
-1504 1527 0
-1505 1528 0
-1506 1529 0
-1507 1530 0
-1508 1531 0
-1509 1532 0
-1510 1533 0
-1511 1534 0
-1512 1535 0
-1513 1536 0
-1514 1537 0
-1515 1538 0
-296 -1493 1517 0
-296 -1494 1518 0
-296 -1495 1519 0
-296 -1496 1520 0
-296 -1497 1521 0
-296 -1498 1522 0
-296 -1499 1523 0
-296 -1500 1524 0
-296 -1501 1525 0
-296 -1502 1526 0
-296 -1503 1527 0
-296 -1504 1528 0
-296 -1505 1529 0
-296 -1506 1530 0
-296 -1507 1531 0
-296 -1508 1532 0
-296 -1509 1533 0
-296 -1510 1534 0
-296 -1511 1535 0
-296 -1512 1536 0
-296 -1513 1537 0
-296 -1514 1538 0
-296 -1515 0
-1516 1539 0
-1517 1540 0
-1518 1541 0
-1519 1542 0
-1520 1543 0
-1521 1544 0
-1522 1545 0
-1523 1546 0
-1524 1547 0
-1525 1548 0
-1526 1549 0
-1527 1550 0
-1528 1551 0
-1529 1552 0
-1530 1553 0
-1531 1554 0
-1532 1555 0
-1533 1556 0
-1534 1557 0
-1535 1558 0
-1536 1559 0
-1537 1560 0
-1538 1561 0
-298 -1516 1540 0
-298 -1517 1541 0
-298 -1518 1542 0
-298 -1519 1543 0
-298 -1520 1544 0
-298 -1521 1545 0
-298 -1522 1546 0
-298 -1523 1547 0
-298 -1524 1548 0
-298 -1525 1549 0
-298 -1526 1550 0
-298 -1527 1551 0
-298 -1528 1552 0
-298 -1529 1553 0
-298 -1530 1554 0
-298 -1531 1555 0
-298 -1532 1556 0
-298 -1533 1557 0
-298 -1534 1558 0
-298 -1535 1559 0
-298 -1536 1560 0
-298 -1537 1561 0
-298 -1538 0
-1539 1562 0
-1540 1563 0
-1541 1564 0
-1542 1565 0
-1543 1566 0
-1544 1567 0
-1545 1568 0
-1546 1569 0
-1547 1570 0
-1548 1571 0
-1549 1572 0
-1550 1573 0
-1551 1574 0
-1552 1575 0
-1553 1576 0
-1554 1577 0
-1555 1578 0
-1556 1579 0
-1557 1580 0
-1558 1581 0
-1559 1582 0
-1560 1583 0
-1561 1584 0
-300 -1539 1563 0
-300 -1540 1564 0
-300 -1541 1565 0
-300 -1542 1566 0
-300 -1543 1567 0
-300 -1544 1568 0
-300 -1545 1569 0
-300 -1546 1570 0
-300 -1547 1571 0
-300 -1548 1572 0
-300 -1549 1573 0
-300 -1550 1574 0
-300 -1551 1575 0
-300 -1552 1576 0
-300 -1553 1577 0
-300 -1554 1578 0
-300 -1555 1579 0
-300 -1556 1580 0
-300 -1557 1581 0
-300 -1558 1582 0
-300 -1559 1583 0
-300 -1560 1584 0
-300 -1561 0
-1562 1585 0
-1563 1586 0
-1564 1587 0
-1565 1588 0
-1566 1589 0
-1567 1590 0
-1568 1591 0
-1569 1592 0
-1570 1593 0
-1571 1594 0
-1572 1595 0
-1573 1596 0
-1574 1597 0
-1575 1598 0
-1576 1599 0
-1577 1600 0
-1578 1601 0
-1579 1602 0
-1580 1603 0
-1581 1604 0
-1582 1605 0
-1583 1606 0
-1584 1607 0
-302 -1562 1586 0
-302 -1563 1587 0
-302 -1564 1588 0
-302 -1565 1589 0
-302 -1566 1590 0
-302 -1567 1591 0
-302 -1568 1592 0
-302 -1569 1593 0
-302 -1570 1594 0
-302 -1571 1595 0
-302 -1572 1596 0
-302 -1573 1597 0
-302 -1574 1598 0
-302 -1575 1599 0
-302 -1576 1600 0
-302 -1577 1601 0
-302 -1578 1602 0
-302 -1579 1603 0
-302 -1580 1604 0
-302 -1581 1605 0
-302 -1582 1606 0
-302 -1583 1607 0
-302 -1584 0
-1585 1608 0
-1586 1609 0
-1587 1610 0
-1588 1611 0
-1589 1612 0
-1590 1613 0
-1591 1614 0
-1592 1615 0
-1593 1616 0
-1594 1617 0
-1595 1618 0
-1596 1619 0
-1597 1620 0
-1598 1621 0
-1599 1622 0
-1600 1623 0
-1601 1624 0
-1602 1625 0
-1603 1626 0
-1604 1627 0
-1605 1628 0
-1606 1629 0
-1607 1630 0
-304 -1585 1609 0
-304 -1586 1610 0
-304 -1587 1611 0
-304 -1588 1612 0
-304 -1589 1613 0
-304 -1590 1614 0
-304 -1591 1615 0
-304 -1592 1616 0
-304 -1593 1617 0
-304 -1594 1618 0
-304 -1595 1619 0
-304 -1596 1620 0
-304 -1597 1621 0
-304 -1598 1622 0
-304 -1599 1623 0
-304 -1600 1624 0
-304 -1601 1625 0
-304 -1602 1626 0
-304 -1603 1627 0
-304 -1604 1628 0
-304 -1605 1629 0
-304 -1606 1630 0
-304 -1607 0
-1608 1631 0
-1609 1632 0
-1610 1633 0
-1611 1634 0
-1612 1635 0
-1613 1636 0
-1614 1637 0
-1615 1638 0
-1616 1639 0
-1617 1640 0
-1618 1641 0
-1619 1642 0
-1620 1643 0
-1621 1644 0
-1622 1645 0
-1623 1646 0
-1624 1647 0
-1625 1648 0
-1626 1649 0
-1627 1650 0
-1628 1651 0
-1629 1652 0
-1630 1653 0
-306 -1608 1632 0
-306 -1609 1633 0
-306 -1610 1634 0
-306 -1611 1635 0
-306 -1612 1636 0
-306 -1613 1637 0
-306 -1614 1638 0
-306 -1615 1639 0
-306 -1616 1640 0
-306 -1617 1641 0
-306 -1618 1642 0
-306 -1619 1643 0
-306 -1620 1644 0
-306 -1621 1645 0
-306 -1622 1646 0
-306 -1623 1647 0
-306 -1624 1648 0
-306 -1625 1649 0
-306 -1626 1650 0
-306 -1627 1651 0
-306 -1628 1652 0
-306 -1629 1653 0
-306 -1630 0
-1631 1654 0
-1632 1655 0
-1633 1656 0
-1634 1657 0
-1635 1658 0
-1636 1659 0
-1637 1660 0
-1638 1661 0
-1639 1662 0
-1640 1663 0
-1641 1664 0
-1642 1665 0
-1643 1666 0
-1644 1667 0
-1645 1668 0
-1646 1669 0
-1647 1670 0
-1648 1671 0
-1649 1672 0
-1650 1673 0
-1651 1674 0
-1652 1675 0
-1653 1676 0
-308 -1631 1655 0
-308 -1632 1656 0
-308 -1633 1657 0
-308 -1634 1658 0
-308 -1635 1659 0
-308 -1636 1660 0
-308 -1637 1661 0
-308 -1638 1662 0
-308 -1639 1663 0
-308 -1640 1664 0
-308 -1641 1665 0
-308 -1642 1666 0
-308 -1643 1667 0
-308 -1644 1668 0
-308 -1645 1669 0
-308 -1646 1670 0
-308 -1647 1671 0
-308 -1648 1672 0
-308 -1649 1673 0
-308 -1650 1674 0
-308 -1651 1675 0
-308 -1652 1676 0
-308 -1653 0
-1654 1677 0
-1655 1678 0
-1656 1679 0
-1657 1680 0
-1658 1681 0
-1659 1682 0
-1660 1683 0
-1661 1684 0
-1662 1685 0
-1663 1686 0
-1664 1687 0
-1665 1688 0
-1666 1689 0
-1667 1690 0
-1668 1691 0
-1669 1692 0
-1670 1693 0
-1671 1694 0
-1672 1695 0
-1673 1696 0
-1674 1697 0
-1675 1698 0
-1676 1699 0
-310 -1654 1678 0
-310 -1655 1679 0
-310 -1656 1680 0
-310 -1657 1681 0
-310 -1658 1682 0
-310 -1659 1683 0
-310 -1660 1684 0
-310 -1661 1685 0
-310 -1662 1686 0
-310 -1663 1687 0
-310 -1664 1688 0
-310 -1665 1689 0
-310 -1666 1690 0
-310 -1667 1691 0
-310 -1668 1692 0
-310 -1669 1693 0
-310 -1670 1694 0
-310 -1671 1695 0
-310 -1672 1696 0
-310 -1673 1697 0
-310 -1674 1698 0
-310 -1675 1699 0
-310 -1676 0
-1677 1700 0
-1678 1701 0
-1679 1702 0
-1680 1703 0
-1681 1704 0
-1682 1705 0
-1683 1706 0
-1684 1707 0
-1685 1708 0
-1686 1709 0
-1687 1710 0
-1688 1711 0
-1689 1712 0
-1690 1713 0
-1691 1714 0
-1692 1715 0
-1693 1716 0
-1694 1717 0
-1695 1718 0
-1696 1719 0
-1697 1720 0
-1698 1721 0
-1699 1722 0
-312 -1677 1701 0
-312 -1678 1702 0
-312 -1679 1703 0
-312 -1680 1704 0
-312 -1681 1705 0
-312 -1682 1706 0
-312 -1683 1707 0
-312 -1684 1708 0
-312 -1685 1709 0
-312 -1686 1710 0
-312 -1687 1711 0
-312 -1688 1712 0
-312 -1689 1713 0
-312 -1690 1714 0
-312 -1691 1715 0
-312 -1692 1716 0
-312 -1693 1717 0
-312 -1694 1718 0
-312 -1695 1719 0
-312 -1696 1720 0
-312 -1697 1721 0
-312 -1698 1722 0
-312 -1699 0
-1700 1723 0
-1701 1724 0
-1702 1725 0
-1703 1726 0
-1704 1727 0
-1705 1728 0
-1706 1729 0
-1707 1730 0
-1708 1731 0
-1709 1732 0
-1710 1733 0
-1711 1734 0
-1712 1735 0
-1713 1736 0
-1714 1737 0
-1715 1738 0
-1716 1739 0
-1717 1740 0
-1718 1741 0
-1719 1742 0
-1720 1743 0
-1721 1744 0
-1722 1745 0
-314 -1700 1724 0
-314 -1701 1725 0
-314 -1702 1726 0
-314 -1703 1727 0
-314 -1704 1728 0
-314 -1705 1729 0
-314 -1706 1730 0
-314 -1707 1731 0
-314 -1708 1732 0
-314 -1709 1733 0
-314 -1710 1734 0
-314 -1711 1735 0
-314 -1712 1736 0
-314 -1713 1737 0
-314 -1714 1738 0
-314 -1715 1739 0
-314 -1716 1740 0
-314 -1717 1741 0
-314 -1718 1742 0
-314 -1719 1743 0
-314 -1720 1744 0
-314 -1721 1745 0
-314 -1722 0
-1723 1746 0
-1724 1747 0
-1725 1748 0
-1726 1749 0
-1727 1750 0
-1728 1751 0
-1729 1752 0
-1730 1753 0
-1731 1754 0
-1732 1755 0
-1733 1756 0
-1734 1757 0
-1735 1758 0
-1736 1759 0
-1737 1760 0
-1738 1761 0
-1739 1762 0
-1740 1763 0
-1741 1764 0
-1742 1765 0
-1743 1766 0
-1744 1767 0
-1745 1768 0
-316 -1723 1747 0
-316 -1724 1748 0
-316 -1725 1749 0
-316 -1726 1750 0
-316 -1727 1751 0
-316 -1728 1752 0
-316 -1729 1753 0
-316 -1730 1754 0
-316 -1731 1755 0
-316 -1732 1756 0
-316 -1733 1757 0
-316 -1734 1758 0
-316 -1735 1759 0
-316 -1736 1760 0
-316 -1737 1761 0
-316 -1738 1762 0
-316 -1739 1763 0
-316 -1740 1764 0
-316 -1741 1765 0
-316 -1742 1766 0
-316 -1743 1767 0
-316 -1744 1768 0
-316 -1745 0
-1746 1769 0
-1747 1770 0
-1748 1771 0
-1749 1772 0
-1750 1773 0
-1751 1774 0
-1752 1775 0
-1753 1776 0
-1754 1777 0
-1755 1778 0
-1756 1779 0
-1757 1780 0
-1758 1781 0
-1759 1782 0
-1760 1783 0
-1761 1784 0
-1762 1785 0
-1763 1786 0
-1764 1787 0
-1765 1788 0
-1766 1789 0
-1767 1790 0
-1768 1791 0
-318 -1746 1770 0
-318 -1747 1771 0
-318 -1748 1772 0
-318 -1749 1773 0
-318 -1750 1774 0
-318 -1751 1775 0
-318 -1752 1776 0
-318 -1753 1777 0
-318 -1754 1778 0
-318 -1755 1779 0
-318 -1756 1780 0
-318 -1757 1781 0
-318 -1758 1782 0
-318 -1759 1783 0
-318 -1760 1784 0
-318 -1761 1785 0
-318 -1762 1786 0
-318 -1763 1787 0
-318 -1764 1788 0
-318 -1765 1789 0
-318 -1766 1790 0
-318 -1767 1791 0
-318 -1768 0
-1769 1792 0
-1770 1793 0
-1771 1794 0
-1772 1795 0
-1773 1796 0
-1774 1797 0
-1775 1798 0
-1776 1799 0
-1777 1800 0
-1778 1801 0
-1779 1802 0
-1780 1803 0
-1781 1804 0
-1782 1805 0
-1783 1806 0
-1784 1807 0
-1785 1808 0
-1786 1809 0
-1787 1810 0
-1788 1811 0
-1789 1812 0
-1790 1813 0
-1791 1814 0
-320 -1769 1793 0
-320 -1770 1794 0
-320 -1771 1795 0
-320 -1772 1796 0
-320 -1773 1797 0
-320 -1774 1798 0
-320 -1775 1799 0
-320 -1776 1800 0
-320 -1777 1801 0
-320 -1778 1802 0
-320 -1779 1803 0
-320 -1780 1804 0
-320 -1781 1805 0
-320 -1782 1806 0
-320 -1783 1807 0
-320 -1784 1808 0
-320 -1785 1809 0
-320 -1786 1810 0
-320 -1787 1811 0
-320 -1788 1812 0
-320 -1789 1813 0
-320 -1790 1814 0
-320 -1791 0
-1792 1815 0
-1793 1816 0
-1794 1817 0
-1795 1818 0
-1796 1819 0
-1797 1820 0
-1798 1821 0
-1799 1822 0
-1800 1823 0
-1801 1824 0
-1802 1825 0
-1803 1826 0
-1804 1827 0
-1805 1828 0
-1806 1829 0
-1807 1830 0
-1808 1831 0
-1809 1832 0
-1810 1833 0
-1811 1834 0
-1812 1835 0
-1813 1836 0
-1814 1837 0
-322 -1792 1816 0
-322 -1793 1817 0
-322 -1794 1818 0
-322 -1795 1819 0
-322 -1796 1820 0
-322 -1797 1821 0
-322 -1798 1822 0
-322 -1799 1823 0
-322 -1800 1824 0
-322 -1801 1825 0
-322 -1802 1826 0
-322 -1803 1827 0
-322 -1804 1828 0
-322 -1805 1829 0
-322 -1806 1830 0
-322 -1807 1831 0
-322 -1808 1832 0
-322 -1809 1833 0
-322 -1810 1834 0
-322 -1811 1835 0
-322 -1812 1836 0
-322 -1813 1837 0
-322 -1814 0
-1815 1838 0
-1816 1839 0
-1817 1840 0
-1818 1841 0
-1819 1842 0
-1820 1843 0
-1821 1844 0
-1822 1845 0
-1823 1846 0
-1824 1847 0
-1825 1848 0
-1826 1849 0
-1827 1850 0
-1828 1851 0
-1829 1852 0
-1830 1853 0
-1831 1854 0
-1832 1855 0
-1833 1856 0
-1834 1857 0
-1835 1858 0
-1836 1859 0
-1837 1860 0
-324 -1815 1839 0
-324 -1816 1840 0
-324 -1817 1841 0
-324 -1818 1842 0
-324 -1819 1843 0
-324 -1820 1844 0
-324 -1821 1845 0
-324 -1822 1846 0
-324 -1823 1847 0
-324 -1824 1848 0
-324 -1825 1849 0
-324 -1826 1850 0
-324 -1827 1851 0
-324 -1828 1852 0
-324 -1829 1853 0
-324 -1830 1854 0
-324 -1831 1855 0
-324 -1832 1856 0
-324 -1833 1857 0
-324 -1834 1858 0
-324 -1835 1859 0
-324 -1836 1860 0
-324 -1837 0
-1838 1861 0
-1839 1862 0
-1840 1863 0
-1841 1864 0
-1842 1865 0
-1843 1866 0
-1844 1867 0
-1845 1868 0
-1846 1869 0
-1847 1870 0
-1848 1871 0
-1849 1872 0
-1850 1873 0
-1851 1874 0
-1852 1875 0
-1853 1876 0
-1854 1877 0
-1855 1878 0
-1856 1879 0
-1857 1880 0
-1858 1881 0
-1859 1882 0
-1860 1883 0
-326 -1838 1862 0
-326 -1839 1863 0
-326 -1840 1864 0
-326 -1841 1865 0
-326 -1842 1866 0
-326 -1843 1867 0
-326 -1844 1868 0
-326 -1845 1869 0
-326 -1846 1870 0
-326 -1847 1871 0
-326 -1848 1872 0
-326 -1849 1873 0
-326 -1850 1874 0
-326 -1851 1875 0
-326 -1852 1876 0
-326 -1853 1877 0
-326 -1854 1878 0
-326 -1855 1879 0
-326 -1856 1880 0
-326 -1857 1881 0
-326 -1858 1882 0
-326 -1859 1883 0
-326 -1860 0
-1861 1884 0
-1862 1885 0
-1863 1886 0
-1864 1887 0
-1865 1888 0
-1866 1889 0
-1867 1890 0
-1868 1891 0
-1869 1892 0
-1870 1893 0
-1871 1894 0
-1872 1895 0
-1873 1896 0
-1874 1897 0
-1875 1898 0
-1876 1899 0
-1877 1900 0
-1878 1901 0
-1879 1902 0
-1880 1903 0
-1881 1904 0
-1882 1905 0
-1883 1906 0
-328 -1861 1885 0
-328 -1862 1886 0
-328 -1863 1887 0
-328 -1864 1888 0
-328 -1865 1889 0
-328 -1866 1890 0
-328 -1867 1891 0
-328 -1868 1892 0
-328 -1869 1893 0
-328 -1870 1894 0
-328 -1871 1895 0
-328 -1872 1896 0
-328 -1873 1897 0
-328 -1874 1898 0
-328 -1875 1899 0
-328 -1876 1900 0
-328 -1877 1901 0
-328 -1878 1902 0
-328 -1879 1903 0
-328 -1880 1904 0
-328 -1881 1905 0
-328 -1882 1906 0
-328 -1883 0
-1884 1907 0
-1885 1908 0
-1886 1909 0
-1887 1910 0
-1888 1911 0
-1889 1912 0
-1890 1913 0
-1891 1914 0
-1892 1915 0
-1893 1916 0
-1894 1917 0
-1895 1918 0
-1896 1919 0
-1897 1920 0
-1898 1921 0
-1899 1922 0
-1900 1923 0
-1901 1924 0
-1902 1925 0
-1903 1926 0
-1904 1927 0
-1905 1928 0
-1906 1929 0
-330 -1884 1908 0
-330 -1885 1909 0
-330 -1886 1910 0
-330 -1887 1911 0
-330 -1888 1912 0
-330 -1889 1913 0
-330 -1890 1914 0
-330 -1891 1915 0
-330 -1892 1916 0
-330 -1893 1917 0
-330 -1894 1918 0
-330 -1895 1919 0
-330 -1896 1920 0
-330 -1897 1921 0
-330 -1898 1922 0
-330 -1899 1923 0
-330 -1900 1924 0
-330 -1901 1925 0
-330 -1902 1926 0
-330 -1903 1927 0
-330 -1904 1928 0
-330 -1905 1929 0
-330 -1906 0
-1907 1930 0
-1908 1931 0
-1909 1932 0
-1910 1933 0
-1911 1934 0
-1912 1935 0
-1913 1936 0
-1914 1937 0
-1915 1938 0
-1916 1939 0
-1917 1940 0
-1918 1941 0
-1919 1942 0
-1920 1943 0
-1921 1944 0
-1922 1945 0
-1923 1946 0
-1924 1947 0
-1925 1948 0
-1926 1949 0
-1927 1950 0
-1928 1951 0
-1929 1952 0
-332 -1907 1931 0
-332 -1908 1932 0
-332 -1909 1933 0
-332 -1910 1934 0
-332 -1911 1935 0
-332 -1912 1936 0
-332 -1913 1937 0
-332 -1914 1938 0
-332 -1915 1939 0
-332 -1916 1940 0
-332 -1917 1941 0
-332 -1918 1942 0
-332 -1919 1943 0
-332 -1920 1944 0
-332 -1921 1945 0
-332 -1922 1946 0
-332 -1923 1947 0
-332 -1924 1948 0
-332 -1925 1949 0
-332 -1926 1950 0
-332 -1927 1951 0
-332 -1928 1952 0
-332 -1929 0
-1930 1953 0
-1931 1954 0
-1932 1955 0
-1933 1956 0
-1934 1957 0
-1935 1958 0
-1936 1959 0
-1937 1960 0
-1938 1961 0
-1939 1962 0
-1940 1963 0
-1941 1964 0
-1942 1965 0
-1943 1966 0
-1944 1967 0
-1945 1968 0
-1946 1969 0
-1947 1970 0
-1948 1971 0
-1949 1972 0
-1950 1973 0
-1951 1974 0
-1952 1975 0
-334 -1930 1954 0
-334 -1931 1955 0
-334 -1932 1956 0
-334 -1933 1957 0
-334 -1934 1958 0
-334 -1935 1959 0
-334 -1936 1960 0
-334 -1937 1961 0
-334 -1938 1962 0
-334 -1939 1963 0
-334 -1940 1964 0
-334 -1941 1965 0
-334 -1942 1966 0
-334 -1943 1967 0
-334 -1944 1968 0
-334 -1945 1969 0
-334 -1946 1970 0
-334 -1947 1971 0
-334 -1948 1972 0
-334 -1949 1973 0
-334 -1950 1974 0
-334 -1951 1975 0
-334 -1952 0
-1953 1976 0
-1954 1977 0
-1955 1978 0
-1956 1979 0
-1957 1980 0
-1958 1981 0
-1959 1982 0
-1960 1983 0
-1961 1984 0
-1962 1985 0
-1963 1986 0
-1964 1987 0
-1965 1988 0
-1966 1989 0
-1967 1990 0
-1968 1991 0
-1969 1992 0
-1970 1993 0
-1971 1994 0
-1972 1995 0
-1973 1996 0
-1974 1997 0
-1975 1998 0
-336 -1953 1977 0
-336 -1954 1978 0
-336 -1955 1979 0
-336 -1956 1980 0
-336 -1957 1981 0
-336 -1958 1982 0
-336 -1959 1983 0
-336 -1960 1984 0
-336 -1961 1985 0
-336 -1962 1986 0
-336 -1963 1987 0
-336 -1964 1988 0
-336 -1965 1989 0
-336 -1966 1990 0
-336 -1967 1991 0
-336 -1968 1992 0
-336 -1969 1993 0
-336 -1970 1994 0
-336 -1971 1995 0
-336 -1972 1996 0
-336 -1973 1997 0
-336 -1974 1998 0
-336 -1975 0
-1976 1999 0
-1977 2000 0
-1978 2001 0
-1979 2002 0
-1980 2003 0
-1981 2004 0
-1982 2005 0
-1983 2006 0
-1984 2007 0
-1985 2008 0
-1986 2009 0
-1987 2010 0
-1988 2011 0
-1989 2012 0
-1990 2013 0
-1991 2014 0
-1992 2015 0
-1993 2016 0
-1994 2017 0
-1995 2018 0
-1996 2019 0
-1997 2020 0
-1998 2021 0
-338 -1976 2000 0
-338 -1977 2001 0
-338 -1978 2002 0
-338 -1979 2003 0
-338 -1980 2004 0
-338 -1981 2005 0
-338 -1982 2006 0
-338 -1983 2007 0
-338 -1984 2008 0
-338 -1985 2009 0
-338 -1986 2010 0
-338 -1987 2011 0
-338 -1988 2012 0
-338 -1989 2013 0
-338 -1990 2014 0
-338 -1991 2015 0
-338 -1992 2016 0
-338 -1993 2017 0
-338 -1994 2018 0
-338 -1995 2019 0
-338 -1996 2020 0
-338 -1997 2021 0
-338 -1998 0
-1999 2022 0
-2000 2023 0
-2001 2024 0
-2002 2025 0
-2003 2026 0
-2004 2027 0
-2005 2028 0
-2006 2029 0
-2007 2030 0
-2008 2031 0
-2009 2032 0
-2010 2033 0
-2011 2034 0
-2012 2035 0
-2013 2036 0
-2014 2037 0
-2015 2038 0
-2016 2039 0
-2017 2040 0
-2018 2041 0
-2019 2042 0
-2020 2043 0
-2021 2044 0
-340 -1999 2023 0
-340 -2000 2024 0
-340 -2001 2025 0
-340 -2002 2026 0
-340 -2003 2027 0
-340 -2004 2028 0
-340 -2005 2029 0
-340 -2006 2030 0
-340 -2007 2031 0
-340 -2008 2032 0
-340 -2009 2033 0
-340 -2010 2034 0
-340 -2011 2035 0
-340 -2012 2036 0
-340 -2013 2037 0
-340 -2014 2038 0
-340 -2015 2039 0
-340 -2016 2040 0
-340 -2017 2041 0
-340 -2018 2042 0
-340 -2019 2043 0
-340 -2020 2044 0
-340 -2021 0
-2022 2045 0
-2023 2046 0
-2024 2047 0
-2025 2048 0
-2026 2049 0
-2027 2050 0
-2028 2051 0
-2029 2052 0
-2030 2053 0
-2031 2054 0
-2032 2055 0
-2033 2056 0
-2034 2057 0
-2035 2058 0
-2036 2059 0
-2037 2060 0
-2038 2061 0
-2039 2062 0
-2040 2063 0
-2041 2064 0
-2042 2065 0
-2043 2066 0
-2044 2067 0
-342 -2022 2046 0
-342 -2023 2047 0
-342 -2024 2048 0
-342 -2025 2049 0
-342 -2026 2050 0
-342 -2027 2051 0
-342 -2028 2052 0
-342 -2029 2053 0
-342 -2030 2054 0
-342 -2031 2055 0
-342 -2032 2056 0
-342 -2033 2057 0
-342 -2034 2058 0
-342 -2035 2059 0
-342 -2036 2060 0
-342 -2037 2061 0
-342 -2038 2062 0
-342 -2039 2063 0
-342 -2040 2064 0
-342 -2041 2065 0
-342 -2042 2066 0
-342 -2043 2067 0
-342 -2044 0
