c Speck64 XOR-differential SAT CNF
c word_bits=32 alpha=8 beta=3 rounds=11
c in_dx=None in_dy=None
c out_dx=0x00000080 out_dy=0x00000000
c max_weight=53
c num_vars=19523 num_clauses=43405
p cnf 19523 43405
-705 0
-706 0
-707 0
-708 0
-709 0
-710 0
-711 0
712 0
-713 0
-714 0
-715 0
-716 0
-717 0
-718 0
-719 0
-720 0
-721 0
-722 0
-723 0
-724 0
-725 0
-726 0
-727 0
-728 0
-729 0
-730 0
-731 0
-732 0
-733 0
-734 0
-735 0
-736 0
-737 0
-738 0
-739 0
-740 0
-741 0
-742 0
-743 0
-744 0
-745 0
-746 0
-747 0
-748 0
-749 0
-750 0
-751 0
-752 0
-753 0
-754 0
-755 0
-756 0
-757 0
-758 0
-759 0
-760 0
-761 0
-762 0
-763 0
-764 0
-765 0
-766 0
-767 0
-768 0
9 33 -65 0
9 -33 65 0
-9 33 65 0
-9 -33 -65 0
9 33 65 769 0
-9 -33 -65 769 0
-769 -9 33 0
-769 9 -33 0
-769 -9 65 0
-769 9 -65 0
-769 10 34 66 -33 0
-769 10 34 -66 33 0
-769 10 -34 66 33 0
-769 10 -34 -66 -33 0
-769 -10 34 66 33 0
-769 -10 34 -66 -33 0
-769 -10 -34 66 -33 0
-769 -10 -34 -66 33 0
770 769 0
-770 -769 0
10 34 66 771 0
-10 -34 -66 771 0
-771 -10 34 0
-771 10 -34 0
-771 -10 66 0
-771 10 -66 0
-771 11 35 67 -34 0
-771 11 35 -67 34 0
-771 11 -35 67 34 0
-771 11 -35 -67 -34 0
-771 -11 35 67 34 0
-771 -11 35 -67 -34 0
-771 -11 -35 67 -34 0
-771 -11 -35 -67 34 0
772 771 0
-772 -771 0
11 35 67 773 0
-11 -35 -67 773 0
-773 -11 35 0
-773 11 -35 0
-773 -11 67 0
-773 11 -67 0
-773 12 36 68 -35 0
-773 12 36 -68 35 0
-773 12 -36 68 35 0
-773 12 -36 -68 -35 0
-773 -12 36 68 35 0
-773 -12 36 -68 -35 0
-773 -12 -36 68 -35 0
-773 -12 -36 -68 35 0
774 773 0
-774 -773 0
12 36 68 775 0
-12 -36 -68 775 0
-775 -12 36 0
-775 12 -36 0
-775 -12 68 0
-775 12 -68 0
-775 13 37 69 -36 0
-775 13 37 -69 36 0
-775 13 -37 69 36 0
-775 13 -37 -69 -36 0
-775 -13 37 69 36 0
-775 -13 37 -69 -36 0
-775 -13 -37 69 -36 0
-775 -13 -37 -69 36 0
776 775 0
-776 -775 0
13 37 69 777 0
-13 -37 -69 777 0
-777 -13 37 0
-777 13 -37 0
-777 -13 69 0
-777 13 -69 0
-777 14 38 70 -37 0
-777 14 38 -70 37 0
-777 14 -38 70 37 0
-777 14 -38 -70 -37 0
-777 -14 38 70 37 0
-777 -14 38 -70 -37 0
-777 -14 -38 70 -37 0
-777 -14 -38 -70 37 0
778 777 0
-778 -777 0
14 38 70 779 0
-14 -38 -70 779 0
-779 -14 38 0
-779 14 -38 0
-779 -14 70 0
-779 14 -70 0
-779 15 39 71 -38 0
-779 15 39 -71 38 0
-779 15 -39 71 38 0
-779 15 -39 -71 -38 0
-779 -15 39 71 38 0
-779 -15 39 -71 -38 0
-779 -15 -39 71 -38 0
-779 -15 -39 -71 38 0
780 779 0
-780 -779 0
15 39 71 781 0
-15 -39 -71 781 0
-781 -15 39 0
-781 15 -39 0
-781 -15 71 0
-781 15 -71 0
-781 16 40 72 -39 0
-781 16 40 -72 39 0
-781 16 -40 72 39 0
-781 16 -40 -72 -39 0
-781 -16 40 72 39 0
-781 -16 40 -72 -39 0
-781 -16 -40 72 -39 0
-781 -16 -40 -72 39 0
782 781 0
-782 -781 0
16 40 72 783 0
-16 -40 -72 783 0
-783 -16 40 0
-783 16 -40 0
-783 -16 72 0
-783 16 -72 0
-783 17 41 73 -40 0
-783 17 41 -73 40 0
-783 17 -41 73 40 0
-783 17 -41 -73 -40 0
-783 -17 41 73 40 0
-783 -17 41 -73 -40 0
-783 -17 -41 73 -40 0
-783 -17 -41 -73 40 0
784 783 0
-784 -783 0
17 41 73 785 0
-17 -41 -73 785 0
-785 -17 41 0
-785 17 -41 0
-785 -17 73 0
-785 17 -73 0
-785 18 42 74 -41 0
-785 18 42 -74 41 0
-785 18 -42 74 41 0
-785 18 -42 -74 -41 0
-785 -18 42 74 41 0
-785 -18 42 -74 -41 0
-785 -18 -42 74 -41 0
-785 -18 -42 -74 41 0
786 785 0
-786 -785 0
18 42 74 787 0
-18 -42 -74 787 0
-787 -18 42 0
-787 18 -42 0
-787 -18 74 0
-787 18 -74 0
-787 19 43 75 -42 0
-787 19 43 -75 42 0
-787 19 -43 75 42 0
-787 19 -43 -75 -42 0
-787 -19 43 75 42 0
-787 -19 43 -75 -42 0
-787 -19 -43 75 -42 0
-787 -19 -43 -75 42 0
788 787 0
-788 -787 0
19 43 75 789 0
-19 -43 -75 789 0
-789 -19 43 0
-789 19 -43 0
-789 -19 75 0
-789 19 -75 0
-789 20 44 76 -43 0
-789 20 44 -76 43 0
-789 20 -44 76 43 0
-789 20 -44 -76 -43 0
-789 -20 44 76 43 0
-789 -20 44 -76 -43 0
-789 -20 -44 76 -43 0
-789 -20 -44 -76 43 0
790 789 0
-790 -789 0
20 44 76 791 0
-20 -44 -76 791 0
-791 -20 44 0
-791 20 -44 0
-791 -20 76 0
-791 20 -76 0
-791 21 45 77 -44 0
-791 21 45 -77 44 0
-791 21 -45 77 44 0
-791 21 -45 -77 -44 0
-791 -21 45 77 44 0
-791 -21 45 -77 -44 0
-791 -21 -45 77 -44 0
-791 -21 -45 -77 44 0
792 791 0
-792 -791 0
21 45 77 793 0
-21 -45 -77 793 0
-793 -21 45 0
-793 21 -45 0
-793 -21 77 0
-793 21 -77 0
-793 22 46 78 -45 0
-793 22 46 -78 45 0
-793 22 -46 78 45 0
-793 22 -46 -78 -45 0
-793 -22 46 78 45 0
-793 -22 46 -78 -45 0
-793 -22 -46 78 -45 0
-793 -22 -46 -78 45 0
794 793 0
-794 -793 0
22 46 78 795 0
-22 -46 -78 795 0
-795 -22 46 0
-795 22 -46 0
-795 -22 78 0
-795 22 -78 0
-795 23 47 79 -46 0
-795 23 47 -79 46 0
-795 23 -47 79 46 0
-795 23 -47 -79 -46 0
-795 -23 47 79 46 0
-795 -23 47 -79 -46 0
-795 -23 -47 79 -46 0
-795 -23 -47 -79 46 0
796 795 0
-796 -795 0
23 47 79 797 0
-23 -47 -79 797 0
-797 -23 47 0
-797 23 -47 0
-797 -23 79 0
-797 23 -79 0
-797 24 48 80 -47 0
-797 24 48 -80 47 0
-797 24 -48 80 47 0
-797 24 -48 -80 -47 0
-797 -24 48 80 47 0
-797 -24 48 -80 -47 0
-797 -24 -48 80 -47 0
-797 -24 -48 -80 47 0
798 797 0
-798 -797 0
24 48 80 799 0
-24 -48 -80 799 0
-799 -24 48 0
-799 24 -48 0
-799 -24 80 0
-799 24 -80 0
-799 25 49 81 -48 0
-799 25 49 -81 48 0
-799 25 -49 81 48 0
-799 25 -49 -81 -48 0
-799 -25 49 81 48 0
-799 -25 49 -81 -48 0
-799 -25 -49 81 -48 0
-799 -25 -49 -81 48 0
800 799 0
-800 -799 0
25 49 81 801 0
-25 -49 -81 801 0
-801 -25 49 0
-801 25 -49 0
-801 -25 81 0
-801 25 -81 0
-801 26 50 82 -49 0
-801 26 50 -82 49 0
-801 26 -50 82 49 0
-801 26 -50 -82 -49 0
-801 -26 50 82 49 0
-801 -26 50 -82 -49 0
-801 -26 -50 82 -49 0
-801 -26 -50 -82 49 0
802 801 0
-802 -801 0
26 50 82 803 0
-26 -50 -82 803 0
-803 -26 50 0
-803 26 -50 0
-803 -26 82 0
-803 26 -82 0
-803 27 51 83 -50 0
-803 27 51 -83 50 0
-803 27 -51 83 50 0
-803 27 -51 -83 -50 0
-803 -27 51 83 50 0
-803 -27 51 -83 -50 0
-803 -27 -51 83 -50 0
-803 -27 -51 -83 50 0
804 803 0
-804 -803 0
27 51 83 805 0
-27 -51 -83 805 0
-805 -27 51 0
-805 27 -51 0
-805 -27 83 0
-805 27 -83 0
-805 28 52 84 -51 0
-805 28 52 -84 51 0
-805 28 -52 84 51 0
-805 28 -52 -84 -51 0
-805 -28 52 84 51 0
-805 -28 52 -84 -51 0
-805 -28 -52 84 -51 0
-805 -28 -52 -84 51 0
806 805 0
-806 -805 0
28 52 84 807 0
-28 -52 -84 807 0
-807 -28 52 0
-807 28 -52 0
-807 -28 84 0
-807 28 -84 0
-807 29 53 85 -52 0
-807 29 53 -85 52 0
-807 29 -53 85 52 0
-807 29 -53 -85 -52 0
-807 -29 53 85 52 0
-807 -29 53 -85 -52 0
-807 -29 -53 85 -52 0
-807 -29 -53 -85 52 0
808 807 0
-808 -807 0
29 53 85 809 0
-29 -53 -85 809 0
-809 -29 53 0
-809 29 -53 0
-809 -29 85 0
-809 29 -85 0
-809 30 54 86 -53 0
-809 30 54 -86 53 0
-809 30 -54 86 53 0
-809 30 -54 -86 -53 0
-809 -30 54 86 53 0
-809 -30 54 -86 -53 0
-809 -30 -54 86 -53 0
-809 -30 -54 -86 53 0
810 809 0
-810 -809 0
30 54 86 811 0
-30 -54 -86 811 0
-811 -30 54 0
-811 30 -54 0
-811 -30 86 0
-811 30 -86 0
-811 31 55 87 -54 0
-811 31 55 -87 54 0
-811 31 -55 87 54 0
-811 31 -55 -87 -54 0
-811 -31 55 87 54 0
-811 -31 55 -87 -54 0
-811 -31 -55 87 -54 0
-811 -31 -55 -87 54 0
812 811 0
-812 -811 0
31 55 87 813 0
-31 -55 -87 813 0
-813 -31 55 0
-813 31 -55 0
-813 -31 87 0
-813 31 -87 0
-813 32 56 88 -55 0
-813 32 56 -88 55 0
-813 32 -56 88 55 0
-813 32 -56 -88 -55 0
-813 -32 56 88 55 0
-813 -32 56 -88 -55 0
-813 -32 -56 88 -55 0
-813 -32 -56 -88 55 0
814 813 0
-814 -813 0
32 56 88 815 0
-32 -56 -88 815 0
-815 -32 56 0
-815 32 -56 0
-815 -32 88 0
-815 32 -88 0
-815 1 57 89 -56 0
-815 1 57 -89 56 0
-815 1 -57 89 56 0
-815 1 -57 -89 -56 0
-815 -1 57 89 56 0
-815 -1 57 -89 -56 0
-815 -1 -57 89 -56 0
-815 -1 -57 -89 56 0
816 815 0
-816 -815 0
1 57 89 817 0
-1 -57 -89 817 0
-817 -1 57 0
-817 1 -57 0
-817 -1 89 0
-817 1 -89 0
-817 2 58 90 -57 0
-817 2 58 -90 57 0
-817 2 -58 90 57 0
-817 2 -58 -90 -57 0
-817 -2 58 90 57 0
-817 -2 58 -90 -57 0
-817 -2 -58 90 -57 0
-817 -2 -58 -90 57 0
818 817 0
-818 -817 0
2 58 90 819 0
-2 -58 -90 819 0
-819 -2 58 0
-819 2 -58 0
-819 -2 90 0
-819 2 -90 0
-819 3 59 91 -58 0
-819 3 59 -91 58 0
-819 3 -59 91 58 0
-819 3 -59 -91 -58 0
-819 -3 59 91 58 0
-819 -3 59 -91 -58 0
-819 -3 -59 91 -58 0
-819 -3 -59 -91 58 0
820 819 0
-820 -819 0
3 59 91 821 0
-3 -59 -91 821 0
-821 -3 59 0
-821 3 -59 0
-821 -3 91 0
-821 3 -91 0
-821 4 60 92 -59 0
-821 4 60 -92 59 0
-821 4 -60 92 59 0
-821 4 -60 -92 -59 0
-821 -4 60 92 59 0
-821 -4 60 -92 -59 0
-821 -4 -60 92 -59 0
-821 -4 -60 -92 59 0
822 821 0
-822 -821 0
4 60 92 823 0
-4 -60 -92 823 0
-823 -4 60 0
-823 4 -60 0
-823 -4 92 0
-823 4 -92 0
-823 5 61 93 -60 0
-823 5 61 -93 60 0
-823 5 -61 93 60 0
-823 5 -61 -93 -60 0
-823 -5 61 93 60 0
-823 -5 61 -93 -60 0
-823 -5 -61 93 -60 0
-823 -5 -61 -93 60 0
824 823 0
-824 -823 0
5 61 93 825 0
-5 -61 -93 825 0
-825 -5 61 0
-825 5 -61 0
-825 -5 93 0
-825 5 -93 0
-825 6 62 94 -61 0
-825 6 62 -94 61 0
-825 6 -62 94 61 0
-825 6 -62 -94 -61 0
-825 -6 62 94 61 0
-825 -6 62 -94 -61 0
-825 -6 -62 94 -61 0
-825 -6 -62 -94 61 0
826 825 0
-826 -825 0
6 62 94 827 0
-6 -62 -94 827 0
-827 -6 62 0
-827 6 -62 0
-827 -6 94 0
-827 6 -94 0
-827 7 63 95 -62 0
-827 7 63 -95 62 0
-827 7 -63 95 62 0
-827 7 -63 -95 -62 0
-827 -7 63 95 62 0
-827 -7 63 -95 -62 0
-827 -7 -63 95 -62 0
-827 -7 -63 -95 62 0
828 827 0
-828 -827 0
7 63 95 829 0
-7 -63 -95 829 0
-829 -7 63 0
-829 7 -63 0
-829 -7 95 0
-829 7 -95 0
-829 8 64 96 -63 0
-829 8 64 -96 63 0
-829 8 -64 96 63 0
-829 8 -64 -96 -63 0
-829 -8 64 96 63 0
-829 -8 64 -96 -63 0
-829 -8 -64 96 -63 0
-829 -8 -64 -96 63 0
830 829 0
-830 -829 0
62 65 -97 0
62 -65 97 0
-62 65 97 0
-62 -65 -97 0
63 66 -98 0
63 -66 98 0
-63 66 98 0
-63 -66 -98 0
64 67 -99 0
64 -67 99 0
-64 67 99 0
-64 -67 -99 0
33 68 -100 0
33 -68 100 0
-33 68 100 0
-33 -68 -100 0
34 69 -101 0
34 -69 101 0
-34 69 101 0
-34 -69 -101 0
35 70 -102 0
35 -70 102 0
-35 70 102 0
-35 -70 -102 0
36 71 -103 0
36 -71 103 0
-36 71 103 0
-36 -71 -103 0
37 72 -104 0
37 -72 104 0
-37 72 104 0
-37 -72 -104 0
38 73 -105 0
38 -73 105 0
-38 73 105 0
-38 -73 -105 0
39 74 -106 0
39 -74 106 0
-39 74 106 0
-39 -74 -106 0
40 75 -107 0
40 -75 107 0
-40 75 107 0
-40 -75 -107 0
41 76 -108 0
41 -76 108 0
-41 76 108 0
-41 -76 -108 0
42 77 -109 0
42 -77 109 0
-42 77 109 0
-42 -77 -109 0
43 78 -110 0
43 -78 110 0
-43 78 110 0
-43 -78 -110 0
44 79 -111 0
44 -79 111 0
-44 79 111 0
-44 -79 -111 0
45 80 -112 0
45 -80 112 0
-45 80 112 0
-45 -80 -112 0
46 81 -113 0
46 -81 113 0
-46 81 113 0
-46 -81 -113 0
47 82 -114 0
47 -82 114 0
-47 82 114 0
-47 -82 -114 0
48 83 -115 0
48 -83 115 0
-48 83 115 0
-48 -83 -115 0
49 84 -116 0
49 -84 116 0
-49 84 116 0
-49 -84 -116 0
50 85 -117 0
50 -85 117 0
-50 85 117 0
-50 -85 -117 0
51 86 -118 0
51 -86 118 0
-51 86 118 0
-51 -86 -118 0
52 87 -119 0
52 -87 119 0
-52 87 119 0
-52 -87 -119 0
53 88 -120 0
53 -88 120 0
-53 88 120 0
-53 -88 -120 0
54 89 -121 0
54 -89 121 0
-54 89 121 0
-54 -89 -121 0
55 90 -122 0
55 -90 122 0
-55 90 122 0
-55 -90 -122 0
56 91 -123 0
56 -91 123 0
-56 91 123 0
-56 -91 -123 0
57 92 -124 0
57 -92 124 0
-57 92 124 0
-57 -92 -124 0
58 93 -125 0
58 -93 125 0
-58 93 125 0
-58 -93 -125 0
59 94 -126 0
59 -94 126 0
-59 94 126 0
-59 -94 -126 0
60 95 -127 0
60 -95 127 0
-60 95 127 0
-60 -95 -127 0
61 96 -128 0
61 -96 128 0
-61 96 128 0
-61 -96 -128 0
73 97 -129 0
73 -97 129 0
-73 97 129 0
-73 -97 -129 0
73 97 129 831 0
-73 -97 -129 831 0
-831 -73 97 0
-831 73 -97 0
-831 -73 129 0
-831 73 -129 0
-831 74 98 130 -97 0
-831 74 98 -130 97 0
-831 74 -98 130 97 0
-831 74 -98 -130 -97 0
-831 -74 98 130 97 0
-831 -74 98 -130 -97 0
-831 -74 -98 130 -97 0
-831 -74 -98 -130 97 0
832 831 0
-832 -831 0
74 98 130 833 0
-74 -98 -130 833 0
-833 -74 98 0
-833 74 -98 0
-833 -74 130 0
-833 74 -130 0
-833 75 99 131 -98 0
-833 75 99 -131 98 0
-833 75 -99 131 98 0
-833 75 -99 -131 -98 0
-833 -75 99 131 98 0
-833 -75 99 -131 -98 0
-833 -75 -99 131 -98 0
-833 -75 -99 -131 98 0
834 833 0
-834 -833 0
75 99 131 835 0
-75 -99 -131 835 0
-835 -75 99 0
-835 75 -99 0
-835 -75 131 0
-835 75 -131 0
-835 76 100 132 -99 0
-835 76 100 -132 99 0
-835 76 -100 132 99 0
-835 76 -100 -132 -99 0
-835 -76 100 132 99 0
-835 -76 100 -132 -99 0
-835 -76 -100 132 -99 0
-835 -76 -100 -132 99 0
836 835 0
-836 -835 0
76 100 132 837 0
-76 -100 -132 837 0
-837 -76 100 0
-837 76 -100 0
-837 -76 132 0
-837 76 -132 0
-837 77 101 133 -100 0
-837 77 101 -133 100 0
-837 77 -101 133 100 0
-837 77 -101 -133 -100 0
-837 -77 101 133 100 0
-837 -77 101 -133 -100 0
-837 -77 -101 133 -100 0
-837 -77 -101 -133 100 0
838 837 0
-838 -837 0
77 101 133 839 0
-77 -101 -133 839 0
-839 -77 101 0
-839 77 -101 0
-839 -77 133 0
-839 77 -133 0
-839 78 102 134 -101 0
-839 78 102 -134 101 0
-839 78 -102 134 101 0
-839 78 -102 -134 -101 0
-839 -78 102 134 101 0
-839 -78 102 -134 -101 0
-839 -78 -102 134 -101 0
-839 -78 -102 -134 101 0
840 839 0
-840 -839 0
78 102 134 841 0
-78 -102 -134 841 0
-841 -78 102 0
-841 78 -102 0
-841 -78 134 0
-841 78 -134 0
-841 79 103 135 -102 0
-841 79 103 -135 102 0
-841 79 -103 135 102 0
-841 79 -103 -135 -102 0
-841 -79 103 135 102 0
-841 -79 103 -135 -102 0
-841 -79 -103 135 -102 0
-841 -79 -103 -135 102 0
842 841 0
-842 -841 0
79 103 135 843 0
-79 -103 -135 843 0
-843 -79 103 0
-843 79 -103 0
-843 -79 135 0
-843 79 -135 0
-843 80 104 136 -103 0
-843 80 104 -136 103 0
-843 80 -104 136 103 0
-843 80 -104 -136 -103 0
-843 -80 104 136 103 0
-843 -80 104 -136 -103 0
-843 -80 -104 136 -103 0
-843 -80 -104 -136 103 0
844 843 0
-844 -843 0
80 104 136 845 0
-80 -104 -136 845 0
-845 -80 104 0
-845 80 -104 0
-845 -80 136 0
-845 80 -136 0
-845 81 105 137 -104 0
-845 81 105 -137 104 0
-845 81 -105 137 104 0
-845 81 -105 -137 -104 0
-845 -81 105 137 104 0
-845 -81 105 -137 -104 0
-845 -81 -105 137 -104 0
-845 -81 -105 -137 104 0
846 845 0
-846 -845 0
81 105 137 847 0
-81 -105 -137 847 0
-847 -81 105 0
-847 81 -105 0
-847 -81 137 0
-847 81 -137 0
-847 82 106 138 -105 0
-847 82 106 -138 105 0
-847 82 -106 138 105 0
-847 82 -106 -138 -105 0
-847 -82 106 138 105 0
-847 -82 106 -138 -105 0
-847 -82 -106 138 -105 0
-847 -82 -106 -138 105 0
848 847 0
-848 -847 0
82 106 138 849 0
-82 -106 -138 849 0
-849 -82 106 0
-849 82 -106 0
-849 -82 138 0
-849 82 -138 0
-849 83 107 139 -106 0
-849 83 107 -139 106 0
-849 83 -107 139 106 0
-849 83 -107 -139 -106 0
-849 -83 107 139 106 0
-849 -83 107 -139 -106 0
-849 -83 -107 139 -106 0
-849 -83 -107 -139 106 0
850 849 0
-850 -849 0
83 107 139 851 0
-83 -107 -139 851 0
-851 -83 107 0
-851 83 -107 0
-851 -83 139 0
-851 83 -139 0
-851 84 108 140 -107 0
-851 84 108 -140 107 0
-851 84 -108 140 107 0
-851 84 -108 -140 -107 0
-851 -84 108 140 107 0
-851 -84 108 -140 -107 0
-851 -84 -108 140 -107 0
-851 -84 -108 -140 107 0
852 851 0
-852 -851 0
84 108 140 853 0
-84 -108 -140 853 0
-853 -84 108 0
-853 84 -108 0
-853 -84 140 0
-853 84 -140 0
-853 85 109 141 -108 0
-853 85 109 -141 108 0
-853 85 -109 141 108 0
-853 85 -109 -141 -108 0
-853 -85 109 141 108 0
-853 -85 109 -141 -108 0
-853 -85 -109 141 -108 0
-853 -85 -109 -141 108 0
854 853 0
-854 -853 0
85 109 141 855 0
-85 -109 -141 855 0
-855 -85 109 0
-855 85 -109 0
-855 -85 141 0
-855 85 -141 0
-855 86 110 142 -109 0
-855 86 110 -142 109 0
-855 86 -110 142 109 0
-855 86 -110 -142 -109 0
-855 -86 110 142 109 0
-855 -86 110 -142 -109 0
-855 -86 -110 142 -109 0
-855 -86 -110 -142 109 0
856 855 0
-856 -855 0
86 110 142 857 0
-86 -110 -142 857 0
-857 -86 110 0
-857 86 -110 0
-857 -86 142 0
-857 86 -142 0
-857 87 111 143 -110 0
-857 87 111 -143 110 0
-857 87 -111 143 110 0
-857 87 -111 -143 -110 0
-857 -87 111 143 110 0
-857 -87 111 -143 -110 0
-857 -87 -111 143 -110 0
-857 -87 -111 -143 110 0
858 857 0
-858 -857 0
87 111 143 859 0
-87 -111 -143 859 0
-859 -87 111 0
-859 87 -111 0
-859 -87 143 0
-859 87 -143 0
-859 88 112 144 -111 0
-859 88 112 -144 111 0
-859 88 -112 144 111 0
-859 88 -112 -144 -111 0
-859 -88 112 144 111 0
-859 -88 112 -144 -111 0
-859 -88 -112 144 -111 0
-859 -88 -112 -144 111 0
860 859 0
-860 -859 0
88 112 144 861 0
-88 -112 -144 861 0
-861 -88 112 0
-861 88 -112 0
-861 -88 144 0
-861 88 -144 0
-861 89 113 145 -112 0
-861 89 113 -145 112 0
-861 89 -113 145 112 0
-861 89 -113 -145 -112 0
-861 -89 113 145 112 0
-861 -89 113 -145 -112 0
-861 -89 -113 145 -112 0
-861 -89 -113 -145 112 0
862 861 0
-862 -861 0
89 113 145 863 0
-89 -113 -145 863 0
-863 -89 113 0
-863 89 -113 0
-863 -89 145 0
-863 89 -145 0
-863 90 114 146 -113 0
-863 90 114 -146 113 0
-863 90 -114 146 113 0
-863 90 -114 -146 -113 0
-863 -90 114 146 113 0
-863 -90 114 -146 -113 0
-863 -90 -114 146 -113 0
-863 -90 -114 -146 113 0
864 863 0
-864 -863 0
90 114 146 865 0
-90 -114 -146 865 0
-865 -90 114 0
-865 90 -114 0
-865 -90 146 0
-865 90 -146 0
-865 91 115 147 -114 0
-865 91 115 -147 114 0
-865 91 -115 147 114 0
-865 91 -115 -147 -114 0
-865 -91 115 147 114 0
-865 -91 115 -147 -114 0
-865 -91 -115 147 -114 0
-865 -91 -115 -147 114 0
866 865 0
-866 -865 0
91 115 147 867 0
-91 -115 -147 867 0
-867 -91 115 0
-867 91 -115 0
-867 -91 147 0
-867 91 -147 0
-867 92 116 148 -115 0
-867 92 116 -148 115 0
-867 92 -116 148 115 0
-867 92 -116 -148 -115 0
-867 -92 116 148 115 0
-867 -92 116 -148 -115 0
-867 -92 -116 148 -115 0
-867 -92 -116 -148 115 0
868 867 0
-868 -867 0
92 116 148 869 0
-92 -116 -148 869 0
-869 -92 116 0
-869 92 -116 0
-869 -92 148 0
-869 92 -148 0
-869 93 117 149 -116 0
-869 93 117 -149 116 0
-869 93 -117 149 116 0
-869 93 -117 -149 -116 0
-869 -93 117 149 116 0
-869 -93 117 -149 -116 0
-869 -93 -117 149 -116 0
-869 -93 -117 -149 116 0
870 869 0
-870 -869 0
93 117 149 871 0
-93 -117 -149 871 0
-871 -93 117 0
-871 93 -117 0
-871 -93 149 0
-871 93 -149 0
-871 94 118 150 -117 0
-871 94 118 -150 117 0
-871 94 -118 150 117 0
-871 94 -118 -150 -117 0
-871 -94 118 150 117 0
-871 -94 118 -150 -117 0
-871 -94 -118 150 -117 0
-871 -94 -118 -150 117 0
872 871 0
-872 -871 0
94 118 150 873 0
-94 -118 -150 873 0
-873 -94 118 0
-873 94 -118 0
-873 -94 150 0
-873 94 -150 0
-873 95 119 151 -118 0
-873 95 119 -151 118 0
-873 95 -119 151 118 0
-873 95 -119 -151 -118 0
-873 -95 119 151 118 0
-873 -95 119 -151 -118 0
-873 -95 -119 151 -118 0
-873 -95 -119 -151 118 0
874 873 0
-874 -873 0
95 119 151 875 0
-95 -119 -151 875 0
-875 -95 119 0
-875 95 -119 0
-875 -95 151 0
-875 95 -151 0
-875 96 120 152 -119 0
-875 96 120 -152 119 0
-875 96 -120 152 119 0
-875 96 -120 -152 -119 0
-875 -96 120 152 119 0
-875 -96 120 -152 -119 0
-875 -96 -120 152 -119 0
-875 -96 -120 -152 119 0
876 875 0
-876 -875 0
96 120 152 877 0
-96 -120 -152 877 0
-877 -96 120 0
-877 96 -120 0
-877 -96 152 0
-877 96 -152 0
-877 65 121 153 -120 0
-877 65 121 -153 120 0
-877 65 -121 153 120 0
-877 65 -121 -153 -120 0
-877 -65 121 153 120 0
-877 -65 121 -153 -120 0
-877 -65 -121 153 -120 0
-877 -65 -121 -153 120 0
878 877 0
-878 -877 0
65 121 153 879 0
-65 -121 -153 879 0
-879 -65 121 0
-879 65 -121 0
-879 -65 153 0
-879 65 -153 0
-879 66 122 154 -121 0
-879 66 122 -154 121 0
-879 66 -122 154 121 0
-879 66 -122 -154 -121 0
-879 -66 122 154 121 0
-879 -66 122 -154 -121 0
-879 -66 -122 154 -121 0
-879 -66 -122 -154 121 0
880 879 0
-880 -879 0
66 122 154 881 0
-66 -122 -154 881 0
-881 -66 122 0
-881 66 -122 0
-881 -66 154 0
-881 66 -154 0
-881 67 123 155 -122 0
-881 67 123 -155 122 0
-881 67 -123 155 122 0
-881 67 -123 -155 -122 0
-881 -67 123 155 122 0
-881 -67 123 -155 -122 0
-881 -67 -123 155 -122 0
-881 -67 -123 -155 122 0
882 881 0
-882 -881 0
67 123 155 883 0
-67 -123 -155 883 0
-883 -67 123 0
-883 67 -123 0
-883 -67 155 0
-883 67 -155 0
-883 68 124 156 -123 0
-883 68 124 -156 123 0
-883 68 -124 156 123 0
-883 68 -124 -156 -123 0
-883 -68 124 156 123 0
-883 -68 124 -156 -123 0
-883 -68 -124 156 -123 0
-883 -68 -124 -156 123 0
884 883 0
-884 -883 0
68 124 156 885 0
-68 -124 -156 885 0
-885 -68 124 0
-885 68 -124 0
-885 -68 156 0
-885 68 -156 0
-885 69 125 157 -124 0
-885 69 125 -157 124 0
-885 69 -125 157 124 0
-885 69 -125 -157 -124 0
-885 -69 125 157 124 0
-885 -69 125 -157 -124 0
-885 -69 -125 157 -124 0
-885 -69 -125 -157 124 0
886 885 0
-886 -885 0
69 125 157 887 0
-69 -125 -157 887 0
-887 -69 125 0
-887 69 -125 0
-887 -69 157 0
-887 69 -157 0
-887 70 126 158 -125 0
-887 70 126 -158 125 0
-887 70 -126 158 125 0
-887 70 -126 -158 -125 0
-887 -70 126 158 125 0
-887 -70 126 -158 -125 0
-887 -70 -126 158 -125 0
-887 -70 -126 -158 125 0
888 887 0
-888 -887 0
70 126 158 889 0
-70 -126 -158 889 0
-889 -70 126 0
-889 70 -126 0
-889 -70 158 0
-889 70 -158 0
-889 71 127 159 -126 0
-889 71 127 -159 126 0
-889 71 -127 159 126 0
-889 71 -127 -159 -126 0
-889 -71 127 159 126 0
-889 -71 127 -159 -126 0
-889 -71 -127 159 -126 0
-889 -71 -127 -159 126 0
890 889 0
-890 -889 0
71 127 159 891 0
-71 -127 -159 891 0
-891 -71 127 0
-891 71 -127 0
-891 -71 159 0
-891 71 -159 0
-891 72 128 160 -127 0
-891 72 128 -160 127 0
-891 72 -128 160 127 0
-891 72 -128 -160 -127 0
-891 -72 128 160 127 0
-891 -72 128 -160 -127 0
-891 -72 -128 160 -127 0
-891 -72 -128 -160 127 0
892 891 0
-892 -891 0
126 129 -161 0
126 -129 161 0
-126 129 161 0
-126 -129 -161 0
127 130 -162 0
127 -130 162 0
-127 130 162 0
-127 -130 -162 0
128 131 -163 0
128 -131 163 0
-128 131 163 0
-128 -131 -163 0
97 132 -164 0
97 -132 164 0
-97 132 164 0
-97 -132 -164 0
98 133 -165 0
98 -133 165 0
-98 133 165 0
-98 -133 -165 0
99 134 -166 0
99 -134 166 0
-99 134 166 0
-99 -134 -166 0
100 135 -167 0
100 -135 167 0
-100 135 167 0
-100 -135 -167 0
101 136 -168 0
101 -136 168 0
-101 136 168 0
-101 -136 -168 0
102 137 -169 0
102 -137 169 0
-102 137 169 0
-102 -137 -169 0
103 138 -170 0
103 -138 170 0
-103 138 170 0
-103 -138 -170 0
104 139 -171 0
104 -139 171 0
-104 139 171 0
-104 -139 -171 0
105 140 -172 0
105 -140 172 0
-105 140 172 0
-105 -140 -172 0
106 141 -173 0
106 -141 173 0
-106 141 173 0
-106 -141 -173 0
107 142 -174 0
107 -142 174 0
-107 142 174 0
-107 -142 -174 0
108 143 -175 0
108 -143 175 0
-108 143 175 0
-108 -143 -175 0
109 144 -176 0
109 -144 176 0
-109 144 176 0
-109 -144 -176 0
110 145 -177 0
110 -145 177 0
-110 145 177 0
-110 -145 -177 0
111 146 -178 0
111 -146 178 0
-111 146 178 0
-111 -146 -178 0
112 147 -179 0
112 -147 179 0
-112 147 179 0
-112 -147 -179 0
113 148 -180 0
113 -148 180 0
-113 148 180 0
-113 -148 -180 0
114 149 -181 0
114 -149 181 0
-114 149 181 0
-114 -149 -181 0
115 150 -182 0
115 -150 182 0
-115 150 182 0
-115 -150 -182 0
116 151 -183 0
116 -151 183 0
-116 151 183 0
-116 -151 -183 0
117 152 -184 0
117 -152 184 0
-117 152 184 0
-117 -152 -184 0
118 153 -185 0
118 -153 185 0
-118 153 185 0
-118 -153 -185 0
119 154 -186 0
119 -154 186 0
-119 154 186 0
-119 -154 -186 0
120 155 -187 0
120 -155 187 0
-120 155 187 0
-120 -155 -187 0
121 156 -188 0
121 -156 188 0
-121 156 188 0
-121 -156 -188 0
122 157 -189 0
122 -157 189 0
-122 157 189 0
-122 -157 -189 0
123 158 -190 0
123 -158 190 0
-123 158 190 0
-123 -158 -190 0
124 159 -191 0
124 -159 191 0
-124 159 191 0
-124 -159 -191 0
125 160 -192 0
125 -160 192 0
-125 160 192 0
-125 -160 -192 0
137 161 -193 0
137 -161 193 0
-137 161 193 0
-137 -161 -193 0
137 161 193 893 0
-137 -161 -193 893 0
-893 -137 161 0
-893 137 -161 0
-893 -137 193 0
-893 137 -193 0
-893 138 162 194 -161 0
-893 138 162 -194 161 0
-893 138 -162 194 161 0
-893 138 -162 -194 -161 0
-893 -138 162 194 161 0
-893 -138 162 -194 -161 0
-893 -138 -162 194 -161 0
-893 -138 -162 -194 161 0
894 893 0
-894 -893 0
138 162 194 895 0
-138 -162 -194 895 0
-895 -138 162 0
-895 138 -162 0
-895 -138 194 0
-895 138 -194 0
-895 139 163 195 -162 0
-895 139 163 -195 162 0
-895 139 -163 195 162 0
-895 139 -163 -195 -162 0
-895 -139 163 195 162 0
-895 -139 163 -195 -162 0
-895 -139 -163 195 -162 0
-895 -139 -163 -195 162 0
896 895 0
-896 -895 0
139 163 195 897 0
-139 -163 -195 897 0
-897 -139 163 0
-897 139 -163 0
-897 -139 195 0
-897 139 -195 0
-897 140 164 196 -163 0
-897 140 164 -196 163 0
-897 140 -164 196 163 0
-897 140 -164 -196 -163 0
-897 -140 164 196 163 0
-897 -140 164 -196 -163 0
-897 -140 -164 196 -163 0
-897 -140 -164 -196 163 0
898 897 0
-898 -897 0
140 164 196 899 0
-140 -164 -196 899 0
-899 -140 164 0
-899 140 -164 0
-899 -140 196 0
-899 140 -196 0
-899 141 165 197 -164 0
-899 141 165 -197 164 0
-899 141 -165 197 164 0
-899 141 -165 -197 -164 0
-899 -141 165 197 164 0
-899 -141 165 -197 -164 0
-899 -141 -165 197 -164 0
-899 -141 -165 -197 164 0
900 899 0
-900 -899 0
141 165 197 901 0
-141 -165 -197 901 0
-901 -141 165 0
-901 141 -165 0
-901 -141 197 0
-901 141 -197 0
-901 142 166 198 -165 0
-901 142 166 -198 165 0
-901 142 -166 198 165 0
-901 142 -166 -198 -165 0
-901 -142 166 198 165 0
-901 -142 166 -198 -165 0
-901 -142 -166 198 -165 0
-901 -142 -166 -198 165 0
902 901 0
-902 -901 0
142 166 198 903 0
-142 -166 -198 903 0
-903 -142 166 0
-903 142 -166 0
-903 -142 198 0
-903 142 -198 0
-903 143 167 199 -166 0
-903 143 167 -199 166 0
-903 143 -167 199 166 0
-903 143 -167 -199 -166 0
-903 -143 167 199 166 0
-903 -143 167 -199 -166 0
-903 -143 -167 199 -166 0
-903 -143 -167 -199 166 0
904 903 0
-904 -903 0
143 167 199 905 0
-143 -167 -199 905 0
-905 -143 167 0
-905 143 -167 0
-905 -143 199 0
-905 143 -199 0
-905 144 168 200 -167 0
-905 144 168 -200 167 0
-905 144 -168 200 167 0
-905 144 -168 -200 -167 0
-905 -144 168 200 167 0
-905 -144 168 -200 -167 0
-905 -144 -168 200 -167 0
-905 -144 -168 -200 167 0
906 905 0
-906 -905 0
144 168 200 907 0
-144 -168 -200 907 0
-907 -144 168 0
-907 144 -168 0
-907 -144 200 0
-907 144 -200 0
-907 145 169 201 -168 0
-907 145 169 -201 168 0
-907 145 -169 201 168 0
-907 145 -169 -201 -168 0
-907 -145 169 201 168 0
-907 -145 169 -201 -168 0
-907 -145 -169 201 -168 0
-907 -145 -169 -201 168 0
908 907 0
-908 -907 0
145 169 201 909 0
-145 -169 -201 909 0
-909 -145 169 0
-909 145 -169 0
-909 -145 201 0
-909 145 -201 0
-909 146 170 202 -169 0
-909 146 170 -202 169 0
-909 146 -170 202 169 0
-909 146 -170 -202 -169 0
-909 -146 170 202 169 0
-909 -146 170 -202 -169 0
-909 -146 -170 202 -169 0
-909 -146 -170 -202 169 0
910 909 0
-910 -909 0
146 170 202 911 0
-146 -170 -202 911 0
-911 -146 170 0
-911 146 -170 0
-911 -146 202 0
-911 146 -202 0
-911 147 171 203 -170 0
-911 147 171 -203 170 0
-911 147 -171 203 170 0
-911 147 -171 -203 -170 0
-911 -147 171 203 170 0
-911 -147 171 -203 -170 0
-911 -147 -171 203 -170 0
-911 -147 -171 -203 170 0
912 911 0
-912 -911 0
147 171 203 913 0
-147 -171 -203 913 0
-913 -147 171 0
-913 147 -171 0
-913 -147 203 0
-913 147 -203 0
-913 148 172 204 -171 0
-913 148 172 -204 171 0
-913 148 -172 204 171 0
-913 148 -172 -204 -171 0
-913 -148 172 204 171 0
-913 -148 172 -204 -171 0
-913 -148 -172 204 -171 0
-913 -148 -172 -204 171 0
914 913 0
-914 -913 0
148 172 204 915 0
-148 -172 -204 915 0
-915 -148 172 0
-915 148 -172 0
-915 -148 204 0
-915 148 -204 0
-915 149 173 205 -172 0
-915 149 173 -205 172 0
-915 149 -173 205 172 0
-915 149 -173 -205 -172 0
-915 -149 173 205 172 0
-915 -149 173 -205 -172 0
-915 -149 -173 205 -172 0
-915 -149 -173 -205 172 0
916 915 0
-916 -915 0
149 173 205 917 0
-149 -173 -205 917 0
-917 -149 173 0
-917 149 -173 0
-917 -149 205 0
-917 149 -205 0
-917 150 174 206 -173 0
-917 150 174 -206 173 0
-917 150 -174 206 173 0
-917 150 -174 -206 -173 0
-917 -150 174 206 173 0
-917 -150 174 -206 -173 0
-917 -150 -174 206 -173 0
-917 -150 -174 -206 173 0
918 917 0
-918 -917 0
150 174 206 919 0
-150 -174 -206 919 0
-919 -150 174 0
-919 150 -174 0
-919 -150 206 0
-919 150 -206 0
-919 151 175 207 -174 0
-919 151 175 -207 174 0
-919 151 -175 207 174 0
-919 151 -175 -207 -174 0
-919 -151 175 207 174 0
-919 -151 175 -207 -174 0
-919 -151 -175 207 -174 0
-919 -151 -175 -207 174 0
920 919 0
-920 -919 0
151 175 207 921 0
-151 -175 -207 921 0
-921 -151 175 0
-921 151 -175 0
-921 -151 207 0
-921 151 -207 0
-921 152 176 208 -175 0
-921 152 176 -208 175 0
-921 152 -176 208 175 0
-921 152 -176 -208 -175 0
-921 -152 176 208 175 0
-921 -152 176 -208 -175 0
-921 -152 -176 208 -175 0
-921 -152 -176 -208 175 0
922 921 0
-922 -921 0
152 176 208 923 0
-152 -176 -208 923 0
-923 -152 176 0
-923 152 -176 0
-923 -152 208 0
-923 152 -208 0
-923 153 177 209 -176 0
-923 153 177 -209 176 0
-923 153 -177 209 176 0
-923 153 -177 -209 -176 0
-923 -153 177 209 176 0
-923 -153 177 -209 -176 0
-923 -153 -177 209 -176 0
-923 -153 -177 -209 176 0
924 923 0
-924 -923 0
153 177 209 925 0
-153 -177 -209 925 0
-925 -153 177 0
-925 153 -177 0
-925 -153 209 0
-925 153 -209 0
-925 154 178 210 -177 0
-925 154 178 -210 177 0
-925 154 -178 210 177 0
-925 154 -178 -210 -177 0
-925 -154 178 210 177 0
-925 -154 178 -210 -177 0
-925 -154 -178 210 -177 0
-925 -154 -178 -210 177 0
926 925 0
-926 -925 0
154 178 210 927 0
-154 -178 -210 927 0
-927 -154 178 0
-927 154 -178 0
-927 -154 210 0
-927 154 -210 0
-927 155 179 211 -178 0
-927 155 179 -211 178 0
-927 155 -179 211 178 0
-927 155 -179 -211 -178 0
-927 -155 179 211 178 0
-927 -155 179 -211 -178 0
-927 -155 -179 211 -178 0
-927 -155 -179 -211 178 0
928 927 0
-928 -927 0
155 179 211 929 0
-155 -179 -211 929 0
-929 -155 179 0
-929 155 -179 0
-929 -155 211 0
-929 155 -211 0
-929 156 180 212 -179 0
-929 156 180 -212 179 0
-929 156 -180 212 179 0
-929 156 -180 -212 -179 0
-929 -156 180 212 179 0
-929 -156 180 -212 -179 0
-929 -156 -180 212 -179 0
-929 -156 -180 -212 179 0
930 929 0
-930 -929 0
156 180 212 931 0
-156 -180 -212 931 0
-931 -156 180 0
-931 156 -180 0
-931 -156 212 0
-931 156 -212 0
-931 157 181 213 -180 0
-931 157 181 -213 180 0
-931 157 -181 213 180 0
-931 157 -181 -213 -180 0
-931 -157 181 213 180 0
-931 -157 181 -213 -180 0
-931 -157 -181 213 -180 0
-931 -157 -181 -213 180 0
932 931 0
-932 -931 0
157 181 213 933 0
-157 -181 -213 933 0
-933 -157 181 0
-933 157 -181 0
-933 -157 213 0
-933 157 -213 0
-933 158 182 214 -181 0
-933 158 182 -214 181 0
-933 158 -182 214 181 0
-933 158 -182 -214 -181 0
-933 -158 182 214 181 0
-933 -158 182 -214 -181 0
-933 -158 -182 214 -181 0
-933 -158 -182 -214 181 0
934 933 0
-934 -933 0
158 182 214 935 0
-158 -182 -214 935 0
-935 -158 182 0
-935 158 -182 0
-935 -158 214 0
-935 158 -214 0
-935 159 183 215 -182 0
-935 159 183 -215 182 0
-935 159 -183 215 182 0
-935 159 -183 -215 -182 0
-935 -159 183 215 182 0
-935 -159 183 -215 -182 0
-935 -159 -183 215 -182 0
-935 -159 -183 -215 182 0
936 935 0
-936 -935 0
159 183 215 937 0
-159 -183 -215 937 0
-937 -159 183 0
-937 159 -183 0
-937 -159 215 0
-937 159 -215 0
-937 160 184 216 -183 0
-937 160 184 -216 183 0
-937 160 -184 216 183 0
-937 160 -184 -216 -183 0
-937 -160 184 216 183 0
-937 -160 184 -216 -183 0
-937 -160 -184 216 -183 0
-937 -160 -184 -216 183 0
938 937 0
-938 -937 0
160 184 216 939 0
-160 -184 -216 939 0
-939 -160 184 0
-939 160 -184 0
-939 -160 216 0
-939 160 -216 0
-939 129 185 217 -184 0
-939 129 185 -217 184 0
-939 129 -185 217 184 0
-939 129 -185 -217 -184 0
-939 -129 185 217 184 0
-939 -129 185 -217 -184 0
-939 -129 -185 217 -184 0
-939 -129 -185 -217 184 0
940 939 0
-940 -939 0
129 185 217 941 0
-129 -185 -217 941 0
-941 -129 185 0
-941 129 -185 0
-941 -129 217 0
-941 129 -217 0
-941 130 186 218 -185 0
-941 130 186 -218 185 0
-941 130 -186 218 185 0
-941 130 -186 -218 -185 0
-941 -130 186 218 185 0
-941 -130 186 -218 -185 0
-941 -130 -186 218 -185 0
-941 -130 -186 -218 185 0
942 941 0
-942 -941 0
130 186 218 943 0
-130 -186 -218 943 0
-943 -130 186 0
-943 130 -186 0
-943 -130 218 0
-943 130 -218 0
-943 131 187 219 -186 0
-943 131 187 -219 186 0
-943 131 -187 219 186 0
-943 131 -187 -219 -186 0
-943 -131 187 219 186 0
-943 -131 187 -219 -186 0
-943 -131 -187 219 -186 0
-943 -131 -187 -219 186 0
944 943 0
-944 -943 0
131 187 219 945 0
-131 -187 -219 945 0
-945 -131 187 0
-945 131 -187 0
-945 -131 219 0
-945 131 -219 0
-945 132 188 220 -187 0
-945 132 188 -220 187 0
-945 132 -188 220 187 0
-945 132 -188 -220 -187 0
-945 -132 188 220 187 0
-945 -132 188 -220 -187 0
-945 -132 -188 220 -187 0
-945 -132 -188 -220 187 0
946 945 0
-946 -945 0
132 188 220 947 0
-132 -188 -220 947 0
-947 -132 188 0
-947 132 -188 0
-947 -132 220 0
-947 132 -220 0
-947 133 189 221 -188 0
-947 133 189 -221 188 0
-947 133 -189 221 188 0
-947 133 -189 -221 -188 0
-947 -133 189 221 188 0
-947 -133 189 -221 -188 0
-947 -133 -189 221 -188 0
-947 -133 -189 -221 188 0
948 947 0
-948 -947 0
133 189 221 949 0
-133 -189 -221 949 0
-949 -133 189 0
-949 133 -189 0
-949 -133 221 0
-949 133 -221 0
-949 134 190 222 -189 0
-949 134 190 -222 189 0
-949 134 -190 222 189 0
-949 134 -190 -222 -189 0
-949 -134 190 222 189 0
-949 -134 190 -222 -189 0
-949 -134 -190 222 -189 0
-949 -134 -190 -222 189 0
950 949 0
-950 -949 0
134 190 222 951 0
-134 -190 -222 951 0
-951 -134 190 0
-951 134 -190 0
-951 -134 222 0
-951 134 -222 0
-951 135 191 223 -190 0
-951 135 191 -223 190 0
-951 135 -191 223 190 0
-951 135 -191 -223 -190 0
-951 -135 191 223 190 0
-951 -135 191 -223 -190 0
-951 -135 -191 223 -190 0
-951 -135 -191 -223 190 0
952 951 0
-952 -951 0
135 191 223 953 0
-135 -191 -223 953 0
-953 -135 191 0
-953 135 -191 0
-953 -135 223 0
-953 135 -223 0
-953 136 192 224 -191 0
-953 136 192 -224 191 0
-953 136 -192 224 191 0
-953 136 -192 -224 -191 0
-953 -136 192 224 191 0
-953 -136 192 -224 -191 0
-953 -136 -192 224 -191 0
-953 -136 -192 -224 191 0
954 953 0
-954 -953 0
190 193 -225 0
190 -193 225 0
-190 193 225 0
-190 -193 -225 0
191 194 -226 0
191 -194 226 0
-191 194 226 0
-191 -194 -226 0
192 195 -227 0
192 -195 227 0
-192 195 227 0
-192 -195 -227 0
161 196 -228 0
161 -196 228 0
-161 196 228 0
-161 -196 -228 0
162 197 -229 0
162 -197 229 0
-162 197 229 0
-162 -197 -229 0
163 198 -230 0
163 -198 230 0
-163 198 230 0
-163 -198 -230 0
164 199 -231 0
164 -199 231 0
-164 199 231 0
-164 -199 -231 0
165 200 -232 0
165 -200 232 0
-165 200 232 0
-165 -200 -232 0
166 201 -233 0
166 -201 233 0
-166 201 233 0
-166 -201 -233 0
167 202 -234 0
167 -202 234 0
-167 202 234 0
-167 -202 -234 0
168 203 -235 0
168 -203 235 0
-168 203 235 0
-168 -203 -235 0
169 204 -236 0
169 -204 236 0
-169 204 236 0
-169 -204 -236 0
170 205 -237 0
170 -205 237 0
-170 205 237 0
-170 -205 -237 0
171 206 -238 0
171 -206 238 0
-171 206 238 0
-171 -206 -238 0
172 207 -239 0
172 -207 239 0
-172 207 239 0
-172 -207 -239 0
173 208 -240 0
173 -208 240 0
-173 208 240 0
-173 -208 -240 0
174 209 -241 0
174 -209 241 0
-174 209 241 0
-174 -209 -241 0
175 210 -242 0
175 -210 242 0
-175 210 242 0
-175 -210 -242 0
176 211 -243 0
176 -211 243 0
-176 211 243 0
-176 -211 -243 0
177 212 -244 0
177 -212 244 0
-177 212 244 0
-177 -212 -244 0
178 213 -245 0
178 -213 245 0
-178 213 245 0
-178 -213 -245 0
179 214 -246 0
179 -214 246 0
-179 214 246 0
-179 -214 -246 0
180 215 -247 0
180 -215 247 0
-180 215 247 0
-180 -215 -247 0
181 216 -248 0
181 -216 248 0
-181 216 248 0
-181 -216 -248 0
182 217 -249 0
182 -217 249 0
-182 217 249 0
-182 -217 -249 0
183 218 -250 0
183 -218 250 0
-183 218 250 0
-183 -218 -250 0
184 219 -251 0
184 -219 251 0
-184 219 251 0
-184 -219 -251 0
185 220 -252 0
185 -220 252 0
-185 220 252 0
-185 -220 -252 0
186 221 -253 0
186 -221 253 0
-186 221 253 0
-186 -221 -253 0
187 222 -254 0
187 -222 254 0
-187 222 254 0
-187 -222 -254 0
188 223 -255 0
188 -223 255 0
-188 223 255 0
-188 -223 -255 0
189 224 -256 0
189 -224 256 0
-189 224 256 0
-189 -224 -256 0
201 225 -257 0
201 -225 257 0
-201 225 257 0
-201 -225 -257 0
201 225 257 955 0
-201 -225 -257 955 0
-955 -201 225 0
-955 201 -225 0
-955 -201 257 0
-955 201 -257 0
-955 202 226 258 -225 0
-955 202 226 -258 225 0
-955 202 -226 258 225 0
-955 202 -226 -258 -225 0
-955 -202 226 258 225 0
-955 -202 226 -258 -225 0
-955 -202 -226 258 -225 0
-955 -202 -226 -258 225 0
956 955 0
-956 -955 0
202 226 258 957 0
-202 -226 -258 957 0
-957 -202 226 0
-957 202 -226 0
-957 -202 258 0
-957 202 -258 0
-957 203 227 259 -226 0
-957 203 227 -259 226 0
-957 203 -227 259 226 0
-957 203 -227 -259 -226 0
-957 -203 227 259 226 0
-957 -203 227 -259 -226 0
-957 -203 -227 259 -226 0
-957 -203 -227 -259 226 0
958 957 0
-958 -957 0
203 227 259 959 0
-203 -227 -259 959 0
-959 -203 227 0
-959 203 -227 0
-959 -203 259 0
-959 203 -259 0
-959 204 228 260 -227 0
-959 204 228 -260 227 0
-959 204 -228 260 227 0
-959 204 -228 -260 -227 0
-959 -204 228 260 227 0
-959 -204 228 -260 -227 0
-959 -204 -228 260 -227 0
-959 -204 -228 -260 227 0
960 959 0
-960 -959 0
204 228 260 961 0
-204 -228 -260 961 0
-961 -204 228 0
-961 204 -228 0
-961 -204 260 0
-961 204 -260 0
-961 205 229 261 -228 0
-961 205 229 -261 228 0
-961 205 -229 261 228 0
-961 205 -229 -261 -228 0
-961 -205 229 261 228 0
-961 -205 229 -261 -228 0
-961 -205 -229 261 -228 0
-961 -205 -229 -261 228 0
962 961 0
-962 -961 0
205 229 261 963 0
-205 -229 -261 963 0
-963 -205 229 0
-963 205 -229 0
-963 -205 261 0
-963 205 -261 0
-963 206 230 262 -229 0
-963 206 230 -262 229 0
-963 206 -230 262 229 0
-963 206 -230 -262 -229 0
-963 -206 230 262 229 0
-963 -206 230 -262 -229 0
-963 -206 -230 262 -229 0
-963 -206 -230 -262 229 0
964 963 0
-964 -963 0
206 230 262 965 0
-206 -230 -262 965 0
-965 -206 230 0
-965 206 -230 0
-965 -206 262 0
-965 206 -262 0
-965 207 231 263 -230 0
-965 207 231 -263 230 0
-965 207 -231 263 230 0
-965 207 -231 -263 -230 0
-965 -207 231 263 230 0
-965 -207 231 -263 -230 0
-965 -207 -231 263 -230 0
-965 -207 -231 -263 230 0
966 965 0
-966 -965 0
207 231 263 967 0
-207 -231 -263 967 0
-967 -207 231 0
-967 207 -231 0
-967 -207 263 0
-967 207 -263 0
-967 208 232 264 -231 0
-967 208 232 -264 231 0
-967 208 -232 264 231 0
-967 208 -232 -264 -231 0
-967 -208 232 264 231 0
-967 -208 232 -264 -231 0
-967 -208 -232 264 -231 0
-967 -208 -232 -264 231 0
968 967 0
-968 -967 0
208 232 264 969 0
-208 -232 -264 969 0
-969 -208 232 0
-969 208 -232 0
-969 -208 264 0
-969 208 -264 0
-969 209 233 265 -232 0
-969 209 233 -265 232 0
-969 209 -233 265 232 0
-969 209 -233 -265 -232 0
-969 -209 233 265 232 0
-969 -209 233 -265 -232 0
-969 -209 -233 265 -232 0
-969 -209 -233 -265 232 0
970 969 0
-970 -969 0
209 233 265 971 0
-209 -233 -265 971 0
-971 -209 233 0
-971 209 -233 0
-971 -209 265 0
-971 209 -265 0
-971 210 234 266 -233 0
-971 210 234 -266 233 0
-971 210 -234 266 233 0
-971 210 -234 -266 -233 0
-971 -210 234 266 233 0
-971 -210 234 -266 -233 0
-971 -210 -234 266 -233 0
-971 -210 -234 -266 233 0
972 971 0
-972 -971 0
210 234 266 973 0
-210 -234 -266 973 0
-973 -210 234 0
-973 210 -234 0
-973 -210 266 0
-973 210 -266 0
-973 211 235 267 -234 0
-973 211 235 -267 234 0
-973 211 -235 267 234 0
-973 211 -235 -267 -234 0
-973 -211 235 267 234 0
-973 -211 235 -267 -234 0
-973 -211 -235 267 -234 0
-973 -211 -235 -267 234 0
974 973 0
-974 -973 0
211 235 267 975 0
-211 -235 -267 975 0
-975 -211 235 0
-975 211 -235 0
-975 -211 267 0
-975 211 -267 0
-975 212 236 268 -235 0
-975 212 236 -268 235 0
-975 212 -236 268 235 0
-975 212 -236 -268 -235 0
-975 -212 236 268 235 0
-975 -212 236 -268 -235 0
-975 -212 -236 268 -235 0
-975 -212 -236 -268 235 0
976 975 0
-976 -975 0
212 236 268 977 0
-212 -236 -268 977 0
-977 -212 236 0
-977 212 -236 0
-977 -212 268 0
-977 212 -268 0
-977 213 237 269 -236 0
-977 213 237 -269 236 0
-977 213 -237 269 236 0
-977 213 -237 -269 -236 0
-977 -213 237 269 236 0
-977 -213 237 -269 -236 0
-977 -213 -237 269 -236 0
-977 -213 -237 -269 236 0
978 977 0
-978 -977 0
213 237 269 979 0
-213 -237 -269 979 0
-979 -213 237 0
-979 213 -237 0
-979 -213 269 0
-979 213 -269 0
-979 214 238 270 -237 0
-979 214 238 -270 237 0
-979 214 -238 270 237 0
-979 214 -238 -270 -237 0
-979 -214 238 270 237 0
-979 -214 238 -270 -237 0
-979 -214 -238 270 -237 0
-979 -214 -238 -270 237 0
980 979 0
-980 -979 0
214 238 270 981 0
-214 -238 -270 981 0
-981 -214 238 0
-981 214 -238 0
-981 -214 270 0
-981 214 -270 0
-981 215 239 271 -238 0
-981 215 239 -271 238 0
-981 215 -239 271 238 0
-981 215 -239 -271 -238 0
-981 -215 239 271 238 0
-981 -215 239 -271 -238 0
-981 -215 -239 271 -238 0
-981 -215 -239 -271 238 0
982 981 0
-982 -981 0
215 239 271 983 0
-215 -239 -271 983 0
-983 -215 239 0
-983 215 -239 0
-983 -215 271 0
-983 215 -271 0
-983 216 240 272 -239 0
-983 216 240 -272 239 0
-983 216 -240 272 239 0
-983 216 -240 -272 -239 0
-983 -216 240 272 239 0
-983 -216 240 -272 -239 0
-983 -216 -240 272 -239 0
-983 -216 -240 -272 239 0
984 983 0
-984 -983 0
216 240 272 985 0
-216 -240 -272 985 0
-985 -216 240 0
-985 216 -240 0
-985 -216 272 0
-985 216 -272 0
-985 217 241 273 -240 0
-985 217 241 -273 240 0
-985 217 -241 273 240 0
-985 217 -241 -273 -240 0
-985 -217 241 273 240 0
-985 -217 241 -273 -240 0
-985 -217 -241 273 -240 0
-985 -217 -241 -273 240 0
986 985 0
-986 -985 0
217 241 273 987 0
-217 -241 -273 987 0
-987 -217 241 0
-987 217 -241 0
-987 -217 273 0
-987 217 -273 0
-987 218 242 274 -241 0
-987 218 242 -274 241 0
-987 218 -242 274 241 0
-987 218 -242 -274 -241 0
-987 -218 242 274 241 0
-987 -218 242 -274 -241 0
-987 -218 -242 274 -241 0
-987 -218 -242 -274 241 0
988 987 0
-988 -987 0
218 242 274 989 0
-218 -242 -274 989 0
-989 -218 242 0
-989 218 -242 0
-989 -218 274 0
-989 218 -274 0
-989 219 243 275 -242 0
-989 219 243 -275 242 0
-989 219 -243 275 242 0
-989 219 -243 -275 -242 0
-989 -219 243 275 242 0
-989 -219 243 -275 -242 0
-989 -219 -243 275 -242 0
-989 -219 -243 -275 242 0
990 989 0
-990 -989 0
219 243 275 991 0
-219 -243 -275 991 0
-991 -219 243 0
-991 219 -243 0
-991 -219 275 0
-991 219 -275 0
-991 220 244 276 -243 0
-991 220 244 -276 243 0
-991 220 -244 276 243 0
-991 220 -244 -276 -243 0
-991 -220 244 276 243 0
-991 -220 244 -276 -243 0
-991 -220 -244 276 -243 0
-991 -220 -244 -276 243 0
992 991 0
-992 -991 0
220 244 276 993 0
-220 -244 -276 993 0
-993 -220 244 0
-993 220 -244 0
-993 -220 276 0
-993 220 -276 0
-993 221 245 277 -244 0
-993 221 245 -277 244 0
-993 221 -245 277 244 0
-993 221 -245 -277 -244 0
-993 -221 245 277 244 0
-993 -221 245 -277 -244 0
-993 -221 -245 277 -244 0
-993 -221 -245 -277 244 0
994 993 0
-994 -993 0
221 245 277 995 0
-221 -245 -277 995 0
-995 -221 245 0
-995 221 -245 0
-995 -221 277 0
-995 221 -277 0
-995 222 246 278 -245 0
-995 222 246 -278 245 0
-995 222 -246 278 245 0
-995 222 -246 -278 -245 0
-995 -222 246 278 245 0
-995 -222 246 -278 -245 0
-995 -222 -246 278 -245 0
-995 -222 -246 -278 245 0
996 995 0
-996 -995 0
222 246 278 997 0
-222 -246 -278 997 0
-997 -222 246 0
-997 222 -246 0
-997 -222 278 0
-997 222 -278 0
-997 223 247 279 -246 0
-997 223 247 -279 246 0
-997 223 -247 279 246 0
-997 223 -247 -279 -246 0
-997 -223 247 279 246 0
-997 -223 247 -279 -246 0
-997 -223 -247 279 -246 0
-997 -223 -247 -279 246 0
998 997 0
-998 -997 0
223 247 279 999 0
-223 -247 -279 999 0
-999 -223 247 0
-999 223 -247 0
-999 -223 279 0
-999 223 -279 0
-999 224 248 280 -247 0
-999 224 248 -280 247 0
-999 224 -248 280 247 0
-999 224 -248 -280 -247 0
-999 -224 248 280 247 0
-999 -224 248 -280 -247 0
-999 -224 -248 280 -247 0
-999 -224 -248 -280 247 0
1000 999 0
-1000 -999 0
224 248 280 1001 0
-224 -248 -280 1001 0
-1001 -224 248 0
-1001 224 -248 0
-1001 -224 280 0
-1001 224 -280 0
-1001 193 249 281 -248 0
-1001 193 249 -281 248 0
-1001 193 -249 281 248 0
-1001 193 -249 -281 -248 0
-1001 -193 249 281 248 0
-1001 -193 249 -281 -248 0
-1001 -193 -249 281 -248 0
-1001 -193 -249 -281 248 0
1002 1001 0
-1002 -1001 0
193 249 281 1003 0
-193 -249 -281 1003 0
-1003 -193 249 0
-1003 193 -249 0
-1003 -193 281 0
-1003 193 -281 0
-1003 194 250 282 -249 0
-1003 194 250 -282 249 0
-1003 194 -250 282 249 0
-1003 194 -250 -282 -249 0
-1003 -194 250 282 249 0
-1003 -194 250 -282 -249 0
-1003 -194 -250 282 -249 0
-1003 -194 -250 -282 249 0
1004 1003 0
-1004 -1003 0
194 250 282 1005 0
-194 -250 -282 1005 0
-1005 -194 250 0
-1005 194 -250 0
-1005 -194 282 0
-1005 194 -282 0
-1005 195 251 283 -250 0
-1005 195 251 -283 250 0
-1005 195 -251 283 250 0
-1005 195 -251 -283 -250 0
-1005 -195 251 283 250 0
-1005 -195 251 -283 -250 0
-1005 -195 -251 283 -250 0
-1005 -195 -251 -283 250 0
1006 1005 0
-1006 -1005 0
195 251 283 1007 0
-195 -251 -283 1007 0
-1007 -195 251 0
-1007 195 -251 0
-1007 -195 283 0
-1007 195 -283 0
-1007 196 252 284 -251 0
-1007 196 252 -284 251 0
-1007 196 -252 284 251 0
-1007 196 -252 -284 -251 0
-1007 -196 252 284 251 0
-1007 -196 252 -284 -251 0
-1007 -196 -252 284 -251 0
-1007 -196 -252 -284 251 0
1008 1007 0
-1008 -1007 0
196 252 284 1009 0
-196 -252 -284 1009 0
-1009 -196 252 0
-1009 196 -252 0
-1009 -196 284 0
-1009 196 -284 0
-1009 197 253 285 -252 0
-1009 197 253 -285 252 0
-1009 197 -253 285 252 0
-1009 197 -253 -285 -252 0
-1009 -197 253 285 252 0
-1009 -197 253 -285 -252 0
-1009 -197 -253 285 -252 0
-1009 -197 -253 -285 252 0
1010 1009 0
-1010 -1009 0
197 253 285 1011 0
-197 -253 -285 1011 0
-1011 -197 253 0
-1011 197 -253 0
-1011 -197 285 0
-1011 197 -285 0
-1011 198 254 286 -253 0
-1011 198 254 -286 253 0
-1011 198 -254 286 253 0
-1011 198 -254 -286 -253 0
-1011 -198 254 286 253 0
-1011 -198 254 -286 -253 0
-1011 -198 -254 286 -253 0
-1011 -198 -254 -286 253 0
1012 1011 0
-1012 -1011 0
198 254 286 1013 0
-198 -254 -286 1013 0
-1013 -198 254 0
-1013 198 -254 0
-1013 -198 286 0
-1013 198 -286 0
-1013 199 255 287 -254 0
-1013 199 255 -287 254 0
-1013 199 -255 287 254 0
-1013 199 -255 -287 -254 0
-1013 -199 255 287 254 0
-1013 -199 255 -287 -254 0
-1013 -199 -255 287 -254 0
-1013 -199 -255 -287 254 0
1014 1013 0
-1014 -1013 0
199 255 287 1015 0
-199 -255 -287 1015 0
-1015 -199 255 0
-1015 199 -255 0
-1015 -199 287 0
-1015 199 -287 0
-1015 200 256 288 -255 0
-1015 200 256 -288 255 0
-1015 200 -256 288 255 0
-1015 200 -256 -288 -255 0
-1015 -200 256 288 255 0
-1015 -200 256 -288 -255 0
-1015 -200 -256 288 -255 0
-1015 -200 -256 -288 255 0
1016 1015 0
-1016 -1015 0
254 257 -289 0
254 -257 289 0
-254 257 289 0
-254 -257 -289 0
255 258 -290 0
255 -258 290 0
-255 258 290 0
-255 -258 -290 0
256 259 -291 0
256 -259 291 0
-256 259 291 0
-256 -259 -291 0
225 260 -292 0
225 -260 292 0
-225 260 292 0
-225 -260 -292 0
226 261 -293 0
226 -261 293 0
-226 261 293 0
-226 -261 -293 0
227 262 -294 0
227 -262 294 0
-227 262 294 0
-227 -262 -294 0
228 263 -295 0
228 -263 295 0
-228 263 295 0
-228 -263 -295 0
229 264 -296 0
229 -264 296 0
-229 264 296 0
-229 -264 -296 0
230 265 -297 0
230 -265 297 0
-230 265 297 0
-230 -265 -297 0
231 266 -298 0
231 -266 298 0
-231 266 298 0
-231 -266 -298 0
232 267 -299 0
232 -267 299 0
-232 267 299 0
-232 -267 -299 0
233 268 -300 0
233 -268 300 0
-233 268 300 0
-233 -268 -300 0
234 269 -301 0
234 -269 301 0
-234 269 301 0
-234 -269 -301 0
235 270 -302 0
235 -270 302 0
-235 270 302 0
-235 -270 -302 0
236 271 -303 0
236 -271 303 0
-236 271 303 0
-236 -271 -303 0
237 272 -304 0
237 -272 304 0
-237 272 304 0
-237 -272 -304 0
238 273 -305 0
238 -273 305 0
-238 273 305 0
-238 -273 -305 0
239 274 -306 0
239 -274 306 0
-239 274 306 0
-239 -274 -306 0
240 275 -307 0
240 -275 307 0
-240 275 307 0
-240 -275 -307 0
241 276 -308 0
241 -276 308 0
-241 276 308 0
-241 -276 -308 0
242 277 -309 0
242 -277 309 0
-242 277 309 0
-242 -277 -309 0
243 278 -310 0
243 -278 310 0
-243 278 310 0
-243 -278 -310 0
244 279 -311 0
244 -279 311 0
-244 279 311 0
-244 -279 -311 0
245 280 -312 0
245 -280 312 0
-245 280 312 0
-245 -280 -312 0
246 281 -313 0
246 -281 313 0
-246 281 313 0
-246 -281 -313 0
247 282 -314 0
247 -282 314 0
-247 282 314 0
-247 -282 -314 0
248 283 -315 0
248 -283 315 0
-248 283 315 0
-248 -283 -315 0
249 284 -316 0
249 -284 316 0
-249 284 316 0
-249 -284 -316 0
250 285 -317 0
250 -285 317 0
-250 285 317 0
-250 -285 -317 0
251 286 -318 0
251 -286 318 0
-251 286 318 0
-251 -286 -318 0
252 287 -319 0
252 -287 319 0
-252 287 319 0
-252 -287 -319 0
253 288 -320 0
253 -288 320 0
-253 288 320 0
-253 -288 -320 0
265 289 -321 0
265 -289 321 0
-265 289 321 0
-265 -289 -321 0
265 289 321 1017 0
-265 -289 -321 1017 0
-1017 -265 289 0
-1017 265 -289 0
-1017 -265 321 0
-1017 265 -321 0
-1017 266 290 322 -289 0
-1017 266 290 -322 289 0
-1017 266 -290 322 289 0
-1017 266 -290 -322 -289 0
-1017 -266 290 322 289 0
-1017 -266 290 -322 -289 0
-1017 -266 -290 322 -289 0
-1017 -266 -290 -322 289 0
1018 1017 0
-1018 -1017 0
266 290 322 1019 0
-266 -290 -322 1019 0
-1019 -266 290 0
-1019 266 -290 0
-1019 -266 322 0
-1019 266 -322 0
-1019 267 291 323 -290 0
-1019 267 291 -323 290 0
-1019 267 -291 323 290 0
-1019 267 -291 -323 -290 0
-1019 -267 291 323 290 0
-1019 -267 291 -323 -290 0
-1019 -267 -291 323 -290 0
-1019 -267 -291 -323 290 0
1020 1019 0
-1020 -1019 0
267 291 323 1021 0
-267 -291 -323 1021 0
-1021 -267 291 0
-1021 267 -291 0
-1021 -267 323 0
-1021 267 -323 0
-1021 268 292 324 -291 0
-1021 268 292 -324 291 0
-1021 268 -292 324 291 0
-1021 268 -292 -324 -291 0
-1021 -268 292 324 291 0
-1021 -268 292 -324 -291 0
-1021 -268 -292 324 -291 0
-1021 -268 -292 -324 291 0
1022 1021 0
-1022 -1021 0
268 292 324 1023 0
-268 -292 -324 1023 0
-1023 -268 292 0
-1023 268 -292 0
-1023 -268 324 0
-1023 268 -324 0
-1023 269 293 325 -292 0
-1023 269 293 -325 292 0
-1023 269 -293 325 292 0
-1023 269 -293 -325 -292 0
-1023 -269 293 325 292 0
-1023 -269 293 -325 -292 0
-1023 -269 -293 325 -292 0
-1023 -269 -293 -325 292 0
1024 1023 0
-1024 -1023 0
269 293 325 1025 0
-269 -293 -325 1025 0
-1025 -269 293 0
-1025 269 -293 0
-1025 -269 325 0
-1025 269 -325 0
-1025 270 294 326 -293 0
-1025 270 294 -326 293 0
-1025 270 -294 326 293 0
-1025 270 -294 -326 -293 0
-1025 -270 294 326 293 0
-1025 -270 294 -326 -293 0
-1025 -270 -294 326 -293 0
-1025 -270 -294 -326 293 0
1026 1025 0
-1026 -1025 0
270 294 326 1027 0
-270 -294 -326 1027 0
-1027 -270 294 0
-1027 270 -294 0
-1027 -270 326 0
-1027 270 -326 0
-1027 271 295 327 -294 0
-1027 271 295 -327 294 0
-1027 271 -295 327 294 0
-1027 271 -295 -327 -294 0
-1027 -271 295 327 294 0
-1027 -271 295 -327 -294 0
-1027 -271 -295 327 -294 0
-1027 -271 -295 -327 294 0
1028 1027 0
-1028 -1027 0
271 295 327 1029 0
-271 -295 -327 1029 0
-1029 -271 295 0
-1029 271 -295 0
-1029 -271 327 0
-1029 271 -327 0
-1029 272 296 328 -295 0
-1029 272 296 -328 295 0
-1029 272 -296 328 295 0
-1029 272 -296 -328 -295 0
-1029 -272 296 328 295 0
-1029 -272 296 -328 -295 0
-1029 -272 -296 328 -295 0
-1029 -272 -296 -328 295 0
1030 1029 0
-1030 -1029 0
272 296 328 1031 0
-272 -296 -328 1031 0
-1031 -272 296 0
-1031 272 -296 0
-1031 -272 328 0
-1031 272 -328 0
-1031 273 297 329 -296 0
-1031 273 297 -329 296 0
-1031 273 -297 329 296 0
-1031 273 -297 -329 -296 0
-1031 -273 297 329 296 0
-1031 -273 297 -329 -296 0
-1031 -273 -297 329 -296 0
-1031 -273 -297 -329 296 0
1032 1031 0
-1032 -1031 0
273 297 329 1033 0
-273 -297 -329 1033 0
-1033 -273 297 0
-1033 273 -297 0
-1033 -273 329 0
-1033 273 -329 0
-1033 274 298 330 -297 0
-1033 274 298 -330 297 0
-1033 274 -298 330 297 0
-1033 274 -298 -330 -297 0
-1033 -274 298 330 297 0
-1033 -274 298 -330 -297 0
-1033 -274 -298 330 -297 0
-1033 -274 -298 -330 297 0
1034 1033 0
-1034 -1033 0
274 298 330 1035 0
-274 -298 -330 1035 0
-1035 -274 298 0
-1035 274 -298 0
-1035 -274 330 0
-1035 274 -330 0
-1035 275 299 331 -298 0
-1035 275 299 -331 298 0
-1035 275 -299 331 298 0
-1035 275 -299 -331 -298 0
-1035 -275 299 331 298 0
-1035 -275 299 -331 -298 0
-1035 -275 -299 331 -298 0
-1035 -275 -299 -331 298 0
1036 1035 0
-1036 -1035 0
275 299 331 1037 0
-275 -299 -331 1037 0
-1037 -275 299 0
-1037 275 -299 0
-1037 -275 331 0
-1037 275 -331 0
-1037 276 300 332 -299 0
-1037 276 300 -332 299 0
-1037 276 -300 332 299 0
-1037 276 -300 -332 -299 0
-1037 -276 300 332 299 0
-1037 -276 300 -332 -299 0
-1037 -276 -300 332 -299 0
-1037 -276 -300 -332 299 0
1038 1037 0
-1038 -1037 0
276 300 332 1039 0
-276 -300 -332 1039 0
-1039 -276 300 0
-1039 276 -300 0
-1039 -276 332 0
-1039 276 -332 0
-1039 277 301 333 -300 0
-1039 277 301 -333 300 0
-1039 277 -301 333 300 0
-1039 277 -301 -333 -300 0
-1039 -277 301 333 300 0
-1039 -277 301 -333 -300 0
-1039 -277 -301 333 -300 0
-1039 -277 -301 -333 300 0
1040 1039 0
-1040 -1039 0
277 301 333 1041 0
-277 -301 -333 1041 0
-1041 -277 301 0
-1041 277 -301 0
-1041 -277 333 0
-1041 277 -333 0
-1041 278 302 334 -301 0
-1041 278 302 -334 301 0
-1041 278 -302 334 301 0
-1041 278 -302 -334 -301 0
-1041 -278 302 334 301 0
-1041 -278 302 -334 -301 0
-1041 -278 -302 334 -301 0
-1041 -278 -302 -334 301 0
1042 1041 0
-1042 -1041 0
278 302 334 1043 0
-278 -302 -334 1043 0
-1043 -278 302 0
-1043 278 -302 0
-1043 -278 334 0
-1043 278 -334 0
-1043 279 303 335 -302 0
-1043 279 303 -335 302 0
-1043 279 -303 335 302 0
-1043 279 -303 -335 -302 0
-1043 -279 303 335 302 0
-1043 -279 303 -335 -302 0
-1043 -279 -303 335 -302 0
-1043 -279 -303 -335 302 0
1044 1043 0
-1044 -1043 0
279 303 335 1045 0
-279 -303 -335 1045 0
-1045 -279 303 0
-1045 279 -303 0
-1045 -279 335 0
-1045 279 -335 0
-1045 280 304 336 -303 0
-1045 280 304 -336 303 0
-1045 280 -304 336 303 0
-1045 280 -304 -336 -303 0
-1045 -280 304 336 303 0
-1045 -280 304 -336 -303 0
-1045 -280 -304 336 -303 0
-1045 -280 -304 -336 303 0
1046 1045 0
-1046 -1045 0
280 304 336 1047 0
-280 -304 -336 1047 0
-1047 -280 304 0
-1047 280 -304 0
-1047 -280 336 0
-1047 280 -336 0
-1047 281 305 337 -304 0
-1047 281 305 -337 304 0
-1047 281 -305 337 304 0
-1047 281 -305 -337 -304 0
-1047 -281 305 337 304 0
-1047 -281 305 -337 -304 0
-1047 -281 -305 337 -304 0
-1047 -281 -305 -337 304 0
1048 1047 0
-1048 -1047 0
281 305 337 1049 0
-281 -305 -337 1049 0
-1049 -281 305 0
-1049 281 -305 0
-1049 -281 337 0
-1049 281 -337 0
-1049 282 306 338 -305 0
-1049 282 306 -338 305 0
-1049 282 -306 338 305 0
-1049 282 -306 -338 -305 0
-1049 -282 306 338 305 0
-1049 -282 306 -338 -305 0
-1049 -282 -306 338 -305 0
-1049 -282 -306 -338 305 0
1050 1049 0
-1050 -1049 0
282 306 338 1051 0
-282 -306 -338 1051 0
-1051 -282 306 0
-1051 282 -306 0
-1051 -282 338 0
-1051 282 -338 0
-1051 283 307 339 -306 0
-1051 283 307 -339 306 0
-1051 283 -307 339 306 0
-1051 283 -307 -339 -306 0
-1051 -283 307 339 306 0
-1051 -283 307 -339 -306 0
-1051 -283 -307 339 -306 0
-1051 -283 -307 -339 306 0
1052 1051 0
-1052 -1051 0
283 307 339 1053 0
-283 -307 -339 1053 0
-1053 -283 307 0
-1053 283 -307 0
-1053 -283 339 0
-1053 283 -339 0
-1053 284 308 340 -307 0
-1053 284 308 -340 307 0
-1053 284 -308 340 307 0
-1053 284 -308 -340 -307 0
-1053 -284 308 340 307 0
-1053 -284 308 -340 -307 0
-1053 -284 -308 340 -307 0
-1053 -284 -308 -340 307 0
1054 1053 0
-1054 -1053 0
284 308 340 1055 0
-284 -308 -340 1055 0
-1055 -284 308 0
-1055 284 -308 0
-1055 -284 340 0
-1055 284 -340 0
-1055 285 309 341 -308 0
-1055 285 309 -341 308 0
-1055 285 -309 341 308 0
-1055 285 -309 -341 -308 0
-1055 -285 309 341 308 0
-1055 -285 309 -341 -308 0
-1055 -285 -309 341 -308 0
-1055 -285 -309 -341 308 0
1056 1055 0
-1056 -1055 0
285 309 341 1057 0
-285 -309 -341 1057 0
-1057 -285 309 0
-1057 285 -309 0
-1057 -285 341 0
-1057 285 -341 0
-1057 286 310 342 -309 0
-1057 286 310 -342 309 0
-1057 286 -310 342 309 0
-1057 286 -310 -342 -309 0
-1057 -286 310 342 309 0
-1057 -286 310 -342 -309 0
-1057 -286 -310 342 -309 0
-1057 -286 -310 -342 309 0
1058 1057 0
-1058 -1057 0
286 310 342 1059 0
-286 -310 -342 1059 0
-1059 -286 310 0
-1059 286 -310 0
-1059 -286 342 0
-1059 286 -342 0
-1059 287 311 343 -310 0
-1059 287 311 -343 310 0
-1059 287 -311 343 310 0
-1059 287 -311 -343 -310 0
-1059 -287 311 343 310 0
-1059 -287 311 -343 -310 0
-1059 -287 -311 343 -310 0
-1059 -287 -311 -343 310 0
1060 1059 0
-1060 -1059 0
287 311 343 1061 0
-287 -311 -343 1061 0
-1061 -287 311 0
-1061 287 -311 0
-1061 -287 343 0
-1061 287 -343 0
-1061 288 312 344 -311 0
-1061 288 312 -344 311 0
-1061 288 -312 344 311 0
-1061 288 -312 -344 -311 0
-1061 -288 312 344 311 0
-1061 -288 312 -344 -311 0
-1061 -288 -312 344 -311 0
-1061 -288 -312 -344 311 0
1062 1061 0
-1062 -1061 0
288 312 344 1063 0
-288 -312 -344 1063 0
-1063 -288 312 0
-1063 288 -312 0
-1063 -288 344 0
-1063 288 -344 0
-1063 257 313 345 -312 0
-1063 257 313 -345 312 0
-1063 257 -313 345 312 0
-1063 257 -313 -345 -312 0
-1063 -257 313 345 312 0
-1063 -257 313 -345 -312 0
-1063 -257 -313 345 -312 0
-1063 -257 -313 -345 312 0
1064 1063 0
-1064 -1063 0
257 313 345 1065 0
-257 -313 -345 1065 0
-1065 -257 313 0
-1065 257 -313 0
-1065 -257 345 0
-1065 257 -345 0
-1065 258 314 346 -313 0
-1065 258 314 -346 313 0
-1065 258 -314 346 313 0
-1065 258 -314 -346 -313 0
-1065 -258 314 346 313 0
-1065 -258 314 -346 -313 0
-1065 -258 -314 346 -313 0
-1065 -258 -314 -346 313 0
1066 1065 0
-1066 -1065 0
258 314 346 1067 0
-258 -314 -346 1067 0
-1067 -258 314 0
-1067 258 -314 0
-1067 -258 346 0
-1067 258 -346 0
-1067 259 315 347 -314 0
-1067 259 315 -347 314 0
-1067 259 -315 347 314 0
-1067 259 -315 -347 -314 0
-1067 -259 315 347 314 0
-1067 -259 315 -347 -314 0
-1067 -259 -315 347 -314 0
-1067 -259 -315 -347 314 0
1068 1067 0
-1068 -1067 0
259 315 347 1069 0
-259 -315 -347 1069 0
-1069 -259 315 0
-1069 259 -315 0
-1069 -259 347 0
-1069 259 -347 0
-1069 260 316 348 -315 0
-1069 260 316 -348 315 0
-1069 260 -316 348 315 0
-1069 260 -316 -348 -315 0
-1069 -260 316 348 315 0
-1069 -260 316 -348 -315 0
-1069 -260 -316 348 -315 0
-1069 -260 -316 -348 315 0
1070 1069 0
-1070 -1069 0
260 316 348 1071 0
-260 -316 -348 1071 0
-1071 -260 316 0
-1071 260 -316 0
-1071 -260 348 0
-1071 260 -348 0
-1071 261 317 349 -316 0
-1071 261 317 -349 316 0
-1071 261 -317 349 316 0
-1071 261 -317 -349 -316 0
-1071 -261 317 349 316 0
-1071 -261 317 -349 -316 0
-1071 -261 -317 349 -316 0
-1071 -261 -317 -349 316 0
1072 1071 0
-1072 -1071 0
261 317 349 1073 0
-261 -317 -349 1073 0
-1073 -261 317 0
-1073 261 -317 0
-1073 -261 349 0
-1073 261 -349 0
-1073 262 318 350 -317 0
-1073 262 318 -350 317 0
-1073 262 -318 350 317 0
-1073 262 -318 -350 -317 0
-1073 -262 318 350 317 0
-1073 -262 318 -350 -317 0
-1073 -262 -318 350 -317 0
-1073 -262 -318 -350 317 0
1074 1073 0
-1074 -1073 0
262 318 350 1075 0
-262 -318 -350 1075 0
-1075 -262 318 0
-1075 262 -318 0
-1075 -262 350 0
-1075 262 -350 0
-1075 263 319 351 -318 0
-1075 263 319 -351 318 0
-1075 263 -319 351 318 0
-1075 263 -319 -351 -318 0
-1075 -263 319 351 318 0
-1075 -263 319 -351 -318 0
-1075 -263 -319 351 -318 0
-1075 -263 -319 -351 318 0
1076 1075 0
-1076 -1075 0
263 319 351 1077 0
-263 -319 -351 1077 0
-1077 -263 319 0
-1077 263 -319 0
-1077 -263 351 0
-1077 263 -351 0
-1077 264 320 352 -319 0
-1077 264 320 -352 319 0
-1077 264 -320 352 319 0
-1077 264 -320 -352 -319 0
-1077 -264 320 352 319 0
-1077 -264 320 -352 -319 0
-1077 -264 -320 352 -319 0
-1077 -264 -320 -352 319 0
1078 1077 0
-1078 -1077 0
318 321 -353 0
318 -321 353 0
-318 321 353 0
-318 -321 -353 0
319 322 -354 0
319 -322 354 0
-319 322 354 0
-319 -322 -354 0
320 323 -355 0
320 -323 355 0
-320 323 355 0
-320 -323 -355 0
289 324 -356 0
289 -324 356 0
-289 324 356 0
-289 -324 -356 0
290 325 -357 0
290 -325 357 0
-290 325 357 0
-290 -325 -357 0
291 326 -358 0
291 -326 358 0
-291 326 358 0
-291 -326 -358 0
292 327 -359 0
292 -327 359 0
-292 327 359 0
-292 -327 -359 0
293 328 -360 0
293 -328 360 0
-293 328 360 0
-293 -328 -360 0
294 329 -361 0
294 -329 361 0
-294 329 361 0
-294 -329 -361 0
295 330 -362 0
295 -330 362 0
-295 330 362 0
-295 -330 -362 0
296 331 -363 0
296 -331 363 0
-296 331 363 0
-296 -331 -363 0
297 332 -364 0
297 -332 364 0
-297 332 364 0
-297 -332 -364 0
298 333 -365 0
298 -333 365 0
-298 333 365 0
-298 -333 -365 0
299 334 -366 0
299 -334 366 0
-299 334 366 0
-299 -334 -366 0
300 335 -367 0
300 -335 367 0
-300 335 367 0
-300 -335 -367 0
301 336 -368 0
301 -336 368 0
-301 336 368 0
-301 -336 -368 0
302 337 -369 0
302 -337 369 0
-302 337 369 0
-302 -337 -369 0
303 338 -370 0
303 -338 370 0
-303 338 370 0
-303 -338 -370 0
304 339 -371 0
304 -339 371 0
-304 339 371 0
-304 -339 -371 0
305 340 -372 0
305 -340 372 0
-305 340 372 0
-305 -340 -372 0
306 341 -373 0
306 -341 373 0
-306 341 373 0
-306 -341 -373 0
307 342 -374 0
307 -342 374 0
-307 342 374 0
-307 -342 -374 0
308 343 -375 0
308 -343 375 0
-308 343 375 0
-308 -343 -375 0
309 344 -376 0
309 -344 376 0
-309 344 376 0
-309 -344 -376 0
310 345 -377 0
310 -345 377 0
-310 345 377 0
-310 -345 -377 0
311 346 -378 0
311 -346 378 0
-311 346 378 0
-311 -346 -378 0
312 347 -379 0
312 -347 379 0
-312 347 379 0
-312 -347 -379 0
313 348 -380 0
313 -348 380 0
-313 348 380 0
-313 -348 -380 0
314 349 -381 0
314 -349 381 0
-314 349 381 0
-314 -349 -381 0
315 350 -382 0
315 -350 382 0
-315 350 382 0
-315 -350 -382 0
316 351 -383 0
316 -351 383 0
-316 351 383 0
-316 -351 -383 0
317 352 -384 0
317 -352 384 0
-317 352 384 0
-317 -352 -384 0
329 353 -385 0
329 -353 385 0
-329 353 385 0
-329 -353 -385 0
329 353 385 1079 0
-329 -353 -385 1079 0
-1079 -329 353 0
-1079 329 -353 0
-1079 -329 385 0
-1079 329 -385 0
-1079 330 354 386 -353 0
-1079 330 354 -386 353 0
-1079 330 -354 386 353 0
-1079 330 -354 -386 -353 0
-1079 -330 354 386 353 0
-1079 -330 354 -386 -353 0
-1079 -330 -354 386 -353 0
-1079 -330 -354 -386 353 0
1080 1079 0
-1080 -1079 0
330 354 386 1081 0
-330 -354 -386 1081 0
-1081 -330 354 0
-1081 330 -354 0
-1081 -330 386 0
-1081 330 -386 0
-1081 331 355 387 -354 0
-1081 331 355 -387 354 0
-1081 331 -355 387 354 0
-1081 331 -355 -387 -354 0
-1081 -331 355 387 354 0
-1081 -331 355 -387 -354 0
-1081 -331 -355 387 -354 0
-1081 -331 -355 -387 354 0
1082 1081 0
-1082 -1081 0
331 355 387 1083 0
-331 -355 -387 1083 0
-1083 -331 355 0
-1083 331 -355 0
-1083 -331 387 0
-1083 331 -387 0
-1083 332 356 388 -355 0
-1083 332 356 -388 355 0
-1083 332 -356 388 355 0
-1083 332 -356 -388 -355 0
-1083 -332 356 388 355 0
-1083 -332 356 -388 -355 0
-1083 -332 -356 388 -355 0
-1083 -332 -356 -388 355 0
1084 1083 0
-1084 -1083 0
332 356 388 1085 0
-332 -356 -388 1085 0
-1085 -332 356 0
-1085 332 -356 0
-1085 -332 388 0
-1085 332 -388 0
-1085 333 357 389 -356 0
-1085 333 357 -389 356 0
-1085 333 -357 389 356 0
-1085 333 -357 -389 -356 0
-1085 -333 357 389 356 0
-1085 -333 357 -389 -356 0
-1085 -333 -357 389 -356 0
-1085 -333 -357 -389 356 0
1086 1085 0
-1086 -1085 0
333 357 389 1087 0
-333 -357 -389 1087 0
-1087 -333 357 0
-1087 333 -357 0
-1087 -333 389 0
-1087 333 -389 0
-1087 334 358 390 -357 0
-1087 334 358 -390 357 0
-1087 334 -358 390 357 0
-1087 334 -358 -390 -357 0
-1087 -334 358 390 357 0
-1087 -334 358 -390 -357 0
-1087 -334 -358 390 -357 0
-1087 -334 -358 -390 357 0
1088 1087 0
-1088 -1087 0
334 358 390 1089 0
-334 -358 -390 1089 0
-1089 -334 358 0
-1089 334 -358 0
-1089 -334 390 0
-1089 334 -390 0
-1089 335 359 391 -358 0
-1089 335 359 -391 358 0
-1089 335 -359 391 358 0
-1089 335 -359 -391 -358 0
-1089 -335 359 391 358 0
-1089 -335 359 -391 -358 0
-1089 -335 -359 391 -358 0
-1089 -335 -359 -391 358 0
1090 1089 0
-1090 -1089 0
335 359 391 1091 0
-335 -359 -391 1091 0
-1091 -335 359 0
-1091 335 -359 0
-1091 -335 391 0
-1091 335 -391 0
-1091 336 360 392 -359 0
-1091 336 360 -392 359 0
-1091 336 -360 392 359 0
-1091 336 -360 -392 -359 0
-1091 -336 360 392 359 0
-1091 -336 360 -392 -359 0
-1091 -336 -360 392 -359 0
-1091 -336 -360 -392 359 0
1092 1091 0
-1092 -1091 0
336 360 392 1093 0
-336 -360 -392 1093 0
-1093 -336 360 0
-1093 336 -360 0
-1093 -336 392 0
-1093 336 -392 0
-1093 337 361 393 -360 0
-1093 337 361 -393 360 0
-1093 337 -361 393 360 0
-1093 337 -361 -393 -360 0
-1093 -337 361 393 360 0
-1093 -337 361 -393 -360 0
-1093 -337 -361 393 -360 0
-1093 -337 -361 -393 360 0
1094 1093 0
-1094 -1093 0
337 361 393 1095 0
-337 -361 -393 1095 0
-1095 -337 361 0
-1095 337 -361 0
-1095 -337 393 0
-1095 337 -393 0
-1095 338 362 394 -361 0
-1095 338 362 -394 361 0
-1095 338 -362 394 361 0
-1095 338 -362 -394 -361 0
-1095 -338 362 394 361 0
-1095 -338 362 -394 -361 0
-1095 -338 -362 394 -361 0
-1095 -338 -362 -394 361 0
1096 1095 0
-1096 -1095 0
338 362 394 1097 0
-338 -362 -394 1097 0
-1097 -338 362 0
-1097 338 -362 0
-1097 -338 394 0
-1097 338 -394 0
-1097 339 363 395 -362 0
-1097 339 363 -395 362 0
-1097 339 -363 395 362 0
-1097 339 -363 -395 -362 0
-1097 -339 363 395 362 0
-1097 -339 363 -395 -362 0
-1097 -339 -363 395 -362 0
-1097 -339 -363 -395 362 0
1098 1097 0
-1098 -1097 0
339 363 395 1099 0
-339 -363 -395 1099 0
-1099 -339 363 0
-1099 339 -363 0
-1099 -339 395 0
-1099 339 -395 0
-1099 340 364 396 -363 0
-1099 340 364 -396 363 0
-1099 340 -364 396 363 0
-1099 340 -364 -396 -363 0
-1099 -340 364 396 363 0
-1099 -340 364 -396 -363 0
-1099 -340 -364 396 -363 0
-1099 -340 -364 -396 363 0
1100 1099 0
-1100 -1099 0
340 364 396 1101 0
-340 -364 -396 1101 0
-1101 -340 364 0
-1101 340 -364 0
-1101 -340 396 0
-1101 340 -396 0
-1101 341 365 397 -364 0
-1101 341 365 -397 364 0
-1101 341 -365 397 364 0
-1101 341 -365 -397 -364 0
-1101 -341 365 397 364 0
-1101 -341 365 -397 -364 0
-1101 -341 -365 397 -364 0
-1101 -341 -365 -397 364 0
1102 1101 0
-1102 -1101 0
341 365 397 1103 0
-341 -365 -397 1103 0
-1103 -341 365 0
-1103 341 -365 0
-1103 -341 397 0
-1103 341 -397 0
-1103 342 366 398 -365 0
-1103 342 366 -398 365 0
-1103 342 -366 398 365 0
-1103 342 -366 -398 -365 0
-1103 -342 366 398 365 0
-1103 -342 366 -398 -365 0
-1103 -342 -366 398 -365 0
-1103 -342 -366 -398 365 0
1104 1103 0
-1104 -1103 0
342 366 398 1105 0
-342 -366 -398 1105 0
-1105 -342 366 0
-1105 342 -366 0
-1105 -342 398 0
-1105 342 -398 0
-1105 343 367 399 -366 0
-1105 343 367 -399 366 0
-1105 343 -367 399 366 0
-1105 343 -367 -399 -366 0
-1105 -343 367 399 366 0
-1105 -343 367 -399 -366 0
-1105 -343 -367 399 -366 0
-1105 -343 -367 -399 366 0
1106 1105 0
-1106 -1105 0
343 367 399 1107 0
-343 -367 -399 1107 0
-1107 -343 367 0
-1107 343 -367 0
-1107 -343 399 0
-1107 343 -399 0
-1107 344 368 400 -367 0
-1107 344 368 -400 367 0
-1107 344 -368 400 367 0
-1107 344 -368 -400 -367 0
-1107 -344 368 400 367 0
-1107 -344 368 -400 -367 0
-1107 -344 -368 400 -367 0
-1107 -344 -368 -400 367 0
1108 1107 0
-1108 -1107 0
344 368 400 1109 0
-344 -368 -400 1109 0
-1109 -344 368 0
-1109 344 -368 0
-1109 -344 400 0
-1109 344 -400 0
-1109 345 369 401 -368 0
-1109 345 369 -401 368 0
-1109 345 -369 401 368 0
-1109 345 -369 -401 -368 0
-1109 -345 369 401 368 0
-1109 -345 369 -401 -368 0
-1109 -345 -369 401 -368 0
-1109 -345 -369 -401 368 0
1110 1109 0
-1110 -1109 0
345 369 401 1111 0
-345 -369 -401 1111 0
-1111 -345 369 0
-1111 345 -369 0
-1111 -345 401 0
-1111 345 -401 0
-1111 346 370 402 -369 0
-1111 346 370 -402 369 0
-1111 346 -370 402 369 0
-1111 346 -370 -402 -369 0
-1111 -346 370 402 369 0
-1111 -346 370 -402 -369 0
-1111 -346 -370 402 -369 0
-1111 -346 -370 -402 369 0
1112 1111 0
-1112 -1111 0
346 370 402 1113 0
-346 -370 -402 1113 0
-1113 -346 370 0
-1113 346 -370 0
-1113 -346 402 0
-1113 346 -402 0
-1113 347 371 403 -370 0
-1113 347 371 -403 370 0
-1113 347 -371 403 370 0
-1113 347 -371 -403 -370 0
-1113 -347 371 403 370 0
-1113 -347 371 -403 -370 0
-1113 -347 -371 403 -370 0
-1113 -347 -371 -403 370 0
1114 1113 0
-1114 -1113 0
347 371 403 1115 0
-347 -371 -403 1115 0
-1115 -347 371 0
-1115 347 -371 0
-1115 -347 403 0
-1115 347 -403 0
-1115 348 372 404 -371 0
-1115 348 372 -404 371 0
-1115 348 -372 404 371 0
-1115 348 -372 -404 -371 0
-1115 -348 372 404 371 0
-1115 -348 372 -404 -371 0
-1115 -348 -372 404 -371 0
-1115 -348 -372 -404 371 0
1116 1115 0
-1116 -1115 0
348 372 404 1117 0
-348 -372 -404 1117 0
-1117 -348 372 0
-1117 348 -372 0
-1117 -348 404 0
-1117 348 -404 0
-1117 349 373 405 -372 0
-1117 349 373 -405 372 0
-1117 349 -373 405 372 0
-1117 349 -373 -405 -372 0
-1117 -349 373 405 372 0
-1117 -349 373 -405 -372 0
-1117 -349 -373 405 -372 0
-1117 -349 -373 -405 372 0
1118 1117 0
-1118 -1117 0
349 373 405 1119 0
-349 -373 -405 1119 0
-1119 -349 373 0
-1119 349 -373 0
-1119 -349 405 0
-1119 349 -405 0
-1119 350 374 406 -373 0
-1119 350 374 -406 373 0
-1119 350 -374 406 373 0
-1119 350 -374 -406 -373 0
-1119 -350 374 406 373 0
-1119 -350 374 -406 -373 0
-1119 -350 -374 406 -373 0
-1119 -350 -374 -406 373 0
1120 1119 0
-1120 -1119 0
350 374 406 1121 0
-350 -374 -406 1121 0
-1121 -350 374 0
-1121 350 -374 0
-1121 -350 406 0
-1121 350 -406 0
-1121 351 375 407 -374 0
-1121 351 375 -407 374 0
-1121 351 -375 407 374 0
-1121 351 -375 -407 -374 0
-1121 -351 375 407 374 0
-1121 -351 375 -407 -374 0
-1121 -351 -375 407 -374 0
-1121 -351 -375 -407 374 0
1122 1121 0
-1122 -1121 0
351 375 407 1123 0
-351 -375 -407 1123 0
-1123 -351 375 0
-1123 351 -375 0
-1123 -351 407 0
-1123 351 -407 0
-1123 352 376 408 -375 0
-1123 352 376 -408 375 0
-1123 352 -376 408 375 0
-1123 352 -376 -408 -375 0
-1123 -352 376 408 375 0
-1123 -352 376 -408 -375 0
-1123 -352 -376 408 -375 0
-1123 -352 -376 -408 375 0
1124 1123 0
-1124 -1123 0
352 376 408 1125 0
-352 -376 -408 1125 0
-1125 -352 376 0
-1125 352 -376 0
-1125 -352 408 0
-1125 352 -408 0
-1125 321 377 409 -376 0
-1125 321 377 -409 376 0
-1125 321 -377 409 376 0
-1125 321 -377 -409 -376 0
-1125 -321 377 409 376 0
-1125 -321 377 -409 -376 0
-1125 -321 -377 409 -376 0
-1125 -321 -377 -409 376 0
1126 1125 0
-1126 -1125 0
321 377 409 1127 0
-321 -377 -409 1127 0
-1127 -321 377 0
-1127 321 -377 0
-1127 -321 409 0
-1127 321 -409 0
-1127 322 378 410 -377 0
-1127 322 378 -410 377 0
-1127 322 -378 410 377 0
-1127 322 -378 -410 -377 0
-1127 -322 378 410 377 0
-1127 -322 378 -410 -377 0
-1127 -322 -378 410 -377 0
-1127 -322 -378 -410 377 0
1128 1127 0
-1128 -1127 0
322 378 410 1129 0
-322 -378 -410 1129 0
-1129 -322 378 0
-1129 322 -378 0
-1129 -322 410 0
-1129 322 -410 0
-1129 323 379 411 -378 0
-1129 323 379 -411 378 0
-1129 323 -379 411 378 0
-1129 323 -379 -411 -378 0
-1129 -323 379 411 378 0
-1129 -323 379 -411 -378 0
-1129 -323 -379 411 -378 0
-1129 -323 -379 -411 378 0
1130 1129 0
-1130 -1129 0
323 379 411 1131 0
-323 -379 -411 1131 0
-1131 -323 379 0
-1131 323 -379 0
-1131 -323 411 0
-1131 323 -411 0
-1131 324 380 412 -379 0
-1131 324 380 -412 379 0
-1131 324 -380 412 379 0
-1131 324 -380 -412 -379 0
-1131 -324 380 412 379 0
-1131 -324 380 -412 -379 0
-1131 -324 -380 412 -379 0
-1131 -324 -380 -412 379 0
1132 1131 0
-1132 -1131 0
324 380 412 1133 0
-324 -380 -412 1133 0
-1133 -324 380 0
-1133 324 -380 0
-1133 -324 412 0
-1133 324 -412 0
-1133 325 381 413 -380 0
-1133 325 381 -413 380 0
-1133 325 -381 413 380 0
-1133 325 -381 -413 -380 0
-1133 -325 381 413 380 0
-1133 -325 381 -413 -380 0
-1133 -325 -381 413 -380 0
-1133 -325 -381 -413 380 0
1134 1133 0
-1134 -1133 0
325 381 413 1135 0
-325 -381 -413 1135 0
-1135 -325 381 0
-1135 325 -381 0
-1135 -325 413 0
-1135 325 -413 0
-1135 326 382 414 -381 0
-1135 326 382 -414 381 0
-1135 326 -382 414 381 0
-1135 326 -382 -414 -381 0
-1135 -326 382 414 381 0
-1135 -326 382 -414 -381 0
-1135 -326 -382 414 -381 0
-1135 -326 -382 -414 381 0
1136 1135 0
-1136 -1135 0
326 382 414 1137 0
-326 -382 -414 1137 0
-1137 -326 382 0
-1137 326 -382 0
-1137 -326 414 0
-1137 326 -414 0
-1137 327 383 415 -382 0
-1137 327 383 -415 382 0
-1137 327 -383 415 382 0
-1137 327 -383 -415 -382 0
-1137 -327 383 415 382 0
-1137 -327 383 -415 -382 0
-1137 -327 -383 415 -382 0
-1137 -327 -383 -415 382 0
1138 1137 0
-1138 -1137 0
327 383 415 1139 0
-327 -383 -415 1139 0
-1139 -327 383 0
-1139 327 -383 0
-1139 -327 415 0
-1139 327 -415 0
-1139 328 384 416 -383 0
-1139 328 384 -416 383 0
-1139 328 -384 416 383 0
-1139 328 -384 -416 -383 0
-1139 -328 384 416 383 0
-1139 -328 384 -416 -383 0
-1139 -328 -384 416 -383 0
-1139 -328 -384 -416 383 0
1140 1139 0
-1140 -1139 0
382 385 -417 0
382 -385 417 0
-382 385 417 0
-382 -385 -417 0
383 386 -418 0
383 -386 418 0
-383 386 418 0
-383 -386 -418 0
384 387 -419 0
384 -387 419 0
-384 387 419 0
-384 -387 -419 0
353 388 -420 0
353 -388 420 0
-353 388 420 0
-353 -388 -420 0
354 389 -421 0
354 -389 421 0
-354 389 421 0
-354 -389 -421 0
355 390 -422 0
355 -390 422 0
-355 390 422 0
-355 -390 -422 0
356 391 -423 0
356 -391 423 0
-356 391 423 0
-356 -391 -423 0
357 392 -424 0
357 -392 424 0
-357 392 424 0
-357 -392 -424 0
358 393 -425 0
358 -393 425 0
-358 393 425 0
-358 -393 -425 0
359 394 -426 0
359 -394 426 0
-359 394 426 0
-359 -394 -426 0
360 395 -427 0
360 -395 427 0
-360 395 427 0
-360 -395 -427 0
361 396 -428 0
361 -396 428 0
-361 396 428 0
-361 -396 -428 0
362 397 -429 0
362 -397 429 0
-362 397 429 0
-362 -397 -429 0
363 398 -430 0
363 -398 430 0
-363 398 430 0
-363 -398 -430 0
364 399 -431 0
364 -399 431 0
-364 399 431 0
-364 -399 -431 0
365 400 -432 0
365 -400 432 0
-365 400 432 0
-365 -400 -432 0
366 401 -433 0
366 -401 433 0
-366 401 433 0
-366 -401 -433 0
367 402 -434 0
367 -402 434 0
-367 402 434 0
-367 -402 -434 0
368 403 -435 0
368 -403 435 0
-368 403 435 0
-368 -403 -435 0
369 404 -436 0
369 -404 436 0
-369 404 436 0
-369 -404 -436 0
370 405 -437 0
370 -405 437 0
-370 405 437 0
-370 -405 -437 0
371 406 -438 0
371 -406 438 0
-371 406 438 0
-371 -406 -438 0
372 407 -439 0
372 -407 439 0
-372 407 439 0
-372 -407 -439 0
373 408 -440 0
373 -408 440 0
-373 408 440 0
-373 -408 -440 0
374 409 -441 0
374 -409 441 0
-374 409 441 0
-374 -409 -441 0
375 410 -442 0
375 -410 442 0
-375 410 442 0
-375 -410 -442 0
376 411 -443 0
376 -411 443 0
-376 411 443 0
-376 -411 -443 0
377 412 -444 0
377 -412 444 0
-377 412 444 0
-377 -412 -444 0
378 413 -445 0
378 -413 445 0
-378 413 445 0
-378 -413 -445 0
379 414 -446 0
379 -414 446 0
-379 414 446 0
-379 -414 -446 0
380 415 -447 0
380 -415 447 0
-380 415 447 0
-380 -415 -447 0
381 416 -448 0
381 -416 448 0
-381 416 448 0
-381 -416 -448 0
393 417 -449 0
393 -417 449 0
-393 417 449 0
-393 -417 -449 0
393 417 449 1141 0
-393 -417 -449 1141 0
-1141 -393 417 0
-1141 393 -417 0
-1141 -393 449 0
-1141 393 -449 0
-1141 394 418 450 -417 0
-1141 394 418 -450 417 0
-1141 394 -418 450 417 0
-1141 394 -418 -450 -417 0
-1141 -394 418 450 417 0
-1141 -394 418 -450 -417 0
-1141 -394 -418 450 -417 0
-1141 -394 -418 -450 417 0
1142 1141 0
-1142 -1141 0
394 418 450 1143 0
-394 -418 -450 1143 0
-1143 -394 418 0
-1143 394 -418 0
-1143 -394 450 0
-1143 394 -450 0
-1143 395 419 451 -418 0
-1143 395 419 -451 418 0
-1143 395 -419 451 418 0
-1143 395 -419 -451 -418 0
-1143 -395 419 451 418 0
-1143 -395 419 -451 -418 0
-1143 -395 -419 451 -418 0
-1143 -395 -419 -451 418 0
1144 1143 0
-1144 -1143 0
395 419 451 1145 0
-395 -419 -451 1145 0
-1145 -395 419 0
-1145 395 -419 0
-1145 -395 451 0
-1145 395 -451 0
-1145 396 420 452 -419 0
-1145 396 420 -452 419 0
-1145 396 -420 452 419 0
-1145 396 -420 -452 -419 0
-1145 -396 420 452 419 0
-1145 -396 420 -452 -419 0
-1145 -396 -420 452 -419 0
-1145 -396 -420 -452 419 0
1146 1145 0
-1146 -1145 0
396 420 452 1147 0
-396 -420 -452 1147 0
-1147 -396 420 0
-1147 396 -420 0
-1147 -396 452 0
-1147 396 -452 0
-1147 397 421 453 -420 0
-1147 397 421 -453 420 0
-1147 397 -421 453 420 0
-1147 397 -421 -453 -420 0
-1147 -397 421 453 420 0
-1147 -397 421 -453 -420 0
-1147 -397 -421 453 -420 0
-1147 -397 -421 -453 420 0
1148 1147 0
-1148 -1147 0
397 421 453 1149 0
-397 -421 -453 1149 0
-1149 -397 421 0
-1149 397 -421 0
-1149 -397 453 0
-1149 397 -453 0
-1149 398 422 454 -421 0
-1149 398 422 -454 421 0
-1149 398 -422 454 421 0
-1149 398 -422 -454 -421 0
-1149 -398 422 454 421 0
-1149 -398 422 -454 -421 0
-1149 -398 -422 454 -421 0
-1149 -398 -422 -454 421 0
1150 1149 0
-1150 -1149 0
398 422 454 1151 0
-398 -422 -454 1151 0
-1151 -398 422 0
-1151 398 -422 0
-1151 -398 454 0
-1151 398 -454 0
-1151 399 423 455 -422 0
-1151 399 423 -455 422 0
-1151 399 -423 455 422 0
-1151 399 -423 -455 -422 0
-1151 -399 423 455 422 0
-1151 -399 423 -455 -422 0
-1151 -399 -423 455 -422 0
-1151 -399 -423 -455 422 0
1152 1151 0
-1152 -1151 0
399 423 455 1153 0
-399 -423 -455 1153 0
-1153 -399 423 0
-1153 399 -423 0
-1153 -399 455 0
-1153 399 -455 0
-1153 400 424 456 -423 0
-1153 400 424 -456 423 0
-1153 400 -424 456 423 0
-1153 400 -424 -456 -423 0
-1153 -400 424 456 423 0
-1153 -400 424 -456 -423 0
-1153 -400 -424 456 -423 0
-1153 -400 -424 -456 423 0
1154 1153 0
-1154 -1153 0
400 424 456 1155 0
-400 -424 -456 1155 0
-1155 -400 424 0
-1155 400 -424 0
-1155 -400 456 0
-1155 400 -456 0
-1155 401 425 457 -424 0
-1155 401 425 -457 424 0
-1155 401 -425 457 424 0
-1155 401 -425 -457 -424 0
-1155 -401 425 457 424 0
-1155 -401 425 -457 -424 0
-1155 -401 -425 457 -424 0
-1155 -401 -425 -457 424 0
1156 1155 0
-1156 -1155 0
401 425 457 1157 0
-401 -425 -457 1157 0
-1157 -401 425 0
-1157 401 -425 0
-1157 -401 457 0
-1157 401 -457 0
-1157 402 426 458 -425 0
-1157 402 426 -458 425 0
-1157 402 -426 458 425 0
-1157 402 -426 -458 -425 0
-1157 -402 426 458 425 0
-1157 -402 426 -458 -425 0
-1157 -402 -426 458 -425 0
-1157 -402 -426 -458 425 0
1158 1157 0
-1158 -1157 0
402 426 458 1159 0
-402 -426 -458 1159 0
-1159 -402 426 0
-1159 402 -426 0
-1159 -402 458 0
-1159 402 -458 0
-1159 403 427 459 -426 0
-1159 403 427 -459 426 0
-1159 403 -427 459 426 0
-1159 403 -427 -459 -426 0
-1159 -403 427 459 426 0
-1159 -403 427 -459 -426 0
-1159 -403 -427 459 -426 0
-1159 -403 -427 -459 426 0
1160 1159 0
-1160 -1159 0
403 427 459 1161 0
-403 -427 -459 1161 0
-1161 -403 427 0
-1161 403 -427 0
-1161 -403 459 0
-1161 403 -459 0
-1161 404 428 460 -427 0
-1161 404 428 -460 427 0
-1161 404 -428 460 427 0
-1161 404 -428 -460 -427 0
-1161 -404 428 460 427 0
-1161 -404 428 -460 -427 0
-1161 -404 -428 460 -427 0
-1161 -404 -428 -460 427 0
1162 1161 0
-1162 -1161 0
404 428 460 1163 0
-404 -428 -460 1163 0
-1163 -404 428 0
-1163 404 -428 0
-1163 -404 460 0
-1163 404 -460 0
-1163 405 429 461 -428 0
-1163 405 429 -461 428 0
-1163 405 -429 461 428 0
-1163 405 -429 -461 -428 0
-1163 -405 429 461 428 0
-1163 -405 429 -461 -428 0
-1163 -405 -429 461 -428 0
-1163 -405 -429 -461 428 0
1164 1163 0
-1164 -1163 0
405 429 461 1165 0
-405 -429 -461 1165 0
-1165 -405 429 0
-1165 405 -429 0
-1165 -405 461 0
-1165 405 -461 0
-1165 406 430 462 -429 0
-1165 406 430 -462 429 0
-1165 406 -430 462 429 0
-1165 406 -430 -462 -429 0
-1165 -406 430 462 429 0
-1165 -406 430 -462 -429 0
-1165 -406 -430 462 -429 0
-1165 -406 -430 -462 429 0
1166 1165 0
-1166 -1165 0
406 430 462 1167 0
-406 -430 -462 1167 0
-1167 -406 430 0
-1167 406 -430 0
-1167 -406 462 0
-1167 406 -462 0
-1167 407 431 463 -430 0
-1167 407 431 -463 430 0
-1167 407 -431 463 430 0
-1167 407 -431 -463 -430 0
-1167 -407 431 463 430 0
-1167 -407 431 -463 -430 0
-1167 -407 -431 463 -430 0
-1167 -407 -431 -463 430 0
1168 1167 0
-1168 -1167 0
407 431 463 1169 0
-407 -431 -463 1169 0
-1169 -407 431 0
-1169 407 -431 0
-1169 -407 463 0
-1169 407 -463 0
-1169 408 432 464 -431 0
-1169 408 432 -464 431 0
-1169 408 -432 464 431 0
-1169 408 -432 -464 -431 0
-1169 -408 432 464 431 0
-1169 -408 432 -464 -431 0
-1169 -408 -432 464 -431 0
-1169 -408 -432 -464 431 0
1170 1169 0
-1170 -1169 0
408 432 464 1171 0
-408 -432 -464 1171 0
-1171 -408 432 0
-1171 408 -432 0
-1171 -408 464 0
-1171 408 -464 0
-1171 409 433 465 -432 0
-1171 409 433 -465 432 0
-1171 409 -433 465 432 0
-1171 409 -433 -465 -432 0
-1171 -409 433 465 432 0
-1171 -409 433 -465 -432 0
-1171 -409 -433 465 -432 0
-1171 -409 -433 -465 432 0
1172 1171 0
-1172 -1171 0
409 433 465 1173 0
-409 -433 -465 1173 0
-1173 -409 433 0
-1173 409 -433 0
-1173 -409 465 0
-1173 409 -465 0
-1173 410 434 466 -433 0
-1173 410 434 -466 433 0
-1173 410 -434 466 433 0
-1173 410 -434 -466 -433 0
-1173 -410 434 466 433 0
-1173 -410 434 -466 -433 0
-1173 -410 -434 466 -433 0
-1173 -410 -434 -466 433 0
1174 1173 0
-1174 -1173 0
410 434 466 1175 0
-410 -434 -466 1175 0
-1175 -410 434 0
-1175 410 -434 0
-1175 -410 466 0
-1175 410 -466 0
-1175 411 435 467 -434 0
-1175 411 435 -467 434 0
-1175 411 -435 467 434 0
-1175 411 -435 -467 -434 0
-1175 -411 435 467 434 0
-1175 -411 435 -467 -434 0
-1175 -411 -435 467 -434 0
-1175 -411 -435 -467 434 0
1176 1175 0
-1176 -1175 0
411 435 467 1177 0
-411 -435 -467 1177 0
-1177 -411 435 0
-1177 411 -435 0
-1177 -411 467 0
-1177 411 -467 0
-1177 412 436 468 -435 0
-1177 412 436 -468 435 0
-1177 412 -436 468 435 0
-1177 412 -436 -468 -435 0
-1177 -412 436 468 435 0
-1177 -412 436 -468 -435 0
-1177 -412 -436 468 -435 0
-1177 -412 -436 -468 435 0
1178 1177 0
-1178 -1177 0
412 436 468 1179 0
-412 -436 -468 1179 0
-1179 -412 436 0
-1179 412 -436 0
-1179 -412 468 0
-1179 412 -468 0
-1179 413 437 469 -436 0
-1179 413 437 -469 436 0
-1179 413 -437 469 436 0
-1179 413 -437 -469 -436 0
-1179 -413 437 469 436 0
-1179 -413 437 -469 -436 0
-1179 -413 -437 469 -436 0
-1179 -413 -437 -469 436 0
1180 1179 0
-1180 -1179 0
413 437 469 1181 0
-413 -437 -469 1181 0
-1181 -413 437 0
-1181 413 -437 0
-1181 -413 469 0
-1181 413 -469 0
-1181 414 438 470 -437 0
-1181 414 438 -470 437 0
-1181 414 -438 470 437 0
-1181 414 -438 -470 -437 0
-1181 -414 438 470 437 0
-1181 -414 438 -470 -437 0
-1181 -414 -438 470 -437 0
-1181 -414 -438 -470 437 0
1182 1181 0
-1182 -1181 0
414 438 470 1183 0
-414 -438 -470 1183 0
-1183 -414 438 0
-1183 414 -438 0
-1183 -414 470 0
-1183 414 -470 0
-1183 415 439 471 -438 0
-1183 415 439 -471 438 0
-1183 415 -439 471 438 0
-1183 415 -439 -471 -438 0
-1183 -415 439 471 438 0
-1183 -415 439 -471 -438 0
-1183 -415 -439 471 -438 0
-1183 -415 -439 -471 438 0
1184 1183 0
-1184 -1183 0
415 439 471 1185 0
-415 -439 -471 1185 0
-1185 -415 439 0
-1185 415 -439 0
-1185 -415 471 0
-1185 415 -471 0
-1185 416 440 472 -439 0
-1185 416 440 -472 439 0
-1185 416 -440 472 439 0
-1185 416 -440 -472 -439 0
-1185 -416 440 472 439 0
-1185 -416 440 -472 -439 0
-1185 -416 -440 472 -439 0
-1185 -416 -440 -472 439 0
1186 1185 0
-1186 -1185 0
416 440 472 1187 0
-416 -440 -472 1187 0
-1187 -416 440 0
-1187 416 -440 0
-1187 -416 472 0
-1187 416 -472 0
-1187 385 441 473 -440 0
-1187 385 441 -473 440 0
-1187 385 -441 473 440 0
-1187 385 -441 -473 -440 0
-1187 -385 441 473 440 0
-1187 -385 441 -473 -440 0
-1187 -385 -441 473 -440 0
-1187 -385 -441 -473 440 0
1188 1187 0
-1188 -1187 0
385 441 473 1189 0
-385 -441 -473 1189 0
-1189 -385 441 0
-1189 385 -441 0
-1189 -385 473 0
-1189 385 -473 0
-1189 386 442 474 -441 0
-1189 386 442 -474 441 0
-1189 386 -442 474 441 0
-1189 386 -442 -474 -441 0
-1189 -386 442 474 441 0
-1189 -386 442 -474 -441 0
-1189 -386 -442 474 -441 0
-1189 -386 -442 -474 441 0
1190 1189 0
-1190 -1189 0
386 442 474 1191 0
-386 -442 -474 1191 0
-1191 -386 442 0
-1191 386 -442 0
-1191 -386 474 0
-1191 386 -474 0
-1191 387 443 475 -442 0
-1191 387 443 -475 442 0
-1191 387 -443 475 442 0
-1191 387 -443 -475 -442 0
-1191 -387 443 475 442 0
-1191 -387 443 -475 -442 0
-1191 -387 -443 475 -442 0
-1191 -387 -443 -475 442 0
1192 1191 0
-1192 -1191 0
387 443 475 1193 0
-387 -443 -475 1193 0
-1193 -387 443 0
-1193 387 -443 0
-1193 -387 475 0
-1193 387 -475 0
-1193 388 444 476 -443 0
-1193 388 444 -476 443 0
-1193 388 -444 476 443 0
-1193 388 -444 -476 -443 0
-1193 -388 444 476 443 0
-1193 -388 444 -476 -443 0
-1193 -388 -444 476 -443 0
-1193 -388 -444 -476 443 0
1194 1193 0
-1194 -1193 0
388 444 476 1195 0
-388 -444 -476 1195 0
-1195 -388 444 0
-1195 388 -444 0
-1195 -388 476 0
-1195 388 -476 0
-1195 389 445 477 -444 0
-1195 389 445 -477 444 0
-1195 389 -445 477 444 0
-1195 389 -445 -477 -444 0
-1195 -389 445 477 444 0
-1195 -389 445 -477 -444 0
-1195 -389 -445 477 -444 0
-1195 -389 -445 -477 444 0
1196 1195 0
-1196 -1195 0
389 445 477 1197 0
-389 -445 -477 1197 0
-1197 -389 445 0
-1197 389 -445 0
-1197 -389 477 0
-1197 389 -477 0
-1197 390 446 478 -445 0
-1197 390 446 -478 445 0
-1197 390 -446 478 445 0
-1197 390 -446 -478 -445 0
-1197 -390 446 478 445 0
-1197 -390 446 -478 -445 0
-1197 -390 -446 478 -445 0
-1197 -390 -446 -478 445 0
1198 1197 0
-1198 -1197 0
390 446 478 1199 0
-390 -446 -478 1199 0
-1199 -390 446 0
-1199 390 -446 0
-1199 -390 478 0
-1199 390 -478 0
-1199 391 447 479 -446 0
-1199 391 447 -479 446 0
-1199 391 -447 479 446 0
-1199 391 -447 -479 -446 0
-1199 -391 447 479 446 0
-1199 -391 447 -479 -446 0
-1199 -391 -447 479 -446 0
-1199 -391 -447 -479 446 0
1200 1199 0
-1200 -1199 0
391 447 479 1201 0
-391 -447 -479 1201 0
-1201 -391 447 0
-1201 391 -447 0
-1201 -391 479 0
-1201 391 -479 0
-1201 392 448 480 -447 0
-1201 392 448 -480 447 0
-1201 392 -448 480 447 0
-1201 392 -448 -480 -447 0
-1201 -392 448 480 447 0
-1201 -392 448 -480 -447 0
-1201 -392 -448 480 -447 0
-1201 -392 -448 -480 447 0
1202 1201 0
-1202 -1201 0
446 449 -481 0
446 -449 481 0
-446 449 481 0
-446 -449 -481 0
447 450 -482 0
447 -450 482 0
-447 450 482 0
-447 -450 -482 0
448 451 -483 0
448 -451 483 0
-448 451 483 0
-448 -451 -483 0
417 452 -484 0
417 -452 484 0
-417 452 484 0
-417 -452 -484 0
418 453 -485 0
418 -453 485 0
-418 453 485 0
-418 -453 -485 0
419 454 -486 0
419 -454 486 0
-419 454 486 0
-419 -454 -486 0
420 455 -487 0
420 -455 487 0
-420 455 487 0
-420 -455 -487 0
421 456 -488 0
421 -456 488 0
-421 456 488 0
-421 -456 -488 0
422 457 -489 0
422 -457 489 0
-422 457 489 0
-422 -457 -489 0
423 458 -490 0
423 -458 490 0
-423 458 490 0
-423 -458 -490 0
424 459 -491 0
424 -459 491 0
-424 459 491 0
-424 -459 -491 0
425 460 -492 0
425 -460 492 0
-425 460 492 0
-425 -460 -492 0
426 461 -493 0
426 -461 493 0
-426 461 493 0
-426 -461 -493 0
427 462 -494 0
427 -462 494 0
-427 462 494 0
-427 -462 -494 0
428 463 -495 0
428 -463 495 0
-428 463 495 0
-428 -463 -495 0
429 464 -496 0
429 -464 496 0
-429 464 496 0
-429 -464 -496 0
430 465 -497 0
430 -465 497 0
-430 465 497 0
-430 -465 -497 0
431 466 -498 0
431 -466 498 0
-431 466 498 0
-431 -466 -498 0
432 467 -499 0
432 -467 499 0
-432 467 499 0
-432 -467 -499 0
433 468 -500 0
433 -468 500 0
-433 468 500 0
-433 -468 -500 0
434 469 -501 0
434 -469 501 0
-434 469 501 0
-434 -469 -501 0
435 470 -502 0
435 -470 502 0
-435 470 502 0
-435 -470 -502 0
436 471 -503 0
436 -471 503 0
-436 471 503 0
-436 -471 -503 0
437 472 -504 0
437 -472 504 0
-437 472 504 0
-437 -472 -504 0
438 473 -505 0
438 -473 505 0
-438 473 505 0
-438 -473 -505 0
439 474 -506 0
439 -474 506 0
-439 474 506 0
-439 -474 -506 0
440 475 -507 0
440 -475 507 0
-440 475 507 0
-440 -475 -507 0
441 476 -508 0
441 -476 508 0
-441 476 508 0
-441 -476 -508 0
442 477 -509 0
442 -477 509 0
-442 477 509 0
-442 -477 -509 0
443 478 -510 0
443 -478 510 0
-443 478 510 0
-443 -478 -510 0
444 479 -511 0
444 -479 511 0
-444 479 511 0
-444 -479 -511 0
445 480 -512 0
445 -480 512 0
-445 480 512 0
-445 -480 -512 0
457 481 -513 0
457 -481 513 0
-457 481 513 0
-457 -481 -513 0
457 481 513 1203 0
-457 -481 -513 1203 0
-1203 -457 481 0
-1203 457 -481 0
-1203 -457 513 0
-1203 457 -513 0
-1203 458 482 514 -481 0
-1203 458 482 -514 481 0
-1203 458 -482 514 481 0
-1203 458 -482 -514 -481 0
-1203 -458 482 514 481 0
-1203 -458 482 -514 -481 0
-1203 -458 -482 514 -481 0
-1203 -458 -482 -514 481 0
1204 1203 0
-1204 -1203 0
458 482 514 1205 0
-458 -482 -514 1205 0
-1205 -458 482 0
-1205 458 -482 0
-1205 -458 514 0
-1205 458 -514 0
-1205 459 483 515 -482 0
-1205 459 483 -515 482 0
-1205 459 -483 515 482 0
-1205 459 -483 -515 -482 0
-1205 -459 483 515 482 0
-1205 -459 483 -515 -482 0
-1205 -459 -483 515 -482 0
-1205 -459 -483 -515 482 0
1206 1205 0
-1206 -1205 0
459 483 515 1207 0
-459 -483 -515 1207 0
-1207 -459 483 0
-1207 459 -483 0
-1207 -459 515 0
-1207 459 -515 0
-1207 460 484 516 -483 0
-1207 460 484 -516 483 0
-1207 460 -484 516 483 0
-1207 460 -484 -516 -483 0
-1207 -460 484 516 483 0
-1207 -460 484 -516 -483 0
-1207 -460 -484 516 -483 0
-1207 -460 -484 -516 483 0
1208 1207 0
-1208 -1207 0
460 484 516 1209 0
-460 -484 -516 1209 0
-1209 -460 484 0
-1209 460 -484 0
-1209 -460 516 0
-1209 460 -516 0
-1209 461 485 517 -484 0
-1209 461 485 -517 484 0
-1209 461 -485 517 484 0
-1209 461 -485 -517 -484 0
-1209 -461 485 517 484 0
-1209 -461 485 -517 -484 0
-1209 -461 -485 517 -484 0
-1209 -461 -485 -517 484 0
1210 1209 0
-1210 -1209 0
461 485 517 1211 0
-461 -485 -517 1211 0
-1211 -461 485 0
-1211 461 -485 0
-1211 -461 517 0
-1211 461 -517 0
-1211 462 486 518 -485 0
-1211 462 486 -518 485 0
-1211 462 -486 518 485 0
-1211 462 -486 -518 -485 0
-1211 -462 486 518 485 0
-1211 -462 486 -518 -485 0
-1211 -462 -486 518 -485 0
-1211 -462 -486 -518 485 0
1212 1211 0
-1212 -1211 0
462 486 518 1213 0
-462 -486 -518 1213 0
-1213 -462 486 0
-1213 462 -486 0
-1213 -462 518 0
-1213 462 -518 0
-1213 463 487 519 -486 0
-1213 463 487 -519 486 0
-1213 463 -487 519 486 0
-1213 463 -487 -519 -486 0
-1213 -463 487 519 486 0
-1213 -463 487 -519 -486 0
-1213 -463 -487 519 -486 0
-1213 -463 -487 -519 486 0
1214 1213 0
-1214 -1213 0
463 487 519 1215 0
-463 -487 -519 1215 0
-1215 -463 487 0
-1215 463 -487 0
-1215 -463 519 0
-1215 463 -519 0
-1215 464 488 520 -487 0
-1215 464 488 -520 487 0
-1215 464 -488 520 487 0
-1215 464 -488 -520 -487 0
-1215 -464 488 520 487 0
-1215 -464 488 -520 -487 0
-1215 -464 -488 520 -487 0
-1215 -464 -488 -520 487 0
1216 1215 0
-1216 -1215 0
464 488 520 1217 0
-464 -488 -520 1217 0
-1217 -464 488 0
-1217 464 -488 0
-1217 -464 520 0
-1217 464 -520 0
-1217 465 489 521 -488 0
-1217 465 489 -521 488 0
-1217 465 -489 521 488 0
-1217 465 -489 -521 -488 0
-1217 -465 489 521 488 0
-1217 -465 489 -521 -488 0
-1217 -465 -489 521 -488 0
-1217 -465 -489 -521 488 0
1218 1217 0
-1218 -1217 0
465 489 521 1219 0
-465 -489 -521 1219 0
-1219 -465 489 0
-1219 465 -489 0
-1219 -465 521 0
-1219 465 -521 0
-1219 466 490 522 -489 0
-1219 466 490 -522 489 0
-1219 466 -490 522 489 0
-1219 466 -490 -522 -489 0
-1219 -466 490 522 489 0
-1219 -466 490 -522 -489 0
-1219 -466 -490 522 -489 0
-1219 -466 -490 -522 489 0
1220 1219 0
-1220 -1219 0
466 490 522 1221 0
-466 -490 -522 1221 0
-1221 -466 490 0
-1221 466 -490 0
-1221 -466 522 0
-1221 466 -522 0
-1221 467 491 523 -490 0
-1221 467 491 -523 490 0
-1221 467 -491 523 490 0
-1221 467 -491 -523 -490 0
-1221 -467 491 523 490 0
-1221 -467 491 -523 -490 0
-1221 -467 -491 523 -490 0
-1221 -467 -491 -523 490 0
1222 1221 0
-1222 -1221 0
467 491 523 1223 0
-467 -491 -523 1223 0
-1223 -467 491 0
-1223 467 -491 0
-1223 -467 523 0
-1223 467 -523 0
-1223 468 492 524 -491 0
-1223 468 492 -524 491 0
-1223 468 -492 524 491 0
-1223 468 -492 -524 -491 0
-1223 -468 492 524 491 0
-1223 -468 492 -524 -491 0
-1223 -468 -492 524 -491 0
-1223 -468 -492 -524 491 0
1224 1223 0
-1224 -1223 0
468 492 524 1225 0
-468 -492 -524 1225 0
-1225 -468 492 0
-1225 468 -492 0
-1225 -468 524 0
-1225 468 -524 0
-1225 469 493 525 -492 0
-1225 469 493 -525 492 0
-1225 469 -493 525 492 0
-1225 469 -493 -525 -492 0
-1225 -469 493 525 492 0
-1225 -469 493 -525 -492 0
-1225 -469 -493 525 -492 0
-1225 -469 -493 -525 492 0
1226 1225 0
-1226 -1225 0
469 493 525 1227 0
-469 -493 -525 1227 0
-1227 -469 493 0
-1227 469 -493 0
-1227 -469 525 0
-1227 469 -525 0
-1227 470 494 526 -493 0
-1227 470 494 -526 493 0
-1227 470 -494 526 493 0
-1227 470 -494 -526 -493 0
-1227 -470 494 526 493 0
-1227 -470 494 -526 -493 0
-1227 -470 -494 526 -493 0
-1227 -470 -494 -526 493 0
1228 1227 0
-1228 -1227 0
470 494 526 1229 0
-470 -494 -526 1229 0
-1229 -470 494 0
-1229 470 -494 0
-1229 -470 526 0
-1229 470 -526 0
-1229 471 495 527 -494 0
-1229 471 495 -527 494 0
-1229 471 -495 527 494 0
-1229 471 -495 -527 -494 0
-1229 -471 495 527 494 0
-1229 -471 495 -527 -494 0
-1229 -471 -495 527 -494 0
-1229 -471 -495 -527 494 0
1230 1229 0
-1230 -1229 0
471 495 527 1231 0
-471 -495 -527 1231 0
-1231 -471 495 0
-1231 471 -495 0
-1231 -471 527 0
-1231 471 -527 0
-1231 472 496 528 -495 0
-1231 472 496 -528 495 0
-1231 472 -496 528 495 0
-1231 472 -496 -528 -495 0
-1231 -472 496 528 495 0
-1231 -472 496 -528 -495 0
-1231 -472 -496 528 -495 0
-1231 -472 -496 -528 495 0
1232 1231 0
-1232 -1231 0
472 496 528 1233 0
-472 -496 -528 1233 0
-1233 -472 496 0
-1233 472 -496 0
-1233 -472 528 0
-1233 472 -528 0
-1233 473 497 529 -496 0
-1233 473 497 -529 496 0
-1233 473 -497 529 496 0
-1233 473 -497 -529 -496 0
-1233 -473 497 529 496 0
-1233 -473 497 -529 -496 0
-1233 -473 -497 529 -496 0
-1233 -473 -497 -529 496 0
1234 1233 0
-1234 -1233 0
473 497 529 1235 0
-473 -497 -529 1235 0
-1235 -473 497 0
-1235 473 -497 0
-1235 -473 529 0
-1235 473 -529 0
-1235 474 498 530 -497 0
-1235 474 498 -530 497 0
-1235 474 -498 530 497 0
-1235 474 -498 -530 -497 0
-1235 -474 498 530 497 0
-1235 -474 498 -530 -497 0
-1235 -474 -498 530 -497 0
-1235 -474 -498 -530 497 0
1236 1235 0
-1236 -1235 0
474 498 530 1237 0
-474 -498 -530 1237 0
-1237 -474 498 0
-1237 474 -498 0
-1237 -474 530 0
-1237 474 -530 0
-1237 475 499 531 -498 0
-1237 475 499 -531 498 0
-1237 475 -499 531 498 0
-1237 475 -499 -531 -498 0
-1237 -475 499 531 498 0
-1237 -475 499 -531 -498 0
-1237 -475 -499 531 -498 0
-1237 -475 -499 -531 498 0
1238 1237 0
-1238 -1237 0
475 499 531 1239 0
-475 -499 -531 1239 0
-1239 -475 499 0
-1239 475 -499 0
-1239 -475 531 0
-1239 475 -531 0
-1239 476 500 532 -499 0
-1239 476 500 -532 499 0
-1239 476 -500 532 499 0
-1239 476 -500 -532 -499 0
-1239 -476 500 532 499 0
-1239 -476 500 -532 -499 0
-1239 -476 -500 532 -499 0
-1239 -476 -500 -532 499 0
1240 1239 0
-1240 -1239 0
476 500 532 1241 0
-476 -500 -532 1241 0
-1241 -476 500 0
-1241 476 -500 0
-1241 -476 532 0
-1241 476 -532 0
-1241 477 501 533 -500 0
-1241 477 501 -533 500 0
-1241 477 -501 533 500 0
-1241 477 -501 -533 -500 0
-1241 -477 501 533 500 0
-1241 -477 501 -533 -500 0
-1241 -477 -501 533 -500 0
-1241 -477 -501 -533 500 0
1242 1241 0
-1242 -1241 0
477 501 533 1243 0
-477 -501 -533 1243 0
-1243 -477 501 0
-1243 477 -501 0
-1243 -477 533 0
-1243 477 -533 0
-1243 478 502 534 -501 0
-1243 478 502 -534 501 0
-1243 478 -502 534 501 0
-1243 478 -502 -534 -501 0
-1243 -478 502 534 501 0
-1243 -478 502 -534 -501 0
-1243 -478 -502 534 -501 0
-1243 -478 -502 -534 501 0
1244 1243 0
-1244 -1243 0
478 502 534 1245 0
-478 -502 -534 1245 0
-1245 -478 502 0
-1245 478 -502 0
-1245 -478 534 0
-1245 478 -534 0
-1245 479 503 535 -502 0
-1245 479 503 -535 502 0
-1245 479 -503 535 502 0
-1245 479 -503 -535 -502 0
-1245 -479 503 535 502 0
-1245 -479 503 -535 -502 0
-1245 -479 -503 535 -502 0
-1245 -479 -503 -535 502 0
1246 1245 0
-1246 -1245 0
479 503 535 1247 0
-479 -503 -535 1247 0
-1247 -479 503 0
-1247 479 -503 0
-1247 -479 535 0
-1247 479 -535 0
-1247 480 504 536 -503 0
-1247 480 504 -536 503 0
-1247 480 -504 536 503 0
-1247 480 -504 -536 -503 0
-1247 -480 504 536 503 0
-1247 -480 504 -536 -503 0
-1247 -480 -504 536 -503 0
-1247 -480 -504 -536 503 0
1248 1247 0
-1248 -1247 0
480 504 536 1249 0
-480 -504 -536 1249 0
-1249 -480 504 0
-1249 480 -504 0
-1249 -480 536 0
-1249 480 -536 0
-1249 449 505 537 -504 0
-1249 449 505 -537 504 0
-1249 449 -505 537 504 0
-1249 449 -505 -537 -504 0
-1249 -449 505 537 504 0
-1249 -449 505 -537 -504 0
-1249 -449 -505 537 -504 0
-1249 -449 -505 -537 504 0
1250 1249 0
-1250 -1249 0
449 505 537 1251 0
-449 -505 -537 1251 0
-1251 -449 505 0
-1251 449 -505 0
-1251 -449 537 0
-1251 449 -537 0
-1251 450 506 538 -505 0
-1251 450 506 -538 505 0
-1251 450 -506 538 505 0
-1251 450 -506 -538 -505 0
-1251 -450 506 538 505 0
-1251 -450 506 -538 -505 0
-1251 -450 -506 538 -505 0
-1251 -450 -506 -538 505 0
1252 1251 0
-1252 -1251 0
450 506 538 1253 0
-450 -506 -538 1253 0
-1253 -450 506 0
-1253 450 -506 0
-1253 -450 538 0
-1253 450 -538 0
-1253 451 507 539 -506 0
-1253 451 507 -539 506 0
-1253 451 -507 539 506 0
-1253 451 -507 -539 -506 0
-1253 -451 507 539 506 0
-1253 -451 507 -539 -506 0
-1253 -451 -507 539 -506 0
-1253 -451 -507 -539 506 0
1254 1253 0
-1254 -1253 0
451 507 539 1255 0
-451 -507 -539 1255 0
-1255 -451 507 0
-1255 451 -507 0
-1255 -451 539 0
-1255 451 -539 0
-1255 452 508 540 -507 0
-1255 452 508 -540 507 0
-1255 452 -508 540 507 0
-1255 452 -508 -540 -507 0
-1255 -452 508 540 507 0
-1255 -452 508 -540 -507 0
-1255 -452 -508 540 -507 0
-1255 -452 -508 -540 507 0
1256 1255 0
-1256 -1255 0
452 508 540 1257 0
-452 -508 -540 1257 0
-1257 -452 508 0
-1257 452 -508 0
-1257 -452 540 0
-1257 452 -540 0
-1257 453 509 541 -508 0
-1257 453 509 -541 508 0
-1257 453 -509 541 508 0
-1257 453 -509 -541 -508 0
-1257 -453 509 541 508 0
-1257 -453 509 -541 -508 0
-1257 -453 -509 541 -508 0
-1257 -453 -509 -541 508 0
1258 1257 0
-1258 -1257 0
453 509 541 1259 0
-453 -509 -541 1259 0
-1259 -453 509 0
-1259 453 -509 0
-1259 -453 541 0
-1259 453 -541 0
-1259 454 510 542 -509 0
-1259 454 510 -542 509 0
-1259 454 -510 542 509 0
-1259 454 -510 -542 -509 0
-1259 -454 510 542 509 0
-1259 -454 510 -542 -509 0
-1259 -454 -510 542 -509 0
-1259 -454 -510 -542 509 0
1260 1259 0
-1260 -1259 0
454 510 542 1261 0
-454 -510 -542 1261 0
-1261 -454 510 0
-1261 454 -510 0
-1261 -454 542 0
-1261 454 -542 0
-1261 455 511 543 -510 0
-1261 455 511 -543 510 0
-1261 455 -511 543 510 0
-1261 455 -511 -543 -510 0
-1261 -455 511 543 510 0
-1261 -455 511 -543 -510 0
-1261 -455 -511 543 -510 0
-1261 -455 -511 -543 510 0
1262 1261 0
-1262 -1261 0
455 511 543 1263 0
-455 -511 -543 1263 0
-1263 -455 511 0
-1263 455 -511 0
-1263 -455 543 0
-1263 455 -543 0
-1263 456 512 544 -511 0
-1263 456 512 -544 511 0
-1263 456 -512 544 511 0
-1263 456 -512 -544 -511 0
-1263 -456 512 544 511 0
-1263 -456 512 -544 -511 0
-1263 -456 -512 544 -511 0
-1263 -456 -512 -544 511 0
1264 1263 0
-1264 -1263 0
510 513 -545 0
510 -513 545 0
-510 513 545 0
-510 -513 -545 0
511 514 -546 0
511 -514 546 0
-511 514 546 0
-511 -514 -546 0
512 515 -547 0
512 -515 547 0
-512 515 547 0
-512 -515 -547 0
481 516 -548 0
481 -516 548 0
-481 516 548 0
-481 -516 -548 0
482 517 -549 0
482 -517 549 0
-482 517 549 0
-482 -517 -549 0
483 518 -550 0
483 -518 550 0
-483 518 550 0
-483 -518 -550 0
484 519 -551 0
484 -519 551 0
-484 519 551 0
-484 -519 -551 0
485 520 -552 0
485 -520 552 0
-485 520 552 0
-485 -520 -552 0
486 521 -553 0
486 -521 553 0
-486 521 553 0
-486 -521 -553 0
487 522 -554 0
487 -522 554 0
-487 522 554 0
-487 -522 -554 0
488 523 -555 0
488 -523 555 0
-488 523 555 0
-488 -523 -555 0
489 524 -556 0
489 -524 556 0
-489 524 556 0
-489 -524 -556 0
490 525 -557 0
490 -525 557 0
-490 525 557 0
-490 -525 -557 0
491 526 -558 0
491 -526 558 0
-491 526 558 0
-491 -526 -558 0
492 527 -559 0
492 -527 559 0
-492 527 559 0
-492 -527 -559 0
493 528 -560 0
493 -528 560 0
-493 528 560 0
-493 -528 -560 0
494 529 -561 0
494 -529 561 0
-494 529 561 0
-494 -529 -561 0
495 530 -562 0
495 -530 562 0
-495 530 562 0
-495 -530 -562 0
496 531 -563 0
496 -531 563 0
-496 531 563 0
-496 -531 -563 0
497 532 -564 0
497 -532 564 0
-497 532 564 0
-497 -532 -564 0
498 533 -565 0
498 -533 565 0
-498 533 565 0
-498 -533 -565 0
499 534 -566 0
499 -534 566 0
-499 534 566 0
-499 -534 -566 0
500 535 -567 0
500 -535 567 0
-500 535 567 0
-500 -535 -567 0
501 536 -568 0
501 -536 568 0
-501 536 568 0
-501 -536 -568 0
502 537 -569 0
502 -537 569 0
-502 537 569 0
-502 -537 -569 0
503 538 -570 0
503 -538 570 0
-503 538 570 0
-503 -538 -570 0
504 539 -571 0
504 -539 571 0
-504 539 571 0
-504 -539 -571 0
505 540 -572 0
505 -540 572 0
-505 540 572 0
-505 -540 -572 0
506 541 -573 0
506 -541 573 0
-506 541 573 0
-506 -541 -573 0
507 542 -574 0
507 -542 574 0
-507 542 574 0
-507 -542 -574 0
508 543 -575 0
508 -543 575 0
-508 543 575 0
-508 -543 -575 0
509 544 -576 0
509 -544 576 0
-509 544 576 0
-509 -544 -576 0
521 545 -577 0
521 -545 577 0
-521 545 577 0
-521 -545 -577 0
521 545 577 1265 0
-521 -545 -577 1265 0
-1265 -521 545 0
-1265 521 -545 0
-1265 -521 577 0
-1265 521 -577 0
-1265 522 546 578 -545 0
-1265 522 546 -578 545 0
-1265 522 -546 578 545 0
-1265 522 -546 -578 -545 0
-1265 -522 546 578 545 0
-1265 -522 546 -578 -545 0
-1265 -522 -546 578 -545 0
-1265 -522 -546 -578 545 0
1266 1265 0
-1266 -1265 0
522 546 578 1267 0
-522 -546 -578 1267 0
-1267 -522 546 0
-1267 522 -546 0
-1267 -522 578 0
-1267 522 -578 0
-1267 523 547 579 -546 0
-1267 523 547 -579 546 0
-1267 523 -547 579 546 0
-1267 523 -547 -579 -546 0
-1267 -523 547 579 546 0
-1267 -523 547 -579 -546 0
-1267 -523 -547 579 -546 0
-1267 -523 -547 -579 546 0
1268 1267 0
-1268 -1267 0
523 547 579 1269 0
-523 -547 -579 1269 0
-1269 -523 547 0
-1269 523 -547 0
-1269 -523 579 0
-1269 523 -579 0
-1269 524 548 580 -547 0
-1269 524 548 -580 547 0
-1269 524 -548 580 547 0
-1269 524 -548 -580 -547 0
-1269 -524 548 580 547 0
-1269 -524 548 -580 -547 0
-1269 -524 -548 580 -547 0
-1269 -524 -548 -580 547 0
1270 1269 0
-1270 -1269 0
524 548 580 1271 0
-524 -548 -580 1271 0
-1271 -524 548 0
-1271 524 -548 0
-1271 -524 580 0
-1271 524 -580 0
-1271 525 549 581 -548 0
-1271 525 549 -581 548 0
-1271 525 -549 581 548 0
-1271 525 -549 -581 -548 0
-1271 -525 549 581 548 0
-1271 -525 549 -581 -548 0
-1271 -525 -549 581 -548 0
-1271 -525 -549 -581 548 0
1272 1271 0
-1272 -1271 0
525 549 581 1273 0
-525 -549 -581 1273 0
-1273 -525 549 0
-1273 525 -549 0
-1273 -525 581 0
-1273 525 -581 0
-1273 526 550 582 -549 0
-1273 526 550 -582 549 0
-1273 526 -550 582 549 0
-1273 526 -550 -582 -549 0
-1273 -526 550 582 549 0
-1273 -526 550 -582 -549 0
-1273 -526 -550 582 -549 0
-1273 -526 -550 -582 549 0
1274 1273 0
-1274 -1273 0
526 550 582 1275 0
-526 -550 -582 1275 0
-1275 -526 550 0
-1275 526 -550 0
-1275 -526 582 0
-1275 526 -582 0
-1275 527 551 583 -550 0
-1275 527 551 -583 550 0
-1275 527 -551 583 550 0
-1275 527 -551 -583 -550 0
-1275 -527 551 583 550 0
-1275 -527 551 -583 -550 0
-1275 -527 -551 583 -550 0
-1275 -527 -551 -583 550 0
1276 1275 0
-1276 -1275 0
527 551 583 1277 0
-527 -551 -583 1277 0
-1277 -527 551 0
-1277 527 -551 0
-1277 -527 583 0
-1277 527 -583 0
-1277 528 552 584 -551 0
-1277 528 552 -584 551 0
-1277 528 -552 584 551 0
-1277 528 -552 -584 -551 0
-1277 -528 552 584 551 0
-1277 -528 552 -584 -551 0
-1277 -528 -552 584 -551 0
-1277 -528 -552 -584 551 0
1278 1277 0
-1278 -1277 0
528 552 584 1279 0
-528 -552 -584 1279 0
-1279 -528 552 0
-1279 528 -552 0
-1279 -528 584 0
-1279 528 -584 0
-1279 529 553 585 -552 0
-1279 529 553 -585 552 0
-1279 529 -553 585 552 0
-1279 529 -553 -585 -552 0
-1279 -529 553 585 552 0
-1279 -529 553 -585 -552 0
-1279 -529 -553 585 -552 0
-1279 -529 -553 -585 552 0
1280 1279 0
-1280 -1279 0
529 553 585 1281 0
-529 -553 -585 1281 0
-1281 -529 553 0
-1281 529 -553 0
-1281 -529 585 0
-1281 529 -585 0
-1281 530 554 586 -553 0
-1281 530 554 -586 553 0
-1281 530 -554 586 553 0
-1281 530 -554 -586 -553 0
-1281 -530 554 586 553 0
-1281 -530 554 -586 -553 0
-1281 -530 -554 586 -553 0
-1281 -530 -554 -586 553 0
1282 1281 0
-1282 -1281 0
530 554 586 1283 0
-530 -554 -586 1283 0
-1283 -530 554 0
-1283 530 -554 0
-1283 -530 586 0
-1283 530 -586 0
-1283 531 555 587 -554 0
-1283 531 555 -587 554 0
-1283 531 -555 587 554 0
-1283 531 -555 -587 -554 0
-1283 -531 555 587 554 0
-1283 -531 555 -587 -554 0
-1283 -531 -555 587 -554 0
-1283 -531 -555 -587 554 0
1284 1283 0
-1284 -1283 0
531 555 587 1285 0
-531 -555 -587 1285 0
-1285 -531 555 0
-1285 531 -555 0
-1285 -531 587 0
-1285 531 -587 0
-1285 532 556 588 -555 0
-1285 532 556 -588 555 0
-1285 532 -556 588 555 0
-1285 532 -556 -588 -555 0
-1285 -532 556 588 555 0
-1285 -532 556 -588 -555 0
-1285 -532 -556 588 -555 0
-1285 -532 -556 -588 555 0
1286 1285 0
-1286 -1285 0
532 556 588 1287 0
-532 -556 -588 1287 0
-1287 -532 556 0
-1287 532 -556 0
-1287 -532 588 0
-1287 532 -588 0
-1287 533 557 589 -556 0
-1287 533 557 -589 556 0
-1287 533 -557 589 556 0
-1287 533 -557 -589 -556 0
-1287 -533 557 589 556 0
-1287 -533 557 -589 -556 0
-1287 -533 -557 589 -556 0
-1287 -533 -557 -589 556 0
1288 1287 0
-1288 -1287 0
533 557 589 1289 0
-533 -557 -589 1289 0
-1289 -533 557 0
-1289 533 -557 0
-1289 -533 589 0
-1289 533 -589 0
-1289 534 558 590 -557 0
-1289 534 558 -590 557 0
-1289 534 -558 590 557 0
-1289 534 -558 -590 -557 0
-1289 -534 558 590 557 0
-1289 -534 558 -590 -557 0
-1289 -534 -558 590 -557 0
-1289 -534 -558 -590 557 0
1290 1289 0
-1290 -1289 0
534 558 590 1291 0
-534 -558 -590 1291 0
-1291 -534 558 0
-1291 534 -558 0
-1291 -534 590 0
-1291 534 -590 0
-1291 535 559 591 -558 0
-1291 535 559 -591 558 0
-1291 535 -559 591 558 0
-1291 535 -559 -591 -558 0
-1291 -535 559 591 558 0
-1291 -535 559 -591 -558 0
-1291 -535 -559 591 -558 0
-1291 -535 -559 -591 558 0
1292 1291 0
-1292 -1291 0
535 559 591 1293 0
-535 -559 -591 1293 0
-1293 -535 559 0
-1293 535 -559 0
-1293 -535 591 0
-1293 535 -591 0
-1293 536 560 592 -559 0
-1293 536 560 -592 559 0
-1293 536 -560 592 559 0
-1293 536 -560 -592 -559 0
-1293 -536 560 592 559 0
-1293 -536 560 -592 -559 0
-1293 -536 -560 592 -559 0
-1293 -536 -560 -592 559 0
1294 1293 0
-1294 -1293 0
536 560 592 1295 0
-536 -560 -592 1295 0
-1295 -536 560 0
-1295 536 -560 0
-1295 -536 592 0
-1295 536 -592 0
-1295 537 561 593 -560 0
-1295 537 561 -593 560 0
-1295 537 -561 593 560 0
-1295 537 -561 -593 -560 0
-1295 -537 561 593 560 0
-1295 -537 561 -593 -560 0
-1295 -537 -561 593 -560 0
-1295 -537 -561 -593 560 0
1296 1295 0
-1296 -1295 0
537 561 593 1297 0
-537 -561 -593 1297 0
-1297 -537 561 0
-1297 537 -561 0
-1297 -537 593 0
-1297 537 -593 0
-1297 538 562 594 -561 0
-1297 538 562 -594 561 0
-1297 538 -562 594 561 0
-1297 538 -562 -594 -561 0
-1297 -538 562 594 561 0
-1297 -538 562 -594 -561 0
-1297 -538 -562 594 -561 0
-1297 -538 -562 -594 561 0
1298 1297 0
-1298 -1297 0
538 562 594 1299 0
-538 -562 -594 1299 0
-1299 -538 562 0
-1299 538 -562 0
-1299 -538 594 0
-1299 538 -594 0
-1299 539 563 595 -562 0
-1299 539 563 -595 562 0
-1299 539 -563 595 562 0
-1299 539 -563 -595 -562 0
-1299 -539 563 595 562 0
-1299 -539 563 -595 -562 0
-1299 -539 -563 595 -562 0
-1299 -539 -563 -595 562 0
1300 1299 0
-1300 -1299 0
539 563 595 1301 0
-539 -563 -595 1301 0
-1301 -539 563 0
-1301 539 -563 0
-1301 -539 595 0
-1301 539 -595 0
-1301 540 564 596 -563 0
-1301 540 564 -596 563 0
-1301 540 -564 596 563 0
-1301 540 -564 -596 -563 0
-1301 -540 564 596 563 0
-1301 -540 564 -596 -563 0
-1301 -540 -564 596 -563 0
-1301 -540 -564 -596 563 0
1302 1301 0
-1302 -1301 0
540 564 596 1303 0
-540 -564 -596 1303 0
-1303 -540 564 0
-1303 540 -564 0
-1303 -540 596 0
-1303 540 -596 0
-1303 541 565 597 -564 0
-1303 541 565 -597 564 0
-1303 541 -565 597 564 0
-1303 541 -565 -597 -564 0
-1303 -541 565 597 564 0
-1303 -541 565 -597 -564 0
-1303 -541 -565 597 -564 0
-1303 -541 -565 -597 564 0
1304 1303 0
-1304 -1303 0
541 565 597 1305 0
-541 -565 -597 1305 0
-1305 -541 565 0
-1305 541 -565 0
-1305 -541 597 0
-1305 541 -597 0
-1305 542 566 598 -565 0
-1305 542 566 -598 565 0
-1305 542 -566 598 565 0
-1305 542 -566 -598 -565 0
-1305 -542 566 598 565 0
-1305 -542 566 -598 -565 0
-1305 -542 -566 598 -565 0
-1305 -542 -566 -598 565 0
1306 1305 0
-1306 -1305 0
542 566 598 1307 0
-542 -566 -598 1307 0
-1307 -542 566 0
-1307 542 -566 0
-1307 -542 598 0
-1307 542 -598 0
-1307 543 567 599 -566 0
-1307 543 567 -599 566 0
-1307 543 -567 599 566 0
-1307 543 -567 -599 -566 0
-1307 -543 567 599 566 0
-1307 -543 567 -599 -566 0
-1307 -543 -567 599 -566 0
-1307 -543 -567 -599 566 0
1308 1307 0
-1308 -1307 0
543 567 599 1309 0
-543 -567 -599 1309 0
-1309 -543 567 0
-1309 543 -567 0
-1309 -543 599 0
-1309 543 -599 0
-1309 544 568 600 -567 0
-1309 544 568 -600 567 0
-1309 544 -568 600 567 0
-1309 544 -568 -600 -567 0
-1309 -544 568 600 567 0
-1309 -544 568 -600 -567 0
-1309 -544 -568 600 -567 0
-1309 -544 -568 -600 567 0
1310 1309 0
-1310 -1309 0
544 568 600 1311 0
-544 -568 -600 1311 0
-1311 -544 568 0
-1311 544 -568 0
-1311 -544 600 0
-1311 544 -600 0
-1311 513 569 601 -568 0
-1311 513 569 -601 568 0
-1311 513 -569 601 568 0
-1311 513 -569 -601 -568 0
-1311 -513 569 601 568 0
-1311 -513 569 -601 -568 0
-1311 -513 -569 601 -568 0
-1311 -513 -569 -601 568 0
1312 1311 0
-1312 -1311 0
513 569 601 1313 0
-513 -569 -601 1313 0
-1313 -513 569 0
-1313 513 -569 0
-1313 -513 601 0
-1313 513 -601 0
-1313 514 570 602 -569 0
-1313 514 570 -602 569 0
-1313 514 -570 602 569 0
-1313 514 -570 -602 -569 0
-1313 -514 570 602 569 0
-1313 -514 570 -602 -569 0
-1313 -514 -570 602 -569 0
-1313 -514 -570 -602 569 0
1314 1313 0
-1314 -1313 0
514 570 602 1315 0
-514 -570 -602 1315 0
-1315 -514 570 0
-1315 514 -570 0
-1315 -514 602 0
-1315 514 -602 0
-1315 515 571 603 -570 0
-1315 515 571 -603 570 0
-1315 515 -571 603 570 0
-1315 515 -571 -603 -570 0
-1315 -515 571 603 570 0
-1315 -515 571 -603 -570 0
-1315 -515 -571 603 -570 0
-1315 -515 -571 -603 570 0
1316 1315 0
-1316 -1315 0
515 571 603 1317 0
-515 -571 -603 1317 0
-1317 -515 571 0
-1317 515 -571 0
-1317 -515 603 0
-1317 515 -603 0
-1317 516 572 604 -571 0
-1317 516 572 -604 571 0
-1317 516 -572 604 571 0
-1317 516 -572 -604 -571 0
-1317 -516 572 604 571 0
-1317 -516 572 -604 -571 0
-1317 -516 -572 604 -571 0
-1317 -516 -572 -604 571 0
1318 1317 0
-1318 -1317 0
516 572 604 1319 0
-516 -572 -604 1319 0
-1319 -516 572 0
-1319 516 -572 0
-1319 -516 604 0
-1319 516 -604 0
-1319 517 573 605 -572 0
-1319 517 573 -605 572 0
-1319 517 -573 605 572 0
-1319 517 -573 -605 -572 0
-1319 -517 573 605 572 0
-1319 -517 573 -605 -572 0
-1319 -517 -573 605 -572 0
-1319 -517 -573 -605 572 0
1320 1319 0
-1320 -1319 0
517 573 605 1321 0
-517 -573 -605 1321 0
-1321 -517 573 0
-1321 517 -573 0
-1321 -517 605 0
-1321 517 -605 0
-1321 518 574 606 -573 0
-1321 518 574 -606 573 0
-1321 518 -574 606 573 0
-1321 518 -574 -606 -573 0
-1321 -518 574 606 573 0
-1321 -518 574 -606 -573 0
-1321 -518 -574 606 -573 0
-1321 -518 -574 -606 573 0
1322 1321 0
-1322 -1321 0
518 574 606 1323 0
-518 -574 -606 1323 0
-1323 -518 574 0
-1323 518 -574 0
-1323 -518 606 0
-1323 518 -606 0
-1323 519 575 607 -574 0
-1323 519 575 -607 574 0
-1323 519 -575 607 574 0
-1323 519 -575 -607 -574 0
-1323 -519 575 607 574 0
-1323 -519 575 -607 -574 0
-1323 -519 -575 607 -574 0
-1323 -519 -575 -607 574 0
1324 1323 0
-1324 -1323 0
519 575 607 1325 0
-519 -575 -607 1325 0
-1325 -519 575 0
-1325 519 -575 0
-1325 -519 607 0
-1325 519 -607 0
-1325 520 576 608 -575 0
-1325 520 576 -608 575 0
-1325 520 -576 608 575 0
-1325 520 -576 -608 -575 0
-1325 -520 576 608 575 0
-1325 -520 576 -608 -575 0
-1325 -520 -576 608 -575 0
-1325 -520 -576 -608 575 0
1326 1325 0
-1326 -1325 0
574 577 -609 0
574 -577 609 0
-574 577 609 0
-574 -577 -609 0
575 578 -610 0
575 -578 610 0
-575 578 610 0
-575 -578 -610 0
576 579 -611 0
576 -579 611 0
-576 579 611 0
-576 -579 -611 0
545 580 -612 0
545 -580 612 0
-545 580 612 0
-545 -580 -612 0
546 581 -613 0
546 -581 613 0
-546 581 613 0
-546 -581 -613 0
547 582 -614 0
547 -582 614 0
-547 582 614 0
-547 -582 -614 0
548 583 -615 0
548 -583 615 0
-548 583 615 0
-548 -583 -615 0
549 584 -616 0
549 -584 616 0
-549 584 616 0
-549 -584 -616 0
550 585 -617 0
550 -585 617 0
-550 585 617 0
-550 -585 -617 0
551 586 -618 0
551 -586 618 0
-551 586 618 0
-551 -586 -618 0
552 587 -619 0
552 -587 619 0
-552 587 619 0
-552 -587 -619 0
553 588 -620 0
553 -588 620 0
-553 588 620 0
-553 -588 -620 0
554 589 -621 0
554 -589 621 0
-554 589 621 0
-554 -589 -621 0
555 590 -622 0
555 -590 622 0
-555 590 622 0
-555 -590 -622 0
556 591 -623 0
556 -591 623 0
-556 591 623 0
-556 -591 -623 0
557 592 -624 0
557 -592 624 0
-557 592 624 0
-557 -592 -624 0
558 593 -625 0
558 -593 625 0
-558 593 625 0
-558 -593 -625 0
559 594 -626 0
559 -594 626 0
-559 594 626 0
-559 -594 -626 0
560 595 -627 0
560 -595 627 0
-560 595 627 0
-560 -595 -627 0
561 596 -628 0
561 -596 628 0
-561 596 628 0
-561 -596 -628 0
562 597 -629 0
562 -597 629 0
-562 597 629 0
-562 -597 -629 0
563 598 -630 0
563 -598 630 0
-563 598 630 0
-563 -598 -630 0
564 599 -631 0
564 -599 631 0
-564 599 631 0
-564 -599 -631 0
565 600 -632 0
565 -600 632 0
-565 600 632 0
-565 -600 -632 0
566 601 -633 0
566 -601 633 0
-566 601 633 0
-566 -601 -633 0
567 602 -634 0
567 -602 634 0
-567 602 634 0
-567 -602 -634 0
568 603 -635 0
568 -603 635 0
-568 603 635 0
-568 -603 -635 0
569 604 -636 0
569 -604 636 0
-569 604 636 0
-569 -604 -636 0
570 605 -637 0
570 -605 637 0
-570 605 637 0
-570 -605 -637 0
571 606 -638 0
571 -606 638 0
-571 606 638 0
-571 -606 -638 0
572 607 -639 0
572 -607 639 0
-572 607 639 0
-572 -607 -639 0
573 608 -640 0
573 -608 640 0
-573 608 640 0
-573 -608 -640 0
585 609 -641 0
585 -609 641 0
-585 609 641 0
-585 -609 -641 0
585 609 641 1327 0
-585 -609 -641 1327 0
-1327 -585 609 0
-1327 585 -609 0
-1327 -585 641 0
-1327 585 -641 0
-1327 586 610 642 -609 0
-1327 586 610 -642 609 0
-1327 586 -610 642 609 0
-1327 586 -610 -642 -609 0
-1327 -586 610 642 609 0
-1327 -586 610 -642 -609 0
-1327 -586 -610 642 -609 0
-1327 -586 -610 -642 609 0
1328 1327 0
-1328 -1327 0
586 610 642 1329 0
-586 -610 -642 1329 0
-1329 -586 610 0
-1329 586 -610 0
-1329 -586 642 0
-1329 586 -642 0
-1329 587 611 643 -610 0
-1329 587 611 -643 610 0
-1329 587 -611 643 610 0
-1329 587 -611 -643 -610 0
-1329 -587 611 643 610 0
-1329 -587 611 -643 -610 0
-1329 -587 -611 643 -610 0
-1329 -587 -611 -643 610 0
1330 1329 0
-1330 -1329 0
587 611 643 1331 0
-587 -611 -643 1331 0
-1331 -587 611 0
-1331 587 -611 0
-1331 -587 643 0
-1331 587 -643 0
-1331 588 612 644 -611 0
-1331 588 612 -644 611 0
-1331 588 -612 644 611 0
-1331 588 -612 -644 -611 0
-1331 -588 612 644 611 0
-1331 -588 612 -644 -611 0
-1331 -588 -612 644 -611 0
-1331 -588 -612 -644 611 0
1332 1331 0
-1332 -1331 0
588 612 644 1333 0
-588 -612 -644 1333 0
-1333 -588 612 0
-1333 588 -612 0
-1333 -588 644 0
-1333 588 -644 0
-1333 589 613 645 -612 0
-1333 589 613 -645 612 0
-1333 589 -613 645 612 0
-1333 589 -613 -645 -612 0
-1333 -589 613 645 612 0
-1333 -589 613 -645 -612 0
-1333 -589 -613 645 -612 0
-1333 -589 -613 -645 612 0
1334 1333 0
-1334 -1333 0
589 613 645 1335 0
-589 -613 -645 1335 0
-1335 -589 613 0
-1335 589 -613 0
-1335 -589 645 0
-1335 589 -645 0
-1335 590 614 646 -613 0
-1335 590 614 -646 613 0
-1335 590 -614 646 613 0
-1335 590 -614 -646 -613 0
-1335 -590 614 646 613 0
-1335 -590 614 -646 -613 0
-1335 -590 -614 646 -613 0
-1335 -590 -614 -646 613 0
1336 1335 0
-1336 -1335 0
590 614 646 1337 0
-590 -614 -646 1337 0
-1337 -590 614 0
-1337 590 -614 0
-1337 -590 646 0
-1337 590 -646 0
-1337 591 615 647 -614 0
-1337 591 615 -647 614 0
-1337 591 -615 647 614 0
-1337 591 -615 -647 -614 0
-1337 -591 615 647 614 0
-1337 -591 615 -647 -614 0
-1337 -591 -615 647 -614 0
-1337 -591 -615 -647 614 0
1338 1337 0
-1338 -1337 0
591 615 647 1339 0
-591 -615 -647 1339 0
-1339 -591 615 0
-1339 591 -615 0
-1339 -591 647 0
-1339 591 -647 0
-1339 592 616 648 -615 0
-1339 592 616 -648 615 0
-1339 592 -616 648 615 0
-1339 592 -616 -648 -615 0
-1339 -592 616 648 615 0
-1339 -592 616 -648 -615 0
-1339 -592 -616 648 -615 0
-1339 -592 -616 -648 615 0
1340 1339 0
-1340 -1339 0
592 616 648 1341 0
-592 -616 -648 1341 0
-1341 -592 616 0
-1341 592 -616 0
-1341 -592 648 0
-1341 592 -648 0
-1341 593 617 649 -616 0
-1341 593 617 -649 616 0
-1341 593 -617 649 616 0
-1341 593 -617 -649 -616 0
-1341 -593 617 649 616 0
-1341 -593 617 -649 -616 0
-1341 -593 -617 649 -616 0
-1341 -593 -617 -649 616 0
1342 1341 0
-1342 -1341 0
593 617 649 1343 0
-593 -617 -649 1343 0
-1343 -593 617 0
-1343 593 -617 0
-1343 -593 649 0
-1343 593 -649 0
-1343 594 618 650 -617 0
-1343 594 618 -650 617 0
-1343 594 -618 650 617 0
-1343 594 -618 -650 -617 0
-1343 -594 618 650 617 0
-1343 -594 618 -650 -617 0
-1343 -594 -618 650 -617 0
-1343 -594 -618 -650 617 0
1344 1343 0
-1344 -1343 0
594 618 650 1345 0
-594 -618 -650 1345 0
-1345 -594 618 0
-1345 594 -618 0
-1345 -594 650 0
-1345 594 -650 0
-1345 595 619 651 -618 0
-1345 595 619 -651 618 0
-1345 595 -619 651 618 0
-1345 595 -619 -651 -618 0
-1345 -595 619 651 618 0
-1345 -595 619 -651 -618 0
-1345 -595 -619 651 -618 0
-1345 -595 -619 -651 618 0
1346 1345 0
-1346 -1345 0
595 619 651 1347 0
-595 -619 -651 1347 0
-1347 -595 619 0
-1347 595 -619 0
-1347 -595 651 0
-1347 595 -651 0
-1347 596 620 652 -619 0
-1347 596 620 -652 619 0
-1347 596 -620 652 619 0
-1347 596 -620 -652 -619 0
-1347 -596 620 652 619 0
-1347 -596 620 -652 -619 0
-1347 -596 -620 652 -619 0
-1347 -596 -620 -652 619 0
1348 1347 0
-1348 -1347 0
596 620 652 1349 0
-596 -620 -652 1349 0
-1349 -596 620 0
-1349 596 -620 0
-1349 -596 652 0
-1349 596 -652 0
-1349 597 621 653 -620 0
-1349 597 621 -653 620 0
-1349 597 -621 653 620 0
-1349 597 -621 -653 -620 0
-1349 -597 621 653 620 0
-1349 -597 621 -653 -620 0
-1349 -597 -621 653 -620 0
-1349 -597 -621 -653 620 0
1350 1349 0
-1350 -1349 0
597 621 653 1351 0
-597 -621 -653 1351 0
-1351 -597 621 0
-1351 597 -621 0
-1351 -597 653 0
-1351 597 -653 0
-1351 598 622 654 -621 0
-1351 598 622 -654 621 0
-1351 598 -622 654 621 0
-1351 598 -622 -654 -621 0
-1351 -598 622 654 621 0
-1351 -598 622 -654 -621 0
-1351 -598 -622 654 -621 0
-1351 -598 -622 -654 621 0
1352 1351 0
-1352 -1351 0
598 622 654 1353 0
-598 -622 -654 1353 0
-1353 -598 622 0
-1353 598 -622 0
-1353 -598 654 0
-1353 598 -654 0
-1353 599 623 655 -622 0
-1353 599 623 -655 622 0
-1353 599 -623 655 622 0
-1353 599 -623 -655 -622 0
-1353 -599 623 655 622 0
-1353 -599 623 -655 -622 0
-1353 -599 -623 655 -622 0
-1353 -599 -623 -655 622 0
1354 1353 0
-1354 -1353 0
599 623 655 1355 0
-599 -623 -655 1355 0
-1355 -599 623 0
-1355 599 -623 0
-1355 -599 655 0
-1355 599 -655 0
-1355 600 624 656 -623 0
-1355 600 624 -656 623 0
-1355 600 -624 656 623 0
-1355 600 -624 -656 -623 0
-1355 -600 624 656 623 0
-1355 -600 624 -656 -623 0
-1355 -600 -624 656 -623 0
-1355 -600 -624 -656 623 0
1356 1355 0
-1356 -1355 0
600 624 656 1357 0
-600 -624 -656 1357 0
-1357 -600 624 0
-1357 600 -624 0
-1357 -600 656 0
-1357 600 -656 0
-1357 601 625 657 -624 0
-1357 601 625 -657 624 0
-1357 601 -625 657 624 0
-1357 601 -625 -657 -624 0
-1357 -601 625 657 624 0
-1357 -601 625 -657 -624 0
-1357 -601 -625 657 -624 0
-1357 -601 -625 -657 624 0
1358 1357 0
-1358 -1357 0
601 625 657 1359 0
-601 -625 -657 1359 0
-1359 -601 625 0
-1359 601 -625 0
-1359 -601 657 0
-1359 601 -657 0
-1359 602 626 658 -625 0
-1359 602 626 -658 625 0
-1359 602 -626 658 625 0
-1359 602 -626 -658 -625 0
-1359 -602 626 658 625 0
-1359 -602 626 -658 -625 0
-1359 -602 -626 658 -625 0
-1359 -602 -626 -658 625 0
1360 1359 0
-1360 -1359 0
602 626 658 1361 0
-602 -626 -658 1361 0
-1361 -602 626 0
-1361 602 -626 0
-1361 -602 658 0
-1361 602 -658 0
-1361 603 627 659 -626 0
-1361 603 627 -659 626 0
-1361 603 -627 659 626 0
-1361 603 -627 -659 -626 0
-1361 -603 627 659 626 0
-1361 -603 627 -659 -626 0
-1361 -603 -627 659 -626 0
-1361 -603 -627 -659 626 0
1362 1361 0
-1362 -1361 0
603 627 659 1363 0
-603 -627 -659 1363 0
-1363 -603 627 0
-1363 603 -627 0
-1363 -603 659 0
-1363 603 -659 0
-1363 604 628 660 -627 0
-1363 604 628 -660 627 0
-1363 604 -628 660 627 0
-1363 604 -628 -660 -627 0
-1363 -604 628 660 627 0
-1363 -604 628 -660 -627 0
-1363 -604 -628 660 -627 0
-1363 -604 -628 -660 627 0
1364 1363 0
-1364 -1363 0
604 628 660 1365 0
-604 -628 -660 1365 0
-1365 -604 628 0
-1365 604 -628 0
-1365 -604 660 0
-1365 604 -660 0
-1365 605 629 661 -628 0
-1365 605 629 -661 628 0
-1365 605 -629 661 628 0
-1365 605 -629 -661 -628 0
-1365 -605 629 661 628 0
-1365 -605 629 -661 -628 0
-1365 -605 -629 661 -628 0
-1365 -605 -629 -661 628 0
1366 1365 0
-1366 -1365 0
605 629 661 1367 0
-605 -629 -661 1367 0
-1367 -605 629 0
-1367 605 -629 0
-1367 -605 661 0
-1367 605 -661 0
-1367 606 630 662 -629 0
-1367 606 630 -662 629 0
-1367 606 -630 662 629 0
-1367 606 -630 -662 -629 0
-1367 -606 630 662 629 0
-1367 -606 630 -662 -629 0
-1367 -606 -630 662 -629 0
-1367 -606 -630 -662 629 0
1368 1367 0
-1368 -1367 0
606 630 662 1369 0
-606 -630 -662 1369 0
-1369 -606 630 0
-1369 606 -630 0
-1369 -606 662 0
-1369 606 -662 0
-1369 607 631 663 -630 0
-1369 607 631 -663 630 0
-1369 607 -631 663 630 0
-1369 607 -631 -663 -630 0
-1369 -607 631 663 630 0
-1369 -607 631 -663 -630 0
-1369 -607 -631 663 -630 0
-1369 -607 -631 -663 630 0
1370 1369 0
-1370 -1369 0
607 631 663 1371 0
-607 -631 -663 1371 0
-1371 -607 631 0
-1371 607 -631 0
-1371 -607 663 0
-1371 607 -663 0
-1371 608 632 664 -631 0
-1371 608 632 -664 631 0
-1371 608 -632 664 631 0
-1371 608 -632 -664 -631 0
-1371 -608 632 664 631 0
-1371 -608 632 -664 -631 0
-1371 -608 -632 664 -631 0
-1371 -608 -632 -664 631 0
1372 1371 0
-1372 -1371 0
608 632 664 1373 0
-608 -632 -664 1373 0
-1373 -608 632 0
-1373 608 -632 0
-1373 -608 664 0
-1373 608 -664 0
-1373 577 633 665 -632 0
-1373 577 633 -665 632 0
-1373 577 -633 665 632 0
-1373 577 -633 -665 -632 0
-1373 -577 633 665 632 0
-1373 -577 633 -665 -632 0
-1373 -577 -633 665 -632 0
-1373 -577 -633 -665 632 0
1374 1373 0
-1374 -1373 0
577 633 665 1375 0
-577 -633 -665 1375 0
-1375 -577 633 0
-1375 577 -633 0
-1375 -577 665 0
-1375 577 -665 0
-1375 578 634 666 -633 0
-1375 578 634 -666 633 0
-1375 578 -634 666 633 0
-1375 578 -634 -666 -633 0
-1375 -578 634 666 633 0
-1375 -578 634 -666 -633 0
-1375 -578 -634 666 -633 0
-1375 -578 -634 -666 633 0
1376 1375 0
-1376 -1375 0
578 634 666 1377 0
-578 -634 -666 1377 0
-1377 -578 634 0
-1377 578 -634 0
-1377 -578 666 0
-1377 578 -666 0
-1377 579 635 667 -634 0
-1377 579 635 -667 634 0
-1377 579 -635 667 634 0
-1377 579 -635 -667 -634 0
-1377 -579 635 667 634 0
-1377 -579 635 -667 -634 0
-1377 -579 -635 667 -634 0
-1377 -579 -635 -667 634 0
1378 1377 0
-1378 -1377 0
579 635 667 1379 0
-579 -635 -667 1379 0
-1379 -579 635 0
-1379 579 -635 0
-1379 -579 667 0
-1379 579 -667 0
-1379 580 636 668 -635 0
-1379 580 636 -668 635 0
-1379 580 -636 668 635 0
-1379 580 -636 -668 -635 0
-1379 -580 636 668 635 0
-1379 -580 636 -668 -635 0
-1379 -580 -636 668 -635 0
-1379 -580 -636 -668 635 0
1380 1379 0
-1380 -1379 0
580 636 668 1381 0
-580 -636 -668 1381 0
-1381 -580 636 0
-1381 580 -636 0
-1381 -580 668 0
-1381 580 -668 0
-1381 581 637 669 -636 0
-1381 581 637 -669 636 0
-1381 581 -637 669 636 0
-1381 581 -637 -669 -636 0
-1381 -581 637 669 636 0
-1381 -581 637 -669 -636 0
-1381 -581 -637 669 -636 0
-1381 -581 -637 -669 636 0
1382 1381 0
-1382 -1381 0
581 637 669 1383 0
-581 -637 -669 1383 0
-1383 -581 637 0
-1383 581 -637 0
-1383 -581 669 0
-1383 581 -669 0
-1383 582 638 670 -637 0
-1383 582 638 -670 637 0
-1383 582 -638 670 637 0
-1383 582 -638 -670 -637 0
-1383 -582 638 670 637 0
-1383 -582 638 -670 -637 0
-1383 -582 -638 670 -637 0
-1383 -582 -638 -670 637 0
1384 1383 0
-1384 -1383 0
582 638 670 1385 0
-582 -638 -670 1385 0
-1385 -582 638 0
-1385 582 -638 0
-1385 -582 670 0
-1385 582 -670 0
-1385 583 639 671 -638 0
-1385 583 639 -671 638 0
-1385 583 -639 671 638 0
-1385 583 -639 -671 -638 0
-1385 -583 639 671 638 0
-1385 -583 639 -671 -638 0
-1385 -583 -639 671 -638 0
-1385 -583 -639 -671 638 0
1386 1385 0
-1386 -1385 0
583 639 671 1387 0
-583 -639 -671 1387 0
-1387 -583 639 0
-1387 583 -639 0
-1387 -583 671 0
-1387 583 -671 0
-1387 584 640 672 -639 0
-1387 584 640 -672 639 0
-1387 584 -640 672 639 0
-1387 584 -640 -672 -639 0
-1387 -584 640 672 639 0
-1387 -584 640 -672 -639 0
-1387 -584 -640 672 -639 0
-1387 -584 -640 -672 639 0
1388 1387 0
-1388 -1387 0
638 641 -673 0
638 -641 673 0
-638 641 673 0
-638 -641 -673 0
639 642 -674 0
639 -642 674 0
-639 642 674 0
-639 -642 -674 0
640 643 -675 0
640 -643 675 0
-640 643 675 0
-640 -643 -675 0
609 644 -676 0
609 -644 676 0
-609 644 676 0
-609 -644 -676 0
610 645 -677 0
610 -645 677 0
-610 645 677 0
-610 -645 -677 0
611 646 -678 0
611 -646 678 0
-611 646 678 0
-611 -646 -678 0
612 647 -679 0
612 -647 679 0
-612 647 679 0
-612 -647 -679 0
613 648 -680 0
613 -648 680 0
-613 648 680 0
-613 -648 -680 0
614 649 -681 0
614 -649 681 0
-614 649 681 0
-614 -649 -681 0
615 650 -682 0
615 -650 682 0
-615 650 682 0
-615 -650 -682 0
616 651 -683 0
616 -651 683 0
-616 651 683 0
-616 -651 -683 0
617 652 -684 0
617 -652 684 0
-617 652 684 0
-617 -652 -684 0
618 653 -685 0
618 -653 685 0
-618 653 685 0
-618 -653 -685 0
619 654 -686 0
619 -654 686 0
-619 654 686 0
-619 -654 -686 0
620 655 -687 0
620 -655 687 0
-620 655 687 0
-620 -655 -687 0
621 656 -688 0
621 -656 688 0
-621 656 688 0
-621 -656 -688 0
622 657 -689 0
622 -657 689 0
-622 657 689 0
-622 -657 -689 0
623 658 -690 0
623 -658 690 0
-623 658 690 0
-623 -658 -690 0
624 659 -691 0
624 -659 691 0
-624 659 691 0
-624 -659 -691 0
625 660 -692 0
625 -660 692 0
-625 660 692 0
-625 -660 -692 0
626 661 -693 0
626 -661 693 0
-626 661 693 0
-626 -661 -693 0
627 662 -694 0
627 -662 694 0
-627 662 694 0
-627 -662 -694 0
628 663 -695 0
628 -663 695 0
-628 663 695 0
-628 -663 -695 0
629 664 -696 0
629 -664 696 0
-629 664 696 0
-629 -664 -696 0
630 665 -697 0
630 -665 697 0
-630 665 697 0
-630 -665 -697 0
631 666 -698 0
631 -666 698 0
-631 666 698 0
-631 -666 -698 0
632 667 -699 0
632 -667 699 0
-632 667 699 0
-632 -667 -699 0
633 668 -700 0
633 -668 700 0
-633 668 700 0
-633 -668 -700 0
634 669 -701 0
634 -669 701 0
-634 669 701 0
-634 -669 -701 0
635 670 -702 0
635 -670 702 0
-635 670 702 0
-635 -670 -702 0
636 671 -703 0
636 -671 703 0
-636 671 703 0
-636 -671 -703 0
637 672 -704 0
637 -672 704 0
-637 672 704 0
-637 -672 -704 0
649 673 -705 0
649 -673 705 0
-649 673 705 0
-649 -673 -705 0
649 673 705 1389 0
-649 -673 -705 1389 0
-1389 -649 673 0
-1389 649 -673 0
-1389 -649 705 0
-1389 649 -705 0
-1389 650 674 706 -673 0
-1389 650 674 -706 673 0
-1389 650 -674 706 673 0
-1389 650 -674 -706 -673 0
-1389 -650 674 706 673 0
-1389 -650 674 -706 -673 0
-1389 -650 -674 706 -673 0
-1389 -650 -674 -706 673 0
1390 1389 0
-1390 -1389 0
650 674 706 1391 0
-650 -674 -706 1391 0
-1391 -650 674 0
-1391 650 -674 0
-1391 -650 706 0
-1391 650 -706 0
-1391 651 675 707 -674 0
-1391 651 675 -707 674 0
-1391 651 -675 707 674 0
-1391 651 -675 -707 -674 0
-1391 -651 675 707 674 0
-1391 -651 675 -707 -674 0
-1391 -651 -675 707 -674 0
-1391 -651 -675 -707 674 0
1392 1391 0
-1392 -1391 0
651 675 707 1393 0
-651 -675 -707 1393 0
-1393 -651 675 0
-1393 651 -675 0
-1393 -651 707 0
-1393 651 -707 0
-1393 652 676 708 -675 0
-1393 652 676 -708 675 0
-1393 652 -676 708 675 0
-1393 652 -676 -708 -675 0
-1393 -652 676 708 675 0
-1393 -652 676 -708 -675 0
-1393 -652 -676 708 -675 0
-1393 -652 -676 -708 675 0
1394 1393 0
-1394 -1393 0
652 676 708 1395 0
-652 -676 -708 1395 0
-1395 -652 676 0
-1395 652 -676 0
-1395 -652 708 0
-1395 652 -708 0
-1395 653 677 709 -676 0
-1395 653 677 -709 676 0
-1395 653 -677 709 676 0
-1395 653 -677 -709 -676 0
-1395 -653 677 709 676 0
-1395 -653 677 -709 -676 0
-1395 -653 -677 709 -676 0
-1395 -653 -677 -709 676 0
1396 1395 0
-1396 -1395 0
653 677 709 1397 0
-653 -677 -709 1397 0
-1397 -653 677 0
-1397 653 -677 0
-1397 -653 709 0
-1397 653 -709 0
-1397 654 678 710 -677 0
-1397 654 678 -710 677 0
-1397 654 -678 710 677 0
-1397 654 -678 -710 -677 0
-1397 -654 678 710 677 0
-1397 -654 678 -710 -677 0
-1397 -654 -678 710 -677 0
-1397 -654 -678 -710 677 0
1398 1397 0
-1398 -1397 0
654 678 710 1399 0
-654 -678 -710 1399 0
-1399 -654 678 0
-1399 654 -678 0
-1399 -654 710 0
-1399 654 -710 0
-1399 655 679 711 -678 0
-1399 655 679 -711 678 0
-1399 655 -679 711 678 0
-1399 655 -679 -711 -678 0
-1399 -655 679 711 678 0
-1399 -655 679 -711 -678 0
-1399 -655 -679 711 -678 0
-1399 -655 -679 -711 678 0
1400 1399 0
-1400 -1399 0
655 679 711 1401 0
-655 -679 -711 1401 0
-1401 -655 679 0
-1401 655 -679 0
-1401 -655 711 0
-1401 655 -711 0
-1401 656 680 712 -679 0
-1401 656 680 -712 679 0
-1401 656 -680 712 679 0
-1401 656 -680 -712 -679 0
-1401 -656 680 712 679 0
-1401 -656 680 -712 -679 0
-1401 -656 -680 712 -679 0
-1401 -656 -680 -712 679 0
1402 1401 0
-1402 -1401 0
656 680 712 1403 0
-656 -680 -712 1403 0
-1403 -656 680 0
-1403 656 -680 0
-1403 -656 712 0
-1403 656 -712 0
-1403 657 681 713 -680 0
-1403 657 681 -713 680 0
-1403 657 -681 713 680 0
-1403 657 -681 -713 -680 0
-1403 -657 681 713 680 0
-1403 -657 681 -713 -680 0
-1403 -657 -681 713 -680 0
-1403 -657 -681 -713 680 0
1404 1403 0
-1404 -1403 0
657 681 713 1405 0
-657 -681 -713 1405 0
-1405 -657 681 0
-1405 657 -681 0
-1405 -657 713 0
-1405 657 -713 0
-1405 658 682 714 -681 0
-1405 658 682 -714 681 0
-1405 658 -682 714 681 0
-1405 658 -682 -714 -681 0
-1405 -658 682 714 681 0
-1405 -658 682 -714 -681 0
-1405 -658 -682 714 -681 0
-1405 -658 -682 -714 681 0
1406 1405 0
-1406 -1405 0
658 682 714 1407 0
-658 -682 -714 1407 0
-1407 -658 682 0
-1407 658 -682 0
-1407 -658 714 0
-1407 658 -714 0
-1407 659 683 715 -682 0
-1407 659 683 -715 682 0
-1407 659 -683 715 682 0
-1407 659 -683 -715 -682 0
-1407 -659 683 715 682 0
-1407 -659 683 -715 -682 0
-1407 -659 -683 715 -682 0
-1407 -659 -683 -715 682 0
1408 1407 0
-1408 -1407 0
659 683 715 1409 0
-659 -683 -715 1409 0
-1409 -659 683 0
-1409 659 -683 0
-1409 -659 715 0
-1409 659 -715 0
-1409 660 684 716 -683 0
-1409 660 684 -716 683 0
-1409 660 -684 716 683 0
-1409 660 -684 -716 -683 0
-1409 -660 684 716 683 0
-1409 -660 684 -716 -683 0
-1409 -660 -684 716 -683 0
-1409 -660 -684 -716 683 0
1410 1409 0
-1410 -1409 0
660 684 716 1411 0
-660 -684 -716 1411 0
-1411 -660 684 0
-1411 660 -684 0
-1411 -660 716 0
-1411 660 -716 0
-1411 661 685 717 -684 0
-1411 661 685 -717 684 0
-1411 661 -685 717 684 0
-1411 661 -685 -717 -684 0
-1411 -661 685 717 684 0
-1411 -661 685 -717 -684 0
-1411 -661 -685 717 -684 0
-1411 -661 -685 -717 684 0
1412 1411 0
-1412 -1411 0
661 685 717 1413 0
-661 -685 -717 1413 0
-1413 -661 685 0
-1413 661 -685 0
-1413 -661 717 0
-1413 661 -717 0
-1413 662 686 718 -685 0
-1413 662 686 -718 685 0
-1413 662 -686 718 685 0
-1413 662 -686 -718 -685 0
-1413 -662 686 718 685 0
-1413 -662 686 -718 -685 0
-1413 -662 -686 718 -685 0
-1413 -662 -686 -718 685 0
1414 1413 0
-1414 -1413 0
662 686 718 1415 0
-662 -686 -718 1415 0
-1415 -662 686 0
-1415 662 -686 0
-1415 -662 718 0
-1415 662 -718 0
-1415 663 687 719 -686 0
-1415 663 687 -719 686 0
-1415 663 -687 719 686 0
-1415 663 -687 -719 -686 0
-1415 -663 687 719 686 0
-1415 -663 687 -719 -686 0
-1415 -663 -687 719 -686 0
-1415 -663 -687 -719 686 0
1416 1415 0
-1416 -1415 0
663 687 719 1417 0
-663 -687 -719 1417 0
-1417 -663 687 0
-1417 663 -687 0
-1417 -663 719 0
-1417 663 -719 0
-1417 664 688 720 -687 0
-1417 664 688 -720 687 0
-1417 664 -688 720 687 0
-1417 664 -688 -720 -687 0
-1417 -664 688 720 687 0
-1417 -664 688 -720 -687 0
-1417 -664 -688 720 -687 0
-1417 -664 -688 -720 687 0
1418 1417 0
-1418 -1417 0
664 688 720 1419 0
-664 -688 -720 1419 0
-1419 -664 688 0
-1419 664 -688 0
-1419 -664 720 0
-1419 664 -720 0
-1419 665 689 721 -688 0
-1419 665 689 -721 688 0
-1419 665 -689 721 688 0
-1419 665 -689 -721 -688 0
-1419 -665 689 721 688 0
-1419 -665 689 -721 -688 0
-1419 -665 -689 721 -688 0
-1419 -665 -689 -721 688 0
1420 1419 0
-1420 -1419 0
665 689 721 1421 0
-665 -689 -721 1421 0
-1421 -665 689 0
-1421 665 -689 0
-1421 -665 721 0
-1421 665 -721 0
-1421 666 690 722 -689 0
-1421 666 690 -722 689 0
-1421 666 -690 722 689 0
-1421 666 -690 -722 -689 0
-1421 -666 690 722 689 0
-1421 -666 690 -722 -689 0
-1421 -666 -690 722 -689 0
-1421 -666 -690 -722 689 0
1422 1421 0
-1422 -1421 0
666 690 722 1423 0
-666 -690 -722 1423 0
-1423 -666 690 0
-1423 666 -690 0
-1423 -666 722 0
-1423 666 -722 0
-1423 667 691 723 -690 0
-1423 667 691 -723 690 0
-1423 667 -691 723 690 0
-1423 667 -691 -723 -690 0
-1423 -667 691 723 690 0
-1423 -667 691 -723 -690 0
-1423 -667 -691 723 -690 0
-1423 -667 -691 -723 690 0
1424 1423 0
-1424 -1423 0
667 691 723 1425 0
-667 -691 -723 1425 0
-1425 -667 691 0
-1425 667 -691 0
-1425 -667 723 0
-1425 667 -723 0
-1425 668 692 724 -691 0
-1425 668 692 -724 691 0
-1425 668 -692 724 691 0
-1425 668 -692 -724 -691 0
-1425 -668 692 724 691 0
-1425 -668 692 -724 -691 0
-1425 -668 -692 724 -691 0
-1425 -668 -692 -724 691 0
1426 1425 0
-1426 -1425 0
668 692 724 1427 0
-668 -692 -724 1427 0
-1427 -668 692 0
-1427 668 -692 0
-1427 -668 724 0
-1427 668 -724 0
-1427 669 693 725 -692 0
-1427 669 693 -725 692 0
-1427 669 -693 725 692 0
-1427 669 -693 -725 -692 0
-1427 -669 693 725 692 0
-1427 -669 693 -725 -692 0
-1427 -669 -693 725 -692 0
-1427 -669 -693 -725 692 0
1428 1427 0
-1428 -1427 0
669 693 725 1429 0
-669 -693 -725 1429 0
-1429 -669 693 0
-1429 669 -693 0
-1429 -669 725 0
-1429 669 -725 0
-1429 670 694 726 -693 0
-1429 670 694 -726 693 0
-1429 670 -694 726 693 0
-1429 670 -694 -726 -693 0
-1429 -670 694 726 693 0
-1429 -670 694 -726 -693 0
-1429 -670 -694 726 -693 0
-1429 -670 -694 -726 693 0
1430 1429 0
-1430 -1429 0
670 694 726 1431 0
-670 -694 -726 1431 0
-1431 -670 694 0
-1431 670 -694 0
-1431 -670 726 0
-1431 670 -726 0
-1431 671 695 727 -694 0
-1431 671 695 -727 694 0
-1431 671 -695 727 694 0
-1431 671 -695 -727 -694 0
-1431 -671 695 727 694 0
-1431 -671 695 -727 -694 0
-1431 -671 -695 727 -694 0
-1431 -671 -695 -727 694 0
1432 1431 0
-1432 -1431 0
671 695 727 1433 0
-671 -695 -727 1433 0
-1433 -671 695 0
-1433 671 -695 0
-1433 -671 727 0
-1433 671 -727 0
-1433 672 696 728 -695 0
-1433 672 696 -728 695 0
-1433 672 -696 728 695 0
-1433 672 -696 -728 -695 0
-1433 -672 696 728 695 0
-1433 -672 696 -728 -695 0
-1433 -672 -696 728 -695 0
-1433 -672 -696 -728 695 0
1434 1433 0
-1434 -1433 0
672 696 728 1435 0
-672 -696 -728 1435 0
-1435 -672 696 0
-1435 672 -696 0
-1435 -672 728 0
-1435 672 -728 0
-1435 641 697 729 -696 0
-1435 641 697 -729 696 0
-1435 641 -697 729 696 0
-1435 641 -697 -729 -696 0
-1435 -641 697 729 696 0
-1435 -641 697 -729 -696 0
-1435 -641 -697 729 -696 0
-1435 -641 -697 -729 696 0
1436 1435 0
-1436 -1435 0
641 697 729 1437 0
-641 -697 -729 1437 0
-1437 -641 697 0
-1437 641 -697 0
-1437 -641 729 0
-1437 641 -729 0
-1437 642 698 730 -697 0
-1437 642 698 -730 697 0
-1437 642 -698 730 697 0
-1437 642 -698 -730 -697 0
-1437 -642 698 730 697 0
-1437 -642 698 -730 -697 0
-1437 -642 -698 730 -697 0
-1437 -642 -698 -730 697 0
1438 1437 0
-1438 -1437 0
642 698 730 1439 0
-642 -698 -730 1439 0
-1439 -642 698 0
-1439 642 -698 0
-1439 -642 730 0
-1439 642 -730 0
-1439 643 699 731 -698 0
-1439 643 699 -731 698 0
-1439 643 -699 731 698 0
-1439 643 -699 -731 -698 0
-1439 -643 699 731 698 0
-1439 -643 699 -731 -698 0
-1439 -643 -699 731 -698 0
-1439 -643 -699 -731 698 0
1440 1439 0
-1440 -1439 0
643 699 731 1441 0
-643 -699 -731 1441 0
-1441 -643 699 0
-1441 643 -699 0
-1441 -643 731 0
-1441 643 -731 0
-1441 644 700 732 -699 0
-1441 644 700 -732 699 0
-1441 644 -700 732 699 0
-1441 644 -700 -732 -699 0
-1441 -644 700 732 699 0
-1441 -644 700 -732 -699 0
-1441 -644 -700 732 -699 0
-1441 -644 -700 -732 699 0
1442 1441 0
-1442 -1441 0
644 700 732 1443 0
-644 -700 -732 1443 0
-1443 -644 700 0
-1443 644 -700 0
-1443 -644 732 0
-1443 644 -732 0
-1443 645 701 733 -700 0
-1443 645 701 -733 700 0
-1443 645 -701 733 700 0
-1443 645 -701 -733 -700 0
-1443 -645 701 733 700 0
-1443 -645 701 -733 -700 0
-1443 -645 -701 733 -700 0
-1443 -645 -701 -733 700 0
1444 1443 0
-1444 -1443 0
645 701 733 1445 0
-645 -701 -733 1445 0
-1445 -645 701 0
-1445 645 -701 0
-1445 -645 733 0
-1445 645 -733 0
-1445 646 702 734 -701 0
-1445 646 702 -734 701 0
-1445 646 -702 734 701 0
-1445 646 -702 -734 -701 0
-1445 -646 702 734 701 0
-1445 -646 702 -734 -701 0
-1445 -646 -702 734 -701 0
-1445 -646 -702 -734 701 0
1446 1445 0
-1446 -1445 0
646 702 734 1447 0
-646 -702 -734 1447 0
-1447 -646 702 0
-1447 646 -702 0
-1447 -646 734 0
-1447 646 -734 0
-1447 647 703 735 -702 0
-1447 647 703 -735 702 0
-1447 647 -703 735 702 0
-1447 647 -703 -735 -702 0
-1447 -647 703 735 702 0
-1447 -647 703 -735 -702 0
-1447 -647 -703 735 -702 0
-1447 -647 -703 -735 702 0
1448 1447 0
-1448 -1447 0
647 703 735 1449 0
-647 -703 -735 1449 0
-1449 -647 703 0
-1449 647 -703 0
-1449 -647 735 0
-1449 647 -735 0
-1449 648 704 736 -703 0
-1449 648 704 -736 703 0
-1449 648 -704 736 703 0
-1449 648 -704 -736 -703 0
-1449 -648 704 736 703 0
-1449 -648 704 -736 -703 0
-1449 -648 -704 736 -703 0
-1449 -648 -704 -736 703 0
1450 1449 0
-1450 -1449 0
702 705 -737 0
702 -705 737 0
-702 705 737 0
-702 -705 -737 0
703 706 -738 0
703 -706 738 0
-703 706 738 0
-703 -706 -738 0
704 707 -739 0
704 -707 739 0
-704 707 739 0
-704 -707 -739 0
673 708 -740 0
673 -708 740 0
-673 708 740 0
-673 -708 -740 0
674 709 -741 0
674 -709 741 0
-674 709 741 0
-674 -709 -741 0
675 710 -742 0
675 -710 742 0
-675 710 742 0
-675 -710 -742 0
676 711 -743 0
676 -711 743 0
-676 711 743 0
-676 -711 -743 0
677 712 -744 0
677 -712 744 0
-677 712 744 0
-677 -712 -744 0
678 713 -745 0
678 -713 745 0
-678 713 745 0
-678 -713 -745 0
679 714 -746 0
679 -714 746 0
-679 714 746 0
-679 -714 -746 0
680 715 -747 0
680 -715 747 0
-680 715 747 0
-680 -715 -747 0
681 716 -748 0
681 -716 748 0
-681 716 748 0
-681 -716 -748 0
682 717 -749 0
682 -717 749 0
-682 717 749 0
-682 -717 -749 0
683 718 -750 0
683 -718 750 0
-683 718 750 0
-683 -718 -750 0
684 719 -751 0
684 -719 751 0
-684 719 751 0
-684 -719 -751 0
685 720 -752 0
685 -720 752 0
-685 720 752 0
-685 -720 -752 0
686 721 -753 0
686 -721 753 0
-686 721 753 0
-686 -721 -753 0
687 722 -754 0
687 -722 754 0
-687 722 754 0
-687 -722 -754 0
688 723 -755 0
688 -723 755 0
-688 723 755 0
-688 -723 -755 0
689 724 -756 0
689 -724 756 0
-689 724 756 0
-689 -724 -756 0
690 725 -757 0
690 -725 757 0
-690 725 757 0
-690 -725 -757 0
691 726 -758 0
691 -726 758 0
-691 726 758 0
-691 -726 -758 0
692 727 -759 0
692 -727 759 0
-692 727 759 0
-692 -727 -759 0
693 728 -760 0
693 -728 760 0
-693 728 760 0
-693 -728 -760 0
694 729 -761 0
694 -729 761 0
-694 729 761 0
-694 -729 -761 0
695 730 -762 0
695 -730 762 0
-695 730 762 0
-695 -730 -762 0
696 731 -763 0
696 -731 763 0
-696 731 763 0
-696 -731 -763 0
697 732 -764 0
697 -732 764 0
-697 732 764 0
-697 -732 -764 0
698 733 -765 0
698 -733 765 0
-698 733 765 0
-698 -733 -765 0
699 734 -766 0
699 -734 766 0
-699 734 766 0
-699 -734 -766 0
700 735 -767 0
700 -735 767 0
-700 735 767 0
-700 -735 -767 0
701 736 -768 0
701 -736 768 0
-701 736 768 0
-701 -736 -768 0
-1452 0
-1453 0
-1454 0
-1455 0
-1456 0
-1457 0
-1458 0
-1459 0
-1460 0
-1461 0
-1462 0
-1463 0
-1464 0
-1465 0
-1466 0
-1467 0
-1468 0
-1469 0
-1470 0
-1471 0
-1472 0
-1473 0
-1474 0
-1475 0
-1476 0
-1477 0
-1478 0
-1479 0
-1480 0
-1481 0
-1482 0
-1483 0
-1484 0
-1485 0
-1486 0
-1487 0
-1488 0
-1489 0
-1490 0
-1491 0
-1492 0
-1493 0
-1494 0
-1495 0
-1496 0
-1497 0
-1498 0
-1499 0
-1500 0
-1501 0
-1502 0
-1503 0
-770 1451 0
-772 1504 0
-774 1557 0
-776 1610 0
-778 1663 0
-780 1716 0
-782 1769 0
-784 1822 0
-786 1875 0
-788 1928 0
-790 1981 0
-792 2034 0
-794 2087 0
-796 2140 0
-798 2193 0
-800 2246 0
-802 2299 0
-804 2352 0
-806 2405 0
-808 2458 0
-810 2511 0
-812 2564 0
-814 2617 0
-816 2670 0
-818 2723 0
-820 2776 0
-822 2829 0
-824 2882 0
-826 2935 0
-828 2988 0
-830 3041 0
-832 3094 0
-834 3147 0
-836 3200 0
-838 3253 0
-840 3306 0
-842 3359 0
-844 3412 0
-846 3465 0
-848 3518 0
-850 3571 0
-852 3624 0
-854 3677 0
-856 3730 0
-858 3783 0
-860 3836 0
-862 3889 0
-864 3942 0
-866 3995 0
-868 4048 0
-870 4101 0
-872 4154 0
-874 4207 0
-876 4260 0
-878 4313 0
-880 4366 0
-882 4419 0
-884 4472 0
-886 4525 0
-888 4578 0
-890 4631 0
-892 4684 0
-894 4737 0
-896 4790 0
-898 4843 0
-900 4896 0
-902 4949 0
-904 5002 0
-906 5055 0
-908 5108 0
-910 5161 0
-912 5214 0
-914 5267 0
-916 5320 0
-918 5373 0
-920 5426 0
-922 5479 0
-924 5532 0
-926 5585 0
-928 5638 0
-930 5691 0
-932 5744 0
-934 5797 0
-936 5850 0
-938 5903 0
-940 5956 0
-942 6009 0
-944 6062 0
-946 6115 0
-948 6168 0
-950 6221 0
-952 6274 0
-954 6327 0
-956 6380 0
-958 6433 0
-960 6486 0
-962 6539 0
-964 6592 0
-966 6645 0
-968 6698 0
-970 6751 0
-972 6804 0
-974 6857 0
-976 6910 0
-978 6963 0
-980 7016 0
-982 7069 0
-984 7122 0
-986 7175 0
-988 7228 0
-990 7281 0
-992 7334 0
-994 7387 0
-996 7440 0
-998 7493 0
-1000 7546 0
-1002 7599 0
-1004 7652 0
-1006 7705 0
-1008 7758 0
-1010 7811 0
-1012 7864 0
-1014 7917 0
-1016 7970 0
-1018 8023 0
-1020 8076 0
-1022 8129 0
-1024 8182 0
-1026 8235 0
-1028 8288 0
-1030 8341 0
-1032 8394 0
-1034 8447 0
-1036 8500 0
-1038 8553 0
-1040 8606 0
-1042 8659 0
-1044 8712 0
-1046 8765 0
-1048 8818 0
-1050 8871 0
-1052 8924 0
-1054 8977 0
-1056 9030 0
-1058 9083 0
-1060 9136 0
-1062 9189 0
-1064 9242 0
-1066 9295 0
-1068 9348 0
-1070 9401 0
-1072 9454 0
-1074 9507 0
-1076 9560 0
-1078 9613 0
-1080 9666 0
-1082 9719 0
-1084 9772 0
-1086 9825 0
-1088 9878 0
-1090 9931 0
-1092 9984 0
-1094 10037 0
-1096 10090 0
-1098 10143 0
-1100 10196 0
-1102 10249 0
-1104 10302 0
-1106 10355 0
-1108 10408 0
-1110 10461 0
-1112 10514 0
-1114 10567 0
-1116 10620 0
-1118 10673 0
-1120 10726 0
-1122 10779 0
-1124 10832 0
-1126 10885 0
-1128 10938 0
-1130 10991 0
-1132 11044 0
-1134 11097 0
-1136 11150 0
-1138 11203 0
-1140 11256 0
-1142 11309 0
-1144 11362 0
-1146 11415 0
-1148 11468 0
-1150 11521 0
-1152 11574 0
-1154 11627 0
-1156 11680 0
-1158 11733 0
-1160 11786 0
-1162 11839 0
-1164 11892 0
-1166 11945 0
-1168 11998 0
-1170 12051 0
-1172 12104 0
-1174 12157 0
-1176 12210 0
-1178 12263 0
-1180 12316 0
-1182 12369 0
-1184 12422 0
-1186 12475 0
-1188 12528 0
-1190 12581 0
-1192 12634 0
-1194 12687 0
-1196 12740 0
-1198 12793 0
-1200 12846 0
-1202 12899 0
-1204 12952 0
-1206 13005 0
-1208 13058 0
-1210 13111 0
-1212 13164 0
-1214 13217 0
-1216 13270 0
-1218 13323 0
-1220 13376 0
-1222 13429 0
-1224 13482 0
-1226 13535 0
-1228 13588 0
-1230 13641 0
-1232 13694 0
-1234 13747 0
-1236 13800 0
-1238 13853 0
-1240 13906 0
-1242 13959 0
-1244 14012 0
-1246 14065 0
-1248 14118 0
-1250 14171 0
-1252 14224 0
-1254 14277 0
-1256 14330 0
-1258 14383 0
-1260 14436 0
-1262 14489 0
-1264 14542 0
-1266 14595 0
-1268 14648 0
-1270 14701 0
-1272 14754 0
-1274 14807 0
-1276 14860 0
-1278 14913 0
-1280 14966 0
-1282 15019 0
-1284 15072 0
-1286 15125 0
-1288 15178 0
-1290 15231 0
-1292 15284 0
-1294 15337 0
-1296 15390 0
-1298 15443 0
-1300 15496 0
-1302 15549 0
-1304 15602 0
-1306 15655 0
-1308 15708 0
-1310 15761 0
-1312 15814 0
-1314 15867 0
-1316 15920 0
-1318 15973 0
-1320 16026 0
-1322 16079 0
-1324 16132 0
-1326 16185 0
-1328 16238 0
-1330 16291 0
-1332 16344 0
-1334 16397 0
-1336 16450 0
-1338 16503 0
-1340 16556 0
-1342 16609 0
-1344 16662 0
-1346 16715 0
-1348 16768 0
-1350 16821 0
-1352 16874 0
-1354 16927 0
-1356 16980 0
-1358 17033 0
-1360 17086 0
-1362 17139 0
-1364 17192 0
-1366 17245 0
-1368 17298 0
-1370 17351 0
-1372 17404 0
-1374 17457 0
-1376 17510 0
-1378 17563 0
-1380 17616 0
-1382 17669 0
-1384 17722 0
-1386 17775 0
-1388 17828 0
-1390 17881 0
-1392 17934 0
-1394 17987 0
-1396 18040 0
-1398 18093 0
-1400 18146 0
-1402 18199 0
-1404 18252 0
-1406 18305 0
-1408 18358 0
-1410 18411 0
-1412 18464 0
-1414 18517 0
-1416 18570 0
-1418 18623 0
-1420 18676 0
-1422 18729 0
-1424 18782 0
-1426 18835 0
-1428 18888 0
-1430 18941 0
-1432 18994 0
-1434 19047 0
-1436 19100 0
-1438 19153 0
-1440 19206 0
-1442 19259 0
-1444 19312 0
-1446 19365 0
-1448 19418 0
-1450 19471 0
-1451 1504 0
-1452 1505 0
-1453 1506 0
-1454 1507 0
-1455 1508 0
-1456 1509 0
-1457 1510 0
-1458 1511 0
-1459 1512 0
-1460 1513 0
-1461 1514 0
-1462 1515 0
-1463 1516 0
-1464 1517 0
-1465 1518 0
-1466 1519 0
-1467 1520 0
-1468 1521 0
-1469 1522 0
-1470 1523 0
-1471 1524 0
-1472 1525 0
-1473 1526 0
-1474 1527 0
-1475 1528 0
-1476 1529 0
-1477 1530 0
-1478 1531 0
-1479 1532 0
-1480 1533 0
-1481 1534 0
-1482 1535 0
-1483 1536 0
-1484 1537 0
-1485 1538 0
-1486 1539 0
-1487 1540 0
-1488 1541 0
-1489 1542 0
-1490 1543 0
-1491 1544 0
-1492 1545 0
-1493 1546 0
-1494 1547 0
-1495 1548 0
-1496 1549 0
-1497 1550 0
-1498 1551 0
-1499 1552 0
-1500 1553 0
-1501 1554 0
-1502 1555 0
-1503 1556 0
-772 -1451 1505 0
-772 -1452 1506 0
-772 -1453 1507 0
-772 -1454 1508 0
-772 -1455 1509 0
-772 -1456 1510 0
-772 -1457 1511 0
-772 -1458 1512 0
-772 -1459 1513 0
-772 -1460 1514 0
-772 -1461 1515 0
-772 -1462 1516 0
-772 -1463 1517 0
-772 -1464 1518 0
-772 -1465 1519 0
-772 -1466 1520 0
-772 -1467 1521 0
-772 -1468 1522 0
-772 -1469 1523 0
-772 -1470 1524 0
-772 -1471 1525 0
-772 -1472 1526 0
-772 -1473 1527 0
-772 -1474 1528 0
-772 -1475 1529 0
-772 -1476 1530 0
-772 -1477 1531 0
-772 -1478 1532 0
-772 -1479 1533 0
-772 -1480 1534 0
-772 -1481 1535 0
-772 -1482 1536 0
-772 -1483 1537 0
-772 -1484 1538 0
-772 -1485 1539 0
-772 -1486 1540 0
-772 -1487 1541 0
-772 -1488 1542 0
-772 -1489 1543 0
-772 -1490 1544 0
-772 -1491 1545 0
-772 -1492 1546 0
-772 -1493 1547 0
-772 -1494 1548 0
-772 -1495 1549 0
-772 -1496 1550 0
-772 -1497 1551 0
-772 -1498 1552 0
-772 -1499 1553 0
-772 -1500 1554 0
-772 -1501 1555 0
-772 -1502 1556 0
-772 -1503 0
-1504 1557 0
-1505 1558 0
-1506 1559 0
-1507 1560 0
-1508 1561 0
-1509 1562 0
-1510 1563 0
-1511 1564 0
-1512 1565 0
-1513 1566 0
-1514 1567 0
-1515 1568 0
-1516 1569 0
-1517 1570 0
-1518 1571 0
-1519 1572 0
-1520 1573 0
-1521 1574 0
-1522 1575 0
-1523 1576 0
-1524 1577 0
-1525 1578 0
-1526 1579 0
-1527 1580 0
-1528 1581 0
-1529 1582 0
-1530 1583 0
-1531 1584 0
-1532 1585 0
-1533 1586 0
-1534 1587 0
-1535 1588 0
-1536 1589 0
-1537 1590 0
-1538 1591 0
-1539 1592 0
-1540 1593 0
-1541 1594 0
-1542 1595 0
-1543 1596 0
-1544 1597 0
-1545 1598 0
-1546 1599 0
-1547 1600 0
-1548 1601 0
-1549 1602 0
-1550 1603 0
-1551 1604 0
-1552 1605 0
-1553 1606 0
-1554 1607 0
-1555 1608 0
-1556 1609 0
-774 -1504 1558 0
-774 -1505 1559 0
-774 -1506 1560 0
-774 -1507 1561 0
-774 -1508 1562 0
-774 -1509 1563 0
-774 -1510 1564 0
-774 -1511 1565 0
-774 -1512 1566 0
-774 -1513 1567 0
-774 -1514 1568 0
-774 -1515 1569 0
-774 -1516 1570 0
-774 -1517 1571 0
-774 -1518 1572 0
-774 -1519 1573 0
-774 -1520 1574 0
-774 -1521 1575 0
-774 -1522 1576 0
-774 -1523 1577 0
-774 -1524 1578 0
-774 -1525 1579 0
-774 -1526 1580 0
-774 -1527 1581 0
-774 -1528 1582 0
-774 -1529 1583 0
-774 -1530 1584 0
-774 -1531 1585 0
-774 -1532 1586 0
-774 -1533 1587 0
-774 -1534 1588 0
-774 -1535 1589 0
-774 -1536 1590 0
-774 -1537 1591 0
-774 -1538 1592 0
-774 -1539 1593 0
-774 -1540 1594 0
-774 -1541 1595 0
-774 -1542 1596 0
-774 -1543 1597 0
-774 -1544 1598 0
-774 -1545 1599 0
-774 -1546 1600 0
-774 -1547 1601 0
-774 -1548 1602 0
-774 -1549 1603 0
-774 -1550 1604 0
-774 -1551 1605 0
-774 -1552 1606 0
-774 -1553 1607 0
-774 -1554 1608 0
-774 -1555 1609 0
-774 -1556 0
-1557 1610 0
-1558 1611 0
-1559 1612 0
-1560 1613 0
-1561 1614 0
-1562 1615 0
-1563 1616 0
-1564 1617 0
-1565 1618 0
-1566 1619 0
-1567 1620 0
-1568 1621 0
-1569 1622 0
-1570 1623 0
-1571 1624 0
-1572 1625 0
-1573 1626 0
-1574 1627 0
-1575 1628 0
-1576 1629 0
-1577 1630 0
-1578 1631 0
-1579 1632 0
-1580 1633 0
-1581 1634 0
-1582 1635 0
-1583 1636 0
-1584 1637 0
-1585 1638 0
-1586 1639 0
-1587 1640 0
-1588 1641 0
-1589 1642 0
-1590 1643 0
-1591 1644 0
-1592 1645 0
-1593 1646 0
-1594 1647 0
-1595 1648 0
-1596 1649 0
-1597 1650 0
-1598 1651 0
-1599 1652 0
-1600 1653 0
-1601 1654 0
-1602 1655 0
-1603 1656 0
-1604 1657 0
-1605 1658 0
-1606 1659 0
-1607 1660 0
-1608 1661 0
-1609 1662 0
-776 -1557 1611 0
-776 -1558 1612 0
-776 -1559 1613 0
-776 -1560 1614 0
-776 -1561 1615 0
-776 -1562 1616 0
-776 -1563 1617 0
-776 -1564 1618 0
-776 -1565 1619 0
-776 -1566 1620 0
-776 -1567 1621 0
-776 -1568 1622 0
-776 -1569 1623 0
-776 -1570 1624 0
-776 -1571 1625 0
-776 -1572 1626 0
-776 -1573 1627 0
-776 -1574 1628 0
-776 -1575 1629 0
-776 -1576 1630 0
-776 -1577 1631 0
-776 -1578 1632 0
-776 -1579 1633 0
-776 -1580 1634 0
-776 -1581 1635 0
-776 -1582 1636 0
-776 -1583 1637 0
-776 -1584 1638 0
-776 -1585 1639 0
-776 -1586 1640 0
-776 -1587 1641 0
-776 -1588 1642 0
-776 -1589 1643 0
-776 -1590 1644 0
-776 -1591 1645 0
-776 -1592 1646 0
-776 -1593 1647 0
-776 -1594 1648 0
-776 -1595 1649 0
-776 -1596 1650 0
-776 -1597 1651 0
-776 -1598 1652 0
-776 -1599 1653 0
-776 -1600 1654 0
-776 -1601 1655 0
-776 -1602 1656 0
-776 -1603 1657 0
-776 -1604 1658 0
-776 -1605 1659 0
-776 -1606 1660 0
-776 -1607 1661 0
-776 -1608 1662 0
-776 -1609 0
-1610 1663 0
-1611 1664 0
-1612 1665 0
-1613 1666 0
-1614 1667 0
-1615 1668 0
-1616 1669 0
-1617 1670 0
-1618 1671 0
-1619 1672 0
-1620 1673 0
-1621 1674 0
-1622 1675 0
-1623 1676 0
-1624 1677 0
-1625 1678 0
-1626 1679 0
-1627 1680 0
-1628 1681 0
-1629 1682 0
-1630 1683 0
-1631 1684 0
-1632 1685 0
-1633 1686 0
-1634 1687 0
-1635 1688 0
-1636 1689 0
-1637 1690 0
-1638 1691 0
-1639 1692 0
-1640 1693 0
-1641 1694 0
-1642 1695 0
-1643 1696 0
-1644 1697 0
-1645 1698 0
-1646 1699 0
-1647 1700 0
-1648 1701 0
-1649 1702 0
-1650 1703 0
-1651 1704 0
-1652 1705 0
-1653 1706 0
-1654 1707 0
-1655 1708 0
-1656 1709 0
-1657 1710 0
-1658 1711 0
-1659 1712 0
-1660 1713 0
-1661 1714 0
-1662 1715 0
-778 -1610 1664 0
-778 -1611 1665 0
-778 -1612 1666 0
-778 -1613 1667 0
-778 -1614 1668 0
-778 -1615 1669 0
-778 -1616 1670 0
-778 -1617 1671 0
-778 -1618 1672 0
-778 -1619 1673 0
-778 -1620 1674 0
-778 -1621 1675 0
-778 -1622 1676 0
-778 -1623 1677 0
-778 -1624 1678 0
-778 -1625 1679 0
-778 -1626 1680 0
-778 -1627 1681 0
-778 -1628 1682 0
-778 -1629 1683 0
-778 -1630 1684 0
-778 -1631 1685 0
-778 -1632 1686 0
-778 -1633 1687 0
-778 -1634 1688 0
-778 -1635 1689 0
-778 -1636 1690 0
-778 -1637 1691 0
-778 -1638 1692 0
-778 -1639 1693 0
-778 -1640 1694 0
-778 -1641 1695 0
-778 -1642 1696 0
-778 -1643 1697 0
-778 -1644 1698 0
-778 -1645 1699 0
-778 -1646 1700 0
-778 -1647 1701 0
-778 -1648 1702 0
-778 -1649 1703 0
-778 -1650 1704 0
-778 -1651 1705 0
-778 -1652 1706 0
-778 -1653 1707 0
-778 -1654 1708 0
-778 -1655 1709 0
-778 -1656 1710 0
-778 -1657 1711 0
-778 -1658 1712 0
-778 -1659 1713 0
-778 -1660 1714 0
-778 -1661 1715 0
-778 -1662 0
-1663 1716 0
-1664 1717 0
-1665 1718 0
-1666 1719 0
-1667 1720 0
-1668 1721 0
-1669 1722 0
-1670 1723 0
-1671 1724 0
-1672 1725 0
-1673 1726 0
-1674 1727 0
-1675 1728 0
-1676 1729 0
-1677 1730 0
-1678 1731 0
-1679 1732 0
-1680 1733 0
-1681 1734 0
-1682 1735 0
-1683 1736 0
-1684 1737 0
-1685 1738 0
-1686 1739 0
-1687 1740 0
-1688 1741 0
-1689 1742 0
-1690 1743 0
-1691 1744 0
-1692 1745 0
-1693 1746 0
-1694 1747 0
-1695 1748 0
-1696 1749 0
-1697 1750 0
-1698 1751 0
-1699 1752 0
-1700 1753 0
-1701 1754 0
-1702 1755 0
-1703 1756 0
-1704 1757 0
-1705 1758 0
-1706 1759 0
-1707 1760 0
-1708 1761 0
-1709 1762 0
-1710 1763 0
-1711 1764 0
-1712 1765 0
-1713 1766 0
-1714 1767 0
-1715 1768 0
-780 -1663 1717 0
-780 -1664 1718 0
-780 -1665 1719 0
-780 -1666 1720 0
-780 -1667 1721 0
-780 -1668 1722 0
-780 -1669 1723 0
-780 -1670 1724 0
-780 -1671 1725 0
-780 -1672 1726 0
-780 -1673 1727 0
-780 -1674 1728 0
-780 -1675 1729 0
-780 -1676 1730 0
-780 -1677 1731 0
-780 -1678 1732 0
-780 -1679 1733 0
-780 -1680 1734 0
-780 -1681 1735 0
-780 -1682 1736 0
-780 -1683 1737 0
-780 -1684 1738 0
-780 -1685 1739 0
-780 -1686 1740 0
-780 -1687 1741 0
-780 -1688 1742 0
-780 -1689 1743 0
-780 -1690 1744 0
-780 -1691 1745 0
-780 -1692 1746 0
-780 -1693 1747 0
-780 -1694 1748 0
-780 -1695 1749 0
-780 -1696 1750 0
-780 -1697 1751 0
-780 -1698 1752 0
-780 -1699 1753 0
-780 -1700 1754 0
-780 -1701 1755 0
-780 -1702 1756 0
-780 -1703 1757 0
-780 -1704 1758 0
-780 -1705 1759 0
-780 -1706 1760 0
-780 -1707 1761 0
-780 -1708 1762 0
-780 -1709 1763 0
-780 -1710 1764 0
-780 -1711 1765 0
-780 -1712 1766 0
-780 -1713 1767 0
-780 -1714 1768 0
-780 -1715 0
-1716 1769 0
-1717 1770 0
-1718 1771 0
-1719 1772 0
-1720 1773 0
-1721 1774 0
-1722 1775 0
-1723 1776 0
-1724 1777 0
-1725 1778 0
-1726 1779 0
-1727 1780 0
-1728 1781 0
-1729 1782 0
-1730 1783 0
-1731 1784 0
-1732 1785 0
-1733 1786 0
-1734 1787 0
-1735 1788 0
-1736 1789 0
-1737 1790 0
-1738 1791 0
-1739 1792 0
-1740 1793 0
-1741 1794 0
-1742 1795 0
-1743 1796 0
-1744 1797 0
-1745 1798 0
-1746 1799 0
-1747 1800 0
-1748 1801 0
-1749 1802 0
-1750 1803 0
-1751 1804 0
-1752 1805 0
-1753 1806 0
-1754 1807 0
-1755 1808 0
-1756 1809 0
-1757 1810 0
-1758 1811 0
-1759 1812 0
-1760 1813 0
-1761 1814 0
-1762 1815 0
-1763 1816 0
-1764 1817 0
-1765 1818 0
-1766 1819 0
-1767 1820 0
-1768 1821 0
-782 -1716 1770 0
-782 -1717 1771 0
-782 -1718 1772 0
-782 -1719 1773 0
-782 -1720 1774 0
-782 -1721 1775 0
-782 -1722 1776 0
-782 -1723 1777 0
-782 -1724 1778 0
-782 -1725 1779 0
-782 -1726 1780 0
-782 -1727 1781 0
-782 -1728 1782 0
-782 -1729 1783 0
-782 -1730 1784 0
-782 -1731 1785 0
-782 -1732 1786 0
-782 -1733 1787 0
-782 -1734 1788 0
-782 -1735 1789 0
-782 -1736 1790 0
-782 -1737 1791 0
-782 -1738 1792 0
-782 -1739 1793 0
-782 -1740 1794 0
-782 -1741 1795 0
-782 -1742 1796 0
-782 -1743 1797 0
-782 -1744 1798 0
-782 -1745 1799 0
-782 -1746 1800 0
-782 -1747 1801 0
-782 -1748 1802 0
-782 -1749 1803 0
-782 -1750 1804 0
-782 -1751 1805 0
-782 -1752 1806 0
-782 -1753 1807 0
-782 -1754 1808 0
-782 -1755 1809 0
-782 -1756 1810 0
-782 -1757 1811 0
-782 -1758 1812 0
-782 -1759 1813 0
-782 -1760 1814 0
-782 -1761 1815 0
-782 -1762 1816 0
-782 -1763 1817 0
-782 -1764 1818 0
-782 -1765 1819 0
-782 -1766 1820 0
-782 -1767 1821 0
-782 -1768 0
-1769 1822 0
-1770 1823 0
-1771 1824 0
-1772 1825 0
-1773 1826 0
-1774 1827 0
-1775 1828 0
-1776 1829 0
-1777 1830 0
-1778 1831 0
-1779 1832 0
-1780 1833 0
-1781 1834 0
-1782 1835 0
-1783 1836 0
-1784 1837 0
-1785 1838 0
-1786 1839 0
-1787 1840 0
-1788 1841 0
-1789 1842 0
-1790 1843 0
-1791 1844 0
-1792 1845 0
-1793 1846 0
-1794 1847 0
-1795 1848 0
-1796 1849 0
-1797 1850 0
-1798 1851 0
-1799 1852 0
-1800 1853 0
-1801 1854 0
-1802 1855 0
-1803 1856 0
-1804 1857 0
-1805 1858 0
-1806 1859 0
-1807 1860 0
-1808 1861 0
-1809 1862 0
-1810 1863 0
-1811 1864 0
-1812 1865 0
-1813 1866 0
-1814 1867 0
-1815 1868 0
-1816 1869 0
-1817 1870 0
-1818 1871 0
-1819 1872 0
-1820 1873 0
-1821 1874 0
-784 -1769 1823 0
-784 -1770 1824 0
-784 -1771 1825 0
-784 -1772 1826 0
-784 -1773 1827 0
-784 -1774 1828 0
-784 -1775 1829 0
-784 -1776 1830 0
-784 -1777 1831 0
-784 -1778 1832 0
-784 -1779 1833 0
-784 -1780 1834 0
-784 -1781 1835 0
-784 -1782 1836 0
-784 -1783 1837 0
-784 -1784 1838 0
-784 -1785 1839 0
-784 -1786 1840 0
-784 -1787 1841 0
-784 -1788 1842 0
-784 -1789 1843 0
-784 -1790 1844 0
-784 -1791 1845 0
-784 -1792 1846 0
-784 -1793 1847 0
-784 -1794 1848 0
-784 -1795 1849 0
-784 -1796 1850 0
-784 -1797 1851 0
-784 -1798 1852 0
-784 -1799 1853 0
-784 -1800 1854 0
-784 -1801 1855 0
-784 -1802 1856 0
-784 -1803 1857 0
-784 -1804 1858 0
-784 -1805 1859 0
-784 -1806 1860 0
-784 -1807 1861 0
-784 -1808 1862 0
-784 -1809 1863 0
-784 -1810 1864 0
-784 -1811 1865 0
-784 -1812 1866 0
-784 -1813 1867 0
-784 -1814 1868 0
-784 -1815 1869 0
-784 -1816 1870 0
-784 -1817 1871 0
-784 -1818 1872 0
-784 -1819 1873 0
-784 -1820 1874 0
-784 -1821 0
-1822 1875 0
-1823 1876 0
-1824 1877 0
-1825 1878 0
-1826 1879 0
-1827 1880 0
-1828 1881 0
-1829 1882 0
-1830 1883 0
-1831 1884 0
-1832 1885 0
-1833 1886 0
-1834 1887 0
-1835 1888 0
-1836 1889 0
-1837 1890 0
-1838 1891 0
-1839 1892 0
-1840 1893 0
-1841 1894 0
-1842 1895 0
-1843 1896 0
-1844 1897 0
-1845 1898 0
-1846 1899 0
-1847 1900 0
-1848 1901 0
-1849 1902 0
-1850 1903 0
-1851 1904 0
-1852 1905 0
-1853 1906 0
-1854 1907 0
-1855 1908 0
-1856 1909 0
-1857 1910 0
-1858 1911 0
-1859 1912 0
-1860 1913 0
-1861 1914 0
-1862 1915 0
-1863 1916 0
-1864 1917 0
-1865 1918 0
-1866 1919 0
-1867 1920 0
-1868 1921 0
-1869 1922 0
-1870 1923 0
-1871 1924 0
-1872 1925 0
-1873 1926 0
-1874 1927 0
-786 -1822 1876 0
-786 -1823 1877 0
-786 -1824 1878 0
-786 -1825 1879 0
-786 -1826 1880 0
-786 -1827 1881 0
-786 -1828 1882 0
-786 -1829 1883 0
-786 -1830 1884 0
-786 -1831 1885 0
-786 -1832 1886 0
-786 -1833 1887 0
-786 -1834 1888 0
-786 -1835 1889 0
-786 -1836 1890 0
-786 -1837 1891 0
-786 -1838 1892 0
-786 -1839 1893 0
-786 -1840 1894 0
-786 -1841 1895 0
-786 -1842 1896 0
-786 -1843 1897 0
-786 -1844 1898 0
-786 -1845 1899 0
-786 -1846 1900 0
-786 -1847 1901 0
-786 -1848 1902 0
-786 -1849 1903 0
-786 -1850 1904 0
-786 -1851 1905 0
-786 -1852 1906 0
-786 -1853 1907 0
-786 -1854 1908 0
-786 -1855 1909 0
-786 -1856 1910 0
-786 -1857 1911 0
-786 -1858 1912 0
-786 -1859 1913 0
-786 -1860 1914 0
-786 -1861 1915 0
-786 -1862 1916 0
-786 -1863 1917 0
-786 -1864 1918 0
-786 -1865 1919 0
-786 -1866 1920 0
-786 -1867 1921 0
-786 -1868 1922 0
-786 -1869 1923 0
-786 -1870 1924 0
-786 -1871 1925 0
-786 -1872 1926 0
-786 -1873 1927 0
-786 -1874 0
-1875 1928 0
-1876 1929 0
-1877 1930 0
-1878 1931 0
-1879 1932 0
-1880 1933 0
-1881 1934 0
-1882 1935 0
-1883 1936 0
-1884 1937 0
-1885 1938 0
-1886 1939 0
-1887 1940 0
-1888 1941 0
-1889 1942 0
-1890 1943 0
-1891 1944 0
-1892 1945 0
-1893 1946 0
-1894 1947 0
-1895 1948 0
-1896 1949 0
-1897 1950 0
-1898 1951 0
-1899 1952 0
-1900 1953 0
-1901 1954 0
-1902 1955 0
-1903 1956 0
-1904 1957 0
-1905 1958 0
-1906 1959 0
-1907 1960 0
-1908 1961 0
-1909 1962 0
-1910 1963 0
-1911 1964 0
-1912 1965 0
-1913 1966 0
-1914 1967 0
-1915 1968 0
-1916 1969 0
-1917 1970 0
-1918 1971 0
-1919 1972 0
-1920 1973 0
-1921 1974 0
-1922 1975 0
-1923 1976 0
-1924 1977 0
-1925 1978 0
-1926 1979 0
-1927 1980 0
-788 -1875 1929 0
-788 -1876 1930 0
-788 -1877 1931 0
-788 -1878 1932 0
-788 -1879 1933 0
-788 -1880 1934 0
-788 -1881 1935 0
-788 -1882 1936 0
-788 -1883 1937 0
-788 -1884 1938 0
-788 -1885 1939 0
-788 -1886 1940 0
-788 -1887 1941 0
-788 -1888 1942 0
-788 -1889 1943 0
-788 -1890 1944 0
-788 -1891 1945 0
-788 -1892 1946 0
-788 -1893 1947 0
-788 -1894 1948 0
-788 -1895 1949 0
-788 -1896 1950 0
-788 -1897 1951 0
-788 -1898 1952 0
-788 -1899 1953 0
-788 -1900 1954 0
-788 -1901 1955 0
-788 -1902 1956 0
-788 -1903 1957 0
-788 -1904 1958 0
-788 -1905 1959 0
-788 -1906 1960 0
-788 -1907 1961 0
-788 -1908 1962 0
-788 -1909 1963 0
-788 -1910 1964 0
-788 -1911 1965 0
-788 -1912 1966 0
-788 -1913 1967 0
-788 -1914 1968 0
-788 -1915 1969 0
-788 -1916 1970 0
-788 -1917 1971 0
-788 -1918 1972 0
-788 -1919 1973 0
-788 -1920 1974 0
-788 -1921 1975 0
-788 -1922 1976 0
-788 -1923 1977 0
-788 -1924 1978 0
-788 -1925 1979 0
-788 -1926 1980 0
-788 -1927 0
-1928 1981 0
-1929 1982 0
-1930 1983 0
-1931 1984 0
-1932 1985 0
-1933 1986 0
-1934 1987 0
-1935 1988 0
-1936 1989 0
-1937 1990 0
-1938 1991 0
-1939 1992 0
-1940 1993 0
-1941 1994 0
-1942 1995 0
-1943 1996 0
-1944 1997 0
-1945 1998 0
-1946 1999 0
-1947 2000 0
-1948 2001 0
-1949 2002 0
-1950 2003 0
-1951 2004 0
-1952 2005 0
-1953 2006 0
-1954 2007 0
-1955 2008 0
-1956 2009 0
-1957 2010 0
-1958 2011 0
-1959 2012 0
-1960 2013 0
-1961 2014 0
-1962 2015 0
-1963 2016 0
-1964 2017 0
-1965 2018 0
-1966 2019 0
-1967 2020 0
-1968 2021 0
-1969 2022 0
-1970 2023 0
-1971 2024 0
-1972 2025 0
-1973 2026 0
-1974 2027 0
-1975 2028 0
-1976 2029 0
-1977 2030 0
-1978 2031 0
-1979 2032 0
-1980 2033 0
-790 -1928 1982 0
-790 -1929 1983 0
-790 -1930 1984 0
-790 -1931 1985 0
-790 -1932 1986 0
-790 -1933 1987 0
-790 -1934 1988 0
-790 -1935 1989 0
-790 -1936 1990 0
-790 -1937 1991 0
-790 -1938 1992 0
-790 -1939 1993 0
-790 -1940 1994 0
-790 -1941 1995 0
-790 -1942 1996 0
-790 -1943 1997 0
-790 -1944 1998 0
-790 -1945 1999 0
-790 -1946 2000 0
-790 -1947 2001 0
-790 -1948 2002 0
-790 -1949 2003 0
-790 -1950 2004 0
-790 -1951 2005 0
-790 -1952 2006 0
-790 -1953 2007 0
-790 -1954 2008 0
-790 -1955 2009 0
-790 -1956 2010 0
-790 -1957 2011 0
-790 -1958 2012 0
-790 -1959 2013 0
-790 -1960 2014 0
-790 -1961 2015 0
-790 -1962 2016 0
-790 -1963 2017 0
-790 -1964 2018 0
-790 -1965 2019 0
-790 -1966 2020 0
-790 -1967 2021 0
-790 -1968 2022 0
-790 -1969 2023 0
-790 -1970 2024 0
-790 -1971 2025 0
-790 -1972 2026 0
-790 -1973 2027 0
-790 -1974 2028 0
-790 -1975 2029 0
-790 -1976 2030 0
-790 -1977 2031 0
-790 -1978 2032 0
-790 -1979 2033 0
-790 -1980 0
-1981 2034 0
-1982 2035 0
-1983 2036 0
-1984 2037 0
-1985 2038 0
-1986 2039 0
-1987 2040 0
-1988 2041 0
-1989 2042 0
-1990 2043 0
-1991 2044 0
-1992 2045 0
-1993 2046 0
-1994 2047 0
-1995 2048 0
-1996 2049 0
-1997 2050 0
-1998 2051 0
-1999 2052 0
-2000 2053 0
-2001 2054 0
-2002 2055 0
-2003 2056 0
-2004 2057 0
-2005 2058 0
-2006 2059 0
-2007 2060 0
-2008 2061 0
-2009 2062 0
-2010 2063 0
-2011 2064 0
-2012 2065 0
-2013 2066 0
-2014 2067 0
-2015 2068 0
-2016 2069 0
-2017 2070 0
-2018 2071 0
-2019 2072 0
-2020 2073 0
-2021 2074 0
-2022 2075 0
-2023 2076 0
-2024 2077 0
-2025 2078 0
-2026 2079 0
-2027 2080 0
-2028 2081 0
-2029 2082 0
-2030 2083 0
-2031 2084 0
-2032 2085 0
-2033 2086 0
-792 -1981 2035 0
-792 -1982 2036 0
-792 -1983 2037 0
-792 -1984 2038 0
-792 -1985 2039 0
-792 -1986 2040 0
-792 -1987 2041 0
-792 -1988 2042 0
-792 -1989 2043 0
-792 -1990 2044 0
-792 -1991 2045 0
-792 -1992 2046 0
-792 -1993 2047 0
-792 -1994 2048 0
-792 -1995 2049 0
-792 -1996 2050 0
-792 -1997 2051 0
-792 -1998 2052 0
-792 -1999 2053 0
-792 -2000 2054 0
-792 -2001 2055 0
-792 -2002 2056 0
-792 -2003 2057 0
-792 -2004 2058 0
-792 -2005 2059 0
-792 -2006 2060 0
-792 -2007 2061 0
-792 -2008 2062 0
-792 -2009 2063 0
-792 -2010 2064 0
-792 -2011 2065 0
-792 -2012 2066 0
-792 -2013 2067 0
-792 -2014 2068 0
-792 -2015 2069 0
-792 -2016 2070 0
-792 -2017 2071 0
-792 -2018 2072 0
-792 -2019 2073 0
-792 -2020 2074 0
-792 -2021 2075 0
-792 -2022 2076 0
-792 -2023 2077 0
-792 -2024 2078 0
-792 -2025 2079 0
-792 -2026 2080 0
-792 -2027 2081 0
-792 -2028 2082 0
-792 -2029 2083 0
-792 -2030 2084 0
-792 -2031 2085 0
-792 -2032 2086 0
-792 -2033 0
-2034 2087 0
-2035 2088 0
-2036 2089 0
-2037 2090 0
-2038 2091 0
-2039 2092 0
-2040 2093 0
-2041 2094 0
-2042 2095 0
-2043 2096 0
-2044 2097 0
-2045 2098 0
-2046 2099 0
-2047 2100 0
-2048 2101 0
-2049 2102 0
-2050 2103 0
-2051 2104 0
-2052 2105 0
-2053 2106 0
-2054 2107 0
-2055 2108 0
-2056 2109 0
-2057 2110 0
-2058 2111 0
-2059 2112 0
-2060 2113 0
-2061 2114 0
-2062 2115 0
-2063 2116 0
-2064 2117 0
-2065 2118 0
-2066 2119 0
-2067 2120 0
-2068 2121 0
-2069 2122 0
-2070 2123 0
-2071 2124 0
-2072 2125 0
-2073 2126 0
-2074 2127 0
-2075 2128 0
-2076 2129 0
-2077 2130 0
-2078 2131 0
-2079 2132 0
-2080 2133 0
-2081 2134 0
-2082 2135 0
-2083 2136 0
-2084 2137 0
-2085 2138 0
-2086 2139 0
-794 -2034 2088 0
-794 -2035 2089 0
-794 -2036 2090 0
-794 -2037 2091 0
-794 -2038 2092 0
-794 -2039 2093 0
-794 -2040 2094 0
-794 -2041 2095 0
-794 -2042 2096 0
-794 -2043 2097 0
-794 -2044 2098 0
-794 -2045 2099 0
-794 -2046 2100 0
-794 -2047 2101 0
-794 -2048 2102 0
-794 -2049 2103 0
-794 -2050 2104 0
-794 -2051 2105 0
-794 -2052 2106 0
-794 -2053 2107 0
-794 -2054 2108 0
-794 -2055 2109 0
-794 -2056 2110 0
-794 -2057 2111 0
-794 -2058 2112 0
-794 -2059 2113 0
-794 -2060 2114 0
-794 -2061 2115 0
-794 -2062 2116 0
-794 -2063 2117 0
-794 -2064 2118 0
-794 -2065 2119 0
-794 -2066 2120 0
-794 -2067 2121 0
-794 -2068 2122 0
-794 -2069 2123 0
-794 -2070 2124 0
-794 -2071 2125 0
-794 -2072 2126 0
-794 -2073 2127 0
-794 -2074 2128 0
-794 -2075 2129 0
-794 -2076 2130 0
-794 -2077 2131 0
-794 -2078 2132 0
-794 -2079 2133 0
-794 -2080 2134 0
-794 -2081 2135 0
-794 -2082 2136 0
-794 -2083 2137 0
-794 -2084 2138 0
-794 -2085 2139 0
-794 -2086 0
-2087 2140 0
-2088 2141 0
-2089 2142 0
-2090 2143 0
-2091 2144 0
-2092 2145 0
-2093 2146 0
-2094 2147 0
-2095 2148 0
-2096 2149 0
-2097 2150 0
-2098 2151 0
-2099 2152 0
-2100 2153 0
-2101 2154 0
-2102 2155 0
-2103 2156 0
-2104 2157 0
-2105 2158 0
-2106 2159 0
-2107 2160 0
-2108 2161 0
-2109 2162 0
-2110 2163 0
-2111 2164 0
-2112 2165 0
-2113 2166 0
-2114 2167 0
-2115 2168 0
-2116 2169 0
-2117 2170 0
-2118 2171 0
-2119 2172 0
-2120 2173 0
-2121 2174 0
-2122 2175 0
-2123 2176 0
-2124 2177 0
-2125 2178 0
-2126 2179 0
-2127 2180 0
-2128 2181 0
-2129 2182 0
-2130 2183 0
-2131 2184 0
-2132 2185 0
-2133 2186 0
-2134 2187 0
-2135 2188 0
-2136 2189 0
-2137 2190 0
-2138 2191 0
-2139 2192 0
-796 -2087 2141 0
-796 -2088 2142 0
-796 -2089 2143 0
-796 -2090 2144 0
-796 -2091 2145 0
-796 -2092 2146 0
-796 -2093 2147 0
-796 -2094 2148 0
-796 -2095 2149 0
-796 -2096 2150 0
-796 -2097 2151 0
-796 -2098 2152 0
-796 -2099 2153 0
-796 -2100 2154 0
-796 -2101 2155 0
-796 -2102 2156 0
-796 -2103 2157 0
-796 -2104 2158 0
-796 -2105 2159 0
-796 -2106 2160 0
-796 -2107 2161 0
-796 -2108 2162 0
-796 -2109 2163 0
-796 -2110 2164 0
-796 -2111 2165 0
-796 -2112 2166 0
-796 -2113 2167 0
-796 -2114 2168 0
-796 -2115 2169 0
-796 -2116 2170 0
-796 -2117 2171 0
-796 -2118 2172 0
-796 -2119 2173 0
-796 -2120 2174 0
-796 -2121 2175 0
-796 -2122 2176 0
-796 -2123 2177 0
-796 -2124 2178 0
-796 -2125 2179 0
-796 -2126 2180 0
-796 -2127 2181 0
-796 -2128 2182 0
-796 -2129 2183 0
-796 -2130 2184 0
-796 -2131 2185 0
-796 -2132 2186 0
-796 -2133 2187 0
-796 -2134 2188 0
-796 -2135 2189 0
-796 -2136 2190 0
-796 -2137 2191 0
-796 -2138 2192 0
-796 -2139 0
-2140 2193 0
-2141 2194 0
-2142 2195 0
-2143 2196 0
-2144 2197 0
-2145 2198 0
-2146 2199 0
-2147 2200 0
-2148 2201 0
-2149 2202 0
-2150 2203 0
-2151 2204 0
-2152 2205 0
-2153 2206 0
-2154 2207 0
-2155 2208 0
-2156 2209 0
-2157 2210 0
-2158 2211 0
-2159 2212 0
-2160 2213 0
-2161 2214 0
-2162 2215 0
-2163 2216 0
-2164 2217 0
-2165 2218 0
-2166 2219 0
-2167 2220 0
-2168 2221 0
-2169 2222 0
-2170 2223 0
-2171 2224 0
-2172 2225 0
-2173 2226 0
-2174 2227 0
-2175 2228 0
-2176 2229 0
-2177 2230 0
-2178 2231 0
-2179 2232 0
-2180 2233 0
-2181 2234 0
-2182 2235 0
-2183 2236 0
-2184 2237 0
-2185 2238 0
-2186 2239 0
-2187 2240 0
-2188 2241 0
-2189 2242 0
-2190 2243 0
-2191 2244 0
-2192 2245 0
-798 -2140 2194 0
-798 -2141 2195 0
-798 -2142 2196 0
-798 -2143 2197 0
-798 -2144 2198 0
-798 -2145 2199 0
-798 -2146 2200 0
-798 -2147 2201 0
-798 -2148 2202 0
-798 -2149 2203 0
-798 -2150 2204 0
-798 -2151 2205 0
-798 -2152 2206 0
-798 -2153 2207 0
-798 -2154 2208 0
-798 -2155 2209 0
-798 -2156 2210 0
-798 -2157 2211 0
-798 -2158 2212 0
-798 -2159 2213 0
-798 -2160 2214 0
-798 -2161 2215 0
-798 -2162 2216 0
-798 -2163 2217 0
-798 -2164 2218 0
-798 -2165 2219 0
-798 -2166 2220 0
-798 -2167 2221 0
-798 -2168 2222 0
-798 -2169 2223 0
-798 -2170 2224 0
-798 -2171 2225 0
-798 -2172 2226 0
-798 -2173 2227 0
-798 -2174 2228 0
-798 -2175 2229 0
-798 -2176 2230 0
-798 -2177 2231 0
-798 -2178 2232 0
-798 -2179 2233 0
-798 -2180 2234 0
-798 -2181 2235 0
-798 -2182 2236 0
-798 -2183 2237 0
-798 -2184 2238 0
-798 -2185 2239 0
-798 -2186 2240 0
-798 -2187 2241 0
-798 -2188 2242 0
-798 -2189 2243 0
-798 -2190 2244 0
-798 -2191 2245 0
-798 -2192 0
-2193 2246 0
-2194 2247 0
-2195 2248 0
-2196 2249 0
-2197 2250 0
-2198 2251 0
-2199 2252 0
-2200 2253 0
-2201 2254 0
-2202 2255 0
-2203 2256 0
-2204 2257 0
-2205 2258 0
-2206 2259 0
-2207 2260 0
-2208 2261 0
-2209 2262 0
-2210 2263 0
-2211 2264 0
-2212 2265 0
-2213 2266 0
-2214 2267 0
-2215 2268 0
-2216 2269 0
-2217 2270 0
-2218 2271 0
-2219 2272 0
-2220 2273 0
-2221 2274 0
-2222 2275 0
-2223 2276 0
-2224 2277 0
-2225 2278 0
-2226 2279 0
-2227 2280 0
-2228 2281 0
-2229 2282 0
-2230 2283 0
-2231 2284 0
-2232 2285 0
-2233 2286 0
-2234 2287 0
-2235 2288 0
-2236 2289 0
-2237 2290 0
-2238 2291 0
-2239 2292 0
-2240 2293 0
-2241 2294 0
-2242 2295 0
-2243 2296 0
-2244 2297 0
-2245 2298 0
-800 -2193 2247 0
-800 -2194 2248 0
-800 -2195 2249 0
-800 -2196 2250 0
-800 -2197 2251 0
-800 -2198 2252 0
-800 -2199 2253 0
-800 -2200 2254 0
-800 -2201 2255 0
-800 -2202 2256 0
-800 -2203 2257 0
-800 -2204 2258 0
-800 -2205 2259 0
-800 -2206 2260 0
-800 -2207 2261 0
-800 -2208 2262 0
-800 -2209 2263 0
-800 -2210 2264 0
-800 -2211 2265 0
-800 -2212 2266 0
-800 -2213 2267 0
-800 -2214 2268 0
-800 -2215 2269 0
-800 -2216 2270 0
-800 -2217 2271 0
-800 -2218 2272 0
-800 -2219 2273 0
-800 -2220 2274 0
-800 -2221 2275 0
-800 -2222 2276 0
-800 -2223 2277 0
-800 -2224 2278 0
-800 -2225 2279 0
-800 -2226 2280 0
-800 -2227 2281 0
-800 -2228 2282 0
-800 -2229 2283 0
-800 -2230 2284 0
-800 -2231 2285 0
-800 -2232 2286 0
-800 -2233 2287 0
-800 -2234 2288 0
-800 -2235 2289 0
-800 -2236 2290 0
-800 -2237 2291 0
-800 -2238 2292 0
-800 -2239 2293 0
-800 -2240 2294 0
-800 -2241 2295 0
-800 -2242 2296 0
-800 -2243 2297 0
-800 -2244 2298 0
-800 -2245 0
-2246 2299 0
-2247 2300 0
-2248 2301 0
-2249 2302 0
-2250 2303 0
-2251 2304 0
-2252 2305 0
-2253 2306 0
-2254 2307 0
-2255 2308 0
-2256 2309 0
-2257 2310 0
-2258 2311 0
-2259 2312 0
-2260 2313 0
-2261 2314 0
-2262 2315 0
-2263 2316 0
-2264 2317 0
-2265 2318 0
-2266 2319 0
-2267 2320 0
-2268 2321 0
-2269 2322 0
-2270 2323 0
-2271 2324 0
-2272 2325 0
-2273 2326 0
-2274 2327 0
-2275 2328 0
-2276 2329 0
-2277 2330 0
-2278 2331 0
-2279 2332 0
-2280 2333 0
-2281 2334 0
-2282 2335 0
-2283 2336 0
-2284 2337 0
-2285 2338 0
-2286 2339 0
-2287 2340 0
-2288 2341 0
-2289 2342 0
-2290 2343 0
-2291 2344 0
-2292 2345 0
-2293 2346 0
-2294 2347 0
-2295 2348 0
-2296 2349 0
-2297 2350 0
-2298 2351 0
-802 -2246 2300 0
-802 -2247 2301 0
-802 -2248 2302 0
-802 -2249 2303 0
-802 -2250 2304 0
-802 -2251 2305 0
-802 -2252 2306 0
-802 -2253 2307 0
-802 -2254 2308 0
-802 -2255 2309 0
-802 -2256 2310 0
-802 -2257 2311 0
-802 -2258 2312 0
-802 -2259 2313 0
-802 -2260 2314 0
-802 -2261 2315 0
-802 -2262 2316 0
-802 -2263 2317 0
-802 -2264 2318 0
-802 -2265 2319 0
-802 -2266 2320 0
-802 -2267 2321 0
-802 -2268 2322 0
-802 -2269 2323 0
-802 -2270 2324 0
-802 -2271 2325 0
-802 -2272 2326 0
-802 -2273 2327 0
-802 -2274 2328 0
-802 -2275 2329 0
-802 -2276 2330 0
-802 -2277 2331 0
-802 -2278 2332 0
-802 -2279 2333 0
-802 -2280 2334 0
-802 -2281 2335 0
-802 -2282 2336 0
-802 -2283 2337 0
-802 -2284 2338 0
-802 -2285 2339 0
-802 -2286 2340 0
-802 -2287 2341 0
-802 -2288 2342 0
-802 -2289 2343 0
-802 -2290 2344 0
-802 -2291 2345 0
-802 -2292 2346 0
-802 -2293 2347 0
-802 -2294 2348 0
-802 -2295 2349 0
-802 -2296 2350 0
-802 -2297 2351 0
-802 -2298 0
-2299 2352 0
-2300 2353 0
-2301 2354 0
-2302 2355 0
-2303 2356 0
-2304 2357 0
-2305 2358 0
-2306 2359 0
-2307 2360 0
-2308 2361 0
-2309 2362 0
-2310 2363 0
-2311 2364 0
-2312 2365 0
-2313 2366 0
-2314 2367 0
-2315 2368 0
-2316 2369 0
-2317 2370 0
-2318 2371 0
-2319 2372 0
-2320 2373 0
-2321 2374 0
-2322 2375 0
-2323 2376 0
-2324 2377 0
-2325 2378 0
-2326 2379 0
-2327 2380 0
-2328 2381 0
-2329 2382 0
-2330 2383 0
-2331 2384 0
-2332 2385 0
-2333 2386 0
-2334 2387 0
-2335 2388 0
-2336 2389 0
-2337 2390 0
-2338 2391 0
-2339 2392 0
-2340 2393 0
-2341 2394 0
-2342 2395 0
-2343 2396 0
-2344 2397 0
-2345 2398 0
-2346 2399 0
-2347 2400 0
-2348 2401 0
-2349 2402 0
-2350 2403 0
-2351 2404 0
-804 -2299 2353 0
-804 -2300 2354 0
-804 -2301 2355 0
-804 -2302 2356 0
-804 -2303 2357 0
-804 -2304 2358 0
-804 -2305 2359 0
-804 -2306 2360 0
-804 -2307 2361 0
-804 -2308 2362 0
-804 -2309 2363 0
-804 -2310 2364 0
-804 -2311 2365 0
-804 -2312 2366 0
-804 -2313 2367 0
-804 -2314 2368 0
-804 -2315 2369 0
-804 -2316 2370 0
-804 -2317 2371 0
-804 -2318 2372 0
-804 -2319 2373 0
-804 -2320 2374 0
-804 -2321 2375 0
-804 -2322 2376 0
-804 -2323 2377 0
-804 -2324 2378 0
-804 -2325 2379 0
-804 -2326 2380 0
-804 -2327 2381 0
-804 -2328 2382 0
-804 -2329 2383 0
-804 -2330 2384 0
-804 -2331 2385 0
-804 -2332 2386 0
-804 -2333 2387 0
-804 -2334 2388 0
-804 -2335 2389 0
-804 -2336 2390 0
-804 -2337 2391 0
-804 -2338 2392 0
-804 -2339 2393 0
-804 -2340 2394 0
-804 -2341 2395 0
-804 -2342 2396 0
-804 -2343 2397 0
-804 -2344 2398 0
-804 -2345 2399 0
-804 -2346 2400 0
-804 -2347 2401 0
-804 -2348 2402 0
-804 -2349 2403 0
-804 -2350 2404 0
-804 -2351 0
-2352 2405 0
-2353 2406 0
-2354 2407 0
-2355 2408 0
-2356 2409 0
-2357 2410 0
-2358 2411 0
-2359 2412 0
-2360 2413 0
-2361 2414 0
-2362 2415 0
-2363 2416 0
-2364 2417 0
-2365 2418 0
-2366 2419 0
-2367 2420 0
-2368 2421 0
-2369 2422 0
-2370 2423 0
-2371 2424 0
-2372 2425 0
-2373 2426 0
-2374 2427 0
-2375 2428 0
-2376 2429 0
-2377 2430 0
-2378 2431 0
-2379 2432 0
-2380 2433 0
-2381 2434 0
-2382 2435 0
-2383 2436 0
-2384 2437 0
-2385 2438 0
-2386 2439 0
-2387 2440 0
-2388 2441 0
-2389 2442 0
-2390 2443 0
-2391 2444 0
-2392 2445 0
-2393 2446 0
-2394 2447 0
-2395 2448 0
-2396 2449 0
-2397 2450 0
-2398 2451 0
-2399 2452 0
-2400 2453 0
-2401 2454 0
-2402 2455 0
-2403 2456 0
-2404 2457 0
-806 -2352 2406 0
-806 -2353 2407 0
-806 -2354 2408 0
-806 -2355 2409 0
-806 -2356 2410 0
-806 -2357 2411 0
-806 -2358 2412 0
-806 -2359 2413 0
-806 -2360 2414 0
-806 -2361 2415 0
-806 -2362 2416 0
-806 -2363 2417 0
-806 -2364 2418 0
-806 -2365 2419 0
-806 -2366 2420 0
-806 -2367 2421 0
-806 -2368 2422 0
-806 -2369 2423 0
-806 -2370 2424 0
-806 -2371 2425 0
-806 -2372 2426 0
-806 -2373 2427 0
-806 -2374 2428 0
-806 -2375 2429 0
-806 -2376 2430 0
-806 -2377 2431 0
-806 -2378 2432 0
-806 -2379 2433 0
-806 -2380 2434 0
-806 -2381 2435 0
-806 -2382 2436 0
-806 -2383 2437 0
-806 -2384 2438 0
-806 -2385 2439 0
-806 -2386 2440 0
-806 -2387 2441 0
-806 -2388 2442 0
-806 -2389 2443 0
-806 -2390 2444 0
-806 -2391 2445 0
-806 -2392 2446 0
-806 -2393 2447 0
-806 -2394 2448 0
-806 -2395 2449 0
-806 -2396 2450 0
-806 -2397 2451 0
-806 -2398 2452 0
-806 -2399 2453 0
-806 -2400 2454 0
-806 -2401 2455 0
-806 -2402 2456 0
-806 -2403 2457 0
-806 -2404 0
-2405 2458 0
-2406 2459 0
-2407 2460 0
-2408 2461 0
-2409 2462 0
-2410 2463 0
-2411 2464 0
-2412 2465 0
-2413 2466 0
-2414 2467 0
-2415 2468 0
-2416 2469 0
-2417 2470 0
-2418 2471 0
-2419 2472 0
-2420 2473 0
-2421 2474 0
-2422 2475 0
-2423 2476 0
-2424 2477 0
-2425 2478 0
-2426 2479 0
-2427 2480 0
-2428 2481 0
-2429 2482 0
-2430 2483 0
-2431 2484 0
-2432 2485 0
-2433 2486 0
-2434 2487 0
-2435 2488 0
-2436 2489 0
-2437 2490 0
-2438 2491 0
-2439 2492 0
-2440 2493 0
-2441 2494 0
-2442 2495 0
-2443 2496 0
-2444 2497 0
-2445 2498 0
-2446 2499 0
-2447 2500 0
-2448 2501 0
-2449 2502 0
-2450 2503 0
-2451 2504 0
-2452 2505 0
-2453 2506 0
-2454 2507 0
-2455 2508 0
-2456 2509 0
-2457 2510 0
-808 -2405 2459 0
-808 -2406 2460 0
-808 -2407 2461 0
-808 -2408 2462 0
-808 -2409 2463 0
-808 -2410 2464 0
-808 -2411 2465 0
-808 -2412 2466 0
-808 -2413 2467 0
-808 -2414 2468 0
-808 -2415 2469 0
-808 -2416 2470 0
-808 -2417 2471 0
-808 -2418 2472 0
-808 -2419 2473 0
-808 -2420 2474 0
-808 -2421 2475 0
-808 -2422 2476 0
-808 -2423 2477 0
-808 -2424 2478 0
-808 -2425 2479 0
-808 -2426 2480 0
-808 -2427 2481 0
-808 -2428 2482 0
-808 -2429 2483 0
-808 -2430 2484 0
-808 -2431 2485 0
-808 -2432 2486 0
-808 -2433 2487 0
-808 -2434 2488 0
-808 -2435 2489 0
-808 -2436 2490 0
-808 -2437 2491 0
-808 -2438 2492 0
-808 -2439 2493 0
-808 -2440 2494 0
-808 -2441 2495 0
-808 -2442 2496 0
-808 -2443 2497 0
-808 -2444 2498 0
-808 -2445 2499 0
-808 -2446 2500 0
-808 -2447 2501 0
-808 -2448 2502 0
-808 -2449 2503 0
-808 -2450 2504 0
-808 -2451 2505 0
-808 -2452 2506 0
-808 -2453 2507 0
-808 -2454 2508 0
-808 -2455 2509 0
-808 -2456 2510 0
-808 -2457 0
-2458 2511 0
-2459 2512 0
-2460 2513 0
-2461 2514 0
-2462 2515 0
-2463 2516 0
-2464 2517 0
-2465 2518 0
-2466 2519 0
-2467 2520 0
-2468 2521 0
-2469 2522 0
-2470 2523 0
-2471 2524 0
-2472 2525 0
-2473 2526 0
-2474 2527 0
-2475 2528 0
-2476 2529 0
-2477 2530 0
-2478 2531 0
-2479 2532 0
-2480 2533 0
-2481 2534 0
-2482 2535 0
-2483 2536 0
-2484 2537 0
-2485 2538 0
-2486 2539 0
-2487 2540 0
-2488 2541 0
-2489 2542 0
-2490 2543 0
-2491 2544 0
-2492 2545 0
-2493 2546 0
-2494 2547 0
-2495 2548 0
-2496 2549 0
-2497 2550 0
-2498 2551 0
-2499 2552 0
-2500 2553 0
-2501 2554 0
-2502 2555 0
-2503 2556 0
-2504 2557 0
-2505 2558 0
-2506 2559 0
-2507 2560 0
-2508 2561 0
-2509 2562 0
-2510 2563 0
-810 -2458 2512 0
-810 -2459 2513 0
-810 -2460 2514 0
-810 -2461 2515 0
-810 -2462 2516 0
-810 -2463 2517 0
-810 -2464 2518 0
-810 -2465 2519 0
-810 -2466 2520 0
-810 -2467 2521 0
-810 -2468 2522 0
-810 -2469 2523 0
-810 -2470 2524 0
-810 -2471 2525 0
-810 -2472 2526 0
-810 -2473 2527 0
-810 -2474 2528 0
-810 -2475 2529 0
-810 -2476 2530 0
-810 -2477 2531 0
-810 -2478 2532 0
-810 -2479 2533 0
-810 -2480 2534 0
-810 -2481 2535 0
-810 -2482 2536 0
-810 -2483 2537 0
-810 -2484 2538 0
-810 -2485 2539 0
-810 -2486 2540 0
-810 -2487 2541 0
-810 -2488 2542 0
-810 -2489 2543 0
-810 -2490 2544 0
-810 -2491 2545 0
-810 -2492 2546 0
-810 -2493 2547 0
-810 -2494 2548 0
-810 -2495 2549 0
-810 -2496 2550 0
-810 -2497 2551 0
-810 -2498 2552 0
-810 -2499 2553 0
-810 -2500 2554 0
-810 -2501 2555 0
-810 -2502 2556 0
-810 -2503 2557 0
-810 -2504 2558 0
-810 -2505 2559 0
-810 -2506 2560 0
-810 -2507 2561 0
-810 -2508 2562 0
-810 -2509 2563 0
-810 -2510 0
-2511 2564 0
-2512 2565 0
-2513 2566 0
-2514 2567 0
-2515 2568 0
-2516 2569 0
-2517 2570 0
-2518 2571 0
-2519 2572 0
-2520 2573 0
-2521 2574 0
-2522 2575 0
-2523 2576 0
-2524 2577 0
-2525 2578 0
-2526 2579 0
-2527 2580 0
-2528 2581 0
-2529 2582 0
-2530 2583 0
-2531 2584 0
-2532 2585 0
-2533 2586 0
-2534 2587 0
-2535 2588 0
-2536 2589 0
-2537 2590 0
-2538 2591 0
-2539 2592 0
-2540 2593 0
-2541 2594 0
-2542 2595 0
-2543 2596 0
-2544 2597 0
-2545 2598 0
-2546 2599 0
-2547 2600 0
-2548 2601 0
-2549 2602 0
-2550 2603 0
-2551 2604 0
-2552 2605 0
-2553 2606 0
-2554 2607 0
-2555 2608 0
-2556 2609 0
-2557 2610 0
-2558 2611 0
-2559 2612 0
-2560 2613 0
-2561 2614 0
-2562 2615 0
-2563 2616 0
-812 -2511 2565 0
-812 -2512 2566 0
-812 -2513 2567 0
-812 -2514 2568 0
-812 -2515 2569 0
-812 -2516 2570 0
-812 -2517 2571 0
-812 -2518 2572 0
-812 -2519 2573 0
-812 -2520 2574 0
-812 -2521 2575 0
-812 -2522 2576 0
-812 -2523 2577 0
-812 -2524 2578 0
-812 -2525 2579 0
-812 -2526 2580 0
-812 -2527 2581 0
-812 -2528 2582 0
-812 -2529 2583 0
-812 -2530 2584 0
-812 -2531 2585 0
-812 -2532 2586 0
-812 -2533 2587 0
-812 -2534 2588 0
-812 -2535 2589 0
-812 -2536 2590 0
-812 -2537 2591 0
-812 -2538 2592 0
-812 -2539 2593 0
-812 -2540 2594 0
-812 -2541 2595 0
-812 -2542 2596 0
-812 -2543 2597 0
-812 -2544 2598 0
-812 -2545 2599 0
-812 -2546 2600 0
-812 -2547 2601 0
-812 -2548 2602 0
-812 -2549 2603 0
-812 -2550 2604 0
-812 -2551 2605 0
-812 -2552 2606 0
-812 -2553 2607 0
-812 -2554 2608 0
-812 -2555 2609 0
-812 -2556 2610 0
-812 -2557 2611 0
-812 -2558 2612 0
-812 -2559 2613 0
-812 -2560 2614 0
-812 -2561 2615 0
-812 -2562 2616 0
-812 -2563 0
-2564 2617 0
-2565 2618 0
-2566 2619 0
-2567 2620 0
-2568 2621 0
-2569 2622 0
-2570 2623 0
-2571 2624 0
-2572 2625 0
-2573 2626 0
-2574 2627 0
-2575 2628 0
-2576 2629 0
-2577 2630 0
-2578 2631 0
-2579 2632 0
-2580 2633 0
-2581 2634 0
-2582 2635 0
-2583 2636 0
-2584 2637 0
-2585 2638 0
-2586 2639 0
-2587 2640 0
-2588 2641 0
-2589 2642 0
-2590 2643 0
-2591 2644 0
-2592 2645 0
-2593 2646 0
-2594 2647 0
-2595 2648 0
-2596 2649 0
-2597 2650 0
-2598 2651 0
-2599 2652 0
-2600 2653 0
-2601 2654 0
-2602 2655 0
-2603 2656 0
-2604 2657 0
-2605 2658 0
-2606 2659 0
-2607 2660 0
-2608 2661 0
-2609 2662 0
-2610 2663 0
-2611 2664 0
-2612 2665 0
-2613 2666 0
-2614 2667 0
-2615 2668 0
-2616 2669 0
-814 -2564 2618 0
-814 -2565 2619 0
-814 -2566 2620 0
-814 -2567 2621 0
-814 -2568 2622 0
-814 -2569 2623 0
-814 -2570 2624 0
-814 -2571 2625 0
-814 -2572 2626 0
-814 -2573 2627 0
-814 -2574 2628 0
-814 -2575 2629 0
-814 -2576 2630 0
-814 -2577 2631 0
-814 -2578 2632 0
-814 -2579 2633 0
-814 -2580 2634 0
-814 -2581 2635 0
-814 -2582 2636 0
-814 -2583 2637 0
-814 -2584 2638 0
-814 -2585 2639 0
-814 -2586 2640 0
-814 -2587 2641 0
-814 -2588 2642 0
-814 -2589 2643 0
-814 -2590 2644 0
-814 -2591 2645 0
-814 -2592 2646 0
-814 -2593 2647 0
-814 -2594 2648 0
-814 -2595 2649 0
-814 -2596 2650 0
-814 -2597 2651 0
-814 -2598 2652 0
-814 -2599 2653 0
-814 -2600 2654 0
-814 -2601 2655 0
-814 -2602 2656 0
-814 -2603 2657 0
-814 -2604 2658 0
-814 -2605 2659 0
-814 -2606 2660 0
-814 -2607 2661 0
-814 -2608 2662 0
-814 -2609 2663 0
-814 -2610 2664 0
-814 -2611 2665 0
-814 -2612 2666 0
-814 -2613 2667 0
-814 -2614 2668 0
-814 -2615 2669 0
-814 -2616 0
-2617 2670 0
-2618 2671 0
-2619 2672 0
-2620 2673 0
-2621 2674 0
-2622 2675 0
-2623 2676 0
-2624 2677 0
-2625 2678 0
-2626 2679 0
-2627 2680 0
-2628 2681 0
-2629 2682 0
-2630 2683 0
-2631 2684 0
-2632 2685 0
-2633 2686 0
-2634 2687 0
-2635 2688 0
-2636 2689 0
-2637 2690 0
-2638 2691 0
-2639 2692 0
-2640 2693 0
-2641 2694 0
-2642 2695 0
-2643 2696 0
-2644 2697 0
-2645 2698 0
-2646 2699 0
-2647 2700 0
-2648 2701 0
-2649 2702 0
-2650 2703 0
-2651 2704 0
-2652 2705 0
-2653 2706 0
-2654 2707 0
-2655 2708 0
-2656 2709 0
-2657 2710 0
-2658 2711 0
-2659 2712 0
-2660 2713 0
-2661 2714 0
-2662 2715 0
-2663 2716 0
-2664 2717 0
-2665 2718 0
-2666 2719 0
-2667 2720 0
-2668 2721 0
-2669 2722 0
-816 -2617 2671 0
-816 -2618 2672 0
-816 -2619 2673 0
-816 -2620 2674 0
-816 -2621 2675 0
-816 -2622 2676 0
-816 -2623 2677 0
-816 -2624 2678 0
-816 -2625 2679 0
-816 -2626 2680 0
-816 -2627 2681 0
-816 -2628 2682 0
-816 -2629 2683 0
-816 -2630 2684 0
-816 -2631 2685 0
-816 -2632 2686 0
-816 -2633 2687 0
-816 -2634 2688 0
-816 -2635 2689 0
-816 -2636 2690 0
-816 -2637 2691 0
-816 -2638 2692 0
-816 -2639 2693 0
-816 -2640 2694 0
-816 -2641 2695 0
-816 -2642 2696 0
-816 -2643 2697 0
-816 -2644 2698 0
-816 -2645 2699 0
-816 -2646 2700 0
-816 -2647 2701 0
-816 -2648 2702 0
-816 -2649 2703 0
-816 -2650 2704 0
-816 -2651 2705 0
-816 -2652 2706 0
-816 -2653 2707 0
-816 -2654 2708 0
-816 -2655 2709 0
-816 -2656 2710 0
-816 -2657 2711 0
-816 -2658 2712 0
-816 -2659 2713 0
-816 -2660 2714 0
-816 -2661 2715 0
-816 -2662 2716 0
-816 -2663 2717 0
-816 -2664 2718 0
-816 -2665 2719 0
-816 -2666 2720 0
-816 -2667 2721 0
-816 -2668 2722 0
-816 -2669 0
-2670 2723 0
-2671 2724 0
-2672 2725 0
-2673 2726 0
-2674 2727 0
-2675 2728 0
-2676 2729 0
-2677 2730 0
-2678 2731 0
-2679 2732 0
-2680 2733 0
-2681 2734 0
-2682 2735 0
-2683 2736 0
-2684 2737 0
-2685 2738 0
-2686 2739 0
-2687 2740 0
-2688 2741 0
-2689 2742 0
-2690 2743 0
-2691 2744 0
-2692 2745 0
-2693 2746 0
-2694 2747 0
-2695 2748 0
-2696 2749 0
-2697 2750 0
-2698 2751 0
-2699 2752 0
-2700 2753 0
-2701 2754 0
-2702 2755 0
-2703 2756 0
-2704 2757 0
-2705 2758 0
-2706 2759 0
-2707 2760 0
-2708 2761 0
-2709 2762 0
-2710 2763 0
-2711 2764 0
-2712 2765 0
-2713 2766 0
-2714 2767 0
-2715 2768 0
-2716 2769 0
-2717 2770 0
-2718 2771 0
-2719 2772 0
-2720 2773 0
-2721 2774 0
-2722 2775 0
-818 -2670 2724 0
-818 -2671 2725 0
-818 -2672 2726 0
-818 -2673 2727 0
-818 -2674 2728 0
-818 -2675 2729 0
-818 -2676 2730 0
-818 -2677 2731 0
-818 -2678 2732 0
-818 -2679 2733 0
-818 -2680 2734 0
-818 -2681 2735 0
-818 -2682 2736 0
-818 -2683 2737 0
-818 -2684 2738 0
-818 -2685 2739 0
-818 -2686 2740 0
-818 -2687 2741 0
-818 -2688 2742 0
-818 -2689 2743 0
-818 -2690 2744 0
-818 -2691 2745 0
-818 -2692 2746 0
-818 -2693 2747 0
-818 -2694 2748 0
-818 -2695 2749 0
-818 -2696 2750 0
-818 -2697 2751 0
-818 -2698 2752 0
-818 -2699 2753 0
-818 -2700 2754 0
-818 -2701 2755 0
-818 -2702 2756 0
-818 -2703 2757 0
-818 -2704 2758 0
-818 -2705 2759 0
-818 -2706 2760 0
-818 -2707 2761 0
-818 -2708 2762 0
-818 -2709 2763 0
-818 -2710 2764 0
-818 -2711 2765 0
-818 -2712 2766 0
-818 -2713 2767 0
-818 -2714 2768 0
-818 -2715 2769 0
-818 -2716 2770 0
-818 -2717 2771 0
-818 -2718 2772 0
-818 -2719 2773 0
-818 -2720 2774 0
-818 -2721 2775 0
-818 -2722 0
-2723 2776 0
-2724 2777 0
-2725 2778 0
-2726 2779 0
-2727 2780 0
-2728 2781 0
-2729 2782 0
-2730 2783 0
-2731 2784 0
-2732 2785 0
-2733 2786 0
-2734 2787 0
-2735 2788 0
-2736 2789 0
-2737 2790 0
-2738 2791 0
-2739 2792 0
-2740 2793 0
-2741 2794 0
-2742 2795 0
-2743 2796 0
-2744 2797 0
-2745 2798 0
-2746 2799 0
-2747 2800 0
-2748 2801 0
-2749 2802 0
-2750 2803 0
-2751 2804 0
-2752 2805 0
-2753 2806 0
-2754 2807 0
-2755 2808 0
-2756 2809 0
-2757 2810 0
-2758 2811 0
-2759 2812 0
-2760 2813 0
-2761 2814 0
-2762 2815 0
-2763 2816 0
-2764 2817 0
-2765 2818 0
-2766 2819 0
-2767 2820 0
-2768 2821 0
-2769 2822 0
-2770 2823 0
-2771 2824 0
-2772 2825 0
-2773 2826 0
-2774 2827 0
-2775 2828 0
-820 -2723 2777 0
-820 -2724 2778 0
-820 -2725 2779 0
-820 -2726 2780 0
-820 -2727 2781 0
-820 -2728 2782 0
-820 -2729 2783 0
-820 -2730 2784 0
-820 -2731 2785 0
-820 -2732 2786 0
-820 -2733 2787 0
-820 -2734 2788 0
-820 -2735 2789 0
-820 -2736 2790 0
-820 -2737 2791 0
-820 -2738 2792 0
-820 -2739 2793 0
-820 -2740 2794 0
-820 -2741 2795 0
-820 -2742 2796 0
-820 -2743 2797 0
-820 -2744 2798 0
-820 -2745 2799 0
-820 -2746 2800 0
-820 -2747 2801 0
-820 -2748 2802 0
-820 -2749 2803 0
-820 -2750 2804 0
-820 -2751 2805 0
-820 -2752 2806 0
-820 -2753 2807 0
-820 -2754 2808 0
-820 -2755 2809 0
-820 -2756 2810 0
-820 -2757 2811 0
-820 -2758 2812 0
-820 -2759 2813 0
-820 -2760 2814 0
-820 -2761 2815 0
-820 -2762 2816 0
-820 -2763 2817 0
-820 -2764 2818 0
-820 -2765 2819 0
-820 -2766 2820 0
-820 -2767 2821 0
-820 -2768 2822 0
-820 -2769 2823 0
-820 -2770 2824 0
-820 -2771 2825 0
-820 -2772 2826 0
-820 -2773 2827 0
-820 -2774 2828 0
-820 -2775 0
-2776 2829 0
-2777 2830 0
-2778 2831 0
-2779 2832 0
-2780 2833 0
-2781 2834 0
-2782 2835 0
-2783 2836 0
-2784 2837 0
-2785 2838 0
-2786 2839 0
-2787 2840 0
-2788 2841 0
-2789 2842 0
-2790 2843 0
-2791 2844 0
-2792 2845 0
-2793 2846 0
-2794 2847 0
-2795 2848 0
-2796 2849 0
-2797 2850 0
-2798 2851 0
-2799 2852 0
-2800 2853 0
-2801 2854 0
-2802 2855 0
-2803 2856 0
-2804 2857 0
-2805 2858 0
-2806 2859 0
-2807 2860 0
-2808 2861 0
-2809 2862 0
-2810 2863 0
-2811 2864 0
-2812 2865 0
-2813 2866 0
-2814 2867 0
-2815 2868 0
-2816 2869 0
-2817 2870 0
-2818 2871 0
-2819 2872 0
-2820 2873 0
-2821 2874 0
-2822 2875 0
-2823 2876 0
-2824 2877 0
-2825 2878 0
-2826 2879 0
-2827 2880 0
-2828 2881 0
-822 -2776 2830 0
-822 -2777 2831 0
-822 -2778 2832 0
-822 -2779 2833 0
-822 -2780 2834 0
-822 -2781 2835 0
-822 -2782 2836 0
-822 -2783 2837 0
-822 -2784 2838 0
-822 -2785 2839 0
-822 -2786 2840 0
-822 -2787 2841 0
-822 -2788 2842 0
-822 -2789 2843 0
-822 -2790 2844 0
-822 -2791 2845 0
-822 -2792 2846 0
-822 -2793 2847 0
-822 -2794 2848 0
-822 -2795 2849 0
-822 -2796 2850 0
-822 -2797 2851 0
-822 -2798 2852 0
-822 -2799 2853 0
-822 -2800 2854 0
-822 -2801 2855 0
-822 -2802 2856 0
-822 -2803 2857 0
-822 -2804 2858 0
-822 -2805 2859 0
-822 -2806 2860 0
-822 -2807 2861 0
-822 -2808 2862 0
-822 -2809 2863 0
-822 -2810 2864 0
-822 -2811 2865 0
-822 -2812 2866 0
-822 -2813 2867 0
-822 -2814 2868 0
-822 -2815 2869 0
-822 -2816 2870 0
-822 -2817 2871 0
-822 -2818 2872 0
-822 -2819 2873 0
-822 -2820 2874 0
-822 -2821 2875 0
-822 -2822 2876 0
-822 -2823 2877 0
-822 -2824 2878 0
-822 -2825 2879 0
-822 -2826 2880 0
-822 -2827 2881 0
-822 -2828 0
-2829 2882 0
-2830 2883 0
-2831 2884 0
-2832 2885 0
-2833 2886 0
-2834 2887 0
-2835 2888 0
-2836 2889 0
-2837 2890 0
-2838 2891 0
-2839 2892 0
-2840 2893 0
-2841 2894 0
-2842 2895 0
-2843 2896 0
-2844 2897 0
-2845 2898 0
-2846 2899 0
-2847 2900 0
-2848 2901 0
-2849 2902 0
-2850 2903 0
-2851 2904 0
-2852 2905 0
-2853 2906 0
-2854 2907 0
-2855 2908 0
-2856 2909 0
-2857 2910 0
-2858 2911 0
-2859 2912 0
-2860 2913 0
-2861 2914 0
-2862 2915 0
-2863 2916 0
-2864 2917 0
-2865 2918 0
-2866 2919 0
-2867 2920 0
-2868 2921 0
-2869 2922 0
-2870 2923 0
-2871 2924 0
-2872 2925 0
-2873 2926 0
-2874 2927 0
-2875 2928 0
-2876 2929 0
-2877 2930 0
-2878 2931 0
-2879 2932 0
-2880 2933 0
-2881 2934 0
-824 -2829 2883 0
-824 -2830 2884 0
-824 -2831 2885 0
-824 -2832 2886 0
-824 -2833 2887 0
-824 -2834 2888 0
-824 -2835 2889 0
-824 -2836 2890 0
-824 -2837 2891 0
-824 -2838 2892 0
-824 -2839 2893 0
-824 -2840 2894 0
-824 -2841 2895 0
-824 -2842 2896 0
-824 -2843 2897 0
-824 -2844 2898 0
-824 -2845 2899 0
-824 -2846 2900 0
-824 -2847 2901 0
-824 -2848 2902 0
-824 -2849 2903 0
-824 -2850 2904 0
-824 -2851 2905 0
-824 -2852 2906 0
-824 -2853 2907 0
-824 -2854 2908 0
-824 -2855 2909 0
-824 -2856 2910 0
-824 -2857 2911 0
-824 -2858 2912 0
-824 -2859 2913 0
-824 -2860 2914 0
-824 -2861 2915 0
-824 -2862 2916 0
-824 -2863 2917 0
-824 -2864 2918 0
-824 -2865 2919 0
-824 -2866 2920 0
-824 -2867 2921 0
-824 -2868 2922 0
-824 -2869 2923 0
-824 -2870 2924 0
-824 -2871 2925 0
-824 -2872 2926 0
-824 -2873 2927 0
-824 -2874 2928 0
-824 -2875 2929 0
-824 -2876 2930 0
-824 -2877 2931 0
-824 -2878 2932 0
-824 -2879 2933 0
-824 -2880 2934 0
-824 -2881 0
-2882 2935 0
-2883 2936 0
-2884 2937 0
-2885 2938 0
-2886 2939 0
-2887 2940 0
-2888 2941 0
-2889 2942 0
-2890 2943 0
-2891 2944 0
-2892 2945 0
-2893 2946 0
-2894 2947 0
-2895 2948 0
-2896 2949 0
-2897 2950 0
-2898 2951 0
-2899 2952 0
-2900 2953 0
-2901 2954 0
-2902 2955 0
-2903 2956 0
-2904 2957 0
-2905 2958 0
-2906 2959 0
-2907 2960 0
-2908 2961 0
-2909 2962 0
-2910 2963 0
-2911 2964 0
-2912 2965 0
-2913 2966 0
-2914 2967 0
-2915 2968 0
-2916 2969 0
-2917 2970 0
-2918 2971 0
-2919 2972 0
-2920 2973 0
-2921 2974 0
-2922 2975 0
-2923 2976 0
-2924 2977 0
-2925 2978 0
-2926 2979 0
-2927 2980 0
-2928 2981 0
-2929 2982 0
-2930 2983 0
-2931 2984 0
-2932 2985 0
-2933 2986 0
-2934 2987 0
-826 -2882 2936 0
-826 -2883 2937 0
-826 -2884 2938 0
-826 -2885 2939 0
-826 -2886 2940 0
-826 -2887 2941 0
-826 -2888 2942 0
-826 -2889 2943 0
-826 -2890 2944 0
-826 -2891 2945 0
-826 -2892 2946 0
-826 -2893 2947 0
-826 -2894 2948 0
-826 -2895 2949 0
-826 -2896 2950 0
-826 -2897 2951 0
-826 -2898 2952 0
-826 -2899 2953 0
-826 -2900 2954 0
-826 -2901 2955 0
-826 -2902 2956 0
-826 -2903 2957 0
-826 -2904 2958 0
-826 -2905 2959 0
-826 -2906 2960 0
-826 -2907 2961 0
-826 -2908 2962 0
-826 -2909 2963 0
-826 -2910 2964 0
-826 -2911 2965 0
-826 -2912 2966 0
-826 -2913 2967 0
-826 -2914 2968 0
-826 -2915 2969 0
-826 -2916 2970 0
-826 -2917 2971 0
-826 -2918 2972 0
-826 -2919 2973 0
-826 -2920 2974 0
-826 -2921 2975 0
-826 -2922 2976 0
-826 -2923 2977 0
-826 -2924 2978 0
-826 -2925 2979 0
-826 -2926 2980 0
-826 -2927 2981 0
-826 -2928 2982 0
-826 -2929 2983 0
-826 -2930 2984 0
-826 -2931 2985 0
-826 -2932 2986 0
-826 -2933 2987 0
-826 -2934 0
-2935 2988 0
-2936 2989 0
-2937 2990 0
-2938 2991 0
-2939 2992 0
-2940 2993 0
-2941 2994 0
-2942 2995 0
-2943 2996 0
-2944 2997 0
-2945 2998 0
-2946 2999 0
-2947 3000 0
-2948 3001 0
-2949 3002 0
-2950 3003 0
-2951 3004 0
-2952 3005 0
-2953 3006 0
-2954 3007 0
-2955 3008 0
-2956 3009 0
-2957 3010 0
-2958 3011 0
-2959 3012 0
-2960 3013 0
-2961 3014 0
-2962 3015 0
-2963 3016 0
-2964 3017 0
-2965 3018 0
-2966 3019 0
-2967 3020 0
-2968 3021 0
-2969 3022 0
-2970 3023 0
-2971 3024 0
-2972 3025 0
-2973 3026 0
-2974 3027 0
-2975 3028 0
-2976 3029 0
-2977 3030 0
-2978 3031 0
-2979 3032 0
-2980 3033 0
-2981 3034 0
-2982 3035 0
-2983 3036 0
-2984 3037 0
-2985 3038 0
-2986 3039 0
-2987 3040 0
-828 -2935 2989 0
-828 -2936 2990 0
-828 -2937 2991 0
-828 -2938 2992 0
-828 -2939 2993 0
-828 -2940 2994 0
-828 -2941 2995 0
-828 -2942 2996 0
-828 -2943 2997 0
-828 -2944 2998 0
-828 -2945 2999 0
-828 -2946 3000 0
-828 -2947 3001 0
-828 -2948 3002 0
-828 -2949 3003 0
-828 -2950 3004 0
-828 -2951 3005 0
-828 -2952 3006 0
-828 -2953 3007 0
-828 -2954 3008 0
-828 -2955 3009 0
-828 -2956 3010 0
-828 -2957 3011 0
-828 -2958 3012 0
-828 -2959 3013 0
-828 -2960 3014 0
-828 -2961 3015 0
-828 -2962 3016 0
-828 -2963 3017 0
-828 -2964 3018 0
-828 -2965 3019 0
-828 -2966 3020 0
-828 -2967 3021 0
-828 -2968 3022 0
-828 -2969 3023 0
-828 -2970 3024 0
-828 -2971 3025 0
-828 -2972 3026 0
-828 -2973 3027 0
-828 -2974 3028 0
-828 -2975 3029 0
-828 -2976 3030 0
-828 -2977 3031 0
-828 -2978 3032 0
-828 -2979 3033 0
-828 -2980 3034 0
-828 -2981 3035 0
-828 -2982 3036 0
-828 -2983 3037 0
-828 -2984 3038 0
-828 -2985 3039 0
-828 -2986 3040 0
-828 -2987 0
-2988 3041 0
-2989 3042 0
-2990 3043 0
-2991 3044 0
-2992 3045 0
-2993 3046 0
-2994 3047 0
-2995 3048 0
-2996 3049 0
-2997 3050 0
-2998 3051 0
-2999 3052 0
-3000 3053 0
-3001 3054 0
-3002 3055 0
-3003 3056 0
-3004 3057 0
-3005 3058 0
-3006 3059 0
-3007 3060 0
-3008 3061 0
-3009 3062 0
-3010 3063 0
-3011 3064 0
-3012 3065 0
-3013 3066 0
-3014 3067 0
-3015 3068 0
-3016 3069 0
-3017 3070 0
-3018 3071 0
-3019 3072 0
-3020 3073 0
-3021 3074 0
-3022 3075 0
-3023 3076 0
-3024 3077 0
-3025 3078 0
-3026 3079 0
-3027 3080 0
-3028 3081 0
-3029 3082 0
-3030 3083 0
-3031 3084 0
-3032 3085 0
-3033 3086 0
-3034 3087 0
-3035 3088 0
-3036 3089 0
-3037 3090 0
-3038 3091 0
-3039 3092 0
-3040 3093 0
-830 -2988 3042 0
-830 -2989 3043 0
-830 -2990 3044 0
-830 -2991 3045 0
-830 -2992 3046 0
-830 -2993 3047 0
-830 -2994 3048 0
-830 -2995 3049 0
-830 -2996 3050 0
-830 -2997 3051 0
-830 -2998 3052 0
-830 -2999 3053 0
-830 -3000 3054 0
-830 -3001 3055 0
-830 -3002 3056 0
-830 -3003 3057 0
-830 -3004 3058 0
-830 -3005 3059 0
-830 -3006 3060 0
-830 -3007 3061 0
-830 -3008 3062 0
-830 -3009 3063 0
-830 -3010 3064 0
-830 -3011 3065 0
-830 -3012 3066 0
-830 -3013 3067 0
-830 -3014 3068 0
-830 -3015 3069 0
-830 -3016 3070 0
-830 -3017 3071 0
-830 -3018 3072 0
-830 -3019 3073 0
-830 -3020 3074 0
-830 -3021 3075 0
-830 -3022 3076 0
-830 -3023 3077 0
-830 -3024 3078 0
-830 -3025 3079 0
-830 -3026 3080 0
-830 -3027 3081 0
-830 -3028 3082 0
-830 -3029 3083 0
-830 -3030 3084 0
-830 -3031 3085 0
-830 -3032 3086 0
-830 -3033 3087 0
-830 -3034 3088 0
-830 -3035 3089 0
-830 -3036 3090 0
-830 -3037 3091 0
-830 -3038 3092 0
-830 -3039 3093 0
-830 -3040 0
-3041 3094 0
-3042 3095 0
-3043 3096 0
-3044 3097 0
-3045 3098 0
-3046 3099 0
-3047 3100 0
-3048 3101 0
-3049 3102 0
-3050 3103 0
-3051 3104 0
-3052 3105 0
-3053 3106 0
-3054 3107 0
-3055 3108 0
-3056 3109 0
-3057 3110 0
-3058 3111 0
-3059 3112 0
-3060 3113 0
-3061 3114 0
-3062 3115 0
-3063 3116 0
-3064 3117 0
-3065 3118 0
-3066 3119 0
-3067 3120 0
-3068 3121 0
-3069 3122 0
-3070 3123 0
-3071 3124 0
-3072 3125 0
-3073 3126 0
-3074 3127 0
-3075 3128 0
-3076 3129 0
-3077 3130 0
-3078 3131 0
-3079 3132 0
-3080 3133 0
-3081 3134 0
-3082 3135 0
-3083 3136 0
-3084 3137 0
-3085 3138 0
-3086 3139 0
-3087 3140 0
-3088 3141 0
-3089 3142 0
-3090 3143 0
-3091 3144 0
-3092 3145 0
-3093 3146 0
-832 -3041 3095 0
-832 -3042 3096 0
-832 -3043 3097 0
-832 -3044 3098 0
-832 -3045 3099 0
-832 -3046 3100 0
-832 -3047 3101 0
-832 -3048 3102 0
-832 -3049 3103 0
-832 -3050 3104 0
-832 -3051 3105 0
-832 -3052 3106 0
-832 -3053 3107 0
-832 -3054 3108 0
-832 -3055 3109 0
-832 -3056 3110 0
-832 -3057 3111 0
-832 -3058 3112 0
-832 -3059 3113 0
-832 -3060 3114 0
-832 -3061 3115 0
-832 -3062 3116 0
-832 -3063 3117 0
-832 -3064 3118 0
-832 -3065 3119 0
-832 -3066 3120 0
-832 -3067 3121 0
-832 -3068 3122 0
-832 -3069 3123 0
-832 -3070 3124 0
-832 -3071 3125 0
-832 -3072 3126 0
-832 -3073 3127 0
-832 -3074 3128 0
-832 -3075 3129 0
-832 -3076 3130 0
-832 -3077 3131 0
-832 -3078 3132 0
-832 -3079 3133 0
-832 -3080 3134 0
-832 -3081 3135 0
-832 -3082 3136 0
-832 -3083 3137 0
-832 -3084 3138 0
-832 -3085 3139 0
-832 -3086 3140 0
-832 -3087 3141 0
-832 -3088 3142 0
-832 -3089 3143 0
-832 -3090 3144 0
-832 -3091 3145 0
-832 -3092 3146 0
-832 -3093 0
-3094 3147 0
-3095 3148 0
-3096 3149 0
-3097 3150 0
-3098 3151 0
-3099 3152 0
-3100 3153 0
-3101 3154 0
-3102 3155 0
-3103 3156 0
-3104 3157 0
-3105 3158 0
-3106 3159 0
-3107 3160 0
-3108 3161 0
-3109 3162 0
-3110 3163 0
-3111 3164 0
-3112 3165 0
-3113 3166 0
-3114 3167 0
-3115 3168 0
-3116 3169 0
-3117 3170 0
-3118 3171 0
-3119 3172 0
-3120 3173 0
-3121 3174 0
-3122 3175 0
-3123 3176 0
-3124 3177 0
-3125 3178 0
-3126 3179 0
-3127 3180 0
-3128 3181 0
-3129 3182 0
-3130 3183 0
-3131 3184 0
-3132 3185 0
-3133 3186 0
-3134 3187 0
-3135 3188 0
-3136 3189 0
-3137 3190 0
-3138 3191 0
-3139 3192 0
-3140 3193 0
-3141 3194 0
-3142 3195 0
-3143 3196 0
-3144 3197 0
-3145 3198 0
-3146 3199 0
-834 -3094 3148 0
-834 -3095 3149 0
-834 -3096 3150 0
-834 -3097 3151 0
-834 -3098 3152 0
-834 -3099 3153 0
-834 -3100 3154 0
-834 -3101 3155 0
-834 -3102 3156 0
-834 -3103 3157 0
-834 -3104 3158 0
-834 -3105 3159 0
-834 -3106 3160 0
-834 -3107 3161 0
-834 -3108 3162 0
-834 -3109 3163 0
-834 -3110 3164 0
-834 -3111 3165 0
-834 -3112 3166 0
-834 -3113 3167 0
-834 -3114 3168 0
-834 -3115 3169 0
-834 -3116 3170 0
-834 -3117 3171 0
-834 -3118 3172 0
-834 -3119 3173 0
-834 -3120 3174 0
-834 -3121 3175 0
-834 -3122 3176 0
-834 -3123 3177 0
-834 -3124 3178 0
-834 -3125 3179 0
-834 -3126 3180 0
-834 -3127 3181 0
-834 -3128 3182 0
-834 -3129 3183 0
-834 -3130 3184 0
-834 -3131 3185 0
-834 -3132 3186 0
-834 -3133 3187 0
-834 -3134 3188 0
-834 -3135 3189 0
-834 -3136 3190 0
-834 -3137 3191 0
-834 -3138 3192 0
-834 -3139 3193 0
-834 -3140 3194 0
-834 -3141 3195 0
-834 -3142 3196 0
-834 -3143 3197 0
-834 -3144 3198 0
-834 -3145 3199 0
-834 -3146 0
-3147 3200 0
-3148 3201 0
-3149 3202 0
-3150 3203 0
-3151 3204 0
-3152 3205 0
-3153 3206 0
-3154 3207 0
-3155 3208 0
-3156 3209 0
-3157 3210 0
-3158 3211 0
-3159 3212 0
-3160 3213 0
-3161 3214 0
-3162 3215 0
-3163 3216 0
-3164 3217 0
-3165 3218 0
-3166 3219 0
-3167 3220 0
-3168 3221 0
-3169 3222 0
-3170 3223 0
-3171 3224 0
-3172 3225 0
-3173 3226 0
-3174 3227 0
-3175 3228 0
-3176 3229 0
-3177 3230 0
-3178 3231 0
-3179 3232 0
-3180 3233 0
-3181 3234 0
-3182 3235 0
-3183 3236 0
-3184 3237 0
-3185 3238 0
-3186 3239 0
-3187 3240 0
-3188 3241 0
-3189 3242 0
-3190 3243 0
-3191 3244 0
-3192 3245 0
-3193 3246 0
-3194 3247 0
-3195 3248 0
-3196 3249 0
-3197 3250 0
-3198 3251 0
-3199 3252 0
-836 -3147 3201 0
-836 -3148 3202 0
-836 -3149 3203 0
-836 -3150 3204 0
-836 -3151 3205 0
-836 -3152 3206 0
-836 -3153 3207 0
-836 -3154 3208 0
-836 -3155 3209 0
-836 -3156 3210 0
-836 -3157 3211 0
-836 -3158 3212 0
-836 -3159 3213 0
-836 -3160 3214 0
-836 -3161 3215 0
-836 -3162 3216 0
-836 -3163 3217 0
-836 -3164 3218 0
-836 -3165 3219 0
-836 -3166 3220 0
-836 -3167 3221 0
-836 -3168 3222 0
-836 -3169 3223 0
-836 -3170 3224 0
-836 -3171 3225 0
-836 -3172 3226 0
-836 -3173 3227 0
-836 -3174 3228 0
-836 -3175 3229 0
-836 -3176 3230 0
-836 -3177 3231 0
-836 -3178 3232 0
-836 -3179 3233 0
-836 -3180 3234 0
-836 -3181 3235 0
-836 -3182 3236 0
-836 -3183 3237 0
-836 -3184 3238 0
-836 -3185 3239 0
-836 -3186 3240 0
-836 -3187 3241 0
-836 -3188 3242 0
-836 -3189 3243 0
-836 -3190 3244 0
-836 -3191 3245 0
-836 -3192 3246 0
-836 -3193 3247 0
-836 -3194 3248 0
-836 -3195 3249 0
-836 -3196 3250 0
-836 -3197 3251 0
-836 -3198 3252 0
-836 -3199 0
-3200 3253 0
-3201 3254 0
-3202 3255 0
-3203 3256 0
-3204 3257 0
-3205 3258 0
-3206 3259 0
-3207 3260 0
-3208 3261 0
-3209 3262 0
-3210 3263 0
-3211 3264 0
-3212 3265 0
-3213 3266 0
-3214 3267 0
-3215 3268 0
-3216 3269 0
-3217 3270 0
-3218 3271 0
-3219 3272 0
-3220 3273 0
-3221 3274 0
-3222 3275 0
-3223 3276 0
-3224 3277 0
-3225 3278 0
-3226 3279 0
-3227 3280 0
-3228 3281 0
-3229 3282 0
-3230 3283 0
-3231 3284 0
-3232 3285 0
-3233 3286 0
-3234 3287 0
-3235 3288 0
-3236 3289 0
-3237 3290 0
-3238 3291 0
-3239 3292 0
-3240 3293 0
-3241 3294 0
-3242 3295 0
-3243 3296 0
-3244 3297 0
-3245 3298 0
-3246 3299 0
-3247 3300 0
-3248 3301 0
-3249 3302 0
-3250 3303 0
-3251 3304 0
-3252 3305 0
-838 -3200 3254 0
-838 -3201 3255 0
-838 -3202 3256 0
-838 -3203 3257 0
-838 -3204 3258 0
-838 -3205 3259 0
-838 -3206 3260 0
-838 -3207 3261 0
-838 -3208 3262 0
-838 -3209 3263 0
-838 -3210 3264 0
-838 -3211 3265 0
-838 -3212 3266 0
-838 -3213 3267 0
-838 -3214 3268 0
-838 -3215 3269 0
-838 -3216 3270 0
-838 -3217 3271 0
-838 -3218 3272 0
-838 -3219 3273 0
-838 -3220 3274 0
-838 -3221 3275 0
-838 -3222 3276 0
-838 -3223 3277 0
-838 -3224 3278 0
-838 -3225 3279 0
-838 -3226 3280 0
-838 -3227 3281 0
-838 -3228 3282 0
-838 -3229 3283 0
-838 -3230 3284 0
-838 -3231 3285 0
-838 -3232 3286 0
-838 -3233 3287 0
-838 -3234 3288 0
-838 -3235 3289 0
-838 -3236 3290 0
-838 -3237 3291 0
-838 -3238 3292 0
-838 -3239 3293 0
-838 -3240 3294 0
-838 -3241 3295 0
-838 -3242 3296 0
-838 -3243 3297 0
-838 -3244 3298 0
-838 -3245 3299 0
-838 -3246 3300 0
-838 -3247 3301 0
-838 -3248 3302 0
-838 -3249 3303 0
-838 -3250 3304 0
-838 -3251 3305 0
-838 -3252 0
-3253 3306 0
-3254 3307 0
-3255 3308 0
-3256 3309 0
-3257 3310 0
-3258 3311 0
-3259 3312 0
-3260 3313 0
-3261 3314 0
-3262 3315 0
-3263 3316 0
-3264 3317 0
-3265 3318 0
-3266 3319 0
-3267 3320 0
-3268 3321 0
-3269 3322 0
-3270 3323 0
-3271 3324 0
-3272 3325 0
-3273 3326 0
-3274 3327 0
-3275 3328 0
-3276 3329 0
-3277 3330 0
-3278 3331 0
-3279 3332 0
-3280 3333 0
-3281 3334 0
-3282 3335 0
-3283 3336 0
-3284 3337 0
-3285 3338 0
-3286 3339 0
-3287 3340 0
-3288 3341 0
-3289 3342 0
-3290 3343 0
-3291 3344 0
-3292 3345 0
-3293 3346 0
-3294 3347 0
-3295 3348 0
-3296 3349 0
-3297 3350 0
-3298 3351 0
-3299 3352 0
-3300 3353 0
-3301 3354 0
-3302 3355 0
-3303 3356 0
-3304 3357 0
-3305 3358 0
-840 -3253 3307 0
-840 -3254 3308 0
-840 -3255 3309 0
-840 -3256 3310 0
-840 -3257 3311 0
-840 -3258 3312 0
-840 -3259 3313 0
-840 -3260 3314 0
-840 -3261 3315 0
-840 -3262 3316 0
-840 -3263 3317 0
-840 -3264 3318 0
-840 -3265 3319 0
-840 -3266 3320 0
-840 -3267 3321 0
-840 -3268 3322 0
-840 -3269 3323 0
-840 -3270 3324 0
-840 -3271 3325 0
-840 -3272 3326 0
-840 -3273 3327 0
-840 -3274 3328 0
-840 -3275 3329 0
-840 -3276 3330 0
-840 -3277 3331 0
-840 -3278 3332 0
-840 -3279 3333 0
-840 -3280 3334 0
-840 -3281 3335 0
-840 -3282 3336 0
-840 -3283 3337 0
-840 -3284 3338 0
-840 -3285 3339 0
-840 -3286 3340 0
-840 -3287 3341 0
-840 -3288 3342 0
-840 -3289 3343 0
-840 -3290 3344 0
-840 -3291 3345 0
-840 -3292 3346 0
-840 -3293 3347 0
-840 -3294 3348 0
-840 -3295 3349 0
-840 -3296 3350 0
-840 -3297 3351 0
-840 -3298 3352 0
-840 -3299 3353 0
-840 -3300 3354 0
-840 -3301 3355 0
-840 -3302 3356 0
-840 -3303 3357 0
-840 -3304 3358 0
-840 -3305 0
-3306 3359 0
-3307 3360 0
-3308 3361 0
-3309 3362 0
-3310 3363 0
-3311 3364 0
-3312 3365 0
-3313 3366 0
-3314 3367 0
-3315 3368 0
-3316 3369 0
-3317 3370 0
-3318 3371 0
-3319 3372 0
-3320 3373 0
-3321 3374 0
-3322 3375 0
-3323 3376 0
-3324 3377 0
-3325 3378 0
-3326 3379 0
-3327 3380 0
-3328 3381 0
-3329 3382 0
-3330 3383 0
-3331 3384 0
-3332 3385 0
-3333 3386 0
-3334 3387 0
-3335 3388 0
-3336 3389 0
-3337 3390 0
-3338 3391 0
-3339 3392 0
-3340 3393 0
-3341 3394 0
-3342 3395 0
-3343 3396 0
-3344 3397 0
-3345 3398 0
-3346 3399 0
-3347 3400 0
-3348 3401 0
-3349 3402 0
-3350 3403 0
-3351 3404 0
-3352 3405 0
-3353 3406 0
-3354 3407 0
-3355 3408 0
-3356 3409 0
-3357 3410 0
-3358 3411 0
-842 -3306 3360 0
-842 -3307 3361 0
-842 -3308 3362 0
-842 -3309 3363 0
-842 -3310 3364 0
-842 -3311 3365 0
-842 -3312 3366 0
-842 -3313 3367 0
-842 -3314 3368 0
-842 -3315 3369 0
-842 -3316 3370 0
-842 -3317 3371 0
-842 -3318 3372 0
-842 -3319 3373 0
-842 -3320 3374 0
-842 -3321 3375 0
-842 -3322 3376 0
-842 -3323 3377 0
-842 -3324 3378 0
-842 -3325 3379 0
-842 -3326 3380 0
-842 -3327 3381 0
-842 -3328 3382 0
-842 -3329 3383 0
-842 -3330 3384 0
-842 -3331 3385 0
-842 -3332 3386 0
-842 -3333 3387 0
-842 -3334 3388 0
-842 -3335 3389 0
-842 -3336 3390 0
-842 -3337 3391 0
-842 -3338 3392 0
-842 -3339 3393 0
-842 -3340 3394 0
-842 -3341 3395 0
-842 -3342 3396 0
-842 -3343 3397 0
-842 -3344 3398 0
-842 -3345 3399 0
-842 -3346 3400 0
-842 -3347 3401 0
-842 -3348 3402 0
-842 -3349 3403 0
-842 -3350 3404 0
-842 -3351 3405 0
-842 -3352 3406 0
-842 -3353 3407 0
-842 -3354 3408 0
-842 -3355 3409 0
-842 -3356 3410 0
-842 -3357 3411 0
-842 -3358 0
-3359 3412 0
-3360 3413 0
-3361 3414 0
-3362 3415 0
-3363 3416 0
-3364 3417 0
-3365 3418 0
-3366 3419 0
-3367 3420 0
-3368 3421 0
-3369 3422 0
-3370 3423 0
-3371 3424 0
-3372 3425 0
-3373 3426 0
-3374 3427 0
-3375 3428 0
-3376 3429 0
-3377 3430 0
-3378 3431 0
-3379 3432 0
-3380 3433 0
-3381 3434 0
-3382 3435 0
-3383 3436 0
-3384 3437 0
-3385 3438 0
-3386 3439 0
-3387 3440 0
-3388 3441 0
-3389 3442 0
-3390 3443 0
-3391 3444 0
-3392 3445 0
-3393 3446 0
-3394 3447 0
-3395 3448 0
-3396 3449 0
-3397 3450 0
-3398 3451 0
-3399 3452 0
-3400 3453 0
-3401 3454 0
-3402 3455 0
-3403 3456 0
-3404 3457 0
-3405 3458 0
-3406 3459 0
-3407 3460 0
-3408 3461 0
-3409 3462 0
-3410 3463 0
-3411 3464 0
-844 -3359 3413 0
-844 -3360 3414 0
-844 -3361 3415 0
-844 -3362 3416 0
-844 -3363 3417 0
-844 -3364 3418 0
-844 -3365 3419 0
-844 -3366 3420 0
-844 -3367 3421 0
-844 -3368 3422 0
-844 -3369 3423 0
-844 -3370 3424 0
-844 -3371 3425 0
-844 -3372 3426 0
-844 -3373 3427 0
-844 -3374 3428 0
-844 -3375 3429 0
-844 -3376 3430 0
-844 -3377 3431 0
-844 -3378 3432 0
-844 -3379 3433 0
-844 -3380 3434 0
-844 -3381 3435 0
-844 -3382 3436 0
-844 -3383 3437 0
-844 -3384 3438 0
-844 -3385 3439 0
-844 -3386 3440 0
-844 -3387 3441 0
-844 -3388 3442 0
-844 -3389 3443 0
-844 -3390 3444 0
-844 -3391 3445 0
-844 -3392 3446 0
-844 -3393 3447 0
-844 -3394 3448 0
-844 -3395 3449 0
-844 -3396 3450 0
-844 -3397 3451 0
-844 -3398 3452 0
-844 -3399 3453 0
-844 -3400 3454 0
-844 -3401 3455 0
-844 -3402 3456 0
-844 -3403 3457 0
-844 -3404 3458 0
-844 -3405 3459 0
-844 -3406 3460 0
-844 -3407 3461 0
-844 -3408 3462 0
-844 -3409 3463 0
-844 -3410 3464 0
-844 -3411 0
-3412 3465 0
-3413 3466 0
-3414 3467 0
-3415 3468 0
-3416 3469 0
-3417 3470 0
-3418 3471 0
-3419 3472 0
-3420 3473 0
-3421 3474 0
-3422 3475 0
-3423 3476 0
-3424 3477 0
-3425 3478 0
-3426 3479 0
-3427 3480 0
-3428 3481 0
-3429 3482 0
-3430 3483 0
-3431 3484 0
-3432 3485 0
-3433 3486 0
-3434 3487 0
-3435 3488 0
-3436 3489 0
-3437 3490 0
-3438 3491 0
-3439 3492 0
-3440 3493 0
-3441 3494 0
-3442 3495 0
-3443 3496 0
-3444 3497 0
-3445 3498 0
-3446 3499 0
-3447 3500 0
-3448 3501 0
-3449 3502 0
-3450 3503 0
-3451 3504 0
-3452 3505 0
-3453 3506 0
-3454 3507 0
-3455 3508 0
-3456 3509 0
-3457 3510 0
-3458 3511 0
-3459 3512 0
-3460 3513 0
-3461 3514 0
-3462 3515 0
-3463 3516 0
-3464 3517 0
-846 -3412 3466 0
-846 -3413 3467 0
-846 -3414 3468 0
-846 -3415 3469 0
-846 -3416 3470 0
-846 -3417 3471 0
-846 -3418 3472 0
-846 -3419 3473 0
-846 -3420 3474 0
-846 -3421 3475 0
-846 -3422 3476 0
-846 -3423 3477 0
-846 -3424 3478 0
-846 -3425 3479 0
-846 -3426 3480 0
-846 -3427 3481 0
-846 -3428 3482 0
-846 -3429 3483 0
-846 -3430 3484 0
-846 -3431 3485 0
-846 -3432 3486 0
-846 -3433 3487 0
-846 -3434 3488 0
-846 -3435 3489 0
-846 -3436 3490 0
-846 -3437 3491 0
-846 -3438 3492 0
-846 -3439 3493 0
-846 -3440 3494 0
-846 -3441 3495 0
-846 -3442 3496 0
-846 -3443 3497 0
-846 -3444 3498 0
-846 -3445 3499 0
-846 -3446 3500 0
-846 -3447 3501 0
-846 -3448 3502 0
-846 -3449 3503 0
-846 -3450 3504 0
-846 -3451 3505 0
-846 -3452 3506 0
-846 -3453 3507 0
-846 -3454 3508 0
-846 -3455 3509 0
-846 -3456 3510 0
-846 -3457 3511 0
-846 -3458 3512 0
-846 -3459 3513 0
-846 -3460 3514 0
-846 -3461 3515 0
-846 -3462 3516 0
-846 -3463 3517 0
-846 -3464 0
-3465 3518 0
-3466 3519 0
-3467 3520 0
-3468 3521 0
-3469 3522 0
-3470 3523 0
-3471 3524 0
-3472 3525 0
-3473 3526 0
-3474 3527 0
-3475 3528 0
-3476 3529 0
-3477 3530 0
-3478 3531 0
-3479 3532 0
-3480 3533 0
-3481 3534 0
-3482 3535 0
-3483 3536 0
-3484 3537 0
-3485 3538 0
-3486 3539 0
-3487 3540 0
-3488 3541 0
-3489 3542 0
-3490 3543 0
-3491 3544 0
-3492 3545 0
-3493 3546 0
-3494 3547 0
-3495 3548 0
-3496 3549 0
-3497 3550 0
-3498 3551 0
-3499 3552 0
-3500 3553 0
-3501 3554 0
-3502 3555 0
-3503 3556 0
-3504 3557 0
-3505 3558 0
-3506 3559 0
-3507 3560 0
-3508 3561 0
-3509 3562 0
-3510 3563 0
-3511 3564 0
-3512 3565 0
-3513 3566 0
-3514 3567 0
-3515 3568 0
-3516 3569 0
-3517 3570 0
-848 -3465 3519 0
-848 -3466 3520 0
-848 -3467 3521 0
-848 -3468 3522 0
-848 -3469 3523 0
-848 -3470 3524 0
-848 -3471 3525 0
-848 -3472 3526 0
-848 -3473 3527 0
-848 -3474 3528 0
-848 -3475 3529 0
-848 -3476 3530 0
-848 -3477 3531 0
-848 -3478 3532 0
-848 -3479 3533 0
-848 -3480 3534 0
-848 -3481 3535 0
-848 -3482 3536 0
-848 -3483 3537 0
-848 -3484 3538 0
-848 -3485 3539 0
-848 -3486 3540 0
-848 -3487 3541 0
-848 -3488 3542 0
-848 -3489 3543 0
-848 -3490 3544 0
-848 -3491 3545 0
-848 -3492 3546 0
-848 -3493 3547 0
-848 -3494 3548 0
-848 -3495 3549 0
-848 -3496 3550 0
-848 -3497 3551 0
-848 -3498 3552 0
-848 -3499 3553 0
-848 -3500 3554 0
-848 -3501 3555 0
-848 -3502 3556 0
-848 -3503 3557 0
-848 -3504 3558 0
-848 -3505 3559 0
-848 -3506 3560 0
-848 -3507 3561 0
-848 -3508 3562 0
-848 -3509 3563 0
-848 -3510 3564 0
-848 -3511 3565 0
-848 -3512 3566 0
-848 -3513 3567 0
-848 -3514 3568 0
-848 -3515 3569 0
-848 -3516 3570 0
-848 -3517 0
-3518 3571 0
-3519 3572 0
-3520 3573 0
-3521 3574 0
-3522 3575 0
-3523 3576 0
-3524 3577 0
-3525 3578 0
-3526 3579 0
-3527 3580 0
-3528 3581 0
-3529 3582 0
-3530 3583 0
-3531 3584 0
-3532 3585 0
-3533 3586 0
-3534 3587 0
-3535 3588 0
-3536 3589 0
-3537 3590 0
-3538 3591 0
-3539 3592 0
-3540 3593 0
-3541 3594 0
-3542 3595 0
-3543 3596 0
-3544 3597 0
-3545 3598 0
-3546 3599 0
-3547 3600 0
-3548 3601 0
-3549 3602 0
-3550 3603 0
-3551 3604 0
-3552 3605 0
-3553 3606 0
-3554 3607 0
-3555 3608 0
-3556 3609 0
-3557 3610 0
-3558 3611 0
-3559 3612 0
-3560 3613 0
-3561 3614 0
-3562 3615 0
-3563 3616 0
-3564 3617 0
-3565 3618 0
-3566 3619 0
-3567 3620 0
-3568 3621 0
-3569 3622 0
-3570 3623 0
-850 -3518 3572 0
-850 -3519 3573 0
-850 -3520 3574 0
-850 -3521 3575 0
-850 -3522 3576 0
-850 -3523 3577 0
-850 -3524 3578 0
-850 -3525 3579 0
-850 -3526 3580 0
-850 -3527 3581 0
-850 -3528 3582 0
-850 -3529 3583 0
-850 -3530 3584 0
-850 -3531 3585 0
-850 -3532 3586 0
-850 -3533 3587 0
-850 -3534 3588 0
-850 -3535 3589 0
-850 -3536 3590 0
-850 -3537 3591 0
-850 -3538 3592 0
-850 -3539 3593 0
-850 -3540 3594 0
-850 -3541 3595 0
-850 -3542 3596 0
-850 -3543 3597 0
-850 -3544 3598 0
-850 -3545 3599 0
-850 -3546 3600 0
-850 -3547 3601 0
-850 -3548 3602 0
-850 -3549 3603 0
-850 -3550 3604 0
-850 -3551 3605 0
-850 -3552 3606 0
-850 -3553 3607 0
-850 -3554 3608 0
-850 -3555 3609 0
-850 -3556 3610 0
-850 -3557 3611 0
-850 -3558 3612 0
-850 -3559 3613 0
-850 -3560 3614 0
-850 -3561 3615 0
-850 -3562 3616 0
-850 -3563 3617 0
-850 -3564 3618 0
-850 -3565 3619 0
-850 -3566 3620 0
-850 -3567 3621 0
-850 -3568 3622 0
-850 -3569 3623 0
-850 -3570 0
-3571 3624 0
-3572 3625 0
-3573 3626 0
-3574 3627 0
-3575 3628 0
-3576 3629 0
-3577 3630 0
-3578 3631 0
-3579 3632 0
-3580 3633 0
-3581 3634 0
-3582 3635 0
-3583 3636 0
-3584 3637 0
-3585 3638 0
-3586 3639 0
-3587 3640 0
-3588 3641 0
-3589 3642 0
-3590 3643 0
-3591 3644 0
-3592 3645 0
-3593 3646 0
-3594 3647 0
-3595 3648 0
-3596 3649 0
-3597 3650 0
-3598 3651 0
-3599 3652 0
-3600 3653 0
-3601 3654 0
-3602 3655 0
-3603 3656 0
-3604 3657 0
-3605 3658 0
-3606 3659 0
-3607 3660 0
-3608 3661 0
-3609 3662 0
-3610 3663 0
-3611 3664 0
-3612 3665 0
-3613 3666 0
-3614 3667 0
-3615 3668 0
-3616 3669 0
-3617 3670 0
-3618 3671 0
-3619 3672 0
-3620 3673 0
-3621 3674 0
-3622 3675 0
-3623 3676 0
-852 -3571 3625 0
-852 -3572 3626 0
-852 -3573 3627 0
-852 -3574 3628 0
-852 -3575 3629 0
-852 -3576 3630 0
-852 -3577 3631 0
-852 -3578 3632 0
-852 -3579 3633 0
-852 -3580 3634 0
-852 -3581 3635 0
-852 -3582 3636 0
-852 -3583 3637 0
-852 -3584 3638 0
-852 -3585 3639 0
-852 -3586 3640 0
-852 -3587 3641 0
-852 -3588 3642 0
-852 -3589 3643 0
-852 -3590 3644 0
-852 -3591 3645 0
-852 -3592 3646 0
-852 -3593 3647 0
-852 -3594 3648 0
-852 -3595 3649 0
-852 -3596 3650 0
-852 -3597 3651 0
-852 -3598 3652 0
-852 -3599 3653 0
-852 -3600 3654 0
-852 -3601 3655 0
-852 -3602 3656 0
-852 -3603 3657 0
-852 -3604 3658 0
-852 -3605 3659 0
-852 -3606 3660 0
-852 -3607 3661 0
-852 -3608 3662 0
-852 -3609 3663 0
-852 -3610 3664 0
-852 -3611 3665 0
-852 -3612 3666 0
-852 -3613 3667 0
-852 -3614 3668 0
-852 -3615 3669 0
-852 -3616 3670 0
-852 -3617 3671 0
-852 -3618 3672 0
-852 -3619 3673 0
-852 -3620 3674 0
-852 -3621 3675 0
-852 -3622 3676 0
-852 -3623 0
-3624 3677 0
-3625 3678 0
-3626 3679 0
-3627 3680 0
-3628 3681 0
-3629 3682 0
-3630 3683 0
-3631 3684 0
-3632 3685 0
-3633 3686 0
-3634 3687 0
-3635 3688 0
-3636 3689 0
-3637 3690 0
-3638 3691 0
-3639 3692 0
-3640 3693 0
-3641 3694 0
-3642 3695 0
-3643 3696 0
-3644 3697 0
-3645 3698 0
-3646 3699 0
-3647 3700 0
-3648 3701 0
-3649 3702 0
-3650 3703 0
-3651 3704 0
-3652 3705 0
-3653 3706 0
-3654 3707 0
-3655 3708 0
-3656 3709 0
-3657 3710 0
-3658 3711 0
-3659 3712 0
-3660 3713 0
-3661 3714 0
-3662 3715 0
-3663 3716 0
-3664 3717 0
-3665 3718 0
-3666 3719 0
-3667 3720 0
-3668 3721 0
-3669 3722 0
-3670 3723 0
-3671 3724 0
-3672 3725 0
-3673 3726 0
-3674 3727 0
-3675 3728 0
-3676 3729 0
-854 -3624 3678 0
-854 -3625 3679 0
-854 -3626 3680 0
-854 -3627 3681 0
-854 -3628 3682 0
-854 -3629 3683 0
-854 -3630 3684 0
-854 -3631 3685 0
-854 -3632 3686 0
-854 -3633 3687 0
-854 -3634 3688 0
-854 -3635 3689 0
-854 -3636 3690 0
-854 -3637 3691 0
-854 -3638 3692 0
-854 -3639 3693 0
-854 -3640 3694 0
-854 -3641 3695 0
-854 -3642 3696 0
-854 -3643 3697 0
-854 -3644 3698 0
-854 -3645 3699 0
-854 -3646 3700 0
-854 -3647 3701 0
-854 -3648 3702 0
-854 -3649 3703 0
-854 -3650 3704 0
-854 -3651 3705 0
-854 -3652 3706 0
-854 -3653 3707 0
-854 -3654 3708 0
-854 -3655 3709 0
-854 -3656 3710 0
-854 -3657 3711 0
-854 -3658 3712 0
-854 -3659 3713 0
-854 -3660 3714 0
-854 -3661 3715 0
-854 -3662 3716 0
-854 -3663 3717 0
-854 -3664 3718 0
-854 -3665 3719 0
-854 -3666 3720 0
-854 -3667 3721 0
-854 -3668 3722 0
-854 -3669 3723 0
-854 -3670 3724 0
-854 -3671 3725 0
-854 -3672 3726 0
-854 -3673 3727 0
-854 -3674 3728 0
-854 -3675 3729 0
-854 -3676 0
-3677 3730 0
-3678 3731 0
-3679 3732 0
-3680 3733 0
-3681 3734 0
-3682 3735 0
-3683 3736 0
-3684 3737 0
-3685 3738 0
-3686 3739 0
-3687 3740 0
-3688 3741 0
-3689 3742 0
-3690 3743 0
-3691 3744 0
-3692 3745 0
-3693 3746 0
-3694 3747 0
-3695 3748 0
-3696 3749 0
-3697 3750 0
-3698 3751 0
-3699 3752 0
-3700 3753 0
-3701 3754 0
-3702 3755 0
-3703 3756 0
-3704 3757 0
-3705 3758 0
-3706 3759 0
-3707 3760 0
-3708 3761 0
-3709 3762 0
-3710 3763 0
-3711 3764 0
-3712 3765 0
-3713 3766 0
-3714 3767 0
-3715 3768 0
-3716 3769 0
-3717 3770 0
-3718 3771 0
-3719 3772 0
-3720 3773 0
-3721 3774 0
-3722 3775 0
-3723 3776 0
-3724 3777 0
-3725 3778 0
-3726 3779 0
-3727 3780 0
-3728 3781 0
-3729 3782 0
-856 -3677 3731 0
-856 -3678 3732 0
-856 -3679 3733 0
-856 -3680 3734 0
-856 -3681 3735 0
-856 -3682 3736 0
-856 -3683 3737 0
-856 -3684 3738 0
-856 -3685 3739 0
-856 -3686 3740 0
-856 -3687 3741 0
-856 -3688 3742 0
-856 -3689 3743 0
-856 -3690 3744 0
-856 -3691 3745 0
-856 -3692 3746 0
-856 -3693 3747 0
-856 -3694 3748 0
-856 -3695 3749 0
-856 -3696 3750 0
-856 -3697 3751 0
-856 -3698 3752 0
-856 -3699 3753 0
-856 -3700 3754 0
-856 -3701 3755 0
-856 -3702 3756 0
-856 -3703 3757 0
-856 -3704 3758 0
-856 -3705 3759 0
-856 -3706 3760 0
-856 -3707 3761 0
-856 -3708 3762 0
-856 -3709 3763 0
-856 -3710 3764 0
-856 -3711 3765 0
-856 -3712 3766 0
-856 -3713 3767 0
-856 -3714 3768 0
-856 -3715 3769 0
-856 -3716 3770 0
-856 -3717 3771 0
-856 -3718 3772 0
-856 -3719 3773 0
-856 -3720 3774 0
-856 -3721 3775 0
-856 -3722 3776 0
-856 -3723 3777 0
-856 -3724 3778 0
-856 -3725 3779 0
-856 -3726 3780 0
-856 -3727 3781 0
-856 -3728 3782 0
-856 -3729 0
-3730 3783 0
-3731 3784 0
-3732 3785 0
-3733 3786 0
-3734 3787 0
-3735 3788 0
-3736 3789 0
-3737 3790 0
-3738 3791 0
-3739 3792 0
-3740 3793 0
-3741 3794 0
-3742 3795 0
-3743 3796 0
-3744 3797 0
-3745 3798 0
-3746 3799 0
-3747 3800 0
-3748 3801 0
-3749 3802 0
-3750 3803 0
-3751 3804 0
-3752 3805 0
-3753 3806 0
-3754 3807 0
-3755 3808 0
-3756 3809 0
-3757 3810 0
-3758 3811 0
-3759 3812 0
-3760 3813 0
-3761 3814 0
-3762 3815 0
-3763 3816 0
-3764 3817 0
-3765 3818 0
-3766 3819 0
-3767 3820 0
-3768 3821 0
-3769 3822 0
-3770 3823 0
-3771 3824 0
-3772 3825 0
-3773 3826 0
-3774 3827 0
-3775 3828 0
-3776 3829 0
-3777 3830 0
-3778 3831 0
-3779 3832 0
-3780 3833 0
-3781 3834 0
-3782 3835 0
-858 -3730 3784 0
-858 -3731 3785 0
-858 -3732 3786 0
-858 -3733 3787 0
-858 -3734 3788 0
-858 -3735 3789 0
-858 -3736 3790 0
-858 -3737 3791 0
-858 -3738 3792 0
-858 -3739 3793 0
-858 -3740 3794 0
-858 -3741 3795 0
-858 -3742 3796 0
-858 -3743 3797 0
-858 -3744 3798 0
-858 -3745 3799 0
-858 -3746 3800 0
-858 -3747 3801 0
-858 -3748 3802 0
-858 -3749 3803 0
-858 -3750 3804 0
-858 -3751 3805 0
-858 -3752 3806 0
-858 -3753 3807 0
-858 -3754 3808 0
-858 -3755 3809 0
-858 -3756 3810 0
-858 -3757 3811 0
-858 -3758 3812 0
-858 -3759 3813 0
-858 -3760 3814 0
-858 -3761 3815 0
-858 -3762 3816 0
-858 -3763 3817 0
-858 -3764 3818 0
-858 -3765 3819 0
-858 -3766 3820 0
-858 -3767 3821 0
-858 -3768 3822 0
-858 -3769 3823 0
-858 -3770 3824 0
-858 -3771 3825 0
-858 -3772 3826 0
-858 -3773 3827 0
-858 -3774 3828 0
-858 -3775 3829 0
-858 -3776 3830 0
-858 -3777 3831 0
-858 -3778 3832 0
-858 -3779 3833 0
-858 -3780 3834 0
-858 -3781 3835 0
-858 -3782 0
-3783 3836 0
-3784 3837 0
-3785 3838 0
-3786 3839 0
-3787 3840 0
-3788 3841 0
-3789 3842 0
-3790 3843 0
-3791 3844 0
-3792 3845 0
-3793 3846 0
-3794 3847 0
-3795 3848 0
-3796 3849 0
-3797 3850 0
-3798 3851 0
-3799 3852 0
-3800 3853 0
-3801 3854 0
-3802 3855 0
-3803 3856 0
-3804 3857 0
-3805 3858 0
-3806 3859 0
-3807 3860 0
-3808 3861 0
-3809 3862 0
-3810 3863 0
-3811 3864 0
-3812 3865 0
-3813 3866 0
-3814 3867 0
-3815 3868 0
-3816 3869 0
-3817 3870 0
-3818 3871 0
-3819 3872 0
-3820 3873 0
-3821 3874 0
-3822 3875 0
-3823 3876 0
-3824 3877 0
-3825 3878 0
-3826 3879 0
-3827 3880 0
-3828 3881 0
-3829 3882 0
-3830 3883 0
-3831 3884 0
-3832 3885 0
-3833 3886 0
-3834 3887 0
-3835 3888 0
-860 -3783 3837 0
-860 -3784 3838 0
-860 -3785 3839 0
-860 -3786 3840 0
-860 -3787 3841 0
-860 -3788 3842 0
-860 -3789 3843 0
-860 -3790 3844 0
-860 -3791 3845 0
-860 -3792 3846 0
-860 -3793 3847 0
-860 -3794 3848 0
-860 -3795 3849 0
-860 -3796 3850 0
-860 -3797 3851 0
-860 -3798 3852 0
-860 -3799 3853 0
-860 -3800 3854 0
-860 -3801 3855 0
-860 -3802 3856 0
-860 -3803 3857 0
-860 -3804 3858 0
-860 -3805 3859 0
-860 -3806 3860 0
-860 -3807 3861 0
-860 -3808 3862 0
-860 -3809 3863 0
-860 -3810 3864 0
-860 -3811 3865 0
-860 -3812 3866 0
-860 -3813 3867 0
-860 -3814 3868 0
-860 -3815 3869 0
-860 -3816 3870 0
-860 -3817 3871 0
-860 -3818 3872 0
-860 -3819 3873 0
-860 -3820 3874 0
-860 -3821 3875 0
-860 -3822 3876 0
-860 -3823 3877 0
-860 -3824 3878 0
-860 -3825 3879 0
-860 -3826 3880 0
-860 -3827 3881 0
-860 -3828 3882 0
-860 -3829 3883 0
-860 -3830 3884 0
-860 -3831 3885 0
-860 -3832 3886 0
-860 -3833 3887 0
-860 -3834 3888 0
-860 -3835 0
-3836 3889 0
-3837 3890 0
-3838 3891 0
-3839 3892 0
-3840 3893 0
-3841 3894 0
-3842 3895 0
-3843 3896 0
-3844 3897 0
-3845 3898 0
-3846 3899 0
-3847 3900 0
-3848 3901 0
-3849 3902 0
-3850 3903 0
-3851 3904 0
-3852 3905 0
-3853 3906 0
-3854 3907 0
-3855 3908 0
-3856 3909 0
-3857 3910 0
-3858 3911 0
-3859 3912 0
-3860 3913 0
-3861 3914 0
-3862 3915 0
-3863 3916 0
-3864 3917 0
-3865 3918 0
-3866 3919 0
-3867 3920 0
-3868 3921 0
-3869 3922 0
-3870 3923 0
-3871 3924 0
-3872 3925 0
-3873 3926 0
-3874 3927 0
-3875 3928 0
-3876 3929 0
-3877 3930 0
-3878 3931 0
-3879 3932 0
-3880 3933 0
-3881 3934 0
-3882 3935 0
-3883 3936 0
-3884 3937 0
-3885 3938 0
-3886 3939 0
-3887 3940 0
-3888 3941 0
-862 -3836 3890 0
-862 -3837 3891 0
-862 -3838 3892 0
-862 -3839 3893 0
-862 -3840 3894 0
-862 -3841 3895 0
-862 -3842 3896 0
-862 -3843 3897 0
-862 -3844 3898 0
-862 -3845 3899 0
-862 -3846 3900 0
-862 -3847 3901 0
-862 -3848 3902 0
-862 -3849 3903 0
-862 -3850 3904 0
-862 -3851 3905 0
-862 -3852 3906 0
-862 -3853 3907 0
-862 -3854 3908 0
-862 -3855 3909 0
-862 -3856 3910 0
-862 -3857 3911 0
-862 -3858 3912 0
-862 -3859 3913 0
-862 -3860 3914 0
-862 -3861 3915 0
-862 -3862 3916 0
-862 -3863 3917 0
-862 -3864 3918 0
-862 -3865 3919 0
-862 -3866 3920 0
-862 -3867 3921 0
-862 -3868 3922 0
-862 -3869 3923 0
-862 -3870 3924 0
-862 -3871 3925 0
-862 -3872 3926 0
-862 -3873 3927 0
-862 -3874 3928 0
-862 -3875 3929 0
-862 -3876 3930 0
-862 -3877 3931 0
-862 -3878 3932 0
-862 -3879 3933 0
-862 -3880 3934 0
-862 -3881 3935 0
-862 -3882 3936 0
-862 -3883 3937 0
-862 -3884 3938 0
-862 -3885 3939 0
-862 -3886 3940 0
-862 -3887 3941 0
-862 -3888 0
-3889 3942 0
-3890 3943 0
-3891 3944 0
-3892 3945 0
-3893 3946 0
-3894 3947 0
-3895 3948 0
-3896 3949 0
-3897 3950 0
-3898 3951 0
-3899 3952 0
-3900 3953 0
-3901 3954 0
-3902 3955 0
-3903 3956 0
-3904 3957 0
-3905 3958 0
-3906 3959 0
-3907 3960 0
-3908 3961 0
-3909 3962 0
-3910 3963 0
-3911 3964 0
-3912 3965 0
-3913 3966 0
-3914 3967 0
-3915 3968 0
-3916 3969 0
-3917 3970 0
-3918 3971 0
-3919 3972 0
-3920 3973 0
-3921 3974 0
-3922 3975 0
-3923 3976 0
-3924 3977 0
-3925 3978 0
-3926 3979 0
-3927 3980 0
-3928 3981 0
-3929 3982 0
-3930 3983 0
-3931 3984 0
-3932 3985 0
-3933 3986 0
-3934 3987 0
-3935 3988 0
-3936 3989 0
-3937 3990 0
-3938 3991 0
-3939 3992 0
-3940 3993 0
-3941 3994 0
-864 -3889 3943 0
-864 -3890 3944 0
-864 -3891 3945 0
-864 -3892 3946 0
-864 -3893 3947 0
-864 -3894 3948 0
-864 -3895 3949 0
-864 -3896 3950 0
-864 -3897 3951 0
-864 -3898 3952 0
-864 -3899 3953 0
-864 -3900 3954 0
-864 -3901 3955 0
-864 -3902 3956 0
-864 -3903 3957 0
-864 -3904 3958 0
-864 -3905 3959 0
-864 -3906 3960 0
-864 -3907 3961 0
-864 -3908 3962 0
-864 -3909 3963 0
-864 -3910 3964 0
-864 -3911 3965 0
-864 -3912 3966 0
-864 -3913 3967 0
-864 -3914 3968 0
-864 -3915 3969 0
-864 -3916 3970 0
-864 -3917 3971 0
-864 -3918 3972 0
-864 -3919 3973 0
-864 -3920 3974 0
-864 -3921 3975 0
-864 -3922 3976 0
-864 -3923 3977 0
-864 -3924 3978 0
-864 -3925 3979 0
-864 -3926 3980 0
-864 -3927 3981 0
-864 -3928 3982 0
-864 -3929 3983 0
-864 -3930 3984 0
-864 -3931 3985 0
-864 -3932 3986 0
-864 -3933 3987 0
-864 -3934 3988 0
-864 -3935 3989 0
-864 -3936 3990 0
-864 -3937 3991 0
-864 -3938 3992 0
-864 -3939 3993 0
-864 -3940 3994 0
-864 -3941 0
-3942 3995 0
-3943 3996 0
-3944 3997 0
-3945 3998 0
-3946 3999 0
-3947 4000 0
-3948 4001 0
-3949 4002 0
-3950 4003 0
-3951 4004 0
-3952 4005 0
-3953 4006 0
-3954 4007 0
-3955 4008 0
-3956 4009 0
-3957 4010 0
-3958 4011 0
-3959 4012 0
-3960 4013 0
-3961 4014 0
-3962 4015 0
-3963 4016 0
-3964 4017 0
-3965 4018 0
-3966 4019 0
-3967 4020 0
-3968 4021 0
-3969 4022 0
-3970 4023 0
-3971 4024 0
-3972 4025 0
-3973 4026 0
-3974 4027 0
-3975 4028 0
-3976 4029 0
-3977 4030 0
-3978 4031 0
-3979 4032 0
-3980 4033 0
-3981 4034 0
-3982 4035 0
-3983 4036 0
-3984 4037 0
-3985 4038 0
-3986 4039 0
-3987 4040 0
-3988 4041 0
-3989 4042 0
-3990 4043 0
-3991 4044 0
-3992 4045 0
-3993 4046 0
-3994 4047 0
-866 -3942 3996 0
-866 -3943 3997 0
-866 -3944 3998 0
-866 -3945 3999 0
-866 -3946 4000 0
-866 -3947 4001 0
-866 -3948 4002 0
-866 -3949 4003 0
-866 -3950 4004 0
-866 -3951 4005 0
-866 -3952 4006 0
-866 -3953 4007 0
-866 -3954 4008 0
-866 -3955 4009 0
-866 -3956 4010 0
-866 -3957 4011 0
-866 -3958 4012 0
-866 -3959 4013 0
-866 -3960 4014 0
-866 -3961 4015 0
-866 -3962 4016 0
-866 -3963 4017 0
-866 -3964 4018 0
-866 -3965 4019 0
-866 -3966 4020 0
-866 -3967 4021 0
-866 -3968 4022 0
-866 -3969 4023 0
-866 -3970 4024 0
-866 -3971 4025 0
-866 -3972 4026 0
-866 -3973 4027 0
-866 -3974 4028 0
-866 -3975 4029 0
-866 -3976 4030 0
-866 -3977 4031 0
-866 -3978 4032 0
-866 -3979 4033 0
-866 -3980 4034 0
-866 -3981 4035 0
-866 -3982 4036 0
-866 -3983 4037 0
-866 -3984 4038 0
-866 -3985 4039 0
-866 -3986 4040 0
-866 -3987 4041 0
-866 -3988 4042 0
-866 -3989 4043 0
-866 -3990 4044 0
-866 -3991 4045 0
-866 -3992 4046 0
-866 -3993 4047 0
-866 -3994 0
-3995 4048 0
-3996 4049 0
-3997 4050 0
-3998 4051 0
-3999 4052 0
-4000 4053 0
-4001 4054 0
-4002 4055 0
-4003 4056 0
-4004 4057 0
-4005 4058 0
-4006 4059 0
-4007 4060 0
-4008 4061 0
-4009 4062 0
-4010 4063 0
-4011 4064 0
-4012 4065 0
-4013 4066 0
-4014 4067 0
-4015 4068 0
-4016 4069 0
-4017 4070 0
-4018 4071 0
-4019 4072 0
-4020 4073 0
-4021 4074 0
-4022 4075 0
-4023 4076 0
-4024 4077 0
-4025 4078 0
-4026 4079 0
-4027 4080 0
-4028 4081 0
-4029 4082 0
-4030 4083 0
-4031 4084 0
-4032 4085 0
-4033 4086 0
-4034 4087 0
-4035 4088 0
-4036 4089 0
-4037 4090 0
-4038 4091 0
-4039 4092 0
-4040 4093 0
-4041 4094 0
-4042 4095 0
-4043 4096 0
-4044 4097 0
-4045 4098 0
-4046 4099 0
-4047 4100 0
-868 -3995 4049 0
-868 -3996 4050 0
-868 -3997 4051 0
-868 -3998 4052 0
-868 -3999 4053 0
-868 -4000 4054 0
-868 -4001 4055 0
-868 -4002 4056 0
-868 -4003 4057 0
-868 -4004 4058 0
-868 -4005 4059 0
-868 -4006 4060 0
-868 -4007 4061 0
-868 -4008 4062 0
-868 -4009 4063 0
-868 -4010 4064 0
-868 -4011 4065 0
-868 -4012 4066 0
-868 -4013 4067 0
-868 -4014 4068 0
-868 -4015 4069 0
-868 -4016 4070 0
-868 -4017 4071 0
-868 -4018 4072 0
-868 -4019 4073 0
-868 -4020 4074 0
-868 -4021 4075 0
-868 -4022 4076 0
-868 -4023 4077 0
-868 -4024 4078 0
-868 -4025 4079 0
-868 -4026 4080 0
-868 -4027 4081 0
-868 -4028 4082 0
-868 -4029 4083 0
-868 -4030 4084 0
-868 -4031 4085 0
-868 -4032 4086 0
-868 -4033 4087 0
-868 -4034 4088 0
-868 -4035 4089 0
-868 -4036 4090 0
-868 -4037 4091 0
-868 -4038 4092 0
-868 -4039 4093 0
-868 -4040 4094 0
-868 -4041 4095 0
-868 -4042 4096 0
-868 -4043 4097 0
-868 -4044 4098 0
-868 -4045 4099 0
-868 -4046 4100 0
-868 -4047 0
-4048 4101 0
-4049 4102 0
-4050 4103 0
-4051 4104 0
-4052 4105 0
-4053 4106 0
-4054 4107 0
-4055 4108 0
-4056 4109 0
-4057 4110 0
-4058 4111 0
-4059 4112 0
-4060 4113 0
-4061 4114 0
-4062 4115 0
-4063 4116 0
-4064 4117 0
-4065 4118 0
-4066 4119 0
-4067 4120 0
-4068 4121 0
-4069 4122 0
-4070 4123 0
-4071 4124 0
-4072 4125 0
-4073 4126 0
-4074 4127 0
-4075 4128 0
-4076 4129 0
-4077 4130 0
-4078 4131 0
-4079 4132 0
-4080 4133 0
-4081 4134 0
-4082 4135 0
-4083 4136 0
-4084 4137 0
-4085 4138 0
-4086 4139 0
-4087 4140 0
-4088 4141 0
-4089 4142 0
-4090 4143 0
-4091 4144 0
-4092 4145 0
-4093 4146 0
-4094 4147 0
-4095 4148 0
-4096 4149 0
-4097 4150 0
-4098 4151 0
-4099 4152 0
-4100 4153 0
-870 -4048 4102 0
-870 -4049 4103 0
-870 -4050 4104 0
-870 -4051 4105 0
-870 -4052 4106 0
-870 -4053 4107 0
-870 -4054 4108 0
-870 -4055 4109 0
-870 -4056 4110 0
-870 -4057 4111 0
-870 -4058 4112 0
-870 -4059 4113 0
-870 -4060 4114 0
-870 -4061 4115 0
-870 -4062 4116 0
-870 -4063 4117 0
-870 -4064 4118 0
-870 -4065 4119 0
-870 -4066 4120 0
-870 -4067 4121 0
-870 -4068 4122 0
-870 -4069 4123 0
-870 -4070 4124 0
-870 -4071 4125 0
-870 -4072 4126 0
-870 -4073 4127 0
-870 -4074 4128 0
-870 -4075 4129 0
-870 -4076 4130 0
-870 -4077 4131 0
-870 -4078 4132 0
-870 -4079 4133 0
-870 -4080 4134 0
-870 -4081 4135 0
-870 -4082 4136 0
-870 -4083 4137 0
-870 -4084 4138 0
-870 -4085 4139 0
-870 -4086 4140 0
-870 -4087 4141 0
-870 -4088 4142 0
-870 -4089 4143 0
-870 -4090 4144 0
-870 -4091 4145 0
-870 -4092 4146 0
-870 -4093 4147 0
-870 -4094 4148 0
-870 -4095 4149 0
-870 -4096 4150 0
-870 -4097 4151 0
-870 -4098 4152 0
-870 -4099 4153 0
-870 -4100 0
-4101 4154 0
-4102 4155 0
-4103 4156 0
-4104 4157 0
-4105 4158 0
-4106 4159 0
-4107 4160 0
-4108 4161 0
-4109 4162 0
-4110 4163 0
-4111 4164 0
-4112 4165 0
-4113 4166 0
-4114 4167 0
-4115 4168 0
-4116 4169 0
-4117 4170 0
-4118 4171 0
-4119 4172 0
-4120 4173 0
-4121 4174 0
-4122 4175 0
-4123 4176 0
-4124 4177 0
-4125 4178 0
-4126 4179 0
-4127 4180 0
-4128 4181 0
-4129 4182 0
-4130 4183 0
-4131 4184 0
-4132 4185 0
-4133 4186 0
-4134 4187 0
-4135 4188 0
-4136 4189 0
-4137 4190 0
-4138 4191 0
-4139 4192 0
-4140 4193 0
-4141 4194 0
-4142 4195 0
-4143 4196 0
-4144 4197 0
-4145 4198 0
-4146 4199 0
-4147 4200 0
-4148 4201 0
-4149 4202 0
-4150 4203 0
-4151 4204 0
-4152 4205 0
-4153 4206 0
-872 -4101 4155 0
-872 -4102 4156 0
-872 -4103 4157 0
-872 -4104 4158 0
-872 -4105 4159 0
-872 -4106 4160 0
-872 -4107 4161 0
-872 -4108 4162 0
-872 -4109 4163 0
-872 -4110 4164 0
-872 -4111 4165 0
-872 -4112 4166 0
-872 -4113 4167 0
-872 -4114 4168 0
-872 -4115 4169 0
-872 -4116 4170 0
-872 -4117 4171 0
-872 -4118 4172 0
-872 -4119 4173 0
-872 -4120 4174 0
-872 -4121 4175 0
-872 -4122 4176 0
-872 -4123 4177 0
-872 -4124 4178 0
-872 -4125 4179 0
-872 -4126 4180 0
-872 -4127 4181 0
-872 -4128 4182 0
-872 -4129 4183 0
-872 -4130 4184 0
-872 -4131 4185 0
-872 -4132 4186 0
-872 -4133 4187 0
-872 -4134 4188 0
-872 -4135 4189 0
-872 -4136 4190 0
-872 -4137 4191 0
-872 -4138 4192 0
-872 -4139 4193 0
-872 -4140 4194 0
-872 -4141 4195 0
-872 -4142 4196 0
-872 -4143 4197 0
-872 -4144 4198 0
-872 -4145 4199 0
-872 -4146 4200 0
-872 -4147 4201 0
-872 -4148 4202 0
-872 -4149 4203 0
-872 -4150 4204 0
-872 -4151 4205 0
-872 -4152 4206 0
-872 -4153 0
-4154 4207 0
-4155 4208 0
-4156 4209 0
-4157 4210 0
-4158 4211 0
-4159 4212 0
-4160 4213 0
-4161 4214 0
-4162 4215 0
-4163 4216 0
-4164 4217 0
-4165 4218 0
-4166 4219 0
-4167 4220 0
-4168 4221 0
-4169 4222 0
-4170 4223 0
-4171 4224 0
-4172 4225 0
-4173 4226 0
-4174 4227 0
-4175 4228 0
-4176 4229 0
-4177 4230 0
-4178 4231 0
-4179 4232 0
-4180 4233 0
-4181 4234 0
-4182 4235 0
-4183 4236 0
-4184 4237 0
-4185 4238 0
-4186 4239 0
-4187 4240 0
-4188 4241 0
-4189 4242 0
-4190 4243 0
-4191 4244 0
-4192 4245 0
-4193 4246 0
-4194 4247 0
-4195 4248 0
-4196 4249 0
-4197 4250 0
-4198 4251 0
-4199 4252 0
-4200 4253 0
-4201 4254 0
-4202 4255 0
-4203 4256 0
-4204 4257 0
-4205 4258 0
-4206 4259 0
-874 -4154 4208 0
-874 -4155 4209 0
-874 -4156 4210 0
-874 -4157 4211 0
-874 -4158 4212 0
-874 -4159 4213 0
-874 -4160 4214 0
-874 -4161 4215 0
-874 -4162 4216 0
-874 -4163 4217 0
-874 -4164 4218 0
-874 -4165 4219 0
-874 -4166 4220 0
-874 -4167 4221 0
-874 -4168 4222 0
-874 -4169 4223 0
-874 -4170 4224 0
-874 -4171 4225 0
-874 -4172 4226 0
-874 -4173 4227 0
-874 -4174 4228 0
-874 -4175 4229 0
-874 -4176 4230 0
-874 -4177 4231 0
-874 -4178 4232 0
-874 -4179 4233 0
-874 -4180 4234 0
-874 -4181 4235 0
-874 -4182 4236 0
-874 -4183 4237 0
-874 -4184 4238 0
-874 -4185 4239 0
-874 -4186 4240 0
-874 -4187 4241 0
-874 -4188 4242 0
-874 -4189 4243 0
-874 -4190 4244 0
-874 -4191 4245 0
-874 -4192 4246 0
-874 -4193 4247 0
-874 -4194 4248 0
-874 -4195 4249 0
-874 -4196 4250 0
-874 -4197 4251 0
-874 -4198 4252 0
-874 -4199 4253 0
-874 -4200 4254 0
-874 -4201 4255 0
-874 -4202 4256 0
-874 -4203 4257 0
-874 -4204 4258 0
-874 -4205 4259 0
-874 -4206 0
-4207 4260 0
-4208 4261 0
-4209 4262 0
-4210 4263 0
-4211 4264 0
-4212 4265 0
-4213 4266 0
-4214 4267 0
-4215 4268 0
-4216 4269 0
-4217 4270 0
-4218 4271 0
-4219 4272 0
-4220 4273 0
-4221 4274 0
-4222 4275 0
-4223 4276 0
-4224 4277 0
-4225 4278 0
-4226 4279 0
-4227 4280 0
-4228 4281 0
-4229 4282 0
-4230 4283 0
-4231 4284 0
-4232 4285 0
-4233 4286 0
-4234 4287 0
-4235 4288 0
-4236 4289 0
-4237 4290 0
-4238 4291 0
-4239 4292 0
-4240 4293 0
-4241 4294 0
-4242 4295 0
-4243 4296 0
-4244 4297 0
-4245 4298 0
-4246 4299 0
-4247 4300 0
-4248 4301 0
-4249 4302 0
-4250 4303 0
-4251 4304 0
-4252 4305 0
-4253 4306 0
-4254 4307 0
-4255 4308 0
-4256 4309 0
-4257 4310 0
-4258 4311 0
-4259 4312 0
-876 -4207 4261 0
-876 -4208 4262 0
-876 -4209 4263 0
-876 -4210 4264 0
-876 -4211 4265 0
-876 -4212 4266 0
-876 -4213 4267 0
-876 -4214 4268 0
-876 -4215 4269 0
-876 -4216 4270 0
-876 -4217 4271 0
-876 -4218 4272 0
-876 -4219 4273 0
-876 -4220 4274 0
-876 -4221 4275 0
-876 -4222 4276 0
-876 -4223 4277 0
-876 -4224 4278 0
-876 -4225 4279 0
-876 -4226 4280 0
-876 -4227 4281 0
-876 -4228 4282 0
-876 -4229 4283 0
-876 -4230 4284 0
-876 -4231 4285 0
-876 -4232 4286 0
-876 -4233 4287 0
-876 -4234 4288 0
-876 -4235 4289 0
-876 -4236 4290 0
-876 -4237 4291 0
-876 -4238 4292 0
-876 -4239 4293 0
-876 -4240 4294 0
-876 -4241 4295 0
-876 -4242 4296 0
-876 -4243 4297 0
-876 -4244 4298 0
-876 -4245 4299 0
-876 -4246 4300 0
-876 -4247 4301 0
-876 -4248 4302 0
-876 -4249 4303 0
-876 -4250 4304 0
-876 -4251 4305 0
-876 -4252 4306 0
-876 -4253 4307 0
-876 -4254 4308 0
-876 -4255 4309 0
-876 -4256 4310 0
-876 -4257 4311 0
-876 -4258 4312 0
-876 -4259 0
-4260 4313 0
-4261 4314 0
-4262 4315 0
-4263 4316 0
-4264 4317 0
-4265 4318 0
-4266 4319 0
-4267 4320 0
-4268 4321 0
-4269 4322 0
-4270 4323 0
-4271 4324 0
-4272 4325 0
-4273 4326 0
-4274 4327 0
-4275 4328 0
-4276 4329 0
-4277 4330 0
-4278 4331 0
-4279 4332 0
-4280 4333 0
-4281 4334 0
-4282 4335 0
-4283 4336 0
-4284 4337 0
-4285 4338 0
-4286 4339 0
-4287 4340 0
-4288 4341 0
-4289 4342 0
-4290 4343 0
-4291 4344 0
-4292 4345 0
-4293 4346 0
-4294 4347 0
-4295 4348 0
-4296 4349 0
-4297 4350 0
-4298 4351 0
-4299 4352 0
-4300 4353 0
-4301 4354 0
-4302 4355 0
-4303 4356 0
-4304 4357 0
-4305 4358 0
-4306 4359 0
-4307 4360 0
-4308 4361 0
-4309 4362 0
-4310 4363 0
-4311 4364 0
-4312 4365 0
-878 -4260 4314 0
-878 -4261 4315 0
-878 -4262 4316 0
-878 -4263 4317 0
-878 -4264 4318 0
-878 -4265 4319 0
-878 -4266 4320 0
-878 -4267 4321 0
-878 -4268 4322 0
-878 -4269 4323 0
-878 -4270 4324 0
-878 -4271 4325 0
-878 -4272 4326 0
-878 -4273 4327 0
-878 -4274 4328 0
-878 -4275 4329 0
-878 -4276 4330 0
-878 -4277 4331 0
-878 -4278 4332 0
-878 -4279 4333 0
-878 -4280 4334 0
-878 -4281 4335 0
-878 -4282 4336 0
-878 -4283 4337 0
-878 -4284 4338 0
-878 -4285 4339 0
-878 -4286 4340 0
-878 -4287 4341 0
-878 -4288 4342 0
-878 -4289 4343 0
-878 -4290 4344 0
-878 -4291 4345 0
-878 -4292 4346 0
-878 -4293 4347 0
-878 -4294 4348 0
-878 -4295 4349 0
-878 -4296 4350 0
-878 -4297 4351 0
-878 -4298 4352 0
-878 -4299 4353 0
-878 -4300 4354 0
-878 -4301 4355 0
-878 -4302 4356 0
-878 -4303 4357 0
-878 -4304 4358 0
-878 -4305 4359 0
-878 -4306 4360 0
-878 -4307 4361 0
-878 -4308 4362 0
-878 -4309 4363 0
-878 -4310 4364 0
-878 -4311 4365 0
-878 -4312 0
-4313 4366 0
-4314 4367 0
-4315 4368 0
-4316 4369 0
-4317 4370 0
-4318 4371 0
-4319 4372 0
-4320 4373 0
-4321 4374 0
-4322 4375 0
-4323 4376 0
-4324 4377 0
-4325 4378 0
-4326 4379 0
-4327 4380 0
-4328 4381 0
-4329 4382 0
-4330 4383 0
-4331 4384 0
-4332 4385 0
-4333 4386 0
-4334 4387 0
-4335 4388 0
-4336 4389 0
-4337 4390 0
-4338 4391 0
-4339 4392 0
-4340 4393 0
-4341 4394 0
-4342 4395 0
-4343 4396 0
-4344 4397 0
-4345 4398 0
-4346 4399 0
-4347 4400 0
-4348 4401 0
-4349 4402 0
-4350 4403 0
-4351 4404 0
-4352 4405 0
-4353 4406 0
-4354 4407 0
-4355 4408 0
-4356 4409 0
-4357 4410 0
-4358 4411 0
-4359 4412 0
-4360 4413 0
-4361 4414 0
-4362 4415 0
-4363 4416 0
-4364 4417 0
-4365 4418 0
-880 -4313 4367 0
-880 -4314 4368 0
-880 -4315 4369 0
-880 -4316 4370 0
-880 -4317 4371 0
-880 -4318 4372 0
-880 -4319 4373 0
-880 -4320 4374 0
-880 -4321 4375 0
-880 -4322 4376 0
-880 -4323 4377 0
-880 -4324 4378 0
-880 -4325 4379 0
-880 -4326 4380 0
-880 -4327 4381 0
-880 -4328 4382 0
-880 -4329 4383 0
-880 -4330 4384 0
-880 -4331 4385 0
-880 -4332 4386 0
-880 -4333 4387 0
-880 -4334 4388 0
-880 -4335 4389 0
-880 -4336 4390 0
-880 -4337 4391 0
-880 -4338 4392 0
-880 -4339 4393 0
-880 -4340 4394 0
-880 -4341 4395 0
-880 -4342 4396 0
-880 -4343 4397 0
-880 -4344 4398 0
-880 -4345 4399 0
-880 -4346 4400 0
-880 -4347 4401 0
-880 -4348 4402 0
-880 -4349 4403 0
-880 -4350 4404 0
-880 -4351 4405 0
-880 -4352 4406 0
-880 -4353 4407 0
-880 -4354 4408 0
-880 -4355 4409 0
-880 -4356 4410 0
-880 -4357 4411 0
-880 -4358 4412 0
-880 -4359 4413 0
-880 -4360 4414 0
-880 -4361 4415 0
-880 -4362 4416 0
-880 -4363 4417 0
-880 -4364 4418 0
-880 -4365 0
-4366 4419 0
-4367 4420 0
-4368 4421 0
-4369 4422 0
-4370 4423 0
-4371 4424 0
-4372 4425 0
-4373 4426 0
-4374 4427 0
-4375 4428 0
-4376 4429 0
-4377 4430 0
-4378 4431 0
-4379 4432 0
-4380 4433 0
-4381 4434 0
-4382 4435 0
-4383 4436 0
-4384 4437 0
-4385 4438 0
-4386 4439 0
-4387 4440 0
-4388 4441 0
-4389 4442 0
-4390 4443 0
-4391 4444 0
-4392 4445 0
-4393 4446 0
-4394 4447 0
-4395 4448 0
-4396 4449 0
-4397 4450 0
-4398 4451 0
-4399 4452 0
-4400 4453 0
-4401 4454 0
-4402 4455 0
-4403 4456 0
-4404 4457 0
-4405 4458 0
-4406 4459 0
-4407 4460 0
-4408 4461 0
-4409 4462 0
-4410 4463 0
-4411 4464 0
-4412 4465 0
-4413 4466 0
-4414 4467 0
-4415 4468 0
-4416 4469 0
-4417 4470 0
-4418 4471 0
-882 -4366 4420 0
-882 -4367 4421 0
-882 -4368 4422 0
-882 -4369 4423 0
-882 -4370 4424 0
-882 -4371 4425 0
-882 -4372 4426 0
-882 -4373 4427 0
-882 -4374 4428 0
-882 -4375 4429 0
-882 -4376 4430 0
-882 -4377 4431 0
-882 -4378 4432 0
-882 -4379 4433 0
-882 -4380 4434 0
-882 -4381 4435 0
-882 -4382 4436 0
-882 -4383 4437 0
-882 -4384 4438 0
-882 -4385 4439 0
-882 -4386 4440 0
-882 -4387 4441 0
-882 -4388 4442 0
-882 -4389 4443 0
-882 -4390 4444 0
-882 -4391 4445 0
-882 -4392 4446 0
-882 -4393 4447 0
-882 -4394 4448 0
-882 -4395 4449 0
-882 -4396 4450 0
-882 -4397 4451 0
-882 -4398 4452 0
-882 -4399 4453 0
-882 -4400 4454 0
-882 -4401 4455 0
-882 -4402 4456 0
-882 -4403 4457 0
-882 -4404 4458 0
-882 -4405 4459 0
-882 -4406 4460 0
-882 -4407 4461 0
-882 -4408 4462 0
-882 -4409 4463 0
-882 -4410 4464 0
-882 -4411 4465 0
-882 -4412 4466 0
-882 -4413 4467 0
-882 -4414 4468 0
-882 -4415 4469 0
-882 -4416 4470 0
-882 -4417 4471 0
-882 -4418 0
-4419 4472 0
-4420 4473 0
-4421 4474 0
-4422 4475 0
-4423 4476 0
-4424 4477 0
-4425 4478 0
-4426 4479 0
-4427 4480 0
-4428 4481 0
-4429 4482 0
-4430 4483 0
-4431 4484 0
-4432 4485 0
-4433 4486 0
-4434 4487 0
-4435 4488 0
-4436 4489 0
-4437 4490 0
-4438 4491 0
-4439 4492 0
-4440 4493 0
-4441 4494 0
-4442 4495 0
-4443 4496 0
-4444 4497 0
-4445 4498 0
-4446 4499 0
-4447 4500 0
-4448 4501 0
-4449 4502 0
-4450 4503 0
-4451 4504 0
-4452 4505 0
-4453 4506 0
-4454 4507 0
-4455 4508 0
-4456 4509 0
-4457 4510 0
-4458 4511 0
-4459 4512 0
-4460 4513 0
-4461 4514 0
-4462 4515 0
-4463 4516 0
-4464 4517 0
-4465 4518 0
-4466 4519 0
-4467 4520 0
-4468 4521 0
-4469 4522 0
-4470 4523 0
-4471 4524 0
-884 -4419 4473 0
-884 -4420 4474 0
-884 -4421 4475 0
-884 -4422 4476 0
-884 -4423 4477 0
-884 -4424 4478 0
-884 -4425 4479 0
-884 -4426 4480 0
-884 -4427 4481 0
-884 -4428 4482 0
-884 -4429 4483 0
-884 -4430 4484 0
-884 -4431 4485 0
-884 -4432 4486 0
-884 -4433 4487 0
-884 -4434 4488 0
-884 -4435 4489 0
-884 -4436 4490 0
-884 -4437 4491 0
-884 -4438 4492 0
-884 -4439 4493 0
-884 -4440 4494 0
-884 -4441 4495 0
-884 -4442 4496 0
-884 -4443 4497 0
-884 -4444 4498 0
-884 -4445 4499 0
-884 -4446 4500 0
-884 -4447 4501 0
-884 -4448 4502 0
-884 -4449 4503 0
-884 -4450 4504 0
-884 -4451 4505 0
-884 -4452 4506 0
-884 -4453 4507 0
-884 -4454 4508 0
-884 -4455 4509 0
-884 -4456 4510 0
-884 -4457 4511 0
-884 -4458 4512 0
-884 -4459 4513 0
-884 -4460 4514 0
-884 -4461 4515 0
-884 -4462 4516 0
-884 -4463 4517 0
-884 -4464 4518 0
-884 -4465 4519 0
-884 -4466 4520 0
-884 -4467 4521 0
-884 -4468 4522 0
-884 -4469 4523 0
-884 -4470 4524 0
-884 -4471 0
-4472 4525 0
-4473 4526 0
-4474 4527 0
-4475 4528 0
-4476 4529 0
-4477 4530 0
-4478 4531 0
-4479 4532 0
-4480 4533 0
-4481 4534 0
-4482 4535 0
-4483 4536 0
-4484 4537 0
-4485 4538 0
-4486 4539 0
-4487 4540 0
-4488 4541 0
-4489 4542 0
-4490 4543 0
-4491 4544 0
-4492 4545 0
-4493 4546 0
-4494 4547 0
-4495 4548 0
-4496 4549 0
-4497 4550 0
-4498 4551 0
-4499 4552 0
-4500 4553 0
-4501 4554 0
-4502 4555 0
-4503 4556 0
-4504 4557 0
-4505 4558 0
-4506 4559 0
-4507 4560 0
-4508 4561 0
-4509 4562 0
-4510 4563 0
-4511 4564 0
-4512 4565 0
-4513 4566 0
-4514 4567 0
-4515 4568 0
-4516 4569 0
-4517 4570 0
-4518 4571 0
-4519 4572 0
-4520 4573 0
-4521 4574 0
-4522 4575 0
-4523 4576 0
-4524 4577 0
-886 -4472 4526 0
-886 -4473 4527 0
-886 -4474 4528 0
-886 -4475 4529 0
-886 -4476 4530 0
-886 -4477 4531 0
-886 -4478 4532 0
-886 -4479 4533 0
-886 -4480 4534 0
-886 -4481 4535 0
-886 -4482 4536 0
-886 -4483 4537 0
-886 -4484 4538 0
-886 -4485 4539 0
-886 -4486 4540 0
-886 -4487 4541 0
-886 -4488 4542 0
-886 -4489 4543 0
-886 -4490 4544 0
-886 -4491 4545 0
-886 -4492 4546 0
-886 -4493 4547 0
-886 -4494 4548 0
-886 -4495 4549 0
-886 -4496 4550 0
-886 -4497 4551 0
-886 -4498 4552 0
-886 -4499 4553 0
-886 -4500 4554 0
-886 -4501 4555 0
-886 -4502 4556 0
-886 -4503 4557 0
-886 -4504 4558 0
-886 -4505 4559 0
-886 -4506 4560 0
-886 -4507 4561 0
-886 -4508 4562 0
-886 -4509 4563 0
-886 -4510 4564 0
-886 -4511 4565 0
-886 -4512 4566 0
-886 -4513 4567 0
-886 -4514 4568 0
-886 -4515 4569 0
-886 -4516 4570 0
-886 -4517 4571 0
-886 -4518 4572 0
-886 -4519 4573 0
-886 -4520 4574 0
-886 -4521 4575 0
-886 -4522 4576 0
-886 -4523 4577 0
-886 -4524 0
-4525 4578 0
-4526 4579 0
-4527 4580 0
-4528 4581 0
-4529 4582 0
-4530 4583 0
-4531 4584 0
-4532 4585 0
-4533 4586 0
-4534 4587 0
-4535 4588 0
-4536 4589 0
-4537 4590 0
-4538 4591 0
-4539 4592 0
-4540 4593 0
-4541 4594 0
-4542 4595 0
-4543 4596 0
-4544 4597 0
-4545 4598 0
-4546 4599 0
-4547 4600 0
-4548 4601 0
-4549 4602 0
-4550 4603 0
-4551 4604 0
-4552 4605 0
-4553 4606 0
-4554 4607 0
-4555 4608 0
-4556 4609 0
-4557 4610 0
-4558 4611 0
-4559 4612 0
-4560 4613 0
-4561 4614 0
-4562 4615 0
-4563 4616 0
-4564 4617 0
-4565 4618 0
-4566 4619 0
-4567 4620 0
-4568 4621 0
-4569 4622 0
-4570 4623 0
-4571 4624 0
-4572 4625 0
-4573 4626 0
-4574 4627 0
-4575 4628 0
-4576 4629 0
-4577 4630 0
-888 -4525 4579 0
-888 -4526 4580 0
-888 -4527 4581 0
-888 -4528 4582 0
-888 -4529 4583 0
-888 -4530 4584 0
-888 -4531 4585 0
-888 -4532 4586 0
-888 -4533 4587 0
-888 -4534 4588 0
-888 -4535 4589 0
-888 -4536 4590 0
-888 -4537 4591 0
-888 -4538 4592 0
-888 -4539 4593 0
-888 -4540 4594 0
-888 -4541 4595 0
-888 -4542 4596 0
-888 -4543 4597 0
-888 -4544 4598 0
-888 -4545 4599 0
-888 -4546 4600 0
-888 -4547 4601 0
-888 -4548 4602 0
-888 -4549 4603 0
-888 -4550 4604 0
-888 -4551 4605 0
-888 -4552 4606 0
-888 -4553 4607 0
-888 -4554 4608 0
-888 -4555 4609 0
-888 -4556 4610 0
-888 -4557 4611 0
-888 -4558 4612 0
-888 -4559 4613 0
-888 -4560 4614 0
-888 -4561 4615 0
-888 -4562 4616 0
-888 -4563 4617 0
-888 -4564 4618 0
-888 -4565 4619 0
-888 -4566 4620 0
-888 -4567 4621 0
-888 -4568 4622 0
-888 -4569 4623 0
-888 -4570 4624 0
-888 -4571 4625 0
-888 -4572 4626 0
-888 -4573 4627 0
-888 -4574 4628 0
-888 -4575 4629 0
-888 -4576 4630 0
-888 -4577 0
-4578 4631 0
-4579 4632 0
-4580 4633 0
-4581 4634 0
-4582 4635 0
-4583 4636 0
-4584 4637 0
-4585 4638 0
-4586 4639 0
-4587 4640 0
-4588 4641 0
-4589 4642 0
-4590 4643 0
-4591 4644 0
-4592 4645 0
-4593 4646 0
-4594 4647 0
-4595 4648 0
-4596 4649 0
-4597 4650 0
-4598 4651 0
-4599 4652 0
-4600 4653 0
-4601 4654 0
-4602 4655 0
-4603 4656 0
-4604 4657 0
-4605 4658 0
-4606 4659 0
-4607 4660 0
-4608 4661 0
-4609 4662 0
-4610 4663 0
-4611 4664 0
-4612 4665 0
-4613 4666 0
-4614 4667 0
-4615 4668 0
-4616 4669 0
-4617 4670 0
-4618 4671 0
-4619 4672 0
-4620 4673 0
-4621 4674 0
-4622 4675 0
-4623 4676 0
-4624 4677 0
-4625 4678 0
-4626 4679 0
-4627 4680 0
-4628 4681 0
-4629 4682 0
-4630 4683 0
-890 -4578 4632 0
-890 -4579 4633 0
-890 -4580 4634 0
-890 -4581 4635 0
-890 -4582 4636 0
-890 -4583 4637 0
-890 -4584 4638 0
-890 -4585 4639 0
-890 -4586 4640 0
-890 -4587 4641 0
-890 -4588 4642 0
-890 -4589 4643 0
-890 -4590 4644 0
-890 -4591 4645 0
-890 -4592 4646 0
-890 -4593 4647 0
-890 -4594 4648 0
-890 -4595 4649 0
-890 -4596 4650 0
-890 -4597 4651 0
-890 -4598 4652 0
-890 -4599 4653 0
-890 -4600 4654 0
-890 -4601 4655 0
-890 -4602 4656 0
-890 -4603 4657 0
-890 -4604 4658 0
-890 -4605 4659 0
-890 -4606 4660 0
-890 -4607 4661 0
-890 -4608 4662 0
-890 -4609 4663 0
-890 -4610 4664 0
-890 -4611 4665 0
-890 -4612 4666 0
-890 -4613 4667 0
-890 -4614 4668 0
-890 -4615 4669 0
-890 -4616 4670 0
-890 -4617 4671 0
-890 -4618 4672 0
-890 -4619 4673 0
-890 -4620 4674 0
-890 -4621 4675 0
-890 -4622 4676 0
-890 -4623 4677 0
-890 -4624 4678 0
-890 -4625 4679 0
-890 -4626 4680 0
-890 -4627 4681 0
-890 -4628 4682 0
-890 -4629 4683 0
-890 -4630 0
-4631 4684 0
-4632 4685 0
-4633 4686 0
-4634 4687 0
-4635 4688 0
-4636 4689 0
-4637 4690 0
-4638 4691 0
-4639 4692 0
-4640 4693 0
-4641 4694 0
-4642 4695 0
-4643 4696 0
-4644 4697 0
-4645 4698 0
-4646 4699 0
-4647 4700 0
-4648 4701 0
-4649 4702 0
-4650 4703 0
-4651 4704 0
-4652 4705 0
-4653 4706 0
-4654 4707 0
-4655 4708 0
-4656 4709 0
-4657 4710 0
-4658 4711 0
-4659 4712 0
-4660 4713 0
-4661 4714 0
-4662 4715 0
-4663 4716 0
-4664 4717 0
-4665 4718 0
-4666 4719 0
-4667 4720 0
-4668 4721 0
-4669 4722 0
-4670 4723 0
-4671 4724 0
-4672 4725 0
-4673 4726 0
-4674 4727 0
-4675 4728 0
-4676 4729 0
-4677 4730 0
-4678 4731 0
-4679 4732 0
-4680 4733 0
-4681 4734 0
-4682 4735 0
-4683 4736 0
-892 -4631 4685 0
-892 -4632 4686 0
-892 -4633 4687 0
-892 -4634 4688 0
-892 -4635 4689 0
-892 -4636 4690 0
-892 -4637 4691 0
-892 -4638 4692 0
-892 -4639 4693 0
-892 -4640 4694 0
-892 -4641 4695 0
-892 -4642 4696 0
-892 -4643 4697 0
-892 -4644 4698 0
-892 -4645 4699 0
-892 -4646 4700 0
-892 -4647 4701 0
-892 -4648 4702 0
-892 -4649 4703 0
-892 -4650 4704 0
-892 -4651 4705 0
-892 -4652 4706 0
-892 -4653 4707 0
-892 -4654 4708 0
-892 -4655 4709 0
-892 -4656 4710 0
-892 -4657 4711 0
-892 -4658 4712 0
-892 -4659 4713 0
-892 -4660 4714 0
-892 -4661 4715 0
-892 -4662 4716 0
-892 -4663 4717 0
-892 -4664 4718 0
-892 -4665 4719 0
-892 -4666 4720 0
-892 -4667 4721 0
-892 -4668 4722 0
-892 -4669 4723 0
-892 -4670 4724 0
-892 -4671 4725 0
-892 -4672 4726 0
-892 -4673 4727 0
-892 -4674 4728 0
-892 -4675 4729 0
-892 -4676 4730 0
-892 -4677 4731 0
-892 -4678 4732 0
-892 -4679 4733 0
-892 -4680 4734 0
-892 -4681 4735 0
-892 -4682 4736 0
-892 -4683 0
-4684 4737 0
-4685 4738 0
-4686 4739 0
-4687 4740 0
-4688 4741 0
-4689 4742 0
-4690 4743 0
-4691 4744 0
-4692 4745 0
-4693 4746 0
-4694 4747 0
-4695 4748 0
-4696 4749 0
-4697 4750 0
-4698 4751 0
-4699 4752 0
-4700 4753 0
-4701 4754 0
-4702 4755 0
-4703 4756 0
-4704 4757 0
-4705 4758 0
-4706 4759 0
-4707 4760 0
-4708 4761 0
-4709 4762 0
-4710 4763 0
-4711 4764 0
-4712 4765 0
-4713 4766 0
-4714 4767 0
-4715 4768 0
-4716 4769 0
-4717 4770 0
-4718 4771 0
-4719 4772 0
-4720 4773 0
-4721 4774 0
-4722 4775 0
-4723 4776 0
-4724 4777 0
-4725 4778 0
-4726 4779 0
-4727 4780 0
-4728 4781 0
-4729 4782 0
-4730 4783 0
-4731 4784 0
-4732 4785 0
-4733 4786 0
-4734 4787 0
-4735 4788 0
-4736 4789 0
-894 -4684 4738 0
-894 -4685 4739 0
-894 -4686 4740 0
-894 -4687 4741 0
-894 -4688 4742 0
-894 -4689 4743 0
-894 -4690 4744 0
-894 -4691 4745 0
-894 -4692 4746 0
-894 -4693 4747 0
-894 -4694 4748 0
-894 -4695 4749 0
-894 -4696 4750 0
-894 -4697 4751 0
-894 -4698 4752 0
-894 -4699 4753 0
-894 -4700 4754 0
-894 -4701 4755 0
-894 -4702 4756 0
-894 -4703 4757 0
-894 -4704 4758 0
-894 -4705 4759 0
-894 -4706 4760 0
-894 -4707 4761 0
-894 -4708 4762 0
-894 -4709 4763 0
-894 -4710 4764 0
-894 -4711 4765 0
-894 -4712 4766 0
-894 -4713 4767 0
-894 -4714 4768 0
-894 -4715 4769 0
-894 -4716 4770 0
-894 -4717 4771 0
-894 -4718 4772 0
-894 -4719 4773 0
-894 -4720 4774 0
-894 -4721 4775 0
-894 -4722 4776 0
-894 -4723 4777 0
-894 -4724 4778 0
-894 -4725 4779 0
-894 -4726 4780 0
-894 -4727 4781 0
-894 -4728 4782 0
-894 -4729 4783 0
-894 -4730 4784 0
-894 -4731 4785 0
-894 -4732 4786 0
-894 -4733 4787 0
-894 -4734 4788 0
-894 -4735 4789 0
-894 -4736 0
-4737 4790 0
-4738 4791 0
-4739 4792 0
-4740 4793 0
-4741 4794 0
-4742 4795 0
-4743 4796 0
-4744 4797 0
-4745 4798 0
-4746 4799 0
-4747 4800 0
-4748 4801 0
-4749 4802 0
-4750 4803 0
-4751 4804 0
-4752 4805 0
-4753 4806 0
-4754 4807 0
-4755 4808 0
-4756 4809 0
-4757 4810 0
-4758 4811 0
-4759 4812 0
-4760 4813 0
-4761 4814 0
-4762 4815 0
-4763 4816 0
-4764 4817 0
-4765 4818 0
-4766 4819 0
-4767 4820 0
-4768 4821 0
-4769 4822 0
-4770 4823 0
-4771 4824 0
-4772 4825 0
-4773 4826 0
-4774 4827 0
-4775 4828 0
-4776 4829 0
-4777 4830 0
-4778 4831 0
-4779 4832 0
-4780 4833 0
-4781 4834 0
-4782 4835 0
-4783 4836 0
-4784 4837 0
-4785 4838 0
-4786 4839 0
-4787 4840 0
-4788 4841 0
-4789 4842 0
-896 -4737 4791 0
-896 -4738 4792 0
-896 -4739 4793 0
-896 -4740 4794 0
-896 -4741 4795 0
-896 -4742 4796 0
-896 -4743 4797 0
-896 -4744 4798 0
-896 -4745 4799 0
-896 -4746 4800 0
-896 -4747 4801 0
-896 -4748 4802 0
-896 -4749 4803 0
-896 -4750 4804 0
-896 -4751 4805 0
-896 -4752 4806 0
-896 -4753 4807 0
-896 -4754 4808 0
-896 -4755 4809 0
-896 -4756 4810 0
-896 -4757 4811 0
-896 -4758 4812 0
-896 -4759 4813 0
-896 -4760 4814 0
-896 -4761 4815 0
-896 -4762 4816 0
-896 -4763 4817 0
-896 -4764 4818 0
-896 -4765 4819 0
-896 -4766 4820 0
-896 -4767 4821 0
-896 -4768 4822 0
-896 -4769 4823 0
-896 -4770 4824 0
-896 -4771 4825 0
-896 -4772 4826 0
-896 -4773 4827 0
-896 -4774 4828 0
-896 -4775 4829 0
-896 -4776 4830 0
-896 -4777 4831 0
-896 -4778 4832 0
-896 -4779 4833 0
-896 -4780 4834 0
-896 -4781 4835 0
-896 -4782 4836 0
-896 -4783 4837 0
-896 -4784 4838 0
-896 -4785 4839 0
-896 -4786 4840 0
-896 -4787 4841 0
-896 -4788 4842 0
-896 -4789 0
-4790 4843 0
-4791 4844 0
-4792 4845 0
-4793 4846 0
-4794 4847 0
-4795 4848 0
-4796 4849 0
-4797 4850 0
-4798 4851 0
-4799 4852 0
-4800 4853 0
-4801 4854 0
-4802 4855 0
-4803 4856 0
-4804 4857 0
-4805 4858 0
-4806 4859 0
-4807 4860 0
-4808 4861 0
-4809 4862 0
-4810 4863 0
-4811 4864 0
-4812 4865 0
-4813 4866 0
-4814 4867 0
-4815 4868 0
-4816 4869 0
-4817 4870 0
-4818 4871 0
-4819 4872 0
-4820 4873 0
-4821 4874 0
-4822 4875 0
-4823 4876 0
-4824 4877 0
-4825 4878 0
-4826 4879 0
-4827 4880 0
-4828 4881 0
-4829 4882 0
-4830 4883 0
-4831 4884 0
-4832 4885 0
-4833 4886 0
-4834 4887 0
-4835 4888 0
-4836 4889 0
-4837 4890 0
-4838 4891 0
-4839 4892 0
-4840 4893 0
-4841 4894 0
-4842 4895 0
-898 -4790 4844 0
-898 -4791 4845 0
-898 -4792 4846 0
-898 -4793 4847 0
-898 -4794 4848 0
-898 -4795 4849 0
-898 -4796 4850 0
-898 -4797 4851 0
-898 -4798 4852 0
-898 -4799 4853 0
-898 -4800 4854 0
-898 -4801 4855 0
-898 -4802 4856 0
-898 -4803 4857 0
-898 -4804 4858 0
-898 -4805 4859 0
-898 -4806 4860 0
-898 -4807 4861 0
-898 -4808 4862 0
-898 -4809 4863 0
-898 -4810 4864 0
-898 -4811 4865 0
-898 -4812 4866 0
-898 -4813 4867 0
-898 -4814 4868 0
-898 -4815 4869 0
-898 -4816 4870 0
-898 -4817 4871 0
-898 -4818 4872 0
-898 -4819 4873 0
-898 -4820 4874 0
-898 -4821 4875 0
-898 -4822 4876 0
-898 -4823 4877 0
-898 -4824 4878 0
-898 -4825 4879 0
-898 -4826 4880 0
-898 -4827 4881 0
-898 -4828 4882 0
-898 -4829 4883 0
-898 -4830 4884 0
-898 -4831 4885 0
-898 -4832 4886 0
-898 -4833 4887 0
-898 -4834 4888 0
-898 -4835 4889 0
-898 -4836 4890 0
-898 -4837 4891 0
-898 -4838 4892 0
-898 -4839 4893 0
-898 -4840 4894 0
-898 -4841 4895 0
-898 -4842 0
-4843 4896 0
-4844 4897 0
-4845 4898 0
-4846 4899 0
-4847 4900 0
-4848 4901 0
-4849 4902 0
-4850 4903 0
-4851 4904 0
-4852 4905 0
-4853 4906 0
-4854 4907 0
-4855 4908 0
-4856 4909 0
-4857 4910 0
-4858 4911 0
-4859 4912 0
-4860 4913 0
-4861 4914 0
-4862 4915 0
-4863 4916 0
-4864 4917 0
-4865 4918 0
-4866 4919 0
-4867 4920 0
-4868 4921 0
-4869 4922 0
-4870 4923 0
-4871 4924 0
-4872 4925 0
-4873 4926 0
-4874 4927 0
-4875 4928 0
-4876 4929 0
-4877 4930 0
-4878 4931 0
-4879 4932 0
-4880 4933 0
-4881 4934 0
-4882 4935 0
-4883 4936 0
-4884 4937 0
-4885 4938 0
-4886 4939 0
-4887 4940 0
-4888 4941 0
-4889 4942 0
-4890 4943 0
-4891 4944 0
-4892 4945 0
-4893 4946 0
-4894 4947 0
-4895 4948 0
-900 -4843 4897 0
-900 -4844 4898 0
-900 -4845 4899 0
-900 -4846 4900 0
-900 -4847 4901 0
-900 -4848 4902 0
-900 -4849 4903 0
-900 -4850 4904 0
-900 -4851 4905 0
-900 -4852 4906 0
-900 -4853 4907 0
-900 -4854 4908 0
-900 -4855 4909 0
-900 -4856 4910 0
-900 -4857 4911 0
-900 -4858 4912 0
-900 -4859 4913 0
-900 -4860 4914 0
-900 -4861 4915 0
-900 -4862 4916 0
-900 -4863 4917 0
-900 -4864 4918 0
-900 -4865 4919 0
-900 -4866 4920 0
-900 -4867 4921 0
-900 -4868 4922 0
-900 -4869 4923 0
-900 -4870 4924 0
-900 -4871 4925 0
-900 -4872 4926 0
-900 -4873 4927 0
-900 -4874 4928 0
-900 -4875 4929 0
-900 -4876 4930 0
-900 -4877 4931 0
-900 -4878 4932 0
-900 -4879 4933 0
-900 -4880 4934 0
-900 -4881 4935 0
-900 -4882 4936 0
-900 -4883 4937 0
-900 -4884 4938 0
-900 -4885 4939 0
-900 -4886 4940 0
-900 -4887 4941 0
-900 -4888 4942 0
-900 -4889 4943 0
-900 -4890 4944 0
-900 -4891 4945 0
-900 -4892 4946 0
-900 -4893 4947 0
-900 -4894 4948 0
-900 -4895 0
-4896 4949 0
-4897 4950 0
-4898 4951 0
-4899 4952 0
-4900 4953 0
-4901 4954 0
-4902 4955 0
-4903 4956 0
-4904 4957 0
-4905 4958 0
-4906 4959 0
-4907 4960 0
-4908 4961 0
-4909 4962 0
-4910 4963 0
-4911 4964 0
-4912 4965 0
-4913 4966 0
-4914 4967 0
-4915 4968 0
-4916 4969 0
-4917 4970 0
-4918 4971 0
-4919 4972 0
-4920 4973 0
-4921 4974 0
-4922 4975 0
-4923 4976 0
-4924 4977 0
-4925 4978 0
-4926 4979 0
-4927 4980 0
-4928 4981 0
-4929 4982 0
-4930 4983 0
-4931 4984 0
-4932 4985 0
-4933 4986 0
-4934 4987 0
-4935 4988 0
-4936 4989 0
-4937 4990 0
-4938 4991 0
-4939 4992 0
-4940 4993 0
-4941 4994 0
-4942 4995 0
-4943 4996 0
-4944 4997 0
-4945 4998 0
-4946 4999 0
-4947 5000 0
-4948 5001 0
-902 -4896 4950 0
-902 -4897 4951 0
-902 -4898 4952 0
-902 -4899 4953 0
-902 -4900 4954 0
-902 -4901 4955 0
-902 -4902 4956 0
-902 -4903 4957 0
-902 -4904 4958 0
-902 -4905 4959 0
-902 -4906 4960 0
-902 -4907 4961 0
-902 -4908 4962 0
-902 -4909 4963 0
-902 -4910 4964 0
-902 -4911 4965 0
-902 -4912 4966 0
-902 -4913 4967 0
-902 -4914 4968 0
-902 -4915 4969 0
-902 -4916 4970 0
-902 -4917 4971 0
-902 -4918 4972 0
-902 -4919 4973 0
-902 -4920 4974 0
-902 -4921 4975 0
-902 -4922 4976 0
-902 -4923 4977 0
-902 -4924 4978 0
-902 -4925 4979 0
-902 -4926 4980 0
-902 -4927 4981 0
-902 -4928 4982 0
-902 -4929 4983 0
-902 -4930 4984 0
-902 -4931 4985 0
-902 -4932 4986 0
-902 -4933 4987 0
-902 -4934 4988 0
-902 -4935 4989 0
-902 -4936 4990 0
-902 -4937 4991 0
-902 -4938 4992 0
-902 -4939 4993 0
-902 -4940 4994 0
-902 -4941 4995 0
-902 -4942 4996 0
-902 -4943 4997 0
-902 -4944 4998 0
-902 -4945 4999 0
-902 -4946 5000 0
-902 -4947 5001 0
-902 -4948 0
-4949 5002 0
-4950 5003 0
-4951 5004 0
-4952 5005 0
-4953 5006 0
-4954 5007 0
-4955 5008 0
-4956 5009 0
-4957 5010 0
-4958 5011 0
-4959 5012 0
-4960 5013 0
-4961 5014 0
-4962 5015 0
-4963 5016 0
-4964 5017 0
-4965 5018 0
-4966 5019 0
-4967 5020 0
-4968 5021 0
-4969 5022 0
-4970 5023 0
-4971 5024 0
-4972 5025 0
-4973 5026 0
-4974 5027 0
-4975 5028 0
-4976 5029 0
-4977 5030 0
-4978 5031 0
-4979 5032 0
-4980 5033 0
-4981 5034 0
-4982 5035 0
-4983 5036 0
-4984 5037 0
-4985 5038 0
-4986 5039 0
-4987 5040 0
-4988 5041 0
-4989 5042 0
-4990 5043 0
-4991 5044 0
-4992 5045 0
-4993 5046 0
-4994 5047 0
-4995 5048 0
-4996 5049 0
-4997 5050 0
-4998 5051 0
-4999 5052 0
-5000 5053 0
-5001 5054 0
-904 -4949 5003 0
-904 -4950 5004 0
-904 -4951 5005 0
-904 -4952 5006 0
-904 -4953 5007 0
-904 -4954 5008 0
-904 -4955 5009 0
-904 -4956 5010 0
-904 -4957 5011 0
-904 -4958 5012 0
-904 -4959 5013 0
-904 -4960 5014 0
-904 -4961 5015 0
-904 -4962 5016 0
-904 -4963 5017 0
-904 -4964 5018 0
-904 -4965 5019 0
-904 -4966 5020 0
-904 -4967 5021 0
-904 -4968 5022 0
-904 -4969 5023 0
-904 -4970 5024 0
-904 -4971 5025 0
-904 -4972 5026 0
-904 -4973 5027 0
-904 -4974 5028 0
-904 -4975 5029 0
-904 -4976 5030 0
-904 -4977 5031 0
-904 -4978 5032 0
-904 -4979 5033 0
-904 -4980 5034 0
-904 -4981 5035 0
-904 -4982 5036 0
-904 -4983 5037 0
-904 -4984 5038 0
-904 -4985 5039 0
-904 -4986 5040 0
-904 -4987 5041 0
-904 -4988 5042 0
-904 -4989 5043 0
-904 -4990 5044 0
-904 -4991 5045 0
-904 -4992 5046 0
-904 -4993 5047 0
-904 -4994 5048 0
-904 -4995 5049 0
-904 -4996 5050 0
-904 -4997 5051 0
-904 -4998 5052 0
-904 -4999 5053 0
-904 -5000 5054 0
-904 -5001 0
-5002 5055 0
-5003 5056 0
-5004 5057 0
-5005 5058 0
-5006 5059 0
-5007 5060 0
-5008 5061 0
-5009 5062 0
-5010 5063 0
-5011 5064 0
-5012 5065 0
-5013 5066 0
-5014 5067 0
-5015 5068 0
-5016 5069 0
-5017 5070 0
-5018 5071 0
-5019 5072 0
-5020 5073 0
-5021 5074 0
-5022 5075 0
-5023 5076 0
-5024 5077 0
-5025 5078 0
-5026 5079 0
-5027 5080 0
-5028 5081 0
-5029 5082 0
-5030 5083 0
-5031 5084 0
-5032 5085 0
-5033 5086 0
-5034 5087 0
-5035 5088 0
-5036 5089 0
-5037 5090 0
-5038 5091 0
-5039 5092 0
-5040 5093 0
-5041 5094 0
-5042 5095 0
-5043 5096 0
-5044 5097 0
-5045 5098 0
-5046 5099 0
-5047 5100 0
-5048 5101 0
-5049 5102 0
-5050 5103 0
-5051 5104 0
-5052 5105 0
-5053 5106 0
-5054 5107 0
-906 -5002 5056 0
-906 -5003 5057 0
-906 -5004 5058 0
-906 -5005 5059 0
-906 -5006 5060 0
-906 -5007 5061 0
-906 -5008 5062 0
-906 -5009 5063 0
-906 -5010 5064 0
-906 -5011 5065 0
-906 -5012 5066 0
-906 -5013 5067 0
-906 -5014 5068 0
-906 -5015 5069 0
-906 -5016 5070 0
-906 -5017 5071 0
-906 -5018 5072 0
-906 -5019 5073 0
-906 -5020 5074 0
-906 -5021 5075 0
-906 -5022 5076 0
-906 -5023 5077 0
-906 -5024 5078 0
-906 -5025 5079 0
-906 -5026 5080 0
-906 -5027 5081 0
-906 -5028 5082 0
-906 -5029 5083 0
-906 -5030 5084 0
-906 -5031 5085 0
-906 -5032 5086 0
-906 -5033 5087 0
-906 -5034 5088 0
-906 -5035 5089 0
-906 -5036 5090 0
-906 -5037 5091 0
-906 -5038 5092 0
-906 -5039 5093 0
-906 -5040 5094 0
-906 -5041 5095 0
-906 -5042 5096 0
-906 -5043 5097 0
-906 -5044 5098 0
-906 -5045 5099 0
-906 -5046 5100 0
-906 -5047 5101 0
-906 -5048 5102 0
-906 -5049 5103 0
-906 -5050 5104 0
-906 -5051 5105 0
-906 -5052 5106 0
-906 -5053 5107 0
-906 -5054 0
-5055 5108 0
-5056 5109 0
-5057 5110 0
-5058 5111 0
-5059 5112 0
-5060 5113 0
-5061 5114 0
-5062 5115 0
-5063 5116 0
-5064 5117 0
-5065 5118 0
-5066 5119 0
-5067 5120 0
-5068 5121 0
-5069 5122 0
-5070 5123 0
-5071 5124 0
-5072 5125 0
-5073 5126 0
-5074 5127 0
-5075 5128 0
-5076 5129 0
-5077 5130 0
-5078 5131 0
-5079 5132 0
-5080 5133 0
-5081 5134 0
-5082 5135 0
-5083 5136 0
-5084 5137 0
-5085 5138 0
-5086 5139 0
-5087 5140 0
-5088 5141 0
-5089 5142 0
-5090 5143 0
-5091 5144 0
-5092 5145 0
-5093 5146 0
-5094 5147 0
-5095 5148 0
-5096 5149 0
-5097 5150 0
-5098 5151 0
-5099 5152 0
-5100 5153 0
-5101 5154 0
-5102 5155 0
-5103 5156 0
-5104 5157 0
-5105 5158 0
-5106 5159 0
-5107 5160 0
-908 -5055 5109 0
-908 -5056 5110 0
-908 -5057 5111 0
-908 -5058 5112 0
-908 -5059 5113 0
-908 -5060 5114 0
-908 -5061 5115 0
-908 -5062 5116 0
-908 -5063 5117 0
-908 -5064 5118 0
-908 -5065 5119 0
-908 -5066 5120 0
-908 -5067 5121 0
-908 -5068 5122 0
-908 -5069 5123 0
-908 -5070 5124 0
-908 -5071 5125 0
-908 -5072 5126 0
-908 -5073 5127 0
-908 -5074 5128 0
-908 -5075 5129 0
-908 -5076 5130 0
-908 -5077 5131 0
-908 -5078 5132 0
-908 -5079 5133 0
-908 -5080 5134 0
-908 -5081 5135 0
-908 -5082 5136 0
-908 -5083 5137 0
-908 -5084 5138 0
-908 -5085 5139 0
-908 -5086 5140 0
-908 -5087 5141 0
-908 -5088 5142 0
-908 -5089 5143 0
-908 -5090 5144 0
-908 -5091 5145 0
-908 -5092 5146 0
-908 -5093 5147 0
-908 -5094 5148 0
-908 -5095 5149 0
-908 -5096 5150 0
-908 -5097 5151 0
-908 -5098 5152 0
-908 -5099 5153 0
-908 -5100 5154 0
-908 -5101 5155 0
-908 -5102 5156 0
-908 -5103 5157 0
-908 -5104 5158 0
-908 -5105 5159 0
-908 -5106 5160 0
-908 -5107 0
-5108 5161 0
-5109 5162 0
-5110 5163 0
-5111 5164 0
-5112 5165 0
-5113 5166 0
-5114 5167 0
-5115 5168 0
-5116 5169 0
-5117 5170 0
-5118 5171 0
-5119 5172 0
-5120 5173 0
-5121 5174 0
-5122 5175 0
-5123 5176 0
-5124 5177 0
-5125 5178 0
-5126 5179 0
-5127 5180 0
-5128 5181 0
-5129 5182 0
-5130 5183 0
-5131 5184 0
-5132 5185 0
-5133 5186 0
-5134 5187 0
-5135 5188 0
-5136 5189 0
-5137 5190 0
-5138 5191 0
-5139 5192 0
-5140 5193 0
-5141 5194 0
-5142 5195 0
-5143 5196 0
-5144 5197 0
-5145 5198 0
-5146 5199 0
-5147 5200 0
-5148 5201 0
-5149 5202 0
-5150 5203 0
-5151 5204 0
-5152 5205 0
-5153 5206 0
-5154 5207 0
-5155 5208 0
-5156 5209 0
-5157 5210 0
-5158 5211 0
-5159 5212 0
-5160 5213 0
-910 -5108 5162 0
-910 -5109 5163 0
-910 -5110 5164 0
-910 -5111 5165 0
-910 -5112 5166 0
-910 -5113 5167 0
-910 -5114 5168 0
-910 -5115 5169 0
-910 -5116 5170 0
-910 -5117 5171 0
-910 -5118 5172 0
-910 -5119 5173 0
-910 -5120 5174 0
-910 -5121 5175 0
-910 -5122 5176 0
-910 -5123 5177 0
-910 -5124 5178 0
-910 -5125 5179 0
-910 -5126 5180 0
-910 -5127 5181 0
-910 -5128 5182 0
-910 -5129 5183 0
-910 -5130 5184 0
-910 -5131 5185 0
-910 -5132 5186 0
-910 -5133 5187 0
-910 -5134 5188 0
-910 -5135 5189 0
-910 -5136 5190 0
-910 -5137 5191 0
-910 -5138 5192 0
-910 -5139 5193 0
-910 -5140 5194 0
-910 -5141 5195 0
-910 -5142 5196 0
-910 -5143 5197 0
-910 -5144 5198 0
-910 -5145 5199 0
-910 -5146 5200 0
-910 -5147 5201 0
-910 -5148 5202 0
-910 -5149 5203 0
-910 -5150 5204 0
-910 -5151 5205 0
-910 -5152 5206 0
-910 -5153 5207 0
-910 -5154 5208 0
-910 -5155 5209 0
-910 -5156 5210 0
-910 -5157 5211 0
-910 -5158 5212 0
-910 -5159 5213 0
-910 -5160 0
-5161 5214 0
-5162 5215 0
-5163 5216 0
-5164 5217 0
-5165 5218 0
-5166 5219 0
-5167 5220 0
-5168 5221 0
-5169 5222 0
-5170 5223 0
-5171 5224 0
-5172 5225 0
-5173 5226 0
-5174 5227 0
-5175 5228 0
-5176 5229 0
-5177 5230 0
-5178 5231 0
-5179 5232 0
-5180 5233 0
-5181 5234 0
-5182 5235 0
-5183 5236 0
-5184 5237 0
-5185 5238 0
-5186 5239 0
-5187 5240 0
-5188 5241 0
-5189 5242 0
-5190 5243 0
-5191 5244 0
-5192 5245 0
-5193 5246 0
-5194 5247 0
-5195 5248 0
-5196 5249 0
-5197 5250 0
-5198 5251 0
-5199 5252 0
-5200 5253 0
-5201 5254 0
-5202 5255 0
-5203 5256 0
-5204 5257 0
-5205 5258 0
-5206 5259 0
-5207 5260 0
-5208 5261 0
-5209 5262 0
-5210 5263 0
-5211 5264 0
-5212 5265 0
-5213 5266 0
-912 -5161 5215 0
-912 -5162 5216 0
-912 -5163 5217 0
-912 -5164 5218 0
-912 -5165 5219 0
-912 -5166 5220 0
-912 -5167 5221 0
-912 -5168 5222 0
-912 -5169 5223 0
-912 -5170 5224 0
-912 -5171 5225 0
-912 -5172 5226 0
-912 -5173 5227 0
-912 -5174 5228 0
-912 -5175 5229 0
-912 -5176 5230 0
-912 -5177 5231 0
-912 -5178 5232 0
-912 -5179 5233 0
-912 -5180 5234 0
-912 -5181 5235 0
-912 -5182 5236 0
-912 -5183 5237 0
-912 -5184 5238 0
-912 -5185 5239 0
-912 -5186 5240 0
-912 -5187 5241 0
-912 -5188 5242 0
-912 -5189 5243 0
-912 -5190 5244 0
-912 -5191 5245 0
-912 -5192 5246 0
-912 -5193 5247 0
-912 -5194 5248 0
-912 -5195 5249 0
-912 -5196 5250 0
-912 -5197 5251 0
-912 -5198 5252 0
-912 -5199 5253 0
-912 -5200 5254 0
-912 -5201 5255 0
-912 -5202 5256 0
-912 -5203 5257 0
-912 -5204 5258 0
-912 -5205 5259 0
-912 -5206 5260 0
-912 -5207 5261 0
-912 -5208 5262 0
-912 -5209 5263 0
-912 -5210 5264 0
-912 -5211 5265 0
-912 -5212 5266 0
-912 -5213 0
-5214 5267 0
-5215 5268 0
-5216 5269 0
-5217 5270 0
-5218 5271 0
-5219 5272 0
-5220 5273 0
-5221 5274 0
-5222 5275 0
-5223 5276 0
-5224 5277 0
-5225 5278 0
-5226 5279 0
-5227 5280 0
-5228 5281 0
-5229 5282 0
-5230 5283 0
-5231 5284 0
-5232 5285 0
-5233 5286 0
-5234 5287 0
-5235 5288 0
-5236 5289 0
-5237 5290 0
-5238 5291 0
-5239 5292 0
-5240 5293 0
-5241 5294 0
-5242 5295 0
-5243 5296 0
-5244 5297 0
-5245 5298 0
-5246 5299 0
-5247 5300 0
-5248 5301 0
-5249 5302 0
-5250 5303 0
-5251 5304 0
-5252 5305 0
-5253 5306 0
-5254 5307 0
-5255 5308 0
-5256 5309 0
-5257 5310 0
-5258 5311 0
-5259 5312 0
-5260 5313 0
-5261 5314 0
-5262 5315 0
-5263 5316 0
-5264 5317 0
-5265 5318 0
-5266 5319 0
-914 -5214 5268 0
-914 -5215 5269 0
-914 -5216 5270 0
-914 -5217 5271 0
-914 -5218 5272 0
-914 -5219 5273 0
-914 -5220 5274 0
-914 -5221 5275 0
-914 -5222 5276 0
-914 -5223 5277 0
-914 -5224 5278 0
-914 -5225 5279 0
-914 -5226 5280 0
-914 -5227 5281 0
-914 -5228 5282 0
-914 -5229 5283 0
-914 -5230 5284 0
-914 -5231 5285 0
-914 -5232 5286 0
-914 -5233 5287 0
-914 -5234 5288 0
-914 -5235 5289 0
-914 -5236 5290 0
-914 -5237 5291 0
-914 -5238 5292 0
-914 -5239 5293 0
-914 -5240 5294 0
-914 -5241 5295 0
-914 -5242 5296 0
-914 -5243 5297 0
-914 -5244 5298 0
-914 -5245 5299 0
-914 -5246 5300 0
-914 -5247 5301 0
-914 -5248 5302 0
-914 -5249 5303 0
-914 -5250 5304 0
-914 -5251 5305 0
-914 -5252 5306 0
-914 -5253 5307 0
-914 -5254 5308 0
-914 -5255 5309 0
-914 -5256 5310 0
-914 -5257 5311 0
-914 -5258 5312 0
-914 -5259 5313 0
-914 -5260 5314 0
-914 -5261 5315 0
-914 -5262 5316 0
-914 -5263 5317 0
-914 -5264 5318 0
-914 -5265 5319 0
-914 -5266 0
-5267 5320 0
-5268 5321 0
-5269 5322 0
-5270 5323 0
-5271 5324 0
-5272 5325 0
-5273 5326 0
-5274 5327 0
-5275 5328 0
-5276 5329 0
-5277 5330 0
-5278 5331 0
-5279 5332 0
-5280 5333 0
-5281 5334 0
-5282 5335 0
-5283 5336 0
-5284 5337 0
-5285 5338 0
-5286 5339 0
-5287 5340 0
-5288 5341 0
-5289 5342 0
-5290 5343 0
-5291 5344 0
-5292 5345 0
-5293 5346 0
-5294 5347 0
-5295 5348 0
-5296 5349 0
-5297 5350 0
-5298 5351 0
-5299 5352 0
-5300 5353 0
-5301 5354 0
-5302 5355 0
-5303 5356 0
-5304 5357 0
-5305 5358 0
-5306 5359 0
-5307 5360 0
-5308 5361 0
-5309 5362 0
-5310 5363 0
-5311 5364 0
-5312 5365 0
-5313 5366 0
-5314 5367 0
-5315 5368 0
-5316 5369 0
-5317 5370 0
-5318 5371 0
-5319 5372 0
-916 -5267 5321 0
-916 -5268 5322 0
-916 -5269 5323 0
-916 -5270 5324 0
-916 -5271 5325 0
-916 -5272 5326 0
-916 -5273 5327 0
-916 -5274 5328 0
-916 -5275 5329 0
-916 -5276 5330 0
-916 -5277 5331 0
-916 -5278 5332 0
-916 -5279 5333 0
-916 -5280 5334 0
-916 -5281 5335 0
-916 -5282 5336 0
-916 -5283 5337 0
-916 -5284 5338 0
-916 -5285 5339 0
-916 -5286 5340 0
-916 -5287 5341 0
-916 -5288 5342 0
-916 -5289 5343 0
-916 -5290 5344 0
-916 -5291 5345 0
-916 -5292 5346 0
-916 -5293 5347 0
-916 -5294 5348 0
-916 -5295 5349 0
-916 -5296 5350 0
-916 -5297 5351 0
-916 -5298 5352 0
-916 -5299 5353 0
-916 -5300 5354 0
-916 -5301 5355 0
-916 -5302 5356 0
-916 -5303 5357 0
-916 -5304 5358 0
-916 -5305 5359 0
-916 -5306 5360 0
-916 -5307 5361 0
-916 -5308 5362 0
-916 -5309 5363 0
-916 -5310 5364 0
-916 -5311 5365 0
-916 -5312 5366 0
-916 -5313 5367 0
-916 -5314 5368 0
-916 -5315 5369 0
-916 -5316 5370 0
-916 -5317 5371 0
-916 -5318 5372 0
-916 -5319 0
-5320 5373 0
-5321 5374 0
-5322 5375 0
-5323 5376 0
-5324 5377 0
-5325 5378 0
-5326 5379 0
-5327 5380 0
-5328 5381 0
-5329 5382 0
-5330 5383 0
-5331 5384 0
-5332 5385 0
-5333 5386 0
-5334 5387 0
-5335 5388 0
-5336 5389 0
-5337 5390 0
-5338 5391 0
-5339 5392 0
-5340 5393 0
-5341 5394 0
-5342 5395 0
-5343 5396 0
-5344 5397 0
-5345 5398 0
-5346 5399 0
-5347 5400 0
-5348 5401 0
-5349 5402 0
-5350 5403 0
-5351 5404 0
-5352 5405 0
-5353 5406 0
-5354 5407 0
-5355 5408 0
-5356 5409 0
-5357 5410 0
-5358 5411 0
-5359 5412 0
-5360 5413 0
-5361 5414 0
-5362 5415 0
-5363 5416 0
-5364 5417 0
-5365 5418 0
-5366 5419 0
-5367 5420 0
-5368 5421 0
-5369 5422 0
-5370 5423 0
-5371 5424 0
-5372 5425 0
-918 -5320 5374 0
-918 -5321 5375 0
-918 -5322 5376 0
-918 -5323 5377 0
-918 -5324 5378 0
-918 -5325 5379 0
-918 -5326 5380 0
-918 -5327 5381 0
-918 -5328 5382 0
-918 -5329 5383 0
-918 -5330 5384 0
-918 -5331 5385 0
-918 -5332 5386 0
-918 -5333 5387 0
-918 -5334 5388 0
-918 -5335 5389 0
-918 -5336 5390 0
-918 -5337 5391 0
-918 -5338 5392 0
-918 -5339 5393 0
-918 -5340 5394 0
-918 -5341 5395 0
-918 -5342 5396 0
-918 -5343 5397 0
-918 -5344 5398 0
-918 -5345 5399 0
-918 -5346 5400 0
-918 -5347 5401 0
-918 -5348 5402 0
-918 -5349 5403 0
-918 -5350 5404 0
-918 -5351 5405 0
-918 -5352 5406 0
-918 -5353 5407 0
-918 -5354 5408 0
-918 -5355 5409 0
-918 -5356 5410 0
-918 -5357 5411 0
-918 -5358 5412 0
-918 -5359 5413 0
-918 -5360 5414 0
-918 -5361 5415 0
-918 -5362 5416 0
-918 -5363 5417 0
-918 -5364 5418 0
-918 -5365 5419 0
-918 -5366 5420 0
-918 -5367 5421 0
-918 -5368 5422 0
-918 -5369 5423 0
-918 -5370 5424 0
-918 -5371 5425 0
-918 -5372 0
-5373 5426 0
-5374 5427 0
-5375 5428 0
-5376 5429 0
-5377 5430 0
-5378 5431 0
-5379 5432 0
-5380 5433 0
-5381 5434 0
-5382 5435 0
-5383 5436 0
-5384 5437 0
-5385 5438 0
-5386 5439 0
-5387 5440 0
-5388 5441 0
-5389 5442 0
-5390 5443 0
-5391 5444 0
-5392 5445 0
-5393 5446 0
-5394 5447 0
-5395 5448 0
-5396 5449 0
-5397 5450 0
-5398 5451 0
-5399 5452 0
-5400 5453 0
-5401 5454 0
-5402 5455 0
-5403 5456 0
-5404 5457 0
-5405 5458 0
-5406 5459 0
-5407 5460 0
-5408 5461 0
-5409 5462 0
-5410 5463 0
-5411 5464 0
-5412 5465 0
-5413 5466 0
-5414 5467 0
-5415 5468 0
-5416 5469 0
-5417 5470 0
-5418 5471 0
-5419 5472 0
-5420 5473 0
-5421 5474 0
-5422 5475 0
-5423 5476 0
-5424 5477 0
-5425 5478 0
-920 -5373 5427 0
-920 -5374 5428 0
-920 -5375 5429 0
-920 -5376 5430 0
-920 -5377 5431 0
-920 -5378 5432 0
-920 -5379 5433 0
-920 -5380 5434 0
-920 -5381 5435 0
-920 -5382 5436 0
-920 -5383 5437 0
-920 -5384 5438 0
-920 -5385 5439 0
-920 -5386 5440 0
-920 -5387 5441 0
-920 -5388 5442 0
-920 -5389 5443 0
-920 -5390 5444 0
-920 -5391 5445 0
-920 -5392 5446 0
-920 -5393 5447 0
-920 -5394 5448 0
-920 -5395 5449 0
-920 -5396 5450 0
-920 -5397 5451 0
-920 -5398 5452 0
-920 -5399 5453 0
-920 -5400 5454 0
-920 -5401 5455 0
-920 -5402 5456 0
-920 -5403 5457 0
-920 -5404 5458 0
-920 -5405 5459 0
-920 -5406 5460 0
-920 -5407 5461 0
-920 -5408 5462 0
-920 -5409 5463 0
-920 -5410 5464 0
-920 -5411 5465 0
-920 -5412 5466 0
-920 -5413 5467 0
-920 -5414 5468 0
-920 -5415 5469 0
-920 -5416 5470 0
-920 -5417 5471 0
-920 -5418 5472 0
-920 -5419 5473 0
-920 -5420 5474 0
-920 -5421 5475 0
-920 -5422 5476 0
-920 -5423 5477 0
-920 -5424 5478 0
-920 -5425 0
-5426 5479 0
-5427 5480 0
-5428 5481 0
-5429 5482 0
-5430 5483 0
-5431 5484 0
-5432 5485 0
-5433 5486 0
-5434 5487 0
-5435 5488 0
-5436 5489 0
-5437 5490 0
-5438 5491 0
-5439 5492 0
-5440 5493 0
-5441 5494 0
-5442 5495 0
-5443 5496 0
-5444 5497 0
-5445 5498 0
-5446 5499 0
-5447 5500 0
-5448 5501 0
-5449 5502 0
-5450 5503 0
-5451 5504 0
-5452 5505 0
-5453 5506 0
-5454 5507 0
-5455 5508 0
-5456 5509 0
-5457 5510 0
-5458 5511 0
-5459 5512 0
-5460 5513 0
-5461 5514 0
-5462 5515 0
-5463 5516 0
-5464 5517 0
-5465 5518 0
-5466 5519 0
-5467 5520 0
-5468 5521 0
-5469 5522 0
-5470 5523 0
-5471 5524 0
-5472 5525 0
-5473 5526 0
-5474 5527 0
-5475 5528 0
-5476 5529 0
-5477 5530 0
-5478 5531 0
-922 -5426 5480 0
-922 -5427 5481 0
-922 -5428 5482 0
-922 -5429 5483 0
-922 -5430 5484 0
-922 -5431 5485 0
-922 -5432 5486 0
-922 -5433 5487 0
-922 -5434 5488 0
-922 -5435 5489 0
-922 -5436 5490 0
-922 -5437 5491 0
-922 -5438 5492 0
-922 -5439 5493 0
-922 -5440 5494 0
-922 -5441 5495 0
-922 -5442 5496 0
-922 -5443 5497 0
-922 -5444 5498 0
-922 -5445 5499 0
-922 -5446 5500 0
-922 -5447 5501 0
-922 -5448 5502 0
-922 -5449 5503 0
-922 -5450 5504 0
-922 -5451 5505 0
-922 -5452 5506 0
-922 -5453 5507 0
-922 -5454 5508 0
-922 -5455 5509 0
-922 -5456 5510 0
-922 -5457 5511 0
-922 -5458 5512 0
-922 -5459 5513 0
-922 -5460 5514 0
-922 -5461 5515 0
-922 -5462 5516 0
-922 -5463 5517 0
-922 -5464 5518 0
-922 -5465 5519 0
-922 -5466 5520 0
-922 -5467 5521 0
-922 -5468 5522 0
-922 -5469 5523 0
-922 -5470 5524 0
-922 -5471 5525 0
-922 -5472 5526 0
-922 -5473 5527 0
-922 -5474 5528 0
-922 -5475 5529 0
-922 -5476 5530 0
-922 -5477 5531 0
-922 -5478 0
-5479 5532 0
-5480 5533 0
-5481 5534 0
-5482 5535 0
-5483 5536 0
-5484 5537 0
-5485 5538 0
-5486 5539 0
-5487 5540 0
-5488 5541 0
-5489 5542 0
-5490 5543 0
-5491 5544 0
-5492 5545 0
-5493 5546 0
-5494 5547 0
-5495 5548 0
-5496 5549 0
-5497 5550 0
-5498 5551 0
-5499 5552 0
-5500 5553 0
-5501 5554 0
-5502 5555 0
-5503 5556 0
-5504 5557 0
-5505 5558 0
-5506 5559 0
-5507 5560 0
-5508 5561 0
-5509 5562 0
-5510 5563 0
-5511 5564 0
-5512 5565 0
-5513 5566 0
-5514 5567 0
-5515 5568 0
-5516 5569 0
-5517 5570 0
-5518 5571 0
-5519 5572 0
-5520 5573 0
-5521 5574 0
-5522 5575 0
-5523 5576 0
-5524 5577 0
-5525 5578 0
-5526 5579 0
-5527 5580 0
-5528 5581 0
-5529 5582 0
-5530 5583 0
-5531 5584 0
-924 -5479 5533 0
-924 -5480 5534 0
-924 -5481 5535 0
-924 -5482 5536 0
-924 -5483 5537 0
-924 -5484 5538 0
-924 -5485 5539 0
-924 -5486 5540 0
-924 -5487 5541 0
-924 -5488 5542 0
-924 -5489 5543 0
-924 -5490 5544 0
-924 -5491 5545 0
-924 -5492 5546 0
-924 -5493 5547 0
-924 -5494 5548 0
-924 -5495 5549 0
-924 -5496 5550 0
-924 -5497 5551 0
-924 -5498 5552 0
-924 -5499 5553 0
-924 -5500 5554 0
-924 -5501 5555 0
-924 -5502 5556 0
-924 -5503 5557 0
-924 -5504 5558 0
-924 -5505 5559 0
-924 -5506 5560 0
-924 -5507 5561 0
-924 -5508 5562 0
-924 -5509 5563 0
-924 -5510 5564 0
-924 -5511 5565 0
-924 -5512 5566 0
-924 -5513 5567 0
-924 -5514 5568 0
-924 -5515 5569 0
-924 -5516 5570 0
-924 -5517 5571 0
-924 -5518 5572 0
-924 -5519 5573 0
-924 -5520 5574 0
-924 -5521 5575 0
-924 -5522 5576 0
-924 -5523 5577 0
-924 -5524 5578 0
-924 -5525 5579 0
-924 -5526 5580 0
-924 -5527 5581 0
-924 -5528 5582 0
-924 -5529 5583 0
-924 -5530 5584 0
-924 -5531 0
-5532 5585 0
-5533 5586 0
-5534 5587 0
-5535 5588 0
-5536 5589 0
-5537 5590 0
-5538 5591 0
-5539 5592 0
-5540 5593 0
-5541 5594 0
-5542 5595 0
-5543 5596 0
-5544 5597 0
-5545 5598 0
-5546 5599 0
-5547 5600 0
-5548 5601 0
-5549 5602 0
-5550 5603 0
-5551 5604 0
-5552 5605 0
-5553 5606 0
-5554 5607 0
-5555 5608 0
-5556 5609 0
-5557 5610 0
-5558 5611 0
-5559 5612 0
-5560 5613 0
-5561 5614 0
-5562 5615 0
-5563 5616 0
-5564 5617 0
-5565 5618 0
-5566 5619 0
-5567 5620 0
-5568 5621 0
-5569 5622 0
-5570 5623 0
-5571 5624 0
-5572 5625 0
-5573 5626 0
-5574 5627 0
-5575 5628 0
-5576 5629 0
-5577 5630 0
-5578 5631 0
-5579 5632 0
-5580 5633 0
-5581 5634 0
-5582 5635 0
-5583 5636 0
-5584 5637 0
-926 -5532 5586 0
-926 -5533 5587 0
-926 -5534 5588 0
-926 -5535 5589 0
-926 -5536 5590 0
-926 -5537 5591 0
-926 -5538 5592 0
-926 -5539 5593 0
-926 -5540 5594 0
-926 -5541 5595 0
-926 -5542 5596 0
-926 -5543 5597 0
-926 -5544 5598 0
-926 -5545 5599 0
-926 -5546 5600 0
-926 -5547 5601 0
-926 -5548 5602 0
-926 -5549 5603 0
-926 -5550 5604 0
-926 -5551 5605 0
-926 -5552 5606 0
-926 -5553 5607 0
-926 -5554 5608 0
-926 -5555 5609 0
-926 -5556 5610 0
-926 -5557 5611 0
-926 -5558 5612 0
-926 -5559 5613 0
-926 -5560 5614 0
-926 -5561 5615 0
-926 -5562 5616 0
-926 -5563 5617 0
-926 -5564 5618 0
-926 -5565 5619 0
-926 -5566 5620 0
-926 -5567 5621 0
-926 -5568 5622 0
-926 -5569 5623 0
-926 -5570 5624 0
-926 -5571 5625 0
-926 -5572 5626 0
-926 -5573 5627 0
-926 -5574 5628 0
-926 -5575 5629 0
-926 -5576 5630 0
-926 -5577 5631 0
-926 -5578 5632 0
-926 -5579 5633 0
-926 -5580 5634 0
-926 -5581 5635 0
-926 -5582 5636 0
-926 -5583 5637 0
-926 -5584 0
-5585 5638 0
-5586 5639 0
-5587 5640 0
-5588 5641 0
-5589 5642 0
-5590 5643 0
-5591 5644 0
-5592 5645 0
-5593 5646 0
-5594 5647 0
-5595 5648 0
-5596 5649 0
-5597 5650 0
-5598 5651 0
-5599 5652 0
-5600 5653 0
-5601 5654 0
-5602 5655 0
-5603 5656 0
-5604 5657 0
-5605 5658 0
-5606 5659 0
-5607 5660 0
-5608 5661 0
-5609 5662 0
-5610 5663 0
-5611 5664 0
-5612 5665 0
-5613 5666 0
-5614 5667 0
-5615 5668 0
-5616 5669 0
-5617 5670 0
-5618 5671 0
-5619 5672 0
-5620 5673 0
-5621 5674 0
-5622 5675 0
-5623 5676 0
-5624 5677 0
-5625 5678 0
-5626 5679 0
-5627 5680 0
-5628 5681 0
-5629 5682 0
-5630 5683 0
-5631 5684 0
-5632 5685 0
-5633 5686 0
-5634 5687 0
-5635 5688 0
-5636 5689 0
-5637 5690 0
-928 -5585 5639 0
-928 -5586 5640 0
-928 -5587 5641 0
-928 -5588 5642 0
-928 -5589 5643 0
-928 -5590 5644 0
-928 -5591 5645 0
-928 -5592 5646 0
-928 -5593 5647 0
-928 -5594 5648 0
-928 -5595 5649 0
-928 -5596 5650 0
-928 -5597 5651 0
-928 -5598 5652 0
-928 -5599 5653 0
-928 -5600 5654 0
-928 -5601 5655 0
-928 -5602 5656 0
-928 -5603 5657 0
-928 -5604 5658 0
-928 -5605 5659 0
-928 -5606 5660 0
-928 -5607 5661 0
-928 -5608 5662 0
-928 -5609 5663 0
-928 -5610 5664 0
-928 -5611 5665 0
-928 -5612 5666 0
-928 -5613 5667 0
-928 -5614 5668 0
-928 -5615 5669 0
-928 -5616 5670 0
-928 -5617 5671 0
-928 -5618 5672 0
-928 -5619 5673 0
-928 -5620 5674 0
-928 -5621 5675 0
-928 -5622 5676 0
-928 -5623 5677 0
-928 -5624 5678 0
-928 -5625 5679 0
-928 -5626 5680 0
-928 -5627 5681 0
-928 -5628 5682 0
-928 -5629 5683 0
-928 -5630 5684 0
-928 -5631 5685 0
-928 -5632 5686 0
-928 -5633 5687 0
-928 -5634 5688 0
-928 -5635 5689 0
-928 -5636 5690 0
-928 -5637 0
-5638 5691 0
-5639 5692 0
-5640 5693 0
-5641 5694 0
-5642 5695 0
-5643 5696 0
-5644 5697 0
-5645 5698 0
-5646 5699 0
-5647 5700 0
-5648 5701 0
-5649 5702 0
-5650 5703 0
-5651 5704 0
-5652 5705 0
-5653 5706 0
-5654 5707 0
-5655 5708 0
-5656 5709 0
-5657 5710 0
-5658 5711 0
-5659 5712 0
-5660 5713 0
-5661 5714 0
-5662 5715 0
-5663 5716 0
-5664 5717 0
-5665 5718 0
-5666 5719 0
-5667 5720 0
-5668 5721 0
-5669 5722 0
-5670 5723 0
-5671 5724 0
-5672 5725 0
-5673 5726 0
-5674 5727 0
-5675 5728 0
-5676 5729 0
-5677 5730 0
-5678 5731 0
-5679 5732 0
-5680 5733 0
-5681 5734 0
-5682 5735 0
-5683 5736 0
-5684 5737 0
-5685 5738 0
-5686 5739 0
-5687 5740 0
-5688 5741 0
-5689 5742 0
-5690 5743 0
-930 -5638 5692 0
-930 -5639 5693 0
-930 -5640 5694 0
-930 -5641 5695 0
-930 -5642 5696 0
-930 -5643 5697 0
-930 -5644 5698 0
-930 -5645 5699 0
-930 -5646 5700 0
-930 -5647 5701 0
-930 -5648 5702 0
-930 -5649 5703 0
-930 -5650 5704 0
-930 -5651 5705 0
-930 -5652 5706 0
-930 -5653 5707 0
-930 -5654 5708 0
-930 -5655 5709 0
-930 -5656 5710 0
-930 -5657 5711 0
-930 -5658 5712 0
-930 -5659 5713 0
-930 -5660 5714 0
-930 -5661 5715 0
-930 -5662 5716 0
-930 -5663 5717 0
-930 -5664 5718 0
-930 -5665 5719 0
-930 -5666 5720 0
-930 -5667 5721 0
-930 -5668 5722 0
-930 -5669 5723 0
-930 -5670 5724 0
-930 -5671 5725 0
-930 -5672 5726 0
-930 -5673 5727 0
-930 -5674 5728 0
-930 -5675 5729 0
-930 -5676 5730 0
-930 -5677 5731 0
-930 -5678 5732 0
-930 -5679 5733 0
-930 -5680 5734 0
-930 -5681 5735 0
-930 -5682 5736 0
-930 -5683 5737 0
-930 -5684 5738 0
-930 -5685 5739 0
-930 -5686 5740 0
-930 -5687 5741 0
-930 -5688 5742 0
-930 -5689 5743 0
-930 -5690 0
-5691 5744 0
-5692 5745 0
-5693 5746 0
-5694 5747 0
-5695 5748 0
-5696 5749 0
-5697 5750 0
-5698 5751 0
-5699 5752 0
-5700 5753 0
-5701 5754 0
-5702 5755 0
-5703 5756 0
-5704 5757 0
-5705 5758 0
-5706 5759 0
-5707 5760 0
-5708 5761 0
-5709 5762 0
-5710 5763 0
-5711 5764 0
-5712 5765 0
-5713 5766 0
-5714 5767 0
-5715 5768 0
-5716 5769 0
-5717 5770 0
-5718 5771 0
-5719 5772 0
-5720 5773 0
-5721 5774 0
-5722 5775 0
-5723 5776 0
-5724 5777 0
-5725 5778 0
-5726 5779 0
-5727 5780 0
-5728 5781 0
-5729 5782 0
-5730 5783 0
-5731 5784 0
-5732 5785 0
-5733 5786 0
-5734 5787 0
-5735 5788 0
-5736 5789 0
-5737 5790 0
-5738 5791 0
-5739 5792 0
-5740 5793 0
-5741 5794 0
-5742 5795 0
-5743 5796 0
-932 -5691 5745 0
-932 -5692 5746 0
-932 -5693 5747 0
-932 -5694 5748 0
-932 -5695 5749 0
-932 -5696 5750 0
-932 -5697 5751 0
-932 -5698 5752 0
-932 -5699 5753 0
-932 -5700 5754 0
-932 -5701 5755 0
-932 -5702 5756 0
-932 -5703 5757 0
-932 -5704 5758 0
-932 -5705 5759 0
-932 -5706 5760 0
-932 -5707 5761 0
-932 -5708 5762 0
-932 -5709 5763 0
-932 -5710 5764 0
-932 -5711 5765 0
-932 -5712 5766 0
-932 -5713 5767 0
-932 -5714 5768 0
-932 -5715 5769 0
-932 -5716 5770 0
-932 -5717 5771 0
-932 -5718 5772 0
-932 -5719 5773 0
-932 -5720 5774 0
-932 -5721 5775 0
-932 -5722 5776 0
-932 -5723 5777 0
-932 -5724 5778 0
-932 -5725 5779 0
-932 -5726 5780 0
-932 -5727 5781 0
-932 -5728 5782 0
-932 -5729 5783 0
-932 -5730 5784 0
-932 -5731 5785 0
-932 -5732 5786 0
-932 -5733 5787 0
-932 -5734 5788 0
-932 -5735 5789 0
-932 -5736 5790 0
-932 -5737 5791 0
-932 -5738 5792 0
-932 -5739 5793 0
-932 -5740 5794 0
-932 -5741 5795 0
-932 -5742 5796 0
-932 -5743 0
-5744 5797 0
-5745 5798 0
-5746 5799 0
-5747 5800 0
-5748 5801 0
-5749 5802 0
-5750 5803 0
-5751 5804 0
-5752 5805 0
-5753 5806 0
-5754 5807 0
-5755 5808 0
-5756 5809 0
-5757 5810 0
-5758 5811 0
-5759 5812 0
-5760 5813 0
-5761 5814 0
-5762 5815 0
-5763 5816 0
-5764 5817 0
-5765 5818 0
-5766 5819 0
-5767 5820 0
-5768 5821 0
-5769 5822 0
-5770 5823 0
-5771 5824 0
-5772 5825 0
-5773 5826 0
-5774 5827 0
-5775 5828 0
-5776 5829 0
-5777 5830 0
-5778 5831 0
-5779 5832 0
-5780 5833 0
-5781 5834 0
-5782 5835 0
-5783 5836 0
-5784 5837 0
-5785 5838 0
-5786 5839 0
-5787 5840 0
-5788 5841 0
-5789 5842 0
-5790 5843 0
-5791 5844 0
-5792 5845 0
-5793 5846 0
-5794 5847 0
-5795 5848 0
-5796 5849 0
-934 -5744 5798 0
-934 -5745 5799 0
-934 -5746 5800 0
-934 -5747 5801 0
-934 -5748 5802 0
-934 -5749 5803 0
-934 -5750 5804 0
-934 -5751 5805 0
-934 -5752 5806 0
-934 -5753 5807 0
-934 -5754 5808 0
-934 -5755 5809 0
-934 -5756 5810 0
-934 -5757 5811 0
-934 -5758 5812 0
-934 -5759 5813 0
-934 -5760 5814 0
-934 -5761 5815 0
-934 -5762 5816 0
-934 -5763 5817 0
-934 -5764 5818 0
-934 -5765 5819 0
-934 -5766 5820 0
-934 -5767 5821 0
-934 -5768 5822 0
-934 -5769 5823 0
-934 -5770 5824 0
-934 -5771 5825 0
-934 -5772 5826 0
-934 -5773 5827 0
-934 -5774 5828 0
-934 -5775 5829 0
-934 -5776 5830 0
-934 -5777 5831 0
-934 -5778 5832 0
-934 -5779 5833 0
-934 -5780 5834 0
-934 -5781 5835 0
-934 -5782 5836 0
-934 -5783 5837 0
-934 -5784 5838 0
-934 -5785 5839 0
-934 -5786 5840 0
-934 -5787 5841 0
-934 -5788 5842 0
-934 -5789 5843 0
-934 -5790 5844 0
-934 -5791 5845 0
-934 -5792 5846 0
-934 -5793 5847 0
-934 -5794 5848 0
-934 -5795 5849 0
-934 -5796 0
-5797 5850 0
-5798 5851 0
-5799 5852 0
-5800 5853 0
-5801 5854 0
-5802 5855 0
-5803 5856 0
-5804 5857 0
-5805 5858 0
-5806 5859 0
-5807 5860 0
-5808 5861 0
-5809 5862 0
-5810 5863 0
-5811 5864 0
-5812 5865 0
-5813 5866 0
-5814 5867 0
-5815 5868 0
-5816 5869 0
-5817 5870 0
-5818 5871 0
-5819 5872 0
-5820 5873 0
-5821 5874 0
-5822 5875 0
-5823 5876 0
-5824 5877 0
-5825 5878 0
-5826 5879 0
-5827 5880 0
-5828 5881 0
-5829 5882 0
-5830 5883 0
-5831 5884 0
-5832 5885 0
-5833 5886 0
-5834 5887 0
-5835 5888 0
-5836 5889 0
-5837 5890 0
-5838 5891 0
-5839 5892 0
-5840 5893 0
-5841 5894 0
-5842 5895 0
-5843 5896 0
-5844 5897 0
-5845 5898 0
-5846 5899 0
-5847 5900 0
-5848 5901 0
-5849 5902 0
-936 -5797 5851 0
-936 -5798 5852 0
-936 -5799 5853 0
-936 -5800 5854 0
-936 -5801 5855 0
-936 -5802 5856 0
-936 -5803 5857 0
-936 -5804 5858 0
-936 -5805 5859 0
-936 -5806 5860 0
-936 -5807 5861 0
-936 -5808 5862 0
-936 -5809 5863 0
-936 -5810 5864 0
-936 -5811 5865 0
-936 -5812 5866 0
-936 -5813 5867 0
-936 -5814 5868 0
-936 -5815 5869 0
-936 -5816 5870 0
-936 -5817 5871 0
-936 -5818 5872 0
-936 -5819 5873 0
-936 -5820 5874 0
-936 -5821 5875 0
-936 -5822 5876 0
-936 -5823 5877 0
-936 -5824 5878 0
-936 -5825 5879 0
-936 -5826 5880 0
-936 -5827 5881 0
-936 -5828 5882 0
-936 -5829 5883 0
-936 -5830 5884 0
-936 -5831 5885 0
-936 -5832 5886 0
-936 -5833 5887 0
-936 -5834 5888 0
-936 -5835 5889 0
-936 -5836 5890 0
-936 -5837 5891 0
-936 -5838 5892 0
-936 -5839 5893 0
-936 -5840 5894 0
-936 -5841 5895 0
-936 -5842 5896 0
-936 -5843 5897 0
-936 -5844 5898 0
-936 -5845 5899 0
-936 -5846 5900 0
-936 -5847 5901 0
-936 -5848 5902 0
-936 -5849 0
-5850 5903 0
-5851 5904 0
-5852 5905 0
-5853 5906 0
-5854 5907 0
-5855 5908 0
-5856 5909 0
-5857 5910 0
-5858 5911 0
-5859 5912 0
-5860 5913 0
-5861 5914 0
-5862 5915 0
-5863 5916 0
-5864 5917 0
-5865 5918 0
-5866 5919 0
-5867 5920 0
-5868 5921 0
-5869 5922 0
-5870 5923 0
-5871 5924 0
-5872 5925 0
-5873 5926 0
-5874 5927 0
-5875 5928 0
-5876 5929 0
-5877 5930 0
-5878 5931 0
-5879 5932 0
-5880 5933 0
-5881 5934 0
-5882 5935 0
-5883 5936 0
-5884 5937 0
-5885 5938 0
-5886 5939 0
-5887 5940 0
-5888 5941 0
-5889 5942 0
-5890 5943 0
-5891 5944 0
-5892 5945 0
-5893 5946 0
-5894 5947 0
-5895 5948 0
-5896 5949 0
-5897 5950 0
-5898 5951 0
-5899 5952 0
-5900 5953 0
-5901 5954 0
-5902 5955 0
-938 -5850 5904 0
-938 -5851 5905 0
-938 -5852 5906 0
-938 -5853 5907 0
-938 -5854 5908 0
-938 -5855 5909 0
-938 -5856 5910 0
-938 -5857 5911 0
-938 -5858 5912 0
-938 -5859 5913 0
-938 -5860 5914 0
-938 -5861 5915 0
-938 -5862 5916 0
-938 -5863 5917 0
-938 -5864 5918 0
-938 -5865 5919 0
-938 -5866 5920 0
-938 -5867 5921 0
-938 -5868 5922 0
-938 -5869 5923 0
-938 -5870 5924 0
-938 -5871 5925 0
-938 -5872 5926 0
-938 -5873 5927 0
-938 -5874 5928 0
-938 -5875 5929 0
-938 -5876 5930 0
-938 -5877 5931 0
-938 -5878 5932 0
-938 -5879 5933 0
-938 -5880 5934 0
-938 -5881 5935 0
-938 -5882 5936 0
-938 -5883 5937 0
-938 -5884 5938 0
-938 -5885 5939 0
-938 -5886 5940 0
-938 -5887 5941 0
-938 -5888 5942 0
-938 -5889 5943 0
-938 -5890 5944 0
-938 -5891 5945 0
-938 -5892 5946 0
-938 -5893 5947 0
-938 -5894 5948 0
-938 -5895 5949 0
-938 -5896 5950 0
-938 -5897 5951 0
-938 -5898 5952 0
-938 -5899 5953 0
-938 -5900 5954 0
-938 -5901 5955 0
-938 -5902 0
-5903 5956 0
-5904 5957 0
-5905 5958 0
-5906 5959 0
-5907 5960 0
-5908 5961 0
-5909 5962 0
-5910 5963 0
-5911 5964 0
-5912 5965 0
-5913 5966 0
-5914 5967 0
-5915 5968 0
-5916 5969 0
-5917 5970 0
-5918 5971 0
-5919 5972 0
-5920 5973 0
-5921 5974 0
-5922 5975 0
-5923 5976 0
-5924 5977 0
-5925 5978 0
-5926 5979 0
-5927 5980 0
-5928 5981 0
-5929 5982 0
-5930 5983 0
-5931 5984 0
-5932 5985 0
-5933 5986 0
-5934 5987 0
-5935 5988 0
-5936 5989 0
-5937 5990 0
-5938 5991 0
-5939 5992 0
-5940 5993 0
-5941 5994 0
-5942 5995 0
-5943 5996 0
-5944 5997 0
-5945 5998 0
-5946 5999 0
-5947 6000 0
-5948 6001 0
-5949 6002 0
-5950 6003 0
-5951 6004 0
-5952 6005 0
-5953 6006 0
-5954 6007 0
-5955 6008 0
-940 -5903 5957 0
-940 -5904 5958 0
-940 -5905 5959 0
-940 -5906 5960 0
-940 -5907 5961 0
-940 -5908 5962 0
-940 -5909 5963 0
-940 -5910 5964 0
-940 -5911 5965 0
-940 -5912 5966 0
-940 -5913 5967 0
-940 -5914 5968 0
-940 -5915 5969 0
-940 -5916 5970 0
-940 -5917 5971 0
-940 -5918 5972 0
-940 -5919 5973 0
-940 -5920 5974 0
-940 -5921 5975 0
-940 -5922 5976 0
-940 -5923 5977 0
-940 -5924 5978 0
-940 -5925 5979 0
-940 -5926 5980 0
-940 -5927 5981 0
-940 -5928 5982 0
-940 -5929 5983 0
-940 -5930 5984 0
-940 -5931 5985 0
-940 -5932 5986 0
-940 -5933 5987 0
-940 -5934 5988 0
-940 -5935 5989 0
-940 -5936 5990 0
-940 -5937 5991 0
-940 -5938 5992 0
-940 -5939 5993 0
-940 -5940 5994 0
-940 -5941 5995 0
-940 -5942 5996 0
-940 -5943 5997 0
-940 -5944 5998 0
-940 -5945 5999 0
-940 -5946 6000 0
-940 -5947 6001 0
-940 -5948 6002 0
-940 -5949 6003 0
-940 -5950 6004 0
-940 -5951 6005 0
-940 -5952 6006 0
-940 -5953 6007 0
-940 -5954 6008 0
-940 -5955 0
-5956 6009 0
-5957 6010 0
-5958 6011 0
-5959 6012 0
-5960 6013 0
-5961 6014 0
-5962 6015 0
-5963 6016 0
-5964 6017 0
-5965 6018 0
-5966 6019 0
-5967 6020 0
-5968 6021 0
-5969 6022 0
-5970 6023 0
-5971 6024 0
-5972 6025 0
-5973 6026 0
-5974 6027 0
-5975 6028 0
-5976 6029 0
-5977 6030 0
-5978 6031 0
-5979 6032 0
-5980 6033 0
-5981 6034 0
-5982 6035 0
-5983 6036 0
-5984 6037 0
-5985 6038 0
-5986 6039 0
-5987 6040 0
-5988 6041 0
-5989 6042 0
-5990 6043 0
-5991 6044 0
-5992 6045 0
-5993 6046 0
-5994 6047 0
-5995 6048 0
-5996 6049 0
-5997 6050 0
-5998 6051 0
-5999 6052 0
-6000 6053 0
-6001 6054 0
-6002 6055 0
-6003 6056 0
-6004 6057 0
-6005 6058 0
-6006 6059 0
-6007 6060 0
-6008 6061 0
-942 -5956 6010 0
-942 -5957 6011 0
-942 -5958 6012 0
-942 -5959 6013 0
-942 -5960 6014 0
-942 -5961 6015 0
-942 -5962 6016 0
-942 -5963 6017 0
-942 -5964 6018 0
-942 -5965 6019 0
-942 -5966 6020 0
-942 -5967 6021 0
-942 -5968 6022 0
-942 -5969 6023 0
-942 -5970 6024 0
-942 -5971 6025 0
-942 -5972 6026 0
-942 -5973 6027 0
-942 -5974 6028 0
-942 -5975 6029 0
-942 -5976 6030 0
-942 -5977 6031 0
-942 -5978 6032 0
-942 -5979 6033 0
-942 -5980 6034 0
-942 -5981 6035 0
-942 -5982 6036 0
-942 -5983 6037 0
-942 -5984 6038 0
-942 -5985 6039 0
-942 -5986 6040 0
-942 -5987 6041 0
-942 -5988 6042 0
-942 -5989 6043 0
-942 -5990 6044 0
-942 -5991 6045 0
-942 -5992 6046 0
-942 -5993 6047 0
-942 -5994 6048 0
-942 -5995 6049 0
-942 -5996 6050 0
-942 -5997 6051 0
-942 -5998 6052 0
-942 -5999 6053 0
-942 -6000 6054 0
-942 -6001 6055 0
-942 -6002 6056 0
-942 -6003 6057 0
-942 -6004 6058 0
-942 -6005 6059 0
-942 -6006 6060 0
-942 -6007 6061 0
-942 -6008 0
-6009 6062 0
-6010 6063 0
-6011 6064 0
-6012 6065 0
-6013 6066 0
-6014 6067 0
-6015 6068 0
-6016 6069 0
-6017 6070 0
-6018 6071 0
-6019 6072 0
-6020 6073 0
-6021 6074 0
-6022 6075 0
-6023 6076 0
-6024 6077 0
-6025 6078 0
-6026 6079 0
-6027 6080 0
-6028 6081 0
-6029 6082 0
-6030 6083 0
-6031 6084 0
-6032 6085 0
-6033 6086 0
-6034 6087 0
-6035 6088 0
-6036 6089 0
-6037 6090 0
-6038 6091 0
-6039 6092 0
-6040 6093 0
-6041 6094 0
-6042 6095 0
-6043 6096 0
-6044 6097 0
-6045 6098 0
-6046 6099 0
-6047 6100 0
-6048 6101 0
-6049 6102 0
-6050 6103 0
-6051 6104 0
-6052 6105 0
-6053 6106 0
-6054 6107 0
-6055 6108 0
-6056 6109 0
-6057 6110 0
-6058 6111 0
-6059 6112 0
-6060 6113 0
-6061 6114 0
-944 -6009 6063 0
-944 -6010 6064 0
-944 -6011 6065 0
-944 -6012 6066 0
-944 -6013 6067 0
-944 -6014 6068 0
-944 -6015 6069 0
-944 -6016 6070 0
-944 -6017 6071 0
-944 -6018 6072 0
-944 -6019 6073 0
-944 -6020 6074 0
-944 -6021 6075 0
-944 -6022 6076 0
-944 -6023 6077 0
-944 -6024 6078 0
-944 -6025 6079 0
-944 -6026 6080 0
-944 -6027 6081 0
-944 -6028 6082 0
-944 -6029 6083 0
-944 -6030 6084 0
-944 -6031 6085 0
-944 -6032 6086 0
-944 -6033 6087 0
-944 -6034 6088 0
-944 -6035 6089 0
-944 -6036 6090 0
-944 -6037 6091 0
-944 -6038 6092 0
-944 -6039 6093 0
-944 -6040 6094 0
-944 -6041 6095 0
-944 -6042 6096 0
-944 -6043 6097 0
-944 -6044 6098 0
-944 -6045 6099 0
-944 -6046 6100 0
-944 -6047 6101 0
-944 -6048 6102 0
-944 -6049 6103 0
-944 -6050 6104 0
-944 -6051 6105 0
-944 -6052 6106 0
-944 -6053 6107 0
-944 -6054 6108 0
-944 -6055 6109 0
-944 -6056 6110 0
-944 -6057 6111 0
-944 -6058 6112 0
-944 -6059 6113 0
-944 -6060 6114 0
-944 -6061 0
-6062 6115 0
-6063 6116 0
-6064 6117 0
-6065 6118 0
-6066 6119 0
-6067 6120 0
-6068 6121 0
-6069 6122 0
-6070 6123 0
-6071 6124 0
-6072 6125 0
-6073 6126 0
-6074 6127 0
-6075 6128 0
-6076 6129 0
-6077 6130 0
-6078 6131 0
-6079 6132 0
-6080 6133 0
-6081 6134 0
-6082 6135 0
-6083 6136 0
-6084 6137 0
-6085 6138 0
-6086 6139 0
-6087 6140 0
-6088 6141 0
-6089 6142 0
-6090 6143 0
-6091 6144 0
-6092 6145 0
-6093 6146 0
-6094 6147 0
-6095 6148 0
-6096 6149 0
-6097 6150 0
-6098 6151 0
-6099 6152 0
-6100 6153 0
-6101 6154 0
-6102 6155 0
-6103 6156 0
-6104 6157 0
-6105 6158 0
-6106 6159 0
-6107 6160 0
-6108 6161 0
-6109 6162 0
-6110 6163 0
-6111 6164 0
-6112 6165 0
-6113 6166 0
-6114 6167 0
-946 -6062 6116 0
-946 -6063 6117 0
-946 -6064 6118 0
-946 -6065 6119 0
-946 -6066 6120 0
-946 -6067 6121 0
-946 -6068 6122 0
-946 -6069 6123 0
-946 -6070 6124 0
-946 -6071 6125 0
-946 -6072 6126 0
-946 -6073 6127 0
-946 -6074 6128 0
-946 -6075 6129 0
-946 -6076 6130 0
-946 -6077 6131 0
-946 -6078 6132 0
-946 -6079 6133 0
-946 -6080 6134 0
-946 -6081 6135 0
-946 -6082 6136 0
-946 -6083 6137 0
-946 -6084 6138 0
-946 -6085 6139 0
-946 -6086 6140 0
-946 -6087 6141 0
-946 -6088 6142 0
-946 -6089 6143 0
-946 -6090 6144 0
-946 -6091 6145 0
-946 -6092 6146 0
-946 -6093 6147 0
-946 -6094 6148 0
-946 -6095 6149 0
-946 -6096 6150 0
-946 -6097 6151 0
-946 -6098 6152 0
-946 -6099 6153 0
-946 -6100 6154 0
-946 -6101 6155 0
-946 -6102 6156 0
-946 -6103 6157 0
-946 -6104 6158 0
-946 -6105 6159 0
-946 -6106 6160 0
-946 -6107 6161 0
-946 -6108 6162 0
-946 -6109 6163 0
-946 -6110 6164 0
-946 -6111 6165 0
-946 -6112 6166 0
-946 -6113 6167 0
-946 -6114 0
-6115 6168 0
-6116 6169 0
-6117 6170 0
-6118 6171 0
-6119 6172 0
-6120 6173 0
-6121 6174 0
-6122 6175 0
-6123 6176 0
-6124 6177 0
-6125 6178 0
-6126 6179 0
-6127 6180 0
-6128 6181 0
-6129 6182 0
-6130 6183 0
-6131 6184 0
-6132 6185 0
-6133 6186 0
-6134 6187 0
-6135 6188 0
-6136 6189 0
-6137 6190 0
-6138 6191 0
-6139 6192 0
-6140 6193 0
-6141 6194 0
-6142 6195 0
-6143 6196 0
-6144 6197 0
-6145 6198 0
-6146 6199 0
-6147 6200 0
-6148 6201 0
-6149 6202 0
-6150 6203 0
-6151 6204 0
-6152 6205 0
-6153 6206 0
-6154 6207 0
-6155 6208 0
-6156 6209 0
-6157 6210 0
-6158 6211 0
-6159 6212 0
-6160 6213 0
-6161 6214 0
-6162 6215 0
-6163 6216 0
-6164 6217 0
-6165 6218 0
-6166 6219 0
-6167 6220 0
-948 -6115 6169 0
-948 -6116 6170 0
-948 -6117 6171 0
-948 -6118 6172 0
-948 -6119 6173 0
-948 -6120 6174 0
-948 -6121 6175 0
-948 -6122 6176 0
-948 -6123 6177 0
-948 -6124 6178 0
-948 -6125 6179 0
-948 -6126 6180 0
-948 -6127 6181 0
-948 -6128 6182 0
-948 -6129 6183 0
-948 -6130 6184 0
-948 -6131 6185 0
-948 -6132 6186 0
-948 -6133 6187 0
-948 -6134 6188 0
-948 -6135 6189 0
-948 -6136 6190 0
-948 -6137 6191 0
-948 -6138 6192 0
-948 -6139 6193 0
-948 -6140 6194 0
-948 -6141 6195 0
-948 -6142 6196 0
-948 -6143 6197 0
-948 -6144 6198 0
-948 -6145 6199 0
-948 -6146 6200 0
-948 -6147 6201 0
-948 -6148 6202 0
-948 -6149 6203 0
-948 -6150 6204 0
-948 -6151 6205 0
-948 -6152 6206 0
-948 -6153 6207 0
-948 -6154 6208 0
-948 -6155 6209 0
-948 -6156 6210 0
-948 -6157 6211 0
-948 -6158 6212 0
-948 -6159 6213 0
-948 -6160 6214 0
-948 -6161 6215 0
-948 -6162 6216 0
-948 -6163 6217 0
-948 -6164 6218 0
-948 -6165 6219 0
-948 -6166 6220 0
-948 -6167 0
-6168 6221 0
-6169 6222 0
-6170 6223 0
-6171 6224 0
-6172 6225 0
-6173 6226 0
-6174 6227 0
-6175 6228 0
-6176 6229 0
-6177 6230 0
-6178 6231 0
-6179 6232 0
-6180 6233 0
-6181 6234 0
-6182 6235 0
-6183 6236 0
-6184 6237 0
-6185 6238 0
-6186 6239 0
-6187 6240 0
-6188 6241 0
-6189 6242 0
-6190 6243 0
-6191 6244 0
-6192 6245 0
-6193 6246 0
-6194 6247 0
-6195 6248 0
-6196 6249 0
-6197 6250 0
-6198 6251 0
-6199 6252 0
-6200 6253 0
-6201 6254 0
-6202 6255 0
-6203 6256 0
-6204 6257 0
-6205 6258 0
-6206 6259 0
-6207 6260 0
-6208 6261 0
-6209 6262 0
-6210 6263 0
-6211 6264 0
-6212 6265 0
-6213 6266 0
-6214 6267 0
-6215 6268 0
-6216 6269 0
-6217 6270 0
-6218 6271 0
-6219 6272 0
-6220 6273 0
-950 -6168 6222 0
-950 -6169 6223 0
-950 -6170 6224 0
-950 -6171 6225 0
-950 -6172 6226 0
-950 -6173 6227 0
-950 -6174 6228 0
-950 -6175 6229 0
-950 -6176 6230 0
-950 -6177 6231 0
-950 -6178 6232 0
-950 -6179 6233 0
-950 -6180 6234 0
-950 -6181 6235 0
-950 -6182 6236 0
-950 -6183 6237 0
-950 -6184 6238 0
-950 -6185 6239 0
-950 -6186 6240 0
-950 -6187 6241 0
-950 -6188 6242 0
-950 -6189 6243 0
-950 -6190 6244 0
-950 -6191 6245 0
-950 -6192 6246 0
-950 -6193 6247 0
-950 -6194 6248 0
-950 -6195 6249 0
-950 -6196 6250 0
-950 -6197 6251 0
-950 -6198 6252 0
-950 -6199 6253 0
-950 -6200 6254 0
-950 -6201 6255 0
-950 -6202 6256 0
-950 -6203 6257 0
-950 -6204 6258 0
-950 -6205 6259 0
-950 -6206 6260 0
-950 -6207 6261 0
-950 -6208 6262 0
-950 -6209 6263 0
-950 -6210 6264 0
-950 -6211 6265 0
-950 -6212 6266 0
-950 -6213 6267 0
-950 -6214 6268 0
-950 -6215 6269 0
-950 -6216 6270 0
-950 -6217 6271 0
-950 -6218 6272 0
-950 -6219 6273 0
-950 -6220 0
-6221 6274 0
-6222 6275 0
-6223 6276 0
-6224 6277 0
-6225 6278 0
-6226 6279 0
-6227 6280 0
-6228 6281 0
-6229 6282 0
-6230 6283 0
-6231 6284 0
-6232 6285 0
-6233 6286 0
-6234 6287 0
-6235 6288 0
-6236 6289 0
-6237 6290 0
-6238 6291 0
-6239 6292 0
-6240 6293 0
-6241 6294 0
-6242 6295 0
-6243 6296 0
-6244 6297 0
-6245 6298 0
-6246 6299 0
-6247 6300 0
-6248 6301 0
-6249 6302 0
-6250 6303 0
-6251 6304 0
-6252 6305 0
-6253 6306 0
-6254 6307 0
-6255 6308 0
-6256 6309 0
-6257 6310 0
-6258 6311 0
-6259 6312 0
-6260 6313 0
-6261 6314 0
-6262 6315 0
-6263 6316 0
-6264 6317 0
-6265 6318 0
-6266 6319 0
-6267 6320 0
-6268 6321 0
-6269 6322 0
-6270 6323 0
-6271 6324 0
-6272 6325 0
-6273 6326 0
-952 -6221 6275 0
-952 -6222 6276 0
-952 -6223 6277 0
-952 -6224 6278 0
-952 -6225 6279 0
-952 -6226 6280 0
-952 -6227 6281 0
-952 -6228 6282 0
-952 -6229 6283 0
-952 -6230 6284 0
-952 -6231 6285 0
-952 -6232 6286 0
-952 -6233 6287 0
-952 -6234 6288 0
-952 -6235 6289 0
-952 -6236 6290 0
-952 -6237 6291 0
-952 -6238 6292 0
-952 -6239 6293 0
-952 -6240 6294 0
-952 -6241 6295 0
-952 -6242 6296 0
-952 -6243 6297 0
-952 -6244 6298 0
-952 -6245 6299 0
-952 -6246 6300 0
-952 -6247 6301 0
-952 -6248 6302 0
-952 -6249 6303 0
-952 -6250 6304 0
-952 -6251 6305 0
-952 -6252 6306 0
-952 -6253 6307 0
-952 -6254 6308 0
-952 -6255 6309 0
-952 -6256 6310 0
-952 -6257 6311 0
-952 -6258 6312 0
-952 -6259 6313 0
-952 -6260 6314 0
-952 -6261 6315 0
-952 -6262 6316 0
-952 -6263 6317 0
-952 -6264 6318 0
-952 -6265 6319 0
-952 -6266 6320 0
-952 -6267 6321 0
-952 -6268 6322 0
-952 -6269 6323 0
-952 -6270 6324 0
-952 -6271 6325 0
-952 -6272 6326 0
-952 -6273 0
-6274 6327 0
-6275 6328 0
-6276 6329 0
-6277 6330 0
-6278 6331 0
-6279 6332 0
-6280 6333 0
-6281 6334 0
-6282 6335 0
-6283 6336 0
-6284 6337 0
-6285 6338 0
-6286 6339 0
-6287 6340 0
-6288 6341 0
-6289 6342 0
-6290 6343 0
-6291 6344 0
-6292 6345 0
-6293 6346 0
-6294 6347 0
-6295 6348 0
-6296 6349 0
-6297 6350 0
-6298 6351 0
-6299 6352 0
-6300 6353 0
-6301 6354 0
-6302 6355 0
-6303 6356 0
-6304 6357 0
-6305 6358 0
-6306 6359 0
-6307 6360 0
-6308 6361 0
-6309 6362 0
-6310 6363 0
-6311 6364 0
-6312 6365 0
-6313 6366 0
-6314 6367 0
-6315 6368 0
-6316 6369 0
-6317 6370 0
-6318 6371 0
-6319 6372 0
-6320 6373 0
-6321 6374 0
-6322 6375 0
-6323 6376 0
-6324 6377 0
-6325 6378 0
-6326 6379 0
-954 -6274 6328 0
-954 -6275 6329 0
-954 -6276 6330 0
-954 -6277 6331 0
-954 -6278 6332 0
-954 -6279 6333 0
-954 -6280 6334 0
-954 -6281 6335 0
-954 -6282 6336 0
-954 -6283 6337 0
-954 -6284 6338 0
-954 -6285 6339 0
-954 -6286 6340 0
-954 -6287 6341 0
-954 -6288 6342 0
-954 -6289 6343 0
-954 -6290 6344 0
-954 -6291 6345 0
-954 -6292 6346 0
-954 -6293 6347 0
-954 -6294 6348 0
-954 -6295 6349 0
-954 -6296 6350 0
-954 -6297 6351 0
-954 -6298 6352 0
-954 -6299 6353 0
-954 -6300 6354 0
-954 -6301 6355 0
-954 -6302 6356 0
-954 -6303 6357 0
-954 -6304 6358 0
-954 -6305 6359 0
-954 -6306 6360 0
-954 -6307 6361 0
-954 -6308 6362 0
-954 -6309 6363 0
-954 -6310 6364 0
-954 -6311 6365 0
-954 -6312 6366 0
-954 -6313 6367 0
-954 -6314 6368 0
-954 -6315 6369 0
-954 -6316 6370 0
-954 -6317 6371 0
-954 -6318 6372 0
-954 -6319 6373 0
-954 -6320 6374 0
-954 -6321 6375 0
-954 -6322 6376 0
-954 -6323 6377 0
-954 -6324 6378 0
-954 -6325 6379 0
-954 -6326 0
-6327 6380 0
-6328 6381 0
-6329 6382 0
-6330 6383 0
-6331 6384 0
-6332 6385 0
-6333 6386 0
-6334 6387 0
-6335 6388 0
-6336 6389 0
-6337 6390 0
-6338 6391 0
-6339 6392 0
-6340 6393 0
-6341 6394 0
-6342 6395 0
-6343 6396 0
-6344 6397 0
-6345 6398 0
-6346 6399 0
-6347 6400 0
-6348 6401 0
-6349 6402 0
-6350 6403 0
-6351 6404 0
-6352 6405 0
-6353 6406 0
-6354 6407 0
-6355 6408 0
-6356 6409 0
-6357 6410 0
-6358 6411 0
-6359 6412 0
-6360 6413 0
-6361 6414 0
-6362 6415 0
-6363 6416 0
-6364 6417 0
-6365 6418 0
-6366 6419 0
-6367 6420 0
-6368 6421 0
-6369 6422 0
-6370 6423 0
-6371 6424 0
-6372 6425 0
-6373 6426 0
-6374 6427 0
-6375 6428 0
-6376 6429 0
-6377 6430 0
-6378 6431 0
-6379 6432 0
-956 -6327 6381 0
-956 -6328 6382 0
-956 -6329 6383 0
-956 -6330 6384 0
-956 -6331 6385 0
-956 -6332 6386 0
-956 -6333 6387 0
-956 -6334 6388 0
-956 -6335 6389 0
-956 -6336 6390 0
-956 -6337 6391 0
-956 -6338 6392 0
-956 -6339 6393 0
-956 -6340 6394 0
-956 -6341 6395 0
-956 -6342 6396 0
-956 -6343 6397 0
-956 -6344 6398 0
-956 -6345 6399 0
-956 -6346 6400 0
-956 -6347 6401 0
-956 -6348 6402 0
-956 -6349 6403 0
-956 -6350 6404 0
-956 -6351 6405 0
-956 -6352 6406 0
-956 -6353 6407 0
-956 -6354 6408 0
-956 -6355 6409 0
-956 -6356 6410 0
-956 -6357 6411 0
-956 -6358 6412 0
-956 -6359 6413 0
-956 -6360 6414 0
-956 -6361 6415 0
-956 -6362 6416 0
-956 -6363 6417 0
-956 -6364 6418 0
-956 -6365 6419 0
-956 -6366 6420 0
-956 -6367 6421 0
-956 -6368 6422 0
-956 -6369 6423 0
-956 -6370 6424 0
-956 -6371 6425 0
-956 -6372 6426 0
-956 -6373 6427 0
-956 -6374 6428 0
-956 -6375 6429 0
-956 -6376 6430 0
-956 -6377 6431 0
-956 -6378 6432 0
-956 -6379 0
-6380 6433 0
-6381 6434 0
-6382 6435 0
-6383 6436 0
-6384 6437 0
-6385 6438 0
-6386 6439 0
-6387 6440 0
-6388 6441 0
-6389 6442 0
-6390 6443 0
-6391 6444 0
-6392 6445 0
-6393 6446 0
-6394 6447 0
-6395 6448 0
-6396 6449 0
-6397 6450 0
-6398 6451 0
-6399 6452 0
-6400 6453 0
-6401 6454 0
-6402 6455 0
-6403 6456 0
-6404 6457 0
-6405 6458 0
-6406 6459 0
-6407 6460 0
-6408 6461 0
-6409 6462 0
-6410 6463 0
-6411 6464 0
-6412 6465 0
-6413 6466 0
-6414 6467 0
-6415 6468 0
-6416 6469 0
-6417 6470 0
-6418 6471 0
-6419 6472 0
-6420 6473 0
-6421 6474 0
-6422 6475 0
-6423 6476 0
-6424 6477 0
-6425 6478 0
-6426 6479 0
-6427 6480 0
-6428 6481 0
-6429 6482 0
-6430 6483 0
-6431 6484 0
-6432 6485 0
-958 -6380 6434 0
-958 -6381 6435 0
-958 -6382 6436 0
-958 -6383 6437 0
-958 -6384 6438 0
-958 -6385 6439 0
-958 -6386 6440 0
-958 -6387 6441 0
-958 -6388 6442 0
-958 -6389 6443 0
-958 -6390 6444 0
-958 -6391 6445 0
-958 -6392 6446 0
-958 -6393 6447 0
-958 -6394 6448 0
-958 -6395 6449 0
-958 -6396 6450 0
-958 -6397 6451 0
-958 -6398 6452 0
-958 -6399 6453 0
-958 -6400 6454 0
-958 -6401 6455 0
-958 -6402 6456 0
-958 -6403 6457 0
-958 -6404 6458 0
-958 -6405 6459 0
-958 -6406 6460 0
-958 -6407 6461 0
-958 -6408 6462 0
-958 -6409 6463 0
-958 -6410 6464 0
-958 -6411 6465 0
-958 -6412 6466 0
-958 -6413 6467 0
-958 -6414 6468 0
-958 -6415 6469 0
-958 -6416 6470 0
-958 -6417 6471 0
-958 -6418 6472 0
-958 -6419 6473 0
-958 -6420 6474 0
-958 -6421 6475 0
-958 -6422 6476 0
-958 -6423 6477 0
-958 -6424 6478 0
-958 -6425 6479 0
-958 -6426 6480 0
-958 -6427 6481 0
-958 -6428 6482 0
-958 -6429 6483 0
-958 -6430 6484 0
-958 -6431 6485 0
-958 -6432 0
-6433 6486 0
-6434 6487 0
-6435 6488 0
-6436 6489 0
-6437 6490 0
-6438 6491 0
-6439 6492 0
-6440 6493 0
-6441 6494 0
-6442 6495 0
-6443 6496 0
-6444 6497 0
-6445 6498 0
-6446 6499 0
-6447 6500 0
-6448 6501 0
-6449 6502 0
-6450 6503 0
-6451 6504 0
-6452 6505 0
-6453 6506 0
-6454 6507 0
-6455 6508 0
-6456 6509 0
-6457 6510 0
-6458 6511 0
-6459 6512 0
-6460 6513 0
-6461 6514 0
-6462 6515 0
-6463 6516 0
-6464 6517 0
-6465 6518 0
-6466 6519 0
-6467 6520 0
-6468 6521 0
-6469 6522 0
-6470 6523 0
-6471 6524 0
-6472 6525 0
-6473 6526 0
-6474 6527 0
-6475 6528 0
-6476 6529 0
-6477 6530 0
-6478 6531 0
-6479 6532 0
-6480 6533 0
-6481 6534 0
-6482 6535 0
-6483 6536 0
-6484 6537 0
-6485 6538 0
-960 -6433 6487 0
-960 -6434 6488 0
-960 -6435 6489 0
-960 -6436 6490 0
-960 -6437 6491 0
-960 -6438 6492 0
-960 -6439 6493 0
-960 -6440 6494 0
-960 -6441 6495 0
-960 -6442 6496 0
-960 -6443 6497 0
-960 -6444 6498 0
-960 -6445 6499 0
-960 -6446 6500 0
-960 -6447 6501 0
-960 -6448 6502 0
-960 -6449 6503 0
-960 -6450 6504 0
-960 -6451 6505 0
-960 -6452 6506 0
-960 -6453 6507 0
-960 -6454 6508 0
-960 -6455 6509 0
-960 -6456 6510 0
-960 -6457 6511 0
-960 -6458 6512 0
-960 -6459 6513 0
-960 -6460 6514 0
-960 -6461 6515 0
-960 -6462 6516 0
-960 -6463 6517 0
-960 -6464 6518 0
-960 -6465 6519 0
-960 -6466 6520 0
-960 -6467 6521 0
-960 -6468 6522 0
-960 -6469 6523 0
-960 -6470 6524 0
-960 -6471 6525 0
-960 -6472 6526 0
-960 -6473 6527 0
-960 -6474 6528 0
-960 -6475 6529 0
-960 -6476 6530 0
-960 -6477 6531 0
-960 -6478 6532 0
-960 -6479 6533 0
-960 -6480 6534 0
-960 -6481 6535 0
-960 -6482 6536 0
-960 -6483 6537 0
-960 -6484 6538 0
-960 -6485 0
-6486 6539 0
-6487 6540 0
-6488 6541 0
-6489 6542 0
-6490 6543 0
-6491 6544 0
-6492 6545 0
-6493 6546 0
-6494 6547 0
-6495 6548 0
-6496 6549 0
-6497 6550 0
-6498 6551 0
-6499 6552 0
-6500 6553 0
-6501 6554 0
-6502 6555 0
-6503 6556 0
-6504 6557 0
-6505 6558 0
-6506 6559 0
-6507 6560 0
-6508 6561 0
-6509 6562 0
-6510 6563 0
-6511 6564 0
-6512 6565 0
-6513 6566 0
-6514 6567 0
-6515 6568 0
-6516 6569 0
-6517 6570 0
-6518 6571 0
-6519 6572 0
-6520 6573 0
-6521 6574 0
-6522 6575 0
-6523 6576 0
-6524 6577 0
-6525 6578 0
-6526 6579 0
-6527 6580 0
-6528 6581 0
-6529 6582 0
-6530 6583 0
-6531 6584 0
-6532 6585 0
-6533 6586 0
-6534 6587 0
-6535 6588 0
-6536 6589 0
-6537 6590 0
-6538 6591 0
-962 -6486 6540 0
-962 -6487 6541 0
-962 -6488 6542 0
-962 -6489 6543 0
-962 -6490 6544 0
-962 -6491 6545 0
-962 -6492 6546 0
-962 -6493 6547 0
-962 -6494 6548 0
-962 -6495 6549 0
-962 -6496 6550 0
-962 -6497 6551 0
-962 -6498 6552 0
-962 -6499 6553 0
-962 -6500 6554 0
-962 -6501 6555 0
-962 -6502 6556 0
-962 -6503 6557 0
-962 -6504 6558 0
-962 -6505 6559 0
-962 -6506 6560 0
-962 -6507 6561 0
-962 -6508 6562 0
-962 -6509 6563 0
-962 -6510 6564 0
-962 -6511 6565 0
-962 -6512 6566 0
-962 -6513 6567 0
-962 -6514 6568 0
-962 -6515 6569 0
-962 -6516 6570 0
-962 -6517 6571 0
-962 -6518 6572 0
-962 -6519 6573 0
-962 -6520 6574 0
-962 -6521 6575 0
-962 -6522 6576 0
-962 -6523 6577 0
-962 -6524 6578 0
-962 -6525 6579 0
-962 -6526 6580 0
-962 -6527 6581 0
-962 -6528 6582 0
-962 -6529 6583 0
-962 -6530 6584 0
-962 -6531 6585 0
-962 -6532 6586 0
-962 -6533 6587 0
-962 -6534 6588 0
-962 -6535 6589 0
-962 -6536 6590 0
-962 -6537 6591 0
-962 -6538 0
-6539 6592 0
-6540 6593 0
-6541 6594 0
-6542 6595 0
-6543 6596 0
-6544 6597 0
-6545 6598 0
-6546 6599 0
-6547 6600 0
-6548 6601 0
-6549 6602 0
-6550 6603 0
-6551 6604 0
-6552 6605 0
-6553 6606 0
-6554 6607 0
-6555 6608 0
-6556 6609 0
-6557 6610 0
-6558 6611 0
-6559 6612 0
-6560 6613 0
-6561 6614 0
-6562 6615 0
-6563 6616 0
-6564 6617 0
-6565 6618 0
-6566 6619 0
-6567 6620 0
-6568 6621 0
-6569 6622 0
-6570 6623 0
-6571 6624 0
-6572 6625 0
-6573 6626 0
-6574 6627 0
-6575 6628 0
-6576 6629 0
-6577 6630 0
-6578 6631 0
-6579 6632 0
-6580 6633 0
-6581 6634 0
-6582 6635 0
-6583 6636 0
-6584 6637 0
-6585 6638 0
-6586 6639 0
-6587 6640 0
-6588 6641 0
-6589 6642 0
-6590 6643 0
-6591 6644 0
-964 -6539 6593 0
-964 -6540 6594 0
-964 -6541 6595 0
-964 -6542 6596 0
-964 -6543 6597 0
-964 -6544 6598 0
-964 -6545 6599 0
-964 -6546 6600 0
-964 -6547 6601 0
-964 -6548 6602 0
-964 -6549 6603 0
-964 -6550 6604 0
-964 -6551 6605 0
-964 -6552 6606 0
-964 -6553 6607 0
-964 -6554 6608 0
-964 -6555 6609 0
-964 -6556 6610 0
-964 -6557 6611 0
-964 -6558 6612 0
-964 -6559 6613 0
-964 -6560 6614 0
-964 -6561 6615 0
-964 -6562 6616 0
-964 -6563 6617 0
-964 -6564 6618 0
-964 -6565 6619 0
-964 -6566 6620 0
-964 -6567 6621 0
-964 -6568 6622 0
-964 -6569 6623 0
-964 -6570 6624 0
-964 -6571 6625 0
-964 -6572 6626 0
-964 -6573 6627 0
-964 -6574 6628 0
-964 -6575 6629 0
-964 -6576 6630 0
-964 -6577 6631 0
-964 -6578 6632 0
-964 -6579 6633 0
-964 -6580 6634 0
-964 -6581 6635 0
-964 -6582 6636 0
-964 -6583 6637 0
-964 -6584 6638 0
-964 -6585 6639 0
-964 -6586 6640 0
-964 -6587 6641 0
-964 -6588 6642 0
-964 -6589 6643 0
-964 -6590 6644 0
-964 -6591 0
-6592 6645 0
-6593 6646 0
-6594 6647 0
-6595 6648 0
-6596 6649 0
-6597 6650 0
-6598 6651 0
-6599 6652 0
-6600 6653 0
-6601 6654 0
-6602 6655 0
-6603 6656 0
-6604 6657 0
-6605 6658 0
-6606 6659 0
-6607 6660 0
-6608 6661 0
-6609 6662 0
-6610 6663 0
-6611 6664 0
-6612 6665 0
-6613 6666 0
-6614 6667 0
-6615 6668 0
-6616 6669 0
-6617 6670 0
-6618 6671 0
-6619 6672 0
-6620 6673 0
-6621 6674 0
-6622 6675 0
-6623 6676 0
-6624 6677 0
-6625 6678 0
-6626 6679 0
-6627 6680 0
-6628 6681 0
-6629 6682 0
-6630 6683 0
-6631 6684 0
-6632 6685 0
-6633 6686 0
-6634 6687 0
-6635 6688 0
-6636 6689 0
-6637 6690 0
-6638 6691 0
-6639 6692 0
-6640 6693 0
-6641 6694 0
-6642 6695 0
-6643 6696 0
-6644 6697 0
-966 -6592 6646 0
-966 -6593 6647 0
-966 -6594 6648 0
-966 -6595 6649 0
-966 -6596 6650 0
-966 -6597 6651 0
-966 -6598 6652 0
-966 -6599 6653 0
-966 -6600 6654 0
-966 -6601 6655 0
-966 -6602 6656 0
-966 -6603 6657 0
-966 -6604 6658 0
-966 -6605 6659 0
-966 -6606 6660 0
-966 -6607 6661 0
-966 -6608 6662 0
-966 -6609 6663 0
-966 -6610 6664 0
-966 -6611 6665 0
-966 -6612 6666 0
-966 -6613 6667 0
-966 -6614 6668 0
-966 -6615 6669 0
-966 -6616 6670 0
-966 -6617 6671 0
-966 -6618 6672 0
-966 -6619 6673 0
-966 -6620 6674 0
-966 -6621 6675 0
-966 -6622 6676 0
-966 -6623 6677 0
-966 -6624 6678 0
-966 -6625 6679 0
-966 -6626 6680 0
-966 -6627 6681 0
-966 -6628 6682 0
-966 -6629 6683 0
-966 -6630 6684 0
-966 -6631 6685 0
-966 -6632 6686 0
-966 -6633 6687 0
-966 -6634 6688 0
-966 -6635 6689 0
-966 -6636 6690 0
-966 -6637 6691 0
-966 -6638 6692 0
-966 -6639 6693 0
-966 -6640 6694 0
-966 -6641 6695 0
-966 -6642 6696 0
-966 -6643 6697 0
-966 -6644 0
-6645 6698 0
-6646 6699 0
-6647 6700 0
-6648 6701 0
-6649 6702 0
-6650 6703 0
-6651 6704 0
-6652 6705 0
-6653 6706 0
-6654 6707 0
-6655 6708 0
-6656 6709 0
-6657 6710 0
-6658 6711 0
-6659 6712 0
-6660 6713 0
-6661 6714 0
-6662 6715 0
-6663 6716 0
-6664 6717 0
-6665 6718 0
-6666 6719 0
-6667 6720 0
-6668 6721 0
-6669 6722 0
-6670 6723 0
-6671 6724 0
-6672 6725 0
-6673 6726 0
-6674 6727 0
-6675 6728 0
-6676 6729 0
-6677 6730 0
-6678 6731 0
-6679 6732 0
-6680 6733 0
-6681 6734 0
-6682 6735 0
-6683 6736 0
-6684 6737 0
-6685 6738 0
-6686 6739 0
-6687 6740 0
-6688 6741 0
-6689 6742 0
-6690 6743 0
-6691 6744 0
-6692 6745 0
-6693 6746 0
-6694 6747 0
-6695 6748 0
-6696 6749 0
-6697 6750 0
-968 -6645 6699 0
-968 -6646 6700 0
-968 -6647 6701 0
-968 -6648 6702 0
-968 -6649 6703 0
-968 -6650 6704 0
-968 -6651 6705 0
-968 -6652 6706 0
-968 -6653 6707 0
-968 -6654 6708 0
-968 -6655 6709 0
-968 -6656 6710 0
-968 -6657 6711 0
-968 -6658 6712 0
-968 -6659 6713 0
-968 -6660 6714 0
-968 -6661 6715 0
-968 -6662 6716 0
-968 -6663 6717 0
-968 -6664 6718 0
-968 -6665 6719 0
-968 -6666 6720 0
-968 -6667 6721 0
-968 -6668 6722 0
-968 -6669 6723 0
-968 -6670 6724 0
-968 -6671 6725 0
-968 -6672 6726 0
-968 -6673 6727 0
-968 -6674 6728 0
-968 -6675 6729 0
-968 -6676 6730 0
-968 -6677 6731 0
-968 -6678 6732 0
-968 -6679 6733 0
-968 -6680 6734 0
-968 -6681 6735 0
-968 -6682 6736 0
-968 -6683 6737 0
-968 -6684 6738 0
-968 -6685 6739 0
-968 -6686 6740 0
-968 -6687 6741 0
-968 -6688 6742 0
-968 -6689 6743 0
-968 -6690 6744 0
-968 -6691 6745 0
-968 -6692 6746 0
-968 -6693 6747 0
-968 -6694 6748 0
-968 -6695 6749 0
-968 -6696 6750 0
-968 -6697 0
-6698 6751 0
-6699 6752 0
-6700 6753 0
-6701 6754 0
-6702 6755 0
-6703 6756 0
-6704 6757 0
-6705 6758 0
-6706 6759 0
-6707 6760 0
-6708 6761 0
-6709 6762 0
-6710 6763 0
-6711 6764 0
-6712 6765 0
-6713 6766 0
-6714 6767 0
-6715 6768 0
-6716 6769 0
-6717 6770 0
-6718 6771 0
-6719 6772 0
-6720 6773 0
-6721 6774 0
-6722 6775 0
-6723 6776 0
-6724 6777 0
-6725 6778 0
-6726 6779 0
-6727 6780 0
-6728 6781 0
-6729 6782 0
-6730 6783 0
-6731 6784 0
-6732 6785 0
-6733 6786 0
-6734 6787 0
-6735 6788 0
-6736 6789 0
-6737 6790 0
-6738 6791 0
-6739 6792 0
-6740 6793 0
-6741 6794 0
-6742 6795 0
-6743 6796 0
-6744 6797 0
-6745 6798 0
-6746 6799 0
-6747 6800 0
-6748 6801 0
-6749 6802 0
-6750 6803 0
-970 -6698 6752 0
-970 -6699 6753 0
-970 -6700 6754 0
-970 -6701 6755 0
-970 -6702 6756 0
-970 -6703 6757 0
-970 -6704 6758 0
-970 -6705 6759 0
-970 -6706 6760 0
-970 -6707 6761 0
-970 -6708 6762 0
-970 -6709 6763 0
-970 -6710 6764 0
-970 -6711 6765 0
-970 -6712 6766 0
-970 -6713 6767 0
-970 -6714 6768 0
-970 -6715 6769 0
-970 -6716 6770 0
-970 -6717 6771 0
-970 -6718 6772 0
-970 -6719 6773 0
-970 -6720 6774 0
-970 -6721 6775 0
-970 -6722 6776 0
-970 -6723 6777 0
-970 -6724 6778 0
-970 -6725 6779 0
-970 -6726 6780 0
-970 -6727 6781 0
-970 -6728 6782 0
-970 -6729 6783 0
-970 -6730 6784 0
-970 -6731 6785 0
-970 -6732 6786 0
-970 -6733 6787 0
-970 -6734 6788 0
-970 -6735 6789 0
-970 -6736 6790 0
-970 -6737 6791 0
-970 -6738 6792 0
-970 -6739 6793 0
-970 -6740 6794 0
-970 -6741 6795 0
-970 -6742 6796 0
-970 -6743 6797 0
-970 -6744 6798 0
-970 -6745 6799 0
-970 -6746 6800 0
-970 -6747 6801 0
-970 -6748 6802 0
-970 -6749 6803 0
-970 -6750 0
-6751 6804 0
-6752 6805 0
-6753 6806 0
-6754 6807 0
-6755 6808 0
-6756 6809 0
-6757 6810 0
-6758 6811 0
-6759 6812 0
-6760 6813 0
-6761 6814 0
-6762 6815 0
-6763 6816 0
-6764 6817 0
-6765 6818 0
-6766 6819 0
-6767 6820 0
-6768 6821 0
-6769 6822 0
-6770 6823 0
-6771 6824 0
-6772 6825 0
-6773 6826 0
-6774 6827 0
-6775 6828 0
-6776 6829 0
-6777 6830 0
-6778 6831 0
-6779 6832 0
-6780 6833 0
-6781 6834 0
-6782 6835 0
-6783 6836 0
-6784 6837 0
-6785 6838 0
-6786 6839 0
-6787 6840 0
-6788 6841 0
-6789 6842 0
-6790 6843 0
-6791 6844 0
-6792 6845 0
-6793 6846 0
-6794 6847 0
-6795 6848 0
-6796 6849 0
-6797 6850 0
-6798 6851 0
-6799 6852 0
-6800 6853 0
-6801 6854 0
-6802 6855 0
-6803 6856 0
-972 -6751 6805 0
-972 -6752 6806 0
-972 -6753 6807 0
-972 -6754 6808 0
-972 -6755 6809 0
-972 -6756 6810 0
-972 -6757 6811 0
-972 -6758 6812 0
-972 -6759 6813 0
-972 -6760 6814 0
-972 -6761 6815 0
-972 -6762 6816 0
-972 -6763 6817 0
-972 -6764 6818 0
-972 -6765 6819 0
-972 -6766 6820 0
-972 -6767 6821 0
-972 -6768 6822 0
-972 -6769 6823 0
-972 -6770 6824 0
-972 -6771 6825 0
-972 -6772 6826 0
-972 -6773 6827 0
-972 -6774 6828 0
-972 -6775 6829 0
-972 -6776 6830 0
-972 -6777 6831 0
-972 -6778 6832 0
-972 -6779 6833 0
-972 -6780 6834 0
-972 -6781 6835 0
-972 -6782 6836 0
-972 -6783 6837 0
-972 -6784 6838 0
-972 -6785 6839 0
-972 -6786 6840 0
-972 -6787 6841 0
-972 -6788 6842 0
-972 -6789 6843 0
-972 -6790 6844 0
-972 -6791 6845 0
-972 -6792 6846 0
-972 -6793 6847 0
-972 -6794 6848 0
-972 -6795 6849 0
-972 -6796 6850 0
-972 -6797 6851 0
-972 -6798 6852 0
-972 -6799 6853 0
-972 -6800 6854 0
-972 -6801 6855 0
-972 -6802 6856 0
-972 -6803 0
-6804 6857 0
-6805 6858 0
-6806 6859 0
-6807 6860 0
-6808 6861 0
-6809 6862 0
-6810 6863 0
-6811 6864 0
-6812 6865 0
-6813 6866 0
-6814 6867 0
-6815 6868 0
-6816 6869 0
-6817 6870 0
-6818 6871 0
-6819 6872 0
-6820 6873 0
-6821 6874 0
-6822 6875 0
-6823 6876 0
-6824 6877 0
-6825 6878 0
-6826 6879 0
-6827 6880 0
-6828 6881 0
-6829 6882 0
-6830 6883 0
-6831 6884 0
-6832 6885 0
-6833 6886 0
-6834 6887 0
-6835 6888 0
-6836 6889 0
-6837 6890 0
-6838 6891 0
-6839 6892 0
-6840 6893 0
-6841 6894 0
-6842 6895 0
-6843 6896 0
-6844 6897 0
-6845 6898 0
-6846 6899 0
-6847 6900 0
-6848 6901 0
-6849 6902 0
-6850 6903 0
-6851 6904 0
-6852 6905 0
-6853 6906 0
-6854 6907 0
-6855 6908 0
-6856 6909 0
-974 -6804 6858 0
-974 -6805 6859 0
-974 -6806 6860 0
-974 -6807 6861 0
-974 -6808 6862 0
-974 -6809 6863 0
-974 -6810 6864 0
-974 -6811 6865 0
-974 -6812 6866 0
-974 -6813 6867 0
-974 -6814 6868 0
-974 -6815 6869 0
-974 -6816 6870 0
-974 -6817 6871 0
-974 -6818 6872 0
-974 -6819 6873 0
-974 -6820 6874 0
-974 -6821 6875 0
-974 -6822 6876 0
-974 -6823 6877 0
-974 -6824 6878 0
-974 -6825 6879 0
-974 -6826 6880 0
-974 -6827 6881 0
-974 -6828 6882 0
-974 -6829 6883 0
-974 -6830 6884 0
-974 -6831 6885 0
-974 -6832 6886 0
-974 -6833 6887 0
-974 -6834 6888 0
-974 -6835 6889 0
-974 -6836 6890 0
-974 -6837 6891 0
-974 -6838 6892 0
-974 -6839 6893 0
-974 -6840 6894 0
-974 -6841 6895 0
-974 -6842 6896 0
-974 -6843 6897 0
-974 -6844 6898 0
-974 -6845 6899 0
-974 -6846 6900 0
-974 -6847 6901 0
-974 -6848 6902 0
-974 -6849 6903 0
-974 -6850 6904 0
-974 -6851 6905 0
-974 -6852 6906 0
-974 -6853 6907 0
-974 -6854 6908 0
-974 -6855 6909 0
-974 -6856 0
-6857 6910 0
-6858 6911 0
-6859 6912 0
-6860 6913 0
-6861 6914 0
-6862 6915 0
-6863 6916 0
-6864 6917 0
-6865 6918 0
-6866 6919 0
-6867 6920 0
-6868 6921 0
-6869 6922 0
-6870 6923 0
-6871 6924 0
-6872 6925 0
-6873 6926 0
-6874 6927 0
-6875 6928 0
-6876 6929 0
-6877 6930 0
-6878 6931 0
-6879 6932 0
-6880 6933 0
-6881 6934 0
-6882 6935 0
-6883 6936 0
-6884 6937 0
-6885 6938 0
-6886 6939 0
-6887 6940 0
-6888 6941 0
-6889 6942 0
-6890 6943 0
-6891 6944 0
-6892 6945 0
-6893 6946 0
-6894 6947 0
-6895 6948 0
-6896 6949 0
-6897 6950 0
-6898 6951 0
-6899 6952 0
-6900 6953 0
-6901 6954 0
-6902 6955 0
-6903 6956 0
-6904 6957 0
-6905 6958 0
-6906 6959 0
-6907 6960 0
-6908 6961 0
-6909 6962 0
-976 -6857 6911 0
-976 -6858 6912 0
-976 -6859 6913 0
-976 -6860 6914 0
-976 -6861 6915 0
-976 -6862 6916 0
-976 -6863 6917 0
-976 -6864 6918 0
-976 -6865 6919 0
-976 -6866 6920 0
-976 -6867 6921 0
-976 -6868 6922 0
-976 -6869 6923 0
-976 -6870 6924 0
-976 -6871 6925 0
-976 -6872 6926 0
-976 -6873 6927 0
-976 -6874 6928 0
-976 -6875 6929 0
-976 -6876 6930 0
-976 -6877 6931 0
-976 -6878 6932 0
-976 -6879 6933 0
-976 -6880 6934 0
-976 -6881 6935 0
-976 -6882 6936 0
-976 -6883 6937 0
-976 -6884 6938 0
-976 -6885 6939 0
-976 -6886 6940 0
-976 -6887 6941 0
-976 -6888 6942 0
-976 -6889 6943 0
-976 -6890 6944 0
-976 -6891 6945 0
-976 -6892 6946 0
-976 -6893 6947 0
-976 -6894 6948 0
-976 -6895 6949 0
-976 -6896 6950 0
-976 -6897 6951 0
-976 -6898 6952 0
-976 -6899 6953 0
-976 -6900 6954 0
-976 -6901 6955 0
-976 -6902 6956 0
-976 -6903 6957 0
-976 -6904 6958 0
-976 -6905 6959 0
-976 -6906 6960 0
-976 -6907 6961 0
-976 -6908 6962 0
-976 -6909 0
-6910 6963 0
-6911 6964 0
-6912 6965 0
-6913 6966 0
-6914 6967 0
-6915 6968 0
-6916 6969 0
-6917 6970 0
-6918 6971 0
-6919 6972 0
-6920 6973 0
-6921 6974 0
-6922 6975 0
-6923 6976 0
-6924 6977 0
-6925 6978 0
-6926 6979 0
-6927 6980 0
-6928 6981 0
-6929 6982 0
-6930 6983 0
-6931 6984 0
-6932 6985 0
-6933 6986 0
-6934 6987 0
-6935 6988 0
-6936 6989 0
-6937 6990 0
-6938 6991 0
-6939 6992 0
-6940 6993 0
-6941 6994 0
-6942 6995 0
-6943 6996 0
-6944 6997 0
-6945 6998 0
-6946 6999 0
-6947 7000 0
-6948 7001 0
-6949 7002 0
-6950 7003 0
-6951 7004 0
-6952 7005 0
-6953 7006 0
-6954 7007 0
-6955 7008 0
-6956 7009 0
-6957 7010 0
-6958 7011 0
-6959 7012 0
-6960 7013 0
-6961 7014 0
-6962 7015 0
-978 -6910 6964 0
-978 -6911 6965 0
-978 -6912 6966 0
-978 -6913 6967 0
-978 -6914 6968 0
-978 -6915 6969 0
-978 -6916 6970 0
-978 -6917 6971 0
-978 -6918 6972 0
-978 -6919 6973 0
-978 -6920 6974 0
-978 -6921 6975 0
-978 -6922 6976 0
-978 -6923 6977 0
-978 -6924 6978 0
-978 -6925 6979 0
-978 -6926 6980 0
-978 -6927 6981 0
-978 -6928 6982 0
-978 -6929 6983 0
-978 -6930 6984 0
-978 -6931 6985 0
-978 -6932 6986 0
-978 -6933 6987 0
-978 -6934 6988 0
-978 -6935 6989 0
-978 -6936 6990 0
-978 -6937 6991 0
-978 -6938 6992 0
-978 -6939 6993 0
-978 -6940 6994 0
-978 -6941 6995 0
-978 -6942 6996 0
-978 -6943 6997 0
-978 -6944 6998 0
-978 -6945 6999 0
-978 -6946 7000 0
-978 -6947 7001 0
-978 -6948 7002 0
-978 -6949 7003 0
-978 -6950 7004 0
-978 -6951 7005 0
-978 -6952 7006 0
-978 -6953 7007 0
-978 -6954 7008 0
-978 -6955 7009 0
-978 -6956 7010 0
-978 -6957 7011 0
-978 -6958 7012 0
-978 -6959 7013 0
-978 -6960 7014 0
-978 -6961 7015 0
-978 -6962 0
-6963 7016 0
-6964 7017 0
-6965 7018 0
-6966 7019 0
-6967 7020 0
-6968 7021 0
-6969 7022 0
-6970 7023 0
-6971 7024 0
-6972 7025 0
-6973 7026 0
-6974 7027 0
-6975 7028 0
-6976 7029 0
-6977 7030 0
-6978 7031 0
-6979 7032 0
-6980 7033 0
-6981 7034 0
-6982 7035 0
-6983 7036 0
-6984 7037 0
-6985 7038 0
-6986 7039 0
-6987 7040 0
-6988 7041 0
-6989 7042 0
-6990 7043 0
-6991 7044 0
-6992 7045 0
-6993 7046 0
-6994 7047 0
-6995 7048 0
-6996 7049 0
-6997 7050 0
-6998 7051 0
-6999 7052 0
-7000 7053 0
-7001 7054 0
-7002 7055 0
-7003 7056 0
-7004 7057 0
-7005 7058 0
-7006 7059 0
-7007 7060 0
-7008 7061 0
-7009 7062 0
-7010 7063 0
-7011 7064 0
-7012 7065 0
-7013 7066 0
-7014 7067 0
-7015 7068 0
-980 -6963 7017 0
-980 -6964 7018 0
-980 -6965 7019 0
-980 -6966 7020 0
-980 -6967 7021 0
-980 -6968 7022 0
-980 -6969 7023 0
-980 -6970 7024 0
-980 -6971 7025 0
-980 -6972 7026 0
-980 -6973 7027 0
-980 -6974 7028 0
-980 -6975 7029 0
-980 -6976 7030 0
-980 -6977 7031 0
-980 -6978 7032 0
-980 -6979 7033 0
-980 -6980 7034 0
-980 -6981 7035 0
-980 -6982 7036 0
-980 -6983 7037 0
-980 -6984 7038 0
-980 -6985 7039 0
-980 -6986 7040 0
-980 -6987 7041 0
-980 -6988 7042 0
-980 -6989 7043 0
-980 -6990 7044 0
-980 -6991 7045 0
-980 -6992 7046 0
-980 -6993 7047 0
-980 -6994 7048 0
-980 -6995 7049 0
-980 -6996 7050 0
-980 -6997 7051 0
-980 -6998 7052 0
-980 -6999 7053 0
-980 -7000 7054 0
-980 -7001 7055 0
-980 -7002 7056 0
-980 -7003 7057 0
-980 -7004 7058 0
-980 -7005 7059 0
-980 -7006 7060 0
-980 -7007 7061 0
-980 -7008 7062 0
-980 -7009 7063 0
-980 -7010 7064 0
-980 -7011 7065 0
-980 -7012 7066 0
-980 -7013 7067 0
-980 -7014 7068 0
-980 -7015 0
-7016 7069 0
-7017 7070 0
-7018 7071 0
-7019 7072 0
-7020 7073 0
-7021 7074 0
-7022 7075 0
-7023 7076 0
-7024 7077 0
-7025 7078 0
-7026 7079 0
-7027 7080 0
-7028 7081 0
-7029 7082 0
-7030 7083 0
-7031 7084 0
-7032 7085 0
-7033 7086 0
-7034 7087 0
-7035 7088 0
-7036 7089 0
-7037 7090 0
-7038 7091 0
-7039 7092 0
-7040 7093 0
-7041 7094 0
-7042 7095 0
-7043 7096 0
-7044 7097 0
-7045 7098 0
-7046 7099 0
-7047 7100 0
-7048 7101 0
-7049 7102 0
-7050 7103 0
-7051 7104 0
-7052 7105 0
-7053 7106 0
-7054 7107 0
-7055 7108 0
-7056 7109 0
-7057 7110 0
-7058 7111 0
-7059 7112 0
-7060 7113 0
-7061 7114 0
-7062 7115 0
-7063 7116 0
-7064 7117 0
-7065 7118 0
-7066 7119 0
-7067 7120 0
-7068 7121 0
-982 -7016 7070 0
-982 -7017 7071 0
-982 -7018 7072 0
-982 -7019 7073 0
-982 -7020 7074 0
-982 -7021 7075 0
-982 -7022 7076 0
-982 -7023 7077 0
-982 -7024 7078 0
-982 -7025 7079 0
-982 -7026 7080 0
-982 -7027 7081 0
-982 -7028 7082 0
-982 -7029 7083 0
-982 -7030 7084 0
-982 -7031 7085 0
-982 -7032 7086 0
-982 -7033 7087 0
-982 -7034 7088 0
-982 -7035 7089 0
-982 -7036 7090 0
-982 -7037 7091 0
-982 -7038 7092 0
-982 -7039 7093 0
-982 -7040 7094 0
-982 -7041 7095 0
-982 -7042 7096 0
-982 -7043 7097 0
-982 -7044 7098 0
-982 -7045 7099 0
-982 -7046 7100 0
-982 -7047 7101 0
-982 -7048 7102 0
-982 -7049 7103 0
-982 -7050 7104 0
-982 -7051 7105 0
-982 -7052 7106 0
-982 -7053 7107 0
-982 -7054 7108 0
-982 -7055 7109 0
-982 -7056 7110 0
-982 -7057 7111 0
-982 -7058 7112 0
-982 -7059 7113 0
-982 -7060 7114 0
-982 -7061 7115 0
-982 -7062 7116 0
-982 -7063 7117 0
-982 -7064 7118 0
-982 -7065 7119 0
-982 -7066 7120 0
-982 -7067 7121 0
-982 -7068 0
-7069 7122 0
-7070 7123 0
-7071 7124 0
-7072 7125 0
-7073 7126 0
-7074 7127 0
-7075 7128 0
-7076 7129 0
-7077 7130 0
-7078 7131 0
-7079 7132 0
-7080 7133 0
-7081 7134 0
-7082 7135 0
-7083 7136 0
-7084 7137 0
-7085 7138 0
-7086 7139 0
-7087 7140 0
-7088 7141 0
-7089 7142 0
-7090 7143 0
-7091 7144 0
-7092 7145 0
-7093 7146 0
-7094 7147 0
-7095 7148 0
-7096 7149 0
-7097 7150 0
-7098 7151 0
-7099 7152 0
-7100 7153 0
-7101 7154 0
-7102 7155 0
-7103 7156 0
-7104 7157 0
-7105 7158 0
-7106 7159 0
-7107 7160 0
-7108 7161 0
-7109 7162 0
-7110 7163 0
-7111 7164 0
-7112 7165 0
-7113 7166 0
-7114 7167 0
-7115 7168 0
-7116 7169 0
-7117 7170 0
-7118 7171 0
-7119 7172 0
-7120 7173 0
-7121 7174 0
-984 -7069 7123 0
-984 -7070 7124 0
-984 -7071 7125 0
-984 -7072 7126 0
-984 -7073 7127 0
-984 -7074 7128 0
-984 -7075 7129 0
-984 -7076 7130 0
-984 -7077 7131 0
-984 -7078 7132 0
-984 -7079 7133 0
-984 -7080 7134 0
-984 -7081 7135 0
-984 -7082 7136 0
-984 -7083 7137 0
-984 -7084 7138 0
-984 -7085 7139 0
-984 -7086 7140 0
-984 -7087 7141 0
-984 -7088 7142 0
-984 -7089 7143 0
-984 -7090 7144 0
-984 -7091 7145 0
-984 -7092 7146 0
-984 -7093 7147 0
-984 -7094 7148 0
-984 -7095 7149 0
-984 -7096 7150 0
-984 -7097 7151 0
-984 -7098 7152 0
-984 -7099 7153 0
-984 -7100 7154 0
-984 -7101 7155 0
-984 -7102 7156 0
-984 -7103 7157 0
-984 -7104 7158 0
-984 -7105 7159 0
-984 -7106 7160 0
-984 -7107 7161 0
-984 -7108 7162 0
-984 -7109 7163 0
-984 -7110 7164 0
-984 -7111 7165 0
-984 -7112 7166 0
-984 -7113 7167 0
-984 -7114 7168 0
-984 -7115 7169 0
-984 -7116 7170 0
-984 -7117 7171 0
-984 -7118 7172 0
-984 -7119 7173 0
-984 -7120 7174 0
-984 -7121 0
-7122 7175 0
-7123 7176 0
-7124 7177 0
-7125 7178 0
-7126 7179 0
-7127 7180 0
-7128 7181 0
-7129 7182 0
-7130 7183 0
-7131 7184 0
-7132 7185 0
-7133 7186 0
-7134 7187 0
-7135 7188 0
-7136 7189 0
-7137 7190 0
-7138 7191 0
-7139 7192 0
-7140 7193 0
-7141 7194 0
-7142 7195 0
-7143 7196 0
-7144 7197 0
-7145 7198 0
-7146 7199 0
-7147 7200 0
-7148 7201 0
-7149 7202 0
-7150 7203 0
-7151 7204 0
-7152 7205 0
-7153 7206 0
-7154 7207 0
-7155 7208 0
-7156 7209 0
-7157 7210 0
-7158 7211 0
-7159 7212 0
-7160 7213 0
-7161 7214 0
-7162 7215 0
-7163 7216 0
-7164 7217 0
-7165 7218 0
-7166 7219 0
-7167 7220 0
-7168 7221 0
-7169 7222 0
-7170 7223 0
-7171 7224 0
-7172 7225 0
-7173 7226 0
-7174 7227 0
-986 -7122 7176 0
-986 -7123 7177 0
-986 -7124 7178 0
-986 -7125 7179 0
-986 -7126 7180 0
-986 -7127 7181 0
-986 -7128 7182 0
-986 -7129 7183 0
-986 -7130 7184 0
-986 -7131 7185 0
-986 -7132 7186 0
-986 -7133 7187 0
-986 -7134 7188 0
-986 -7135 7189 0
-986 -7136 7190 0
-986 -7137 7191 0
-986 -7138 7192 0
-986 -7139 7193 0
-986 -7140 7194 0
-986 -7141 7195 0
-986 -7142 7196 0
-986 -7143 7197 0
-986 -7144 7198 0
-986 -7145 7199 0
-986 -7146 7200 0
-986 -7147 7201 0
-986 -7148 7202 0
-986 -7149 7203 0
-986 -7150 7204 0
-986 -7151 7205 0
-986 -7152 7206 0
-986 -7153 7207 0
-986 -7154 7208 0
-986 -7155 7209 0
-986 -7156 7210 0
-986 -7157 7211 0
-986 -7158 7212 0
-986 -7159 7213 0
-986 -7160 7214 0
-986 -7161 7215 0
-986 -7162 7216 0
-986 -7163 7217 0
-986 -7164 7218 0
-986 -7165 7219 0
-986 -7166 7220 0
-986 -7167 7221 0
-986 -7168 7222 0
-986 -7169 7223 0
-986 -7170 7224 0
-986 -7171 7225 0
-986 -7172 7226 0
-986 -7173 7227 0
-986 -7174 0
-7175 7228 0
-7176 7229 0
-7177 7230 0
-7178 7231 0
-7179 7232 0
-7180 7233 0
-7181 7234 0
-7182 7235 0
-7183 7236 0
-7184 7237 0
-7185 7238 0
-7186 7239 0
-7187 7240 0
-7188 7241 0
-7189 7242 0
-7190 7243 0
-7191 7244 0
-7192 7245 0
-7193 7246 0
-7194 7247 0
-7195 7248 0
-7196 7249 0
-7197 7250 0
-7198 7251 0
-7199 7252 0
-7200 7253 0
-7201 7254 0
-7202 7255 0
-7203 7256 0
-7204 7257 0
-7205 7258 0
-7206 7259 0
-7207 7260 0
-7208 7261 0
-7209 7262 0
-7210 7263 0
-7211 7264 0
-7212 7265 0
-7213 7266 0
-7214 7267 0
-7215 7268 0
-7216 7269 0
-7217 7270 0
-7218 7271 0
-7219 7272 0
-7220 7273 0
-7221 7274 0
-7222 7275 0
-7223 7276 0
-7224 7277 0
-7225 7278 0
-7226 7279 0
-7227 7280 0
-988 -7175 7229 0
-988 -7176 7230 0
-988 -7177 7231 0
-988 -7178 7232 0
-988 -7179 7233 0
-988 -7180 7234 0
-988 -7181 7235 0
-988 -7182 7236 0
-988 -7183 7237 0
-988 -7184 7238 0
-988 -7185 7239 0
-988 -7186 7240 0
-988 -7187 7241 0
-988 -7188 7242 0
-988 -7189 7243 0
-988 -7190 7244 0
-988 -7191 7245 0
-988 -7192 7246 0
-988 -7193 7247 0
-988 -7194 7248 0
-988 -7195 7249 0
-988 -7196 7250 0
-988 -7197 7251 0
-988 -7198 7252 0
-988 -7199 7253 0
-988 -7200 7254 0
-988 -7201 7255 0
-988 -7202 7256 0
-988 -7203 7257 0
-988 -7204 7258 0
-988 -7205 7259 0
-988 -7206 7260 0
-988 -7207 7261 0
-988 -7208 7262 0
-988 -7209 7263 0
-988 -7210 7264 0
-988 -7211 7265 0
-988 -7212 7266 0
-988 -7213 7267 0
-988 -7214 7268 0
-988 -7215 7269 0
-988 -7216 7270 0
-988 -7217 7271 0
-988 -7218 7272 0
-988 -7219 7273 0
-988 -7220 7274 0
-988 -7221 7275 0
-988 -7222 7276 0
-988 -7223 7277 0
-988 -7224 7278 0
-988 -7225 7279 0
-988 -7226 7280 0
-988 -7227 0
-7228 7281 0
-7229 7282 0
-7230 7283 0
-7231 7284 0
-7232 7285 0
-7233 7286 0
-7234 7287 0
-7235 7288 0
-7236 7289 0
-7237 7290 0
-7238 7291 0
-7239 7292 0
-7240 7293 0
-7241 7294 0
-7242 7295 0
-7243 7296 0
-7244 7297 0
-7245 7298 0
-7246 7299 0
-7247 7300 0
-7248 7301 0
-7249 7302 0
-7250 7303 0
-7251 7304 0
-7252 7305 0
-7253 7306 0
-7254 7307 0
-7255 7308 0
-7256 7309 0
-7257 7310 0
-7258 7311 0
-7259 7312 0
-7260 7313 0
-7261 7314 0
-7262 7315 0
-7263 7316 0
-7264 7317 0
-7265 7318 0
-7266 7319 0
-7267 7320 0
-7268 7321 0
-7269 7322 0
-7270 7323 0
-7271 7324 0
-7272 7325 0
-7273 7326 0
-7274 7327 0
-7275 7328 0
-7276 7329 0
-7277 7330 0
-7278 7331 0
-7279 7332 0
-7280 7333 0
-990 -7228 7282 0
-990 -7229 7283 0
-990 -7230 7284 0
-990 -7231 7285 0
-990 -7232 7286 0
-990 -7233 7287 0
-990 -7234 7288 0
-990 -7235 7289 0
-990 -7236 7290 0
-990 -7237 7291 0
-990 -7238 7292 0
-990 -7239 7293 0
-990 -7240 7294 0
-990 -7241 7295 0
-990 -7242 7296 0
-990 -7243 7297 0
-990 -7244 7298 0
-990 -7245 7299 0
-990 -7246 7300 0
-990 -7247 7301 0
-990 -7248 7302 0
-990 -7249 7303 0
-990 -7250 7304 0
-990 -7251 7305 0
-990 -7252 7306 0
-990 -7253 7307 0
-990 -7254 7308 0
-990 -7255 7309 0
-990 -7256 7310 0
-990 -7257 7311 0
-990 -7258 7312 0
-990 -7259 7313 0
-990 -7260 7314 0
-990 -7261 7315 0
-990 -7262 7316 0
-990 -7263 7317 0
-990 -7264 7318 0
-990 -7265 7319 0
-990 -7266 7320 0
-990 -7267 7321 0
-990 -7268 7322 0
-990 -7269 7323 0
-990 -7270 7324 0
-990 -7271 7325 0
-990 -7272 7326 0
-990 -7273 7327 0
-990 -7274 7328 0
-990 -7275 7329 0
-990 -7276 7330 0
-990 -7277 7331 0
-990 -7278 7332 0
-990 -7279 7333 0
-990 -7280 0
-7281 7334 0
-7282 7335 0
-7283 7336 0
-7284 7337 0
-7285 7338 0
-7286 7339 0
-7287 7340 0
-7288 7341 0
-7289 7342 0
-7290 7343 0
-7291 7344 0
-7292 7345 0
-7293 7346 0
-7294 7347 0
-7295 7348 0
-7296 7349 0
-7297 7350 0
-7298 7351 0
-7299 7352 0
-7300 7353 0
-7301 7354 0
-7302 7355 0
-7303 7356 0
-7304 7357 0
-7305 7358 0
-7306 7359 0
-7307 7360 0
-7308 7361 0
-7309 7362 0
-7310 7363 0
-7311 7364 0
-7312 7365 0
-7313 7366 0
-7314 7367 0
-7315 7368 0
-7316 7369 0
-7317 7370 0
-7318 7371 0
-7319 7372 0
-7320 7373 0
-7321 7374 0
-7322 7375 0
-7323 7376 0
-7324 7377 0
-7325 7378 0
-7326 7379 0
-7327 7380 0
-7328 7381 0
-7329 7382 0
-7330 7383 0
-7331 7384 0
-7332 7385 0
-7333 7386 0
-992 -7281 7335 0
-992 -7282 7336 0
-992 -7283 7337 0
-992 -7284 7338 0
-992 -7285 7339 0
-992 -7286 7340 0
-992 -7287 7341 0
-992 -7288 7342 0
-992 -7289 7343 0
-992 -7290 7344 0
-992 -7291 7345 0
-992 -7292 7346 0
-992 -7293 7347 0
-992 -7294 7348 0
-992 -7295 7349 0
-992 -7296 7350 0
-992 -7297 7351 0
-992 -7298 7352 0
-992 -7299 7353 0
-992 -7300 7354 0
-992 -7301 7355 0
-992 -7302 7356 0
-992 -7303 7357 0
-992 -7304 7358 0
-992 -7305 7359 0
-992 -7306 7360 0
-992 -7307 7361 0
-992 -7308 7362 0
-992 -7309 7363 0
-992 -7310 7364 0
-992 -7311 7365 0
-992 -7312 7366 0
-992 -7313 7367 0
-992 -7314 7368 0
-992 -7315 7369 0
-992 -7316 7370 0
-992 -7317 7371 0
-992 -7318 7372 0
-992 -7319 7373 0
-992 -7320 7374 0
-992 -7321 7375 0
-992 -7322 7376 0
-992 -7323 7377 0
-992 -7324 7378 0
-992 -7325 7379 0
-992 -7326 7380 0
-992 -7327 7381 0
-992 -7328 7382 0
-992 -7329 7383 0
-992 -7330 7384 0
-992 -7331 7385 0
-992 -7332 7386 0
-992 -7333 0
-7334 7387 0
-7335 7388 0
-7336 7389 0
-7337 7390 0
-7338 7391 0
-7339 7392 0
-7340 7393 0
-7341 7394 0
-7342 7395 0
-7343 7396 0
-7344 7397 0
-7345 7398 0
-7346 7399 0
-7347 7400 0
-7348 7401 0
-7349 7402 0
-7350 7403 0
-7351 7404 0
-7352 7405 0
-7353 7406 0
-7354 7407 0
-7355 7408 0
-7356 7409 0
-7357 7410 0
-7358 7411 0
-7359 7412 0
-7360 7413 0
-7361 7414 0
-7362 7415 0
-7363 7416 0
-7364 7417 0
-7365 7418 0
-7366 7419 0
-7367 7420 0
-7368 7421 0
-7369 7422 0
-7370 7423 0
-7371 7424 0
-7372 7425 0
-7373 7426 0
-7374 7427 0
-7375 7428 0
-7376 7429 0
-7377 7430 0
-7378 7431 0
-7379 7432 0
-7380 7433 0
-7381 7434 0
-7382 7435 0
-7383 7436 0
-7384 7437 0
-7385 7438 0
-7386 7439 0
-994 -7334 7388 0
-994 -7335 7389 0
-994 -7336 7390 0
-994 -7337 7391 0
-994 -7338 7392 0
-994 -7339 7393 0
-994 -7340 7394 0
-994 -7341 7395 0
-994 -7342 7396 0
-994 -7343 7397 0
-994 -7344 7398 0
-994 -7345 7399 0
-994 -7346 7400 0
-994 -7347 7401 0
-994 -7348 7402 0
-994 -7349 7403 0
-994 -7350 7404 0
-994 -7351 7405 0
-994 -7352 7406 0
-994 -7353 7407 0
-994 -7354 7408 0
-994 -7355 7409 0
-994 -7356 7410 0
-994 -7357 7411 0
-994 -7358 7412 0
-994 -7359 7413 0
-994 -7360 7414 0
-994 -7361 7415 0
-994 -7362 7416 0
-994 -7363 7417 0
-994 -7364 7418 0
-994 -7365 7419 0
-994 -7366 7420 0
-994 -7367 7421 0
-994 -7368 7422 0
-994 -7369 7423 0
-994 -7370 7424 0
-994 -7371 7425 0
-994 -7372 7426 0
-994 -7373 7427 0
-994 -7374 7428 0
-994 -7375 7429 0
-994 -7376 7430 0
-994 -7377 7431 0
-994 -7378 7432 0
-994 -7379 7433 0
-994 -7380 7434 0
-994 -7381 7435 0
-994 -7382 7436 0
-994 -7383 7437 0
-994 -7384 7438 0
-994 -7385 7439 0
-994 -7386 0
-7387 7440 0
-7388 7441 0
-7389 7442 0
-7390 7443 0
-7391 7444 0
-7392 7445 0
-7393 7446 0
-7394 7447 0
-7395 7448 0
-7396 7449 0
-7397 7450 0
-7398 7451 0
-7399 7452 0
-7400 7453 0
-7401 7454 0
-7402 7455 0
-7403 7456 0
-7404 7457 0
-7405 7458 0
-7406 7459 0
-7407 7460 0
-7408 7461 0
-7409 7462 0
-7410 7463 0
-7411 7464 0
-7412 7465 0
-7413 7466 0
-7414 7467 0
-7415 7468 0
-7416 7469 0
-7417 7470 0
-7418 7471 0
-7419 7472 0
-7420 7473 0
-7421 7474 0
-7422 7475 0
-7423 7476 0
-7424 7477 0
-7425 7478 0
-7426 7479 0
-7427 7480 0
-7428 7481 0
-7429 7482 0
-7430 7483 0
-7431 7484 0
-7432 7485 0
-7433 7486 0
-7434 7487 0
-7435 7488 0
-7436 7489 0
-7437 7490 0
-7438 7491 0
-7439 7492 0
-996 -7387 7441 0
-996 -7388 7442 0
-996 -7389 7443 0
-996 -7390 7444 0
-996 -7391 7445 0
-996 -7392 7446 0
-996 -7393 7447 0
-996 -7394 7448 0
-996 -7395 7449 0
-996 -7396 7450 0
-996 -7397 7451 0
-996 -7398 7452 0
-996 -7399 7453 0
-996 -7400 7454 0
-996 -7401 7455 0
-996 -7402 7456 0
-996 -7403 7457 0
-996 -7404 7458 0
-996 -7405 7459 0
-996 -7406 7460 0
-996 -7407 7461 0
-996 -7408 7462 0
-996 -7409 7463 0
-996 -7410 7464 0
-996 -7411 7465 0
-996 -7412 7466 0
-996 -7413 7467 0
-996 -7414 7468 0
-996 -7415 7469 0
-996 -7416 7470 0
-996 -7417 7471 0
-996 -7418 7472 0
-996 -7419 7473 0
-996 -7420 7474 0
-996 -7421 7475 0
-996 -7422 7476 0
-996 -7423 7477 0
-996 -7424 7478 0
-996 -7425 7479 0
-996 -7426 7480 0
-996 -7427 7481 0
-996 -7428 7482 0
-996 -7429 7483 0
-996 -7430 7484 0
-996 -7431 7485 0
-996 -7432 7486 0
-996 -7433 7487 0
-996 -7434 7488 0
-996 -7435 7489 0
-996 -7436 7490 0
-996 -7437 7491 0
-996 -7438 7492 0
-996 -7439 0
-7440 7493 0
-7441 7494 0
-7442 7495 0
-7443 7496 0
-7444 7497 0
-7445 7498 0
-7446 7499 0
-7447 7500 0
-7448 7501 0
-7449 7502 0
-7450 7503 0
-7451 7504 0
-7452 7505 0
-7453 7506 0
-7454 7507 0
-7455 7508 0
-7456 7509 0
-7457 7510 0
-7458 7511 0
-7459 7512 0
-7460 7513 0
-7461 7514 0
-7462 7515 0
-7463 7516 0
-7464 7517 0
-7465 7518 0
-7466 7519 0
-7467 7520 0
-7468 7521 0
-7469 7522 0
-7470 7523 0
-7471 7524 0
-7472 7525 0
-7473 7526 0
-7474 7527 0
-7475 7528 0
-7476 7529 0
-7477 7530 0
-7478 7531 0
-7479 7532 0
-7480 7533 0
-7481 7534 0
-7482 7535 0
-7483 7536 0
-7484 7537 0
-7485 7538 0
-7486 7539 0
-7487 7540 0
-7488 7541 0
-7489 7542 0
-7490 7543 0
-7491 7544 0
-7492 7545 0
-998 -7440 7494 0
-998 -7441 7495 0
-998 -7442 7496 0
-998 -7443 7497 0
-998 -7444 7498 0
-998 -7445 7499 0
-998 -7446 7500 0
-998 -7447 7501 0
-998 -7448 7502 0
-998 -7449 7503 0
-998 -7450 7504 0
-998 -7451 7505 0
-998 -7452 7506 0
-998 -7453 7507 0
-998 -7454 7508 0
-998 -7455 7509 0
-998 -7456 7510 0
-998 -7457 7511 0
-998 -7458 7512 0
-998 -7459 7513 0
-998 -7460 7514 0
-998 -7461 7515 0
-998 -7462 7516 0
-998 -7463 7517 0
-998 -7464 7518 0
-998 -7465 7519 0
-998 -7466 7520 0
-998 -7467 7521 0
-998 -7468 7522 0
-998 -7469 7523 0
-998 -7470 7524 0
-998 -7471 7525 0
-998 -7472 7526 0
-998 -7473 7527 0
-998 -7474 7528 0
-998 -7475 7529 0
-998 -7476 7530 0
-998 -7477 7531 0
-998 -7478 7532 0
-998 -7479 7533 0
-998 -7480 7534 0
-998 -7481 7535 0
-998 -7482 7536 0
-998 -7483 7537 0
-998 -7484 7538 0
-998 -7485 7539 0
-998 -7486 7540 0
-998 -7487 7541 0
-998 -7488 7542 0
-998 -7489 7543 0
-998 -7490 7544 0
-998 -7491 7545 0
-998 -7492 0
-7493 7546 0
-7494 7547 0
-7495 7548 0
-7496 7549 0
-7497 7550 0
-7498 7551 0
-7499 7552 0
-7500 7553 0
-7501 7554 0
-7502 7555 0
-7503 7556 0
-7504 7557 0
-7505 7558 0
-7506 7559 0
-7507 7560 0
-7508 7561 0
-7509 7562 0
-7510 7563 0
-7511 7564 0
-7512 7565 0
-7513 7566 0
-7514 7567 0
-7515 7568 0
-7516 7569 0
-7517 7570 0
-7518 7571 0
-7519 7572 0
-7520 7573 0
-7521 7574 0
-7522 7575 0
-7523 7576 0
-7524 7577 0
-7525 7578 0
-7526 7579 0
-7527 7580 0
-7528 7581 0
-7529 7582 0
-7530 7583 0
-7531 7584 0
-7532 7585 0
-7533 7586 0
-7534 7587 0
-7535 7588 0
-7536 7589 0
-7537 7590 0
-7538 7591 0
-7539 7592 0
-7540 7593 0
-7541 7594 0
-7542 7595 0
-7543 7596 0
-7544 7597 0
-7545 7598 0
-1000 -7493 7547 0
-1000 -7494 7548 0
-1000 -7495 7549 0
-1000 -7496 7550 0
-1000 -7497 7551 0
-1000 -7498 7552 0
-1000 -7499 7553 0
-1000 -7500 7554 0
-1000 -7501 7555 0
-1000 -7502 7556 0
-1000 -7503 7557 0
-1000 -7504 7558 0
-1000 -7505 7559 0
-1000 -7506 7560 0
-1000 -7507 7561 0
-1000 -7508 7562 0
-1000 -7509 7563 0
-1000 -7510 7564 0
-1000 -7511 7565 0
-1000 -7512 7566 0
-1000 -7513 7567 0
-1000 -7514 7568 0
-1000 -7515 7569 0
-1000 -7516 7570 0
-1000 -7517 7571 0
-1000 -7518 7572 0
-1000 -7519 7573 0
-1000 -7520 7574 0
-1000 -7521 7575 0
-1000 -7522 7576 0
-1000 -7523 7577 0
-1000 -7524 7578 0
-1000 -7525 7579 0
-1000 -7526 7580 0
-1000 -7527 7581 0
-1000 -7528 7582 0
-1000 -7529 7583 0
-1000 -7530 7584 0
-1000 -7531 7585 0
-1000 -7532 7586 0
-1000 -7533 7587 0
-1000 -7534 7588 0
-1000 -7535 7589 0
-1000 -7536 7590 0
-1000 -7537 7591 0
-1000 -7538 7592 0
-1000 -7539 7593 0
-1000 -7540 7594 0
-1000 -7541 7595 0
-1000 -7542 7596 0
-1000 -7543 7597 0
-1000 -7544 7598 0
-1000 -7545 0
-7546 7599 0
-7547 7600 0
-7548 7601 0
-7549 7602 0
-7550 7603 0
-7551 7604 0
-7552 7605 0
-7553 7606 0
-7554 7607 0
-7555 7608 0
-7556 7609 0
-7557 7610 0
-7558 7611 0
-7559 7612 0
-7560 7613 0
-7561 7614 0
-7562 7615 0
-7563 7616 0
-7564 7617 0
-7565 7618 0
-7566 7619 0
-7567 7620 0
-7568 7621 0
-7569 7622 0
-7570 7623 0
-7571 7624 0
-7572 7625 0
-7573 7626 0
-7574 7627 0
-7575 7628 0
-7576 7629 0
-7577 7630 0
-7578 7631 0
-7579 7632 0
-7580 7633 0
-7581 7634 0
-7582 7635 0
-7583 7636 0
-7584 7637 0
-7585 7638 0
-7586 7639 0
-7587 7640 0
-7588 7641 0
-7589 7642 0
-7590 7643 0
-7591 7644 0
-7592 7645 0
-7593 7646 0
-7594 7647 0
-7595 7648 0
-7596 7649 0
-7597 7650 0
-7598 7651 0
-1002 -7546 7600 0
-1002 -7547 7601 0
-1002 -7548 7602 0
-1002 -7549 7603 0
-1002 -7550 7604 0
-1002 -7551 7605 0
-1002 -7552 7606 0
-1002 -7553 7607 0
-1002 -7554 7608 0
-1002 -7555 7609 0
-1002 -7556 7610 0
-1002 -7557 7611 0
-1002 -7558 7612 0
-1002 -7559 7613 0
-1002 -7560 7614 0
-1002 -7561 7615 0
-1002 -7562 7616 0
-1002 -7563 7617 0
-1002 -7564 7618 0
-1002 -7565 7619 0
-1002 -7566 7620 0
-1002 -7567 7621 0
-1002 -7568 7622 0
-1002 -7569 7623 0
-1002 -7570 7624 0
-1002 -7571 7625 0
-1002 -7572 7626 0
-1002 -7573 7627 0
-1002 -7574 7628 0
-1002 -7575 7629 0
-1002 -7576 7630 0
-1002 -7577 7631 0
-1002 -7578 7632 0
-1002 -7579 7633 0
-1002 -7580 7634 0
-1002 -7581 7635 0
-1002 -7582 7636 0
-1002 -7583 7637 0
-1002 -7584 7638 0
-1002 -7585 7639 0
-1002 -7586 7640 0
-1002 -7587 7641 0
-1002 -7588 7642 0
-1002 -7589 7643 0
-1002 -7590 7644 0
-1002 -7591 7645 0
-1002 -7592 7646 0
-1002 -7593 7647 0
-1002 -7594 7648 0
-1002 -7595 7649 0
-1002 -7596 7650 0
-1002 -7597 7651 0
-1002 -7598 0
-7599 7652 0
-7600 7653 0
-7601 7654 0
-7602 7655 0
-7603 7656 0
-7604 7657 0
-7605 7658 0
-7606 7659 0
-7607 7660 0
-7608 7661 0
-7609 7662 0
-7610 7663 0
-7611 7664 0
-7612 7665 0
-7613 7666 0
-7614 7667 0
-7615 7668 0
-7616 7669 0
-7617 7670 0
-7618 7671 0
-7619 7672 0
-7620 7673 0
-7621 7674 0
-7622 7675 0
-7623 7676 0
-7624 7677 0
-7625 7678 0
-7626 7679 0
-7627 7680 0
-7628 7681 0
-7629 7682 0
-7630 7683 0
-7631 7684 0
-7632 7685 0
-7633 7686 0
-7634 7687 0
-7635 7688 0
-7636 7689 0
-7637 7690 0
-7638 7691 0
-7639 7692 0
-7640 7693 0
-7641 7694 0
-7642 7695 0
-7643 7696 0
-7644 7697 0
-7645 7698 0
-7646 7699 0
-7647 7700 0
-7648 7701 0
-7649 7702 0
-7650 7703 0
-7651 7704 0
-1004 -7599 7653 0
-1004 -7600 7654 0
-1004 -7601 7655 0
-1004 -7602 7656 0
-1004 -7603 7657 0
-1004 -7604 7658 0
-1004 -7605 7659 0
-1004 -7606 7660 0
-1004 -7607 7661 0
-1004 -7608 7662 0
-1004 -7609 7663 0
-1004 -7610 7664 0
-1004 -7611 7665 0
-1004 -7612 7666 0
-1004 -7613 7667 0
-1004 -7614 7668 0
-1004 -7615 7669 0
-1004 -7616 7670 0
-1004 -7617 7671 0
-1004 -7618 7672 0
-1004 -7619 7673 0
-1004 -7620 7674 0
-1004 -7621 7675 0
-1004 -7622 7676 0
-1004 -7623 7677 0
-1004 -7624 7678 0
-1004 -7625 7679 0
-1004 -7626 7680 0
-1004 -7627 7681 0
-1004 -7628 7682 0
-1004 -7629 7683 0
-1004 -7630 7684 0
-1004 -7631 7685 0
-1004 -7632 7686 0
-1004 -7633 7687 0
-1004 -7634 7688 0
-1004 -7635 7689 0
-1004 -7636 7690 0
-1004 -7637 7691 0
-1004 -7638 7692 0
-1004 -7639 7693 0
-1004 -7640 7694 0
-1004 -7641 7695 0
-1004 -7642 7696 0
-1004 -7643 7697 0
-1004 -7644 7698 0
-1004 -7645 7699 0
-1004 -7646 7700 0
-1004 -7647 7701 0
-1004 -7648 7702 0
-1004 -7649 7703 0
-1004 -7650 7704 0
-1004 -7651 0
-7652 7705 0
-7653 7706 0
-7654 7707 0
-7655 7708 0
-7656 7709 0
-7657 7710 0
-7658 7711 0
-7659 7712 0
-7660 7713 0
-7661 7714 0
-7662 7715 0
-7663 7716 0
-7664 7717 0
-7665 7718 0
-7666 7719 0
-7667 7720 0
-7668 7721 0
-7669 7722 0
-7670 7723 0
-7671 7724 0
-7672 7725 0
-7673 7726 0
-7674 7727 0
-7675 7728 0
-7676 7729 0
-7677 7730 0
-7678 7731 0
-7679 7732 0
-7680 7733 0
-7681 7734 0
-7682 7735 0
-7683 7736 0
-7684 7737 0
-7685 7738 0
-7686 7739 0
-7687 7740 0
-7688 7741 0
-7689 7742 0
-7690 7743 0
-7691 7744 0
-7692 7745 0
-7693 7746 0
-7694 7747 0
-7695 7748 0
-7696 7749 0
-7697 7750 0
-7698 7751 0
-7699 7752 0
-7700 7753 0
-7701 7754 0
-7702 7755 0
-7703 7756 0
-7704 7757 0
-1006 -7652 7706 0
-1006 -7653 7707 0
-1006 -7654 7708 0
-1006 -7655 7709 0
-1006 -7656 7710 0
-1006 -7657 7711 0
-1006 -7658 7712 0
-1006 -7659 7713 0
-1006 -7660 7714 0
-1006 -7661 7715 0
-1006 -7662 7716 0
-1006 -7663 7717 0
-1006 -7664 7718 0
-1006 -7665 7719 0
-1006 -7666 7720 0
-1006 -7667 7721 0
-1006 -7668 7722 0
-1006 -7669 7723 0
-1006 -7670 7724 0
-1006 -7671 7725 0
-1006 -7672 7726 0
-1006 -7673 7727 0
-1006 -7674 7728 0
-1006 -7675 7729 0
-1006 -7676 7730 0
-1006 -7677 7731 0
-1006 -7678 7732 0
-1006 -7679 7733 0
-1006 -7680 7734 0
-1006 -7681 7735 0
-1006 -7682 7736 0
-1006 -7683 7737 0
-1006 -7684 7738 0
-1006 -7685 7739 0
-1006 -7686 7740 0
-1006 -7687 7741 0
-1006 -7688 7742 0
-1006 -7689 7743 0
-1006 -7690 7744 0
-1006 -7691 7745 0
-1006 -7692 7746 0
-1006 -7693 7747 0
-1006 -7694 7748 0
-1006 -7695 7749 0
-1006 -7696 7750 0
-1006 -7697 7751 0
-1006 -7698 7752 0
-1006 -7699 7753 0
-1006 -7700 7754 0
-1006 -7701 7755 0
-1006 -7702 7756 0
-1006 -7703 7757 0
-1006 -7704 0
-7705 7758 0
-7706 7759 0
-7707 7760 0
-7708 7761 0
-7709 7762 0
-7710 7763 0
-7711 7764 0
-7712 7765 0
-7713 7766 0
-7714 7767 0
-7715 7768 0
-7716 7769 0
-7717 7770 0
-7718 7771 0
-7719 7772 0
-7720 7773 0
-7721 7774 0
-7722 7775 0
-7723 7776 0
-7724 7777 0
-7725 7778 0
-7726 7779 0
-7727 7780 0
-7728 7781 0
-7729 7782 0
-7730 7783 0
-7731 7784 0
-7732 7785 0
-7733 7786 0
-7734 7787 0
-7735 7788 0
-7736 7789 0
-7737 7790 0
-7738 7791 0
-7739 7792 0
-7740 7793 0
-7741 7794 0
-7742 7795 0
-7743 7796 0
-7744 7797 0
-7745 7798 0
-7746 7799 0
-7747 7800 0
-7748 7801 0
-7749 7802 0
-7750 7803 0
-7751 7804 0
-7752 7805 0
-7753 7806 0
-7754 7807 0
-7755 7808 0
-7756 7809 0
-7757 7810 0
-1008 -7705 7759 0
-1008 -7706 7760 0
-1008 -7707 7761 0
-1008 -7708 7762 0
-1008 -7709 7763 0
-1008 -7710 7764 0
-1008 -7711 7765 0
-1008 -7712 7766 0
-1008 -7713 7767 0
-1008 -7714 7768 0
-1008 -7715 7769 0
-1008 -7716 7770 0
-1008 -7717 7771 0
-1008 -7718 7772 0
-1008 -7719 7773 0
-1008 -7720 7774 0
-1008 -7721 7775 0
-1008 -7722 7776 0
-1008 -7723 7777 0
-1008 -7724 7778 0
-1008 -7725 7779 0
-1008 -7726 7780 0
-1008 -7727 7781 0
-1008 -7728 7782 0
-1008 -7729 7783 0
-1008 -7730 7784 0
-1008 -7731 7785 0
-1008 -7732 7786 0
-1008 -7733 7787 0
-1008 -7734 7788 0
-1008 -7735 7789 0
-1008 -7736 7790 0
-1008 -7737 7791 0
-1008 -7738 7792 0
-1008 -7739 7793 0
-1008 -7740 7794 0
-1008 -7741 7795 0
-1008 -7742 7796 0
-1008 -7743 7797 0
-1008 -7744 7798 0
-1008 -7745 7799 0
-1008 -7746 7800 0
-1008 -7747 7801 0
-1008 -7748 7802 0
-1008 -7749 7803 0
-1008 -7750 7804 0
-1008 -7751 7805 0
-1008 -7752 7806 0
-1008 -7753 7807 0
-1008 -7754 7808 0
-1008 -7755 7809 0
-1008 -7756 7810 0
-1008 -7757 0
-7758 7811 0
-7759 7812 0
-7760 7813 0
-7761 7814 0
-7762 7815 0
-7763 7816 0
-7764 7817 0
-7765 7818 0
-7766 7819 0
-7767 7820 0
-7768 7821 0
-7769 7822 0
-7770 7823 0
-7771 7824 0
-7772 7825 0
-7773 7826 0
-7774 7827 0
-7775 7828 0
-7776 7829 0
-7777 7830 0
-7778 7831 0
-7779 7832 0
-7780 7833 0
-7781 7834 0
-7782 7835 0
-7783 7836 0
-7784 7837 0
-7785 7838 0
-7786 7839 0
-7787 7840 0
-7788 7841 0
-7789 7842 0
-7790 7843 0
-7791 7844 0
-7792 7845 0
-7793 7846 0
-7794 7847 0
-7795 7848 0
-7796 7849 0
-7797 7850 0
-7798 7851 0
-7799 7852 0
-7800 7853 0
-7801 7854 0
-7802 7855 0
-7803 7856 0
-7804 7857 0
-7805 7858 0
-7806 7859 0
-7807 7860 0
-7808 7861 0
-7809 7862 0
-7810 7863 0
-1010 -7758 7812 0
-1010 -7759 7813 0
-1010 -7760 7814 0
-1010 -7761 7815 0
-1010 -7762 7816 0
-1010 -7763 7817 0
-1010 -7764 7818 0
-1010 -7765 7819 0
-1010 -7766 7820 0
-1010 -7767 7821 0
-1010 -7768 7822 0
-1010 -7769 7823 0
-1010 -7770 7824 0
-1010 -7771 7825 0
-1010 -7772 7826 0
-1010 -7773 7827 0
-1010 -7774 7828 0
-1010 -7775 7829 0
-1010 -7776 7830 0
-1010 -7777 7831 0
-1010 -7778 7832 0
-1010 -7779 7833 0
-1010 -7780 7834 0
-1010 -7781 7835 0
-1010 -7782 7836 0
-1010 -7783 7837 0
-1010 -7784 7838 0
-1010 -7785 7839 0
-1010 -7786 7840 0
-1010 -7787 7841 0
-1010 -7788 7842 0
-1010 -7789 7843 0
-1010 -7790 7844 0
-1010 -7791 7845 0
-1010 -7792 7846 0
-1010 -7793 7847 0
-1010 -7794 7848 0
-1010 -7795 7849 0
-1010 -7796 7850 0
-1010 -7797 7851 0
-1010 -7798 7852 0
-1010 -7799 7853 0
-1010 -7800 7854 0
-1010 -7801 7855 0
-1010 -7802 7856 0
-1010 -7803 7857 0
-1010 -7804 7858 0
-1010 -7805 7859 0
-1010 -7806 7860 0
-1010 -7807 7861 0
-1010 -7808 7862 0
-1010 -7809 7863 0
-1010 -7810 0
-7811 7864 0
-7812 7865 0
-7813 7866 0
-7814 7867 0
-7815 7868 0
-7816 7869 0
-7817 7870 0
-7818 7871 0
-7819 7872 0
-7820 7873 0
-7821 7874 0
-7822 7875 0
-7823 7876 0
-7824 7877 0
-7825 7878 0
-7826 7879 0
-7827 7880 0
-7828 7881 0
-7829 7882 0
-7830 7883 0
-7831 7884 0
-7832 7885 0
-7833 7886 0
-7834 7887 0
-7835 7888 0
-7836 7889 0
-7837 7890 0
-7838 7891 0
-7839 7892 0
-7840 7893 0
-7841 7894 0
-7842 7895 0
-7843 7896 0
-7844 7897 0
-7845 7898 0
-7846 7899 0
-7847 7900 0
-7848 7901 0
-7849 7902 0
-7850 7903 0
-7851 7904 0
-7852 7905 0
-7853 7906 0
-7854 7907 0
-7855 7908 0
-7856 7909 0
-7857 7910 0
-7858 7911 0
-7859 7912 0
-7860 7913 0
-7861 7914 0
-7862 7915 0
-7863 7916 0
-1012 -7811 7865 0
-1012 -7812 7866 0
-1012 -7813 7867 0
-1012 -7814 7868 0
-1012 -7815 7869 0
-1012 -7816 7870 0
-1012 -7817 7871 0
-1012 -7818 7872 0
-1012 -7819 7873 0
-1012 -7820 7874 0
-1012 -7821 7875 0
-1012 -7822 7876 0
-1012 -7823 7877 0
-1012 -7824 7878 0
-1012 -7825 7879 0
-1012 -7826 7880 0
-1012 -7827 7881 0
-1012 -7828 7882 0
-1012 -7829 7883 0
-1012 -7830 7884 0
-1012 -7831 7885 0
-1012 -7832 7886 0
-1012 -7833 7887 0
-1012 -7834 7888 0
-1012 -7835 7889 0
-1012 -7836 7890 0
-1012 -7837 7891 0
-1012 -7838 7892 0
-1012 -7839 7893 0
-1012 -7840 7894 0
-1012 -7841 7895 0
-1012 -7842 7896 0
-1012 -7843 7897 0
-1012 -7844 7898 0
-1012 -7845 7899 0
-1012 -7846 7900 0
-1012 -7847 7901 0
-1012 -7848 7902 0
-1012 -7849 7903 0
-1012 -7850 7904 0
-1012 -7851 7905 0
-1012 -7852 7906 0
-1012 -7853 7907 0
-1012 -7854 7908 0
-1012 -7855 7909 0
-1012 -7856 7910 0
-1012 -7857 7911 0
-1012 -7858 7912 0
-1012 -7859 7913 0
-1012 -7860 7914 0
-1012 -7861 7915 0
-1012 -7862 7916 0
-1012 -7863 0
-7864 7917 0
-7865 7918 0
-7866 7919 0
-7867 7920 0
-7868 7921 0
-7869 7922 0
-7870 7923 0
-7871 7924 0
-7872 7925 0
-7873 7926 0
-7874 7927 0
-7875 7928 0
-7876 7929 0
-7877 7930 0
-7878 7931 0
-7879 7932 0
-7880 7933 0
-7881 7934 0
-7882 7935 0
-7883 7936 0
-7884 7937 0
-7885 7938 0
-7886 7939 0
-7887 7940 0
-7888 7941 0
-7889 7942 0
-7890 7943 0
-7891 7944 0
-7892 7945 0
-7893 7946 0
-7894 7947 0
-7895 7948 0
-7896 7949 0
-7897 7950 0
-7898 7951 0
-7899 7952 0
-7900 7953 0
-7901 7954 0
-7902 7955 0
-7903 7956 0
-7904 7957 0
-7905 7958 0
-7906 7959 0
-7907 7960 0
-7908 7961 0
-7909 7962 0
-7910 7963 0
-7911 7964 0
-7912 7965 0
-7913 7966 0
-7914 7967 0
-7915 7968 0
-7916 7969 0
-1014 -7864 7918 0
-1014 -7865 7919 0
-1014 -7866 7920 0
-1014 -7867 7921 0
-1014 -7868 7922 0
-1014 -7869 7923 0
-1014 -7870 7924 0
-1014 -7871 7925 0
-1014 -7872 7926 0
-1014 -7873 7927 0
-1014 -7874 7928 0
-1014 -7875 7929 0
-1014 -7876 7930 0
-1014 -7877 7931 0
-1014 -7878 7932 0
-1014 -7879 7933 0
-1014 -7880 7934 0
-1014 -7881 7935 0
-1014 -7882 7936 0
-1014 -7883 7937 0
-1014 -7884 7938 0
-1014 -7885 7939 0
-1014 -7886 7940 0
-1014 -7887 7941 0
-1014 -7888 7942 0
-1014 -7889 7943 0
-1014 -7890 7944 0
-1014 -7891 7945 0
-1014 -7892 7946 0
-1014 -7893 7947 0
-1014 -7894 7948 0
-1014 -7895 7949 0
-1014 -7896 7950 0
-1014 -7897 7951 0
-1014 -7898 7952 0
-1014 -7899 7953 0
-1014 -7900 7954 0
-1014 -7901 7955 0
-1014 -7902 7956 0
-1014 -7903 7957 0
-1014 -7904 7958 0
-1014 -7905 7959 0
-1014 -7906 7960 0
-1014 -7907 7961 0
-1014 -7908 7962 0
-1014 -7909 7963 0
-1014 -7910 7964 0
-1014 -7911 7965 0
-1014 -7912 7966 0
-1014 -7913 7967 0
-1014 -7914 7968 0
-1014 -7915 7969 0
-1014 -7916 0
-7917 7970 0
-7918 7971 0
-7919 7972 0
-7920 7973 0
-7921 7974 0
-7922 7975 0
-7923 7976 0
-7924 7977 0
-7925 7978 0
-7926 7979 0
-7927 7980 0
-7928 7981 0
-7929 7982 0
-7930 7983 0
-7931 7984 0
-7932 7985 0
-7933 7986 0
-7934 7987 0
-7935 7988 0
-7936 7989 0
-7937 7990 0
-7938 7991 0
-7939 7992 0
-7940 7993 0
-7941 7994 0
-7942 7995 0
-7943 7996 0
-7944 7997 0
-7945 7998 0
-7946 7999 0
-7947 8000 0
-7948 8001 0
-7949 8002 0
-7950 8003 0
-7951 8004 0
-7952 8005 0
-7953 8006 0
-7954 8007 0
-7955 8008 0
-7956 8009 0
-7957 8010 0
-7958 8011 0
-7959 8012 0
-7960 8013 0
-7961 8014 0
-7962 8015 0
-7963 8016 0
-7964 8017 0
-7965 8018 0
-7966 8019 0
-7967 8020 0
-7968 8021 0
-7969 8022 0
-1016 -7917 7971 0
-1016 -7918 7972 0
-1016 -7919 7973 0
-1016 -7920 7974 0
-1016 -7921 7975 0
-1016 -7922 7976 0
-1016 -7923 7977 0
-1016 -7924 7978 0
-1016 -7925 7979 0
-1016 -7926 7980 0
-1016 -7927 7981 0
-1016 -7928 7982 0
-1016 -7929 7983 0
-1016 -7930 7984 0
-1016 -7931 7985 0
-1016 -7932 7986 0
-1016 -7933 7987 0
-1016 -7934 7988 0
-1016 -7935 7989 0
-1016 -7936 7990 0
-1016 -7937 7991 0
-1016 -7938 7992 0
-1016 -7939 7993 0
-1016 -7940 7994 0
-1016 -7941 7995 0
-1016 -7942 7996 0
-1016 -7943 7997 0
-1016 -7944 7998 0
-1016 -7945 7999 0
-1016 -7946 8000 0
-1016 -7947 8001 0
-1016 -7948 8002 0
-1016 -7949 8003 0
-1016 -7950 8004 0
-1016 -7951 8005 0
-1016 -7952 8006 0
-1016 -7953 8007 0
-1016 -7954 8008 0
-1016 -7955 8009 0
-1016 -7956 8010 0
-1016 -7957 8011 0
-1016 -7958 8012 0
-1016 -7959 8013 0
-1016 -7960 8014 0
-1016 -7961 8015 0
-1016 -7962 8016 0
-1016 -7963 8017 0
-1016 -7964 8018 0
-1016 -7965 8019 0
-1016 -7966 8020 0
-1016 -7967 8021 0
-1016 -7968 8022 0
-1016 -7969 0
-7970 8023 0
-7971 8024 0
-7972 8025 0
-7973 8026 0
-7974 8027 0
-7975 8028 0
-7976 8029 0
-7977 8030 0
-7978 8031 0
-7979 8032 0
-7980 8033 0
-7981 8034 0
-7982 8035 0
-7983 8036 0
-7984 8037 0
-7985 8038 0
-7986 8039 0
-7987 8040 0
-7988 8041 0
-7989 8042 0
-7990 8043 0
-7991 8044 0
-7992 8045 0
-7993 8046 0
-7994 8047 0
-7995 8048 0
-7996 8049 0
-7997 8050 0
-7998 8051 0
-7999 8052 0
-8000 8053 0
-8001 8054 0
-8002 8055 0
-8003 8056 0
-8004 8057 0
-8005 8058 0
-8006 8059 0
-8007 8060 0
-8008 8061 0
-8009 8062 0
-8010 8063 0
-8011 8064 0
-8012 8065 0
-8013 8066 0
-8014 8067 0
-8015 8068 0
-8016 8069 0
-8017 8070 0
-8018 8071 0
-8019 8072 0
-8020 8073 0
-8021 8074 0
-8022 8075 0
-1018 -7970 8024 0
-1018 -7971 8025 0
-1018 -7972 8026 0
-1018 -7973 8027 0
-1018 -7974 8028 0
-1018 -7975 8029 0
-1018 -7976 8030 0
-1018 -7977 8031 0
-1018 -7978 8032 0
-1018 -7979 8033 0
-1018 -7980 8034 0
-1018 -7981 8035 0
-1018 -7982 8036 0
-1018 -7983 8037 0
-1018 -7984 8038 0
-1018 -7985 8039 0
-1018 -7986 8040 0
-1018 -7987 8041 0
-1018 -7988 8042 0
-1018 -7989 8043 0
-1018 -7990 8044 0
-1018 -7991 8045 0
-1018 -7992 8046 0
-1018 -7993 8047 0
-1018 -7994 8048 0
-1018 -7995 8049 0
-1018 -7996 8050 0
-1018 -7997 8051 0
-1018 -7998 8052 0
-1018 -7999 8053 0
-1018 -8000 8054 0
-1018 -8001 8055 0
-1018 -8002 8056 0
-1018 -8003 8057 0
-1018 -8004 8058 0
-1018 -8005 8059 0
-1018 -8006 8060 0
-1018 -8007 8061 0
-1018 -8008 8062 0
-1018 -8009 8063 0
-1018 -8010 8064 0
-1018 -8011 8065 0
-1018 -8012 8066 0
-1018 -8013 8067 0
-1018 -8014 8068 0
-1018 -8015 8069 0
-1018 -8016 8070 0
-1018 -8017 8071 0
-1018 -8018 8072 0
-1018 -8019 8073 0
-1018 -8020 8074 0
-1018 -8021 8075 0
-1018 -8022 0
-8023 8076 0
-8024 8077 0
-8025 8078 0
-8026 8079 0
-8027 8080 0
-8028 8081 0
-8029 8082 0
-8030 8083 0
-8031 8084 0
-8032 8085 0
-8033 8086 0
-8034 8087 0
-8035 8088 0
-8036 8089 0
-8037 8090 0
-8038 8091 0
-8039 8092 0
-8040 8093 0
-8041 8094 0
-8042 8095 0
-8043 8096 0
-8044 8097 0
-8045 8098 0
-8046 8099 0
-8047 8100 0
-8048 8101 0
-8049 8102 0
-8050 8103 0
-8051 8104 0
-8052 8105 0
-8053 8106 0
-8054 8107 0
-8055 8108 0
-8056 8109 0
-8057 8110 0
-8058 8111 0
-8059 8112 0
-8060 8113 0
-8061 8114 0
-8062 8115 0
-8063 8116 0
-8064 8117 0
-8065 8118 0
-8066 8119 0
-8067 8120 0
-8068 8121 0
-8069 8122 0
-8070 8123 0
-8071 8124 0
-8072 8125 0
-8073 8126 0
-8074 8127 0
-8075 8128 0
-1020 -8023 8077 0
-1020 -8024 8078 0
-1020 -8025 8079 0
-1020 -8026 8080 0
-1020 -8027 8081 0
-1020 -8028 8082 0
-1020 -8029 8083 0
-1020 -8030 8084 0
-1020 -8031 8085 0
-1020 -8032 8086 0
-1020 -8033 8087 0
-1020 -8034 8088 0
-1020 -8035 8089 0
-1020 -8036 8090 0
-1020 -8037 8091 0
-1020 -8038 8092 0
-1020 -8039 8093 0
-1020 -8040 8094 0
-1020 -8041 8095 0
-1020 -8042 8096 0
-1020 -8043 8097 0
-1020 -8044 8098 0
-1020 -8045 8099 0
-1020 -8046 8100 0
-1020 -8047 8101 0
-1020 -8048 8102 0
-1020 -8049 8103 0
-1020 -8050 8104 0
-1020 -8051 8105 0
-1020 -8052 8106 0
-1020 -8053 8107 0
-1020 -8054 8108 0
-1020 -8055 8109 0
-1020 -8056 8110 0
-1020 -8057 8111 0
-1020 -8058 8112 0
-1020 -8059 8113 0
-1020 -8060 8114 0
-1020 -8061 8115 0
-1020 -8062 8116 0
-1020 -8063 8117 0
-1020 -8064 8118 0
-1020 -8065 8119 0
-1020 -8066 8120 0
-1020 -8067 8121 0
-1020 -8068 8122 0
-1020 -8069 8123 0
-1020 -8070 8124 0
-1020 -8071 8125 0
-1020 -8072 8126 0
-1020 -8073 8127 0
-1020 -8074 8128 0
-1020 -8075 0
-8076 8129 0
-8077 8130 0
-8078 8131 0
-8079 8132 0
-8080 8133 0
-8081 8134 0
-8082 8135 0
-8083 8136 0
-8084 8137 0
-8085 8138 0
-8086 8139 0
-8087 8140 0
-8088 8141 0
-8089 8142 0
-8090 8143 0
-8091 8144 0
-8092 8145 0
-8093 8146 0
-8094 8147 0
-8095 8148 0
-8096 8149 0
-8097 8150 0
-8098 8151 0
-8099 8152 0
-8100 8153 0
-8101 8154 0
-8102 8155 0
-8103 8156 0
-8104 8157 0
-8105 8158 0
-8106 8159 0
-8107 8160 0
-8108 8161 0
-8109 8162 0
-8110 8163 0
-8111 8164 0
-8112 8165 0
-8113 8166 0
-8114 8167 0
-8115 8168 0
-8116 8169 0
-8117 8170 0
-8118 8171 0
-8119 8172 0
-8120 8173 0
-8121 8174 0
-8122 8175 0
-8123 8176 0
-8124 8177 0
-8125 8178 0
-8126 8179 0
-8127 8180 0
-8128 8181 0
-1022 -8076 8130 0
-1022 -8077 8131 0
-1022 -8078 8132 0
-1022 -8079 8133 0
-1022 -8080 8134 0
-1022 -8081 8135 0
-1022 -8082 8136 0
-1022 -8083 8137 0
-1022 -8084 8138 0
-1022 -8085 8139 0
-1022 -8086 8140 0
-1022 -8087 8141 0
-1022 -8088 8142 0
-1022 -8089 8143 0
-1022 -8090 8144 0
-1022 -8091 8145 0
-1022 -8092 8146 0
-1022 -8093 8147 0
-1022 -8094 8148 0
-1022 -8095 8149 0
-1022 -8096 8150 0
-1022 -8097 8151 0
-1022 -8098 8152 0
-1022 -8099 8153 0
-1022 -8100 8154 0
-1022 -8101 8155 0
-1022 -8102 8156 0
-1022 -8103 8157 0
-1022 -8104 8158 0
-1022 -8105 8159 0
-1022 -8106 8160 0
-1022 -8107 8161 0
-1022 -8108 8162 0
-1022 -8109 8163 0
-1022 -8110 8164 0
-1022 -8111 8165 0
-1022 -8112 8166 0
-1022 -8113 8167 0
-1022 -8114 8168 0
-1022 -8115 8169 0
-1022 -8116 8170 0
-1022 -8117 8171 0
-1022 -8118 8172 0
-1022 -8119 8173 0
-1022 -8120 8174 0
-1022 -8121 8175 0
-1022 -8122 8176 0
-1022 -8123 8177 0
-1022 -8124 8178 0
-1022 -8125 8179 0
-1022 -8126 8180 0
-1022 -8127 8181 0
-1022 -8128 0
-8129 8182 0
-8130 8183 0
-8131 8184 0
-8132 8185 0
-8133 8186 0
-8134 8187 0
-8135 8188 0
-8136 8189 0
-8137 8190 0
-8138 8191 0
-8139 8192 0
-8140 8193 0
-8141 8194 0
-8142 8195 0
-8143 8196 0
-8144 8197 0
-8145 8198 0
-8146 8199 0
-8147 8200 0
-8148 8201 0
-8149 8202 0
-8150 8203 0
-8151 8204 0
-8152 8205 0
-8153 8206 0
-8154 8207 0
-8155 8208 0
-8156 8209 0
-8157 8210 0
-8158 8211 0
-8159 8212 0
-8160 8213 0
-8161 8214 0
-8162 8215 0
-8163 8216 0
-8164 8217 0
-8165 8218 0
-8166 8219 0
-8167 8220 0
-8168 8221 0
-8169 8222 0
-8170 8223 0
-8171 8224 0
-8172 8225 0
-8173 8226 0
-8174 8227 0
-8175 8228 0
-8176 8229 0
-8177 8230 0
-8178 8231 0
-8179 8232 0
-8180 8233 0
-8181 8234 0
-1024 -8129 8183 0
-1024 -8130 8184 0
-1024 -8131 8185 0
-1024 -8132 8186 0
-1024 -8133 8187 0
-1024 -8134 8188 0
-1024 -8135 8189 0
-1024 -8136 8190 0
-1024 -8137 8191 0
-1024 -8138 8192 0
-1024 -8139 8193 0
-1024 -8140 8194 0
-1024 -8141 8195 0
-1024 -8142 8196 0
-1024 -8143 8197 0
-1024 -8144 8198 0
-1024 -8145 8199 0
-1024 -8146 8200 0
-1024 -8147 8201 0
-1024 -8148 8202 0
-1024 -8149 8203 0
-1024 -8150 8204 0
-1024 -8151 8205 0
-1024 -8152 8206 0
-1024 -8153 8207 0
-1024 -8154 8208 0
-1024 -8155 8209 0
-1024 -8156 8210 0
-1024 -8157 8211 0
-1024 -8158 8212 0
-1024 -8159 8213 0
-1024 -8160 8214 0
-1024 -8161 8215 0
-1024 -8162 8216 0
-1024 -8163 8217 0
-1024 -8164 8218 0
-1024 -8165 8219 0
-1024 -8166 8220 0
-1024 -8167 8221 0
-1024 -8168 8222 0
-1024 -8169 8223 0
-1024 -8170 8224 0
-1024 -8171 8225 0
-1024 -8172 8226 0
-1024 -8173 8227 0
-1024 -8174 8228 0
-1024 -8175 8229 0
-1024 -8176 8230 0
-1024 -8177 8231 0
-1024 -8178 8232 0
-1024 -8179 8233 0
-1024 -8180 8234 0
-1024 -8181 0
-8182 8235 0
-8183 8236 0
-8184 8237 0
-8185 8238 0
-8186 8239 0
-8187 8240 0
-8188 8241 0
-8189 8242 0
-8190 8243 0
-8191 8244 0
-8192 8245 0
-8193 8246 0
-8194 8247 0
-8195 8248 0
-8196 8249 0
-8197 8250 0
-8198 8251 0
-8199 8252 0
-8200 8253 0
-8201 8254 0
-8202 8255 0
-8203 8256 0
-8204 8257 0
-8205 8258 0
-8206 8259 0
-8207 8260 0
-8208 8261 0
-8209 8262 0
-8210 8263 0
-8211 8264 0
-8212 8265 0
-8213 8266 0
-8214 8267 0
-8215 8268 0
-8216 8269 0
-8217 8270 0
-8218 8271 0
-8219 8272 0
-8220 8273 0
-8221 8274 0
-8222 8275 0
-8223 8276 0
-8224 8277 0
-8225 8278 0
-8226 8279 0
-8227 8280 0
-8228 8281 0
-8229 8282 0
-8230 8283 0
-8231 8284 0
-8232 8285 0
-8233 8286 0
-8234 8287 0
-1026 -8182 8236 0
-1026 -8183 8237 0
-1026 -8184 8238 0
-1026 -8185 8239 0
-1026 -8186 8240 0
-1026 -8187 8241 0
-1026 -8188 8242 0
-1026 -8189 8243 0
-1026 -8190 8244 0
-1026 -8191 8245 0
-1026 -8192 8246 0
-1026 -8193 8247 0
-1026 -8194 8248 0
-1026 -8195 8249 0
-1026 -8196 8250 0
-1026 -8197 8251 0
-1026 -8198 8252 0
-1026 -8199 8253 0
-1026 -8200 8254 0
-1026 -8201 8255 0
-1026 -8202 8256 0
-1026 -8203 8257 0
-1026 -8204 8258 0
-1026 -8205 8259 0
-1026 -8206 8260 0
-1026 -8207 8261 0
-1026 -8208 8262 0
-1026 -8209 8263 0
-1026 -8210 8264 0
-1026 -8211 8265 0
-1026 -8212 8266 0
-1026 -8213 8267 0
-1026 -8214 8268 0
-1026 -8215 8269 0
-1026 -8216 8270 0
-1026 -8217 8271 0
-1026 -8218 8272 0
-1026 -8219 8273 0
-1026 -8220 8274 0
-1026 -8221 8275 0
-1026 -8222 8276 0
-1026 -8223 8277 0
-1026 -8224 8278 0
-1026 -8225 8279 0
-1026 -8226 8280 0
-1026 -8227 8281 0
-1026 -8228 8282 0
-1026 -8229 8283 0
-1026 -8230 8284 0
-1026 -8231 8285 0
-1026 -8232 8286 0
-1026 -8233 8287 0
-1026 -8234 0
-8235 8288 0
-8236 8289 0
-8237 8290 0
-8238 8291 0
-8239 8292 0
-8240 8293 0
-8241 8294 0
-8242 8295 0
-8243 8296 0
-8244 8297 0
-8245 8298 0
-8246 8299 0
-8247 8300 0
-8248 8301 0
-8249 8302 0
-8250 8303 0
-8251 8304 0
-8252 8305 0
-8253 8306 0
-8254 8307 0
-8255 8308 0
-8256 8309 0
-8257 8310 0
-8258 8311 0
-8259 8312 0
-8260 8313 0
-8261 8314 0
-8262 8315 0
-8263 8316 0
-8264 8317 0
-8265 8318 0
-8266 8319 0
-8267 8320 0
-8268 8321 0
-8269 8322 0
-8270 8323 0
-8271 8324 0
-8272 8325 0
-8273 8326 0
-8274 8327 0
-8275 8328 0
-8276 8329 0
-8277 8330 0
-8278 8331 0
-8279 8332 0
-8280 8333 0
-8281 8334 0
-8282 8335 0
-8283 8336 0
-8284 8337 0
-8285 8338 0
-8286 8339 0
-8287 8340 0
-1028 -8235 8289 0
-1028 -8236 8290 0
-1028 -8237 8291 0
-1028 -8238 8292 0
-1028 -8239 8293 0
-1028 -8240 8294 0
-1028 -8241 8295 0
-1028 -8242 8296 0
-1028 -8243 8297 0
-1028 -8244 8298 0
-1028 -8245 8299 0
-1028 -8246 8300 0
-1028 -8247 8301 0
-1028 -8248 8302 0
-1028 -8249 8303 0
-1028 -8250 8304 0
-1028 -8251 8305 0
-1028 -8252 8306 0
-1028 -8253 8307 0
-1028 -8254 8308 0
-1028 -8255 8309 0
-1028 -8256 8310 0
-1028 -8257 8311 0
-1028 -8258 8312 0
-1028 -8259 8313 0
-1028 -8260 8314 0
-1028 -8261 8315 0
-1028 -8262 8316 0
-1028 -8263 8317 0
-1028 -8264 8318 0
-1028 -8265 8319 0
-1028 -8266 8320 0
-1028 -8267 8321 0
-1028 -8268 8322 0
-1028 -8269 8323 0
-1028 -8270 8324 0
-1028 -8271 8325 0
-1028 -8272 8326 0
-1028 -8273 8327 0
-1028 -8274 8328 0
-1028 -8275 8329 0
-1028 -8276 8330 0
-1028 -8277 8331 0
-1028 -8278 8332 0
-1028 -8279 8333 0
-1028 -8280 8334 0
-1028 -8281 8335 0
-1028 -8282 8336 0
-1028 -8283 8337 0
-1028 -8284 8338 0
-1028 -8285 8339 0
-1028 -8286 8340 0
-1028 -8287 0
-8288 8341 0
-8289 8342 0
-8290 8343 0
-8291 8344 0
-8292 8345 0
-8293 8346 0
-8294 8347 0
-8295 8348 0
-8296 8349 0
-8297 8350 0
-8298 8351 0
-8299 8352 0
-8300 8353 0
-8301 8354 0
-8302 8355 0
-8303 8356 0
-8304 8357 0
-8305 8358 0
-8306 8359 0
-8307 8360 0
-8308 8361 0
-8309 8362 0
-8310 8363 0
-8311 8364 0
-8312 8365 0
-8313 8366 0
-8314 8367 0
-8315 8368 0
-8316 8369 0
-8317 8370 0
-8318 8371 0
-8319 8372 0
-8320 8373 0
-8321 8374 0
-8322 8375 0
-8323 8376 0
-8324 8377 0
-8325 8378 0
-8326 8379 0
-8327 8380 0
-8328 8381 0
-8329 8382 0
-8330 8383 0
-8331 8384 0
-8332 8385 0
-8333 8386 0
-8334 8387 0
-8335 8388 0
-8336 8389 0
-8337 8390 0
-8338 8391 0
-8339 8392 0
-8340 8393 0
-1030 -8288 8342 0
-1030 -8289 8343 0
-1030 -8290 8344 0
-1030 -8291 8345 0
-1030 -8292 8346 0
-1030 -8293 8347 0
-1030 -8294 8348 0
-1030 -8295 8349 0
-1030 -8296 8350 0
-1030 -8297 8351 0
-1030 -8298 8352 0
-1030 -8299 8353 0
-1030 -8300 8354 0
-1030 -8301 8355 0
-1030 -8302 8356 0
-1030 -8303 8357 0
-1030 -8304 8358 0
-1030 -8305 8359 0
-1030 -8306 8360 0
-1030 -8307 8361 0
-1030 -8308 8362 0
-1030 -8309 8363 0
-1030 -8310 8364 0
-1030 -8311 8365 0
-1030 -8312 8366 0
-1030 -8313 8367 0
-1030 -8314 8368 0
-1030 -8315 8369 0
-1030 -8316 8370 0
-1030 -8317 8371 0
-1030 -8318 8372 0
-1030 -8319 8373 0
-1030 -8320 8374 0
-1030 -8321 8375 0
-1030 -8322 8376 0
-1030 -8323 8377 0
-1030 -8324 8378 0
-1030 -8325 8379 0
-1030 -8326 8380 0
-1030 -8327 8381 0
-1030 -8328 8382 0
-1030 -8329 8383 0
-1030 -8330 8384 0
-1030 -8331 8385 0
-1030 -8332 8386 0
-1030 -8333 8387 0
-1030 -8334 8388 0
-1030 -8335 8389 0
-1030 -8336 8390 0
-1030 -8337 8391 0
-1030 -8338 8392 0
-1030 -8339 8393 0
-1030 -8340 0
-8341 8394 0
-8342 8395 0
-8343 8396 0
-8344 8397 0
-8345 8398 0
-8346 8399 0
-8347 8400 0
-8348 8401 0
-8349 8402 0
-8350 8403 0
-8351 8404 0
-8352 8405 0
-8353 8406 0
-8354 8407 0
-8355 8408 0
-8356 8409 0
-8357 8410 0
-8358 8411 0
-8359 8412 0
-8360 8413 0
-8361 8414 0
-8362 8415 0
-8363 8416 0
-8364 8417 0
-8365 8418 0
-8366 8419 0
-8367 8420 0
-8368 8421 0
-8369 8422 0
-8370 8423 0
-8371 8424 0
-8372 8425 0
-8373 8426 0
-8374 8427 0
-8375 8428 0
-8376 8429 0
-8377 8430 0
-8378 8431 0
-8379 8432 0
-8380 8433 0
-8381 8434 0
-8382 8435 0
-8383 8436 0
-8384 8437 0
-8385 8438 0
-8386 8439 0
-8387 8440 0
-8388 8441 0
-8389 8442 0
-8390 8443 0
-8391 8444 0
-8392 8445 0
-8393 8446 0
-1032 -8341 8395 0
-1032 -8342 8396 0
-1032 -8343 8397 0
-1032 -8344 8398 0
-1032 -8345 8399 0
-1032 -8346 8400 0
-1032 -8347 8401 0
-1032 -8348 8402 0
-1032 -8349 8403 0
-1032 -8350 8404 0
-1032 -8351 8405 0
-1032 -8352 8406 0
-1032 -8353 8407 0
-1032 -8354 8408 0
-1032 -8355 8409 0
-1032 -8356 8410 0
-1032 -8357 8411 0
-1032 -8358 8412 0
-1032 -8359 8413 0
-1032 -8360 8414 0
-1032 -8361 8415 0
-1032 -8362 8416 0
-1032 -8363 8417 0
-1032 -8364 8418 0
-1032 -8365 8419 0
-1032 -8366 8420 0
-1032 -8367 8421 0
-1032 -8368 8422 0
-1032 -8369 8423 0
-1032 -8370 8424 0
-1032 -8371 8425 0
-1032 -8372 8426 0
-1032 -8373 8427 0
-1032 -8374 8428 0
-1032 -8375 8429 0
-1032 -8376 8430 0
-1032 -8377 8431 0
-1032 -8378 8432 0
-1032 -8379 8433 0
-1032 -8380 8434 0
-1032 -8381 8435 0
-1032 -8382 8436 0
-1032 -8383 8437 0
-1032 -8384 8438 0
-1032 -8385 8439 0
-1032 -8386 8440 0
-1032 -8387 8441 0
-1032 -8388 8442 0
-1032 -8389 8443 0
-1032 -8390 8444 0
-1032 -8391 8445 0
-1032 -8392 8446 0
-1032 -8393 0
-8394 8447 0
-8395 8448 0
-8396 8449 0
-8397 8450 0
-8398 8451 0
-8399 8452 0
-8400 8453 0
-8401 8454 0
-8402 8455 0
-8403 8456 0
-8404 8457 0
-8405 8458 0
-8406 8459 0
-8407 8460 0
-8408 8461 0
-8409 8462 0
-8410 8463 0
-8411 8464 0
-8412 8465 0
-8413 8466 0
-8414 8467 0
-8415 8468 0
-8416 8469 0
-8417 8470 0
-8418 8471 0
-8419 8472 0
-8420 8473 0
-8421 8474 0
-8422 8475 0
-8423 8476 0
-8424 8477 0
-8425 8478 0
-8426 8479 0
-8427 8480 0
-8428 8481 0
-8429 8482 0
-8430 8483 0
-8431 8484 0
-8432 8485 0
-8433 8486 0
-8434 8487 0
-8435 8488 0
-8436 8489 0
-8437 8490 0
-8438 8491 0
-8439 8492 0
-8440 8493 0
-8441 8494 0
-8442 8495 0
-8443 8496 0
-8444 8497 0
-8445 8498 0
-8446 8499 0
-1034 -8394 8448 0
-1034 -8395 8449 0
-1034 -8396 8450 0
-1034 -8397 8451 0
-1034 -8398 8452 0
-1034 -8399 8453 0
-1034 -8400 8454 0
-1034 -8401 8455 0
-1034 -8402 8456 0
-1034 -8403 8457 0
-1034 -8404 8458 0
-1034 -8405 8459 0
-1034 -8406 8460 0
-1034 -8407 8461 0
-1034 -8408 8462 0
-1034 -8409 8463 0
-1034 -8410 8464 0
-1034 -8411 8465 0
-1034 -8412 8466 0
-1034 -8413 8467 0
-1034 -8414 8468 0
-1034 -8415 8469 0
-1034 -8416 8470 0
-1034 -8417 8471 0
-1034 -8418 8472 0
-1034 -8419 8473 0
-1034 -8420 8474 0
-1034 -8421 8475 0
-1034 -8422 8476 0
-1034 -8423 8477 0
-1034 -8424 8478 0
-1034 -8425 8479 0
-1034 -8426 8480 0
-1034 -8427 8481 0
-1034 -8428 8482 0
-1034 -8429 8483 0
-1034 -8430 8484 0
-1034 -8431 8485 0
-1034 -8432 8486 0
-1034 -8433 8487 0
-1034 -8434 8488 0
-1034 -8435 8489 0
-1034 -8436 8490 0
-1034 -8437 8491 0
-1034 -8438 8492 0
-1034 -8439 8493 0
-1034 -8440 8494 0
-1034 -8441 8495 0
-1034 -8442 8496 0
-1034 -8443 8497 0
-1034 -8444 8498 0
-1034 -8445 8499 0
-1034 -8446 0
-8447 8500 0
-8448 8501 0
-8449 8502 0
-8450 8503 0
-8451 8504 0
-8452 8505 0
-8453 8506 0
-8454 8507 0
-8455 8508 0
-8456 8509 0
-8457 8510 0
-8458 8511 0
-8459 8512 0
-8460 8513 0
-8461 8514 0
-8462 8515 0
-8463 8516 0
-8464 8517 0
-8465 8518 0
-8466 8519 0
-8467 8520 0
-8468 8521 0
-8469 8522 0
-8470 8523 0
-8471 8524 0
-8472 8525 0
-8473 8526 0
-8474 8527 0
-8475 8528 0
-8476 8529 0
-8477 8530 0
-8478 8531 0
-8479 8532 0
-8480 8533 0
-8481 8534 0
-8482 8535 0
-8483 8536 0
-8484 8537 0
-8485 8538 0
-8486 8539 0
-8487 8540 0
-8488 8541 0
-8489 8542 0
-8490 8543 0
-8491 8544 0
-8492 8545 0
-8493 8546 0
-8494 8547 0
-8495 8548 0
-8496 8549 0
-8497 8550 0
-8498 8551 0
-8499 8552 0
-1036 -8447 8501 0
-1036 -8448 8502 0
-1036 -8449 8503 0
-1036 -8450 8504 0
-1036 -8451 8505 0
-1036 -8452 8506 0
-1036 -8453 8507 0
-1036 -8454 8508 0
-1036 -8455 8509 0
-1036 -8456 8510 0
-1036 -8457 8511 0
-1036 -8458 8512 0
-1036 -8459 8513 0
-1036 -8460 8514 0
-1036 -8461 8515 0
-1036 -8462 8516 0
-1036 -8463 8517 0
-1036 -8464 8518 0
-1036 -8465 8519 0
-1036 -8466 8520 0
-1036 -8467 8521 0
-1036 -8468 8522 0
-1036 -8469 8523 0
-1036 -8470 8524 0
-1036 -8471 8525 0
-1036 -8472 8526 0
-1036 -8473 8527 0
-1036 -8474 8528 0
-1036 -8475 8529 0
-1036 -8476 8530 0
-1036 -8477 8531 0
-1036 -8478 8532 0
-1036 -8479 8533 0
-1036 -8480 8534 0
-1036 -8481 8535 0
-1036 -8482 8536 0
-1036 -8483 8537 0
-1036 -8484 8538 0
-1036 -8485 8539 0
-1036 -8486 8540 0
-1036 -8487 8541 0
-1036 -8488 8542 0
-1036 -8489 8543 0
-1036 -8490 8544 0
-1036 -8491 8545 0
-1036 -8492 8546 0
-1036 -8493 8547 0
-1036 -8494 8548 0
-1036 -8495 8549 0
-1036 -8496 8550 0
-1036 -8497 8551 0
-1036 -8498 8552 0
-1036 -8499 0
-8500 8553 0
-8501 8554 0
-8502 8555 0
-8503 8556 0
-8504 8557 0
-8505 8558 0
-8506 8559 0
-8507 8560 0
-8508 8561 0
-8509 8562 0
-8510 8563 0
-8511 8564 0
-8512 8565 0
-8513 8566 0
-8514 8567 0
-8515 8568 0
-8516 8569 0
-8517 8570 0
-8518 8571 0
-8519 8572 0
-8520 8573 0
-8521 8574 0
-8522 8575 0
-8523 8576 0
-8524 8577 0
-8525 8578 0
-8526 8579 0
-8527 8580 0
-8528 8581 0
-8529 8582 0
-8530 8583 0
-8531 8584 0
-8532 8585 0
-8533 8586 0
-8534 8587 0
-8535 8588 0
-8536 8589 0
-8537 8590 0
-8538 8591 0
-8539 8592 0
-8540 8593 0
-8541 8594 0
-8542 8595 0
-8543 8596 0
-8544 8597 0
-8545 8598 0
-8546 8599 0
-8547 8600 0
-8548 8601 0
-8549 8602 0
-8550 8603 0
-8551 8604 0
-8552 8605 0
-1038 -8500 8554 0
-1038 -8501 8555 0
-1038 -8502 8556 0
-1038 -8503 8557 0
-1038 -8504 8558 0
-1038 -8505 8559 0
-1038 -8506 8560 0
-1038 -8507 8561 0
-1038 -8508 8562 0
-1038 -8509 8563 0
-1038 -8510 8564 0
-1038 -8511 8565 0
-1038 -8512 8566 0
-1038 -8513 8567 0
-1038 -8514 8568 0
-1038 -8515 8569 0
-1038 -8516 8570 0
-1038 -8517 8571 0
-1038 -8518 8572 0
-1038 -8519 8573 0
-1038 -8520 8574 0
-1038 -8521 8575 0
-1038 -8522 8576 0
-1038 -8523 8577 0
-1038 -8524 8578 0
-1038 -8525 8579 0
-1038 -8526 8580 0
-1038 -8527 8581 0
-1038 -8528 8582 0
-1038 -8529 8583 0
-1038 -8530 8584 0
-1038 -8531 8585 0
-1038 -8532 8586 0
-1038 -8533 8587 0
-1038 -8534 8588 0
-1038 -8535 8589 0
-1038 -8536 8590 0
-1038 -8537 8591 0
-1038 -8538 8592 0
-1038 -8539 8593 0
-1038 -8540 8594 0
-1038 -8541 8595 0
-1038 -8542 8596 0
-1038 -8543 8597 0
-1038 -8544 8598 0
-1038 -8545 8599 0
-1038 -8546 8600 0
-1038 -8547 8601 0
-1038 -8548 8602 0
-1038 -8549 8603 0
-1038 -8550 8604 0
-1038 -8551 8605 0
-1038 -8552 0
-8553 8606 0
-8554 8607 0
-8555 8608 0
-8556 8609 0
-8557 8610 0
-8558 8611 0
-8559 8612 0
-8560 8613 0
-8561 8614 0
-8562 8615 0
-8563 8616 0
-8564 8617 0
-8565 8618 0
-8566 8619 0
-8567 8620 0
-8568 8621 0
-8569 8622 0
-8570 8623 0
-8571 8624 0
-8572 8625 0
-8573 8626 0
-8574 8627 0
-8575 8628 0
-8576 8629 0
-8577 8630 0
-8578 8631 0
-8579 8632 0
-8580 8633 0
-8581 8634 0
-8582 8635 0
-8583 8636 0
-8584 8637 0
-8585 8638 0
-8586 8639 0
-8587 8640 0
-8588 8641 0
-8589 8642 0
-8590 8643 0
-8591 8644 0
-8592 8645 0
-8593 8646 0
-8594 8647 0
-8595 8648 0
-8596 8649 0
-8597 8650 0
-8598 8651 0
-8599 8652 0
-8600 8653 0
-8601 8654 0
-8602 8655 0
-8603 8656 0
-8604 8657 0
-8605 8658 0
-1040 -8553 8607 0
-1040 -8554 8608 0
-1040 -8555 8609 0
-1040 -8556 8610 0
-1040 -8557 8611 0
-1040 -8558 8612 0
-1040 -8559 8613 0
-1040 -8560 8614 0
-1040 -8561 8615 0
-1040 -8562 8616 0
-1040 -8563 8617 0
-1040 -8564 8618 0
-1040 -8565 8619 0
-1040 -8566 8620 0
-1040 -8567 8621 0
-1040 -8568 8622 0
-1040 -8569 8623 0
-1040 -8570 8624 0
-1040 -8571 8625 0
-1040 -8572 8626 0
-1040 -8573 8627 0
-1040 -8574 8628 0
-1040 -8575 8629 0
-1040 -8576 8630 0
-1040 -8577 8631 0
-1040 -8578 8632 0
-1040 -8579 8633 0
-1040 -8580 8634 0
-1040 -8581 8635 0
-1040 -8582 8636 0
-1040 -8583 8637 0
-1040 -8584 8638 0
-1040 -8585 8639 0
-1040 -8586 8640 0
-1040 -8587 8641 0
-1040 -8588 8642 0
-1040 -8589 8643 0
-1040 -8590 8644 0
-1040 -8591 8645 0
-1040 -8592 8646 0
-1040 -8593 8647 0
-1040 -8594 8648 0
-1040 -8595 8649 0
-1040 -8596 8650 0
-1040 -8597 8651 0
-1040 -8598 8652 0
-1040 -8599 8653 0
-1040 -8600 8654 0
-1040 -8601 8655 0
-1040 -8602 8656 0
-1040 -8603 8657 0
-1040 -8604 8658 0
-1040 -8605 0
-8606 8659 0
-8607 8660 0
-8608 8661 0
-8609 8662 0
-8610 8663 0
-8611 8664 0
-8612 8665 0
-8613 8666 0
-8614 8667 0
-8615 8668 0
-8616 8669 0
-8617 8670 0
-8618 8671 0
-8619 8672 0
-8620 8673 0
-8621 8674 0
-8622 8675 0
-8623 8676 0
-8624 8677 0
-8625 8678 0
-8626 8679 0
-8627 8680 0
-8628 8681 0
-8629 8682 0
-8630 8683 0
-8631 8684 0
-8632 8685 0
-8633 8686 0
-8634 8687 0
-8635 8688 0
-8636 8689 0
-8637 8690 0
-8638 8691 0
-8639 8692 0
-8640 8693 0
-8641 8694 0
-8642 8695 0
-8643 8696 0
-8644 8697 0
-8645 8698 0
-8646 8699 0
-8647 8700 0
-8648 8701 0
-8649 8702 0
-8650 8703 0
-8651 8704 0
-8652 8705 0
-8653 8706 0
-8654 8707 0
-8655 8708 0
-8656 8709 0
-8657 8710 0
-8658 8711 0
-1042 -8606 8660 0
-1042 -8607 8661 0
-1042 -8608 8662 0
-1042 -8609 8663 0
-1042 -8610 8664 0
-1042 -8611 8665 0
-1042 -8612 8666 0
-1042 -8613 8667 0
-1042 -8614 8668 0
-1042 -8615 8669 0
-1042 -8616 8670 0
-1042 -8617 8671 0
-1042 -8618 8672 0
-1042 -8619 8673 0
-1042 -8620 8674 0
-1042 -8621 8675 0
-1042 -8622 8676 0
-1042 -8623 8677 0
-1042 -8624 8678 0
-1042 -8625 8679 0
-1042 -8626 8680 0
-1042 -8627 8681 0
-1042 -8628 8682 0
-1042 -8629 8683 0
-1042 -8630 8684 0
-1042 -8631 8685 0
-1042 -8632 8686 0
-1042 -8633 8687 0
-1042 -8634 8688 0
-1042 -8635 8689 0
-1042 -8636 8690 0
-1042 -8637 8691 0
-1042 -8638 8692 0
-1042 -8639 8693 0
-1042 -8640 8694 0
-1042 -8641 8695 0
-1042 -8642 8696 0
-1042 -8643 8697 0
-1042 -8644 8698 0
-1042 -8645 8699 0
-1042 -8646 8700 0
-1042 -8647 8701 0
-1042 -8648 8702 0
-1042 -8649 8703 0
-1042 -8650 8704 0
-1042 -8651 8705 0
-1042 -8652 8706 0
-1042 -8653 8707 0
-1042 -8654 8708 0
-1042 -8655 8709 0
-1042 -8656 8710 0
-1042 -8657 8711 0
-1042 -8658 0
-8659 8712 0
-8660 8713 0
-8661 8714 0
-8662 8715 0
-8663 8716 0
-8664 8717 0
-8665 8718 0
-8666 8719 0
-8667 8720 0
-8668 8721 0
-8669 8722 0
-8670 8723 0
-8671 8724 0
-8672 8725 0
-8673 8726 0
-8674 8727 0
-8675 8728 0
-8676 8729 0
-8677 8730 0
-8678 8731 0
-8679 8732 0
-8680 8733 0
-8681 8734 0
-8682 8735 0
-8683 8736 0
-8684 8737 0
-8685 8738 0
-8686 8739 0
-8687 8740 0
-8688 8741 0
-8689 8742 0
-8690 8743 0
-8691 8744 0
-8692 8745 0
-8693 8746 0
-8694 8747 0
-8695 8748 0
-8696 8749 0
-8697 8750 0
-8698 8751 0
-8699 8752 0
-8700 8753 0
-8701 8754 0
-8702 8755 0
-8703 8756 0
-8704 8757 0
-8705 8758 0
-8706 8759 0
-8707 8760 0
-8708 8761 0
-8709 8762 0
-8710 8763 0
-8711 8764 0
-1044 -8659 8713 0
-1044 -8660 8714 0
-1044 -8661 8715 0
-1044 -8662 8716 0
-1044 -8663 8717 0
-1044 -8664 8718 0
-1044 -8665 8719 0
-1044 -8666 8720 0
-1044 -8667 8721 0
-1044 -8668 8722 0
-1044 -8669 8723 0
-1044 -8670 8724 0
-1044 -8671 8725 0
-1044 -8672 8726 0
-1044 -8673 8727 0
-1044 -8674 8728 0
-1044 -8675 8729 0
-1044 -8676 8730 0
-1044 -8677 8731 0
-1044 -8678 8732 0
-1044 -8679 8733 0
-1044 -8680 8734 0
-1044 -8681 8735 0
-1044 -8682 8736 0
-1044 -8683 8737 0
-1044 -8684 8738 0
-1044 -8685 8739 0
-1044 -8686 8740 0
-1044 -8687 8741 0
-1044 -8688 8742 0
-1044 -8689 8743 0
-1044 -8690 8744 0
-1044 -8691 8745 0
-1044 -8692 8746 0
-1044 -8693 8747 0
-1044 -8694 8748 0
-1044 -8695 8749 0
-1044 -8696 8750 0
-1044 -8697 8751 0
-1044 -8698 8752 0
-1044 -8699 8753 0
-1044 -8700 8754 0
-1044 -8701 8755 0
-1044 -8702 8756 0
-1044 -8703 8757 0
-1044 -8704 8758 0
-1044 -8705 8759 0
-1044 -8706 8760 0
-1044 -8707 8761 0
-1044 -8708 8762 0
-1044 -8709 8763 0
-1044 -8710 8764 0
-1044 -8711 0
-8712 8765 0
-8713 8766 0
-8714 8767 0
-8715 8768 0
-8716 8769 0
-8717 8770 0
-8718 8771 0
-8719 8772 0
-8720 8773 0
-8721 8774 0
-8722 8775 0
-8723 8776 0
-8724 8777 0
-8725 8778 0
-8726 8779 0
-8727 8780 0
-8728 8781 0
-8729 8782 0
-8730 8783 0
-8731 8784 0
-8732 8785 0
-8733 8786 0
-8734 8787 0
-8735 8788 0
-8736 8789 0
-8737 8790 0
-8738 8791 0
-8739 8792 0
-8740 8793 0
-8741 8794 0
-8742 8795 0
-8743 8796 0
-8744 8797 0
-8745 8798 0
-8746 8799 0
-8747 8800 0
-8748 8801 0
-8749 8802 0
-8750 8803 0
-8751 8804 0
-8752 8805 0
-8753 8806 0
-8754 8807 0
-8755 8808 0
-8756 8809 0
-8757 8810 0
-8758 8811 0
-8759 8812 0
-8760 8813 0
-8761 8814 0
-8762 8815 0
-8763 8816 0
-8764 8817 0
-1046 -8712 8766 0
-1046 -8713 8767 0
-1046 -8714 8768 0
-1046 -8715 8769 0
-1046 -8716 8770 0
-1046 -8717 8771 0
-1046 -8718 8772 0
-1046 -8719 8773 0
-1046 -8720 8774 0
-1046 -8721 8775 0
-1046 -8722 8776 0
-1046 -8723 8777 0
-1046 -8724 8778 0
-1046 -8725 8779 0
-1046 -8726 8780 0
-1046 -8727 8781 0
-1046 -8728 8782 0
-1046 -8729 8783 0
-1046 -8730 8784 0
-1046 -8731 8785 0
-1046 -8732 8786 0
-1046 -8733 8787 0
-1046 -8734 8788 0
-1046 -8735 8789 0
-1046 -8736 8790 0
-1046 -8737 8791 0
-1046 -8738 8792 0
-1046 -8739 8793 0
-1046 -8740 8794 0
-1046 -8741 8795 0
-1046 -8742 8796 0
-1046 -8743 8797 0
-1046 -8744 8798 0
-1046 -8745 8799 0
-1046 -8746 8800 0
-1046 -8747 8801 0
-1046 -8748 8802 0
-1046 -8749 8803 0
-1046 -8750 8804 0
-1046 -8751 8805 0
-1046 -8752 8806 0
-1046 -8753 8807 0
-1046 -8754 8808 0
-1046 -8755 8809 0
-1046 -8756 8810 0
-1046 -8757 8811 0
-1046 -8758 8812 0
-1046 -8759 8813 0
-1046 -8760 8814 0
-1046 -8761 8815 0
-1046 -8762 8816 0
-1046 -8763 8817 0
-1046 -8764 0
-8765 8818 0
-8766 8819 0
-8767 8820 0
-8768 8821 0
-8769 8822 0
-8770 8823 0
-8771 8824 0
-8772 8825 0
-8773 8826 0
-8774 8827 0
-8775 8828 0
-8776 8829 0
-8777 8830 0
-8778 8831 0
-8779 8832 0
-8780 8833 0
-8781 8834 0
-8782 8835 0
-8783 8836 0
-8784 8837 0
-8785 8838 0
-8786 8839 0
-8787 8840 0
-8788 8841 0
-8789 8842 0
-8790 8843 0
-8791 8844 0
-8792 8845 0
-8793 8846 0
-8794 8847 0
-8795 8848 0
-8796 8849 0
-8797 8850 0
-8798 8851 0
-8799 8852 0
-8800 8853 0
-8801 8854 0
-8802 8855 0
-8803 8856 0
-8804 8857 0
-8805 8858 0
-8806 8859 0
-8807 8860 0
-8808 8861 0
-8809 8862 0
-8810 8863 0
-8811 8864 0
-8812 8865 0
-8813 8866 0
-8814 8867 0
-8815 8868 0
-8816 8869 0
-8817 8870 0
-1048 -8765 8819 0
-1048 -8766 8820 0
-1048 -8767 8821 0
-1048 -8768 8822 0
-1048 -8769 8823 0
-1048 -8770 8824 0
-1048 -8771 8825 0
-1048 -8772 8826 0
-1048 -8773 8827 0
-1048 -8774 8828 0
-1048 -8775 8829 0
-1048 -8776 8830 0
-1048 -8777 8831 0
-1048 -8778 8832 0
-1048 -8779 8833 0
-1048 -8780 8834 0
-1048 -8781 8835 0
-1048 -8782 8836 0
-1048 -8783 8837 0
-1048 -8784 8838 0
-1048 -8785 8839 0
-1048 -8786 8840 0
-1048 -8787 8841 0
-1048 -8788 8842 0
-1048 -8789 8843 0
-1048 -8790 8844 0
-1048 -8791 8845 0
-1048 -8792 8846 0
-1048 -8793 8847 0
-1048 -8794 8848 0
-1048 -8795 8849 0
-1048 -8796 8850 0
-1048 -8797 8851 0
-1048 -8798 8852 0
-1048 -8799 8853 0
-1048 -8800 8854 0
-1048 -8801 8855 0
-1048 -8802 8856 0
-1048 -8803 8857 0
-1048 -8804 8858 0
-1048 -8805 8859 0
-1048 -8806 8860 0
-1048 -8807 8861 0
-1048 -8808 8862 0
-1048 -8809 8863 0
-1048 -8810 8864 0
-1048 -8811 8865 0
-1048 -8812 8866 0
-1048 -8813 8867 0
-1048 -8814 8868 0
-1048 -8815 8869 0
-1048 -8816 8870 0
-1048 -8817 0
-8818 8871 0
-8819 8872 0
-8820 8873 0
-8821 8874 0
-8822 8875 0
-8823 8876 0
-8824 8877 0
-8825 8878 0
-8826 8879 0
-8827 8880 0
-8828 8881 0
-8829 8882 0
-8830 8883 0
-8831 8884 0
-8832 8885 0
-8833 8886 0
-8834 8887 0
-8835 8888 0
-8836 8889 0
-8837 8890 0
-8838 8891 0
-8839 8892 0
-8840 8893 0
-8841 8894 0
-8842 8895 0
-8843 8896 0
-8844 8897 0
-8845 8898 0
-8846 8899 0
-8847 8900 0
-8848 8901 0
-8849 8902 0
-8850 8903 0
-8851 8904 0
-8852 8905 0
-8853 8906 0
-8854 8907 0
-8855 8908 0
-8856 8909 0
-8857 8910 0
-8858 8911 0
-8859 8912 0
-8860 8913 0
-8861 8914 0
-8862 8915 0
-8863 8916 0
-8864 8917 0
-8865 8918 0
-8866 8919 0
-8867 8920 0
-8868 8921 0
-8869 8922 0
-8870 8923 0
-1050 -8818 8872 0
-1050 -8819 8873 0
-1050 -8820 8874 0
-1050 -8821 8875 0
-1050 -8822 8876 0
-1050 -8823 8877 0
-1050 -8824 8878 0
-1050 -8825 8879 0
-1050 -8826 8880 0
-1050 -8827 8881 0
-1050 -8828 8882 0
-1050 -8829 8883 0
-1050 -8830 8884 0
-1050 -8831 8885 0
-1050 -8832 8886 0
-1050 -8833 8887 0
-1050 -8834 8888 0
-1050 -8835 8889 0
-1050 -8836 8890 0
-1050 -8837 8891 0
-1050 -8838 8892 0
-1050 -8839 8893 0
-1050 -8840 8894 0
-1050 -8841 8895 0
-1050 -8842 8896 0
-1050 -8843 8897 0
-1050 -8844 8898 0
-1050 -8845 8899 0
-1050 -8846 8900 0
-1050 -8847 8901 0
-1050 -8848 8902 0
-1050 -8849 8903 0
-1050 -8850 8904 0
-1050 -8851 8905 0
-1050 -8852 8906 0
-1050 -8853 8907 0
-1050 -8854 8908 0
-1050 -8855 8909 0
-1050 -8856 8910 0
-1050 -8857 8911 0
-1050 -8858 8912 0
-1050 -8859 8913 0
-1050 -8860 8914 0
-1050 -8861 8915 0
-1050 -8862 8916 0
-1050 -8863 8917 0
-1050 -8864 8918 0
-1050 -8865 8919 0
-1050 -8866 8920 0
-1050 -8867 8921 0
-1050 -8868 8922 0
-1050 -8869 8923 0
-1050 -8870 0
-8871 8924 0
-8872 8925 0
-8873 8926 0
-8874 8927 0
-8875 8928 0
-8876 8929 0
-8877 8930 0
-8878 8931 0
-8879 8932 0
-8880 8933 0
-8881 8934 0
-8882 8935 0
-8883 8936 0
-8884 8937 0
-8885 8938 0
-8886 8939 0
-8887 8940 0
-8888 8941 0
-8889 8942 0
-8890 8943 0
-8891 8944 0
-8892 8945 0
-8893 8946 0
-8894 8947 0
-8895 8948 0
-8896 8949 0
-8897 8950 0
-8898 8951 0
-8899 8952 0
-8900 8953 0
-8901 8954 0
-8902 8955 0
-8903 8956 0
-8904 8957 0
-8905 8958 0
-8906 8959 0
-8907 8960 0
-8908 8961 0
-8909 8962 0
-8910 8963 0
-8911 8964 0
-8912 8965 0
-8913 8966 0
-8914 8967 0
-8915 8968 0
-8916 8969 0
-8917 8970 0
-8918 8971 0
-8919 8972 0
-8920 8973 0
-8921 8974 0
-8922 8975 0
-8923 8976 0
-1052 -8871 8925 0
-1052 -8872 8926 0
-1052 -8873 8927 0
-1052 -8874 8928 0
-1052 -8875 8929 0
-1052 -8876 8930 0
-1052 -8877 8931 0
-1052 -8878 8932 0
-1052 -8879 8933 0
-1052 -8880 8934 0
-1052 -8881 8935 0
-1052 -8882 8936 0
-1052 -8883 8937 0
-1052 -8884 8938 0
-1052 -8885 8939 0
-1052 -8886 8940 0
-1052 -8887 8941 0
-1052 -8888 8942 0
-1052 -8889 8943 0
-1052 -8890 8944 0
-1052 -8891 8945 0
-1052 -8892 8946 0
-1052 -8893 8947 0
-1052 -8894 8948 0
-1052 -8895 8949 0
-1052 -8896 8950 0
-1052 -8897 8951 0
-1052 -8898 8952 0
-1052 -8899 8953 0
-1052 -8900 8954 0
-1052 -8901 8955 0
-1052 -8902 8956 0
-1052 -8903 8957 0
-1052 -8904 8958 0
-1052 -8905 8959 0
-1052 -8906 8960 0
-1052 -8907 8961 0
-1052 -8908 8962 0
-1052 -8909 8963 0
-1052 -8910 8964 0
-1052 -8911 8965 0
-1052 -8912 8966 0
-1052 -8913 8967 0
-1052 -8914 8968 0
-1052 -8915 8969 0
-1052 -8916 8970 0
-1052 -8917 8971 0
-1052 -8918 8972 0
-1052 -8919 8973 0
-1052 -8920 8974 0
-1052 -8921 8975 0
-1052 -8922 8976 0
-1052 -8923 0
-8924 8977 0
-8925 8978 0
-8926 8979 0
-8927 8980 0
-8928 8981 0
-8929 8982 0
-8930 8983 0
-8931 8984 0
-8932 8985 0
-8933 8986 0
-8934 8987 0
-8935 8988 0
-8936 8989 0
-8937 8990 0
-8938 8991 0
-8939 8992 0
-8940 8993 0
-8941 8994 0
-8942 8995 0
-8943 8996 0
-8944 8997 0
-8945 8998 0
-8946 8999 0
-8947 9000 0
-8948 9001 0
-8949 9002 0
-8950 9003 0
-8951 9004 0
-8952 9005 0
-8953 9006 0
-8954 9007 0
-8955 9008 0
-8956 9009 0
-8957 9010 0
-8958 9011 0
-8959 9012 0
-8960 9013 0
-8961 9014 0
-8962 9015 0
-8963 9016 0
-8964 9017 0
-8965 9018 0
-8966 9019 0
-8967 9020 0
-8968 9021 0
-8969 9022 0
-8970 9023 0
-8971 9024 0
-8972 9025 0
-8973 9026 0
-8974 9027 0
-8975 9028 0
-8976 9029 0
-1054 -8924 8978 0
-1054 -8925 8979 0
-1054 -8926 8980 0
-1054 -8927 8981 0
-1054 -8928 8982 0
-1054 -8929 8983 0
-1054 -8930 8984 0
-1054 -8931 8985 0
-1054 -8932 8986 0
-1054 -8933 8987 0
-1054 -8934 8988 0
-1054 -8935 8989 0
-1054 -8936 8990 0
-1054 -8937 8991 0
-1054 -8938 8992 0
-1054 -8939 8993 0
-1054 -8940 8994 0
-1054 -8941 8995 0
-1054 -8942 8996 0
-1054 -8943 8997 0
-1054 -8944 8998 0
-1054 -8945 8999 0
-1054 -8946 9000 0
-1054 -8947 9001 0
-1054 -8948 9002 0
-1054 -8949 9003 0
-1054 -8950 9004 0
-1054 -8951 9005 0
-1054 -8952 9006 0
-1054 -8953 9007 0
-1054 -8954 9008 0
-1054 -8955 9009 0
-1054 -8956 9010 0
-1054 -8957 9011 0
-1054 -8958 9012 0
-1054 -8959 9013 0
-1054 -8960 9014 0
-1054 -8961 9015 0
-1054 -8962 9016 0
-1054 -8963 9017 0
-1054 -8964 9018 0
-1054 -8965 9019 0
-1054 -8966 9020 0
-1054 -8967 9021 0
-1054 -8968 9022 0
-1054 -8969 9023 0
-1054 -8970 9024 0
-1054 -8971 9025 0
-1054 -8972 9026 0
-1054 -8973 9027 0
-1054 -8974 9028 0
-1054 -8975 9029 0
-1054 -8976 0
-8977 9030 0
-8978 9031 0
-8979 9032 0
-8980 9033 0
-8981 9034 0
-8982 9035 0
-8983 9036 0
-8984 9037 0
-8985 9038 0
-8986 9039 0
-8987 9040 0
-8988 9041 0
-8989 9042 0
-8990 9043 0
-8991 9044 0
-8992 9045 0
-8993 9046 0
-8994 9047 0
-8995 9048 0
-8996 9049 0
-8997 9050 0
-8998 9051 0
-8999 9052 0
-9000 9053 0
-9001 9054 0
-9002 9055 0
-9003 9056 0
-9004 9057 0
-9005 9058 0
-9006 9059 0
-9007 9060 0
-9008 9061 0
-9009 9062 0
-9010 9063 0
-9011 9064 0
-9012 9065 0
-9013 9066 0
-9014 9067 0
-9015 9068 0
-9016 9069 0
-9017 9070 0
-9018 9071 0
-9019 9072 0
-9020 9073 0
-9021 9074 0
-9022 9075 0
-9023 9076 0
-9024 9077 0
-9025 9078 0
-9026 9079 0
-9027 9080 0
-9028 9081 0
-9029 9082 0
-1056 -8977 9031 0
-1056 -8978 9032 0
-1056 -8979 9033 0
-1056 -8980 9034 0
-1056 -8981 9035 0
-1056 -8982 9036 0
-1056 -8983 9037 0
-1056 -8984 9038 0
-1056 -8985 9039 0
-1056 -8986 9040 0
-1056 -8987 9041 0
-1056 -8988 9042 0
-1056 -8989 9043 0
-1056 -8990 9044 0
-1056 -8991 9045 0
-1056 -8992 9046 0
-1056 -8993 9047 0
-1056 -8994 9048 0
-1056 -8995 9049 0
-1056 -8996 9050 0
-1056 -8997 9051 0
-1056 -8998 9052 0
-1056 -8999 9053 0
-1056 -9000 9054 0
-1056 -9001 9055 0
-1056 -9002 9056 0
-1056 -9003 9057 0
-1056 -9004 9058 0
-1056 -9005 9059 0
-1056 -9006 9060 0
-1056 -9007 9061 0
-1056 -9008 9062 0
-1056 -9009 9063 0
-1056 -9010 9064 0
-1056 -9011 9065 0
-1056 -9012 9066 0
-1056 -9013 9067 0
-1056 -9014 9068 0
-1056 -9015 9069 0
-1056 -9016 9070 0
-1056 -9017 9071 0
-1056 -9018 9072 0
-1056 -9019 9073 0
-1056 -9020 9074 0
-1056 -9021 9075 0
-1056 -9022 9076 0
-1056 -9023 9077 0
-1056 -9024 9078 0
-1056 -9025 9079 0
-1056 -9026 9080 0
-1056 -9027 9081 0
-1056 -9028 9082 0
-1056 -9029 0
-9030 9083 0
-9031 9084 0
-9032 9085 0
-9033 9086 0
-9034 9087 0
-9035 9088 0
-9036 9089 0
-9037 9090 0
-9038 9091 0
-9039 9092 0
-9040 9093 0
-9041 9094 0
-9042 9095 0
-9043 9096 0
-9044 9097 0
-9045 9098 0
-9046 9099 0
-9047 9100 0
-9048 9101 0
-9049 9102 0
-9050 9103 0
-9051 9104 0
-9052 9105 0
-9053 9106 0
-9054 9107 0
-9055 9108 0
-9056 9109 0
-9057 9110 0
-9058 9111 0
-9059 9112 0
-9060 9113 0
-9061 9114 0
-9062 9115 0
-9063 9116 0
-9064 9117 0
-9065 9118 0
-9066 9119 0
-9067 9120 0
-9068 9121 0
-9069 9122 0
-9070 9123 0
-9071 9124 0
-9072 9125 0
-9073 9126 0
-9074 9127 0
-9075 9128 0
-9076 9129 0
-9077 9130 0
-9078 9131 0
-9079 9132 0
-9080 9133 0
-9081 9134 0
-9082 9135 0
-1058 -9030 9084 0
-1058 -9031 9085 0
-1058 -9032 9086 0
-1058 -9033 9087 0
-1058 -9034 9088 0
-1058 -9035 9089 0
-1058 -9036 9090 0
-1058 -9037 9091 0
-1058 -9038 9092 0
-1058 -9039 9093 0
-1058 -9040 9094 0
-1058 -9041 9095 0
-1058 -9042 9096 0
-1058 -9043 9097 0
-1058 -9044 9098 0
-1058 -9045 9099 0
-1058 -9046 9100 0
-1058 -9047 9101 0
-1058 -9048 9102 0
-1058 -9049 9103 0
-1058 -9050 9104 0
-1058 -9051 9105 0
-1058 -9052 9106 0
-1058 -9053 9107 0
-1058 -9054 9108 0
-1058 -9055 9109 0
-1058 -9056 9110 0
-1058 -9057 9111 0
-1058 -9058 9112 0
-1058 -9059 9113 0
-1058 -9060 9114 0
-1058 -9061 9115 0
-1058 -9062 9116 0
-1058 -9063 9117 0
-1058 -9064 9118 0
-1058 -9065 9119 0
-1058 -9066 9120 0
-1058 -9067 9121 0
-1058 -9068 9122 0
-1058 -9069 9123 0
-1058 -9070 9124 0
-1058 -9071 9125 0
-1058 -9072 9126 0
-1058 -9073 9127 0
-1058 -9074 9128 0
-1058 -9075 9129 0
-1058 -9076 9130 0
-1058 -9077 9131 0
-1058 -9078 9132 0
-1058 -9079 9133 0
-1058 -9080 9134 0
-1058 -9081 9135 0
-1058 -9082 0
-9083 9136 0
-9084 9137 0
-9085 9138 0
-9086 9139 0
-9087 9140 0
-9088 9141 0
-9089 9142 0
-9090 9143 0
-9091 9144 0
-9092 9145 0
-9093 9146 0
-9094 9147 0
-9095 9148 0
-9096 9149 0
-9097 9150 0
-9098 9151 0
-9099 9152 0
-9100 9153 0
-9101 9154 0
-9102 9155 0
-9103 9156 0
-9104 9157 0
-9105 9158 0
-9106 9159 0
-9107 9160 0
-9108 9161 0
-9109 9162 0
-9110 9163 0
-9111 9164 0
-9112 9165 0
-9113 9166 0
-9114 9167 0
-9115 9168 0
-9116 9169 0
-9117 9170 0
-9118 9171 0
-9119 9172 0
-9120 9173 0
-9121 9174 0
-9122 9175 0
-9123 9176 0
-9124 9177 0
-9125 9178 0
-9126 9179 0
-9127 9180 0
-9128 9181 0
-9129 9182 0
-9130 9183 0
-9131 9184 0
-9132 9185 0
-9133 9186 0
-9134 9187 0
-9135 9188 0
-1060 -9083 9137 0
-1060 -9084 9138 0
-1060 -9085 9139 0
-1060 -9086 9140 0
-1060 -9087 9141 0
-1060 -9088 9142 0
-1060 -9089 9143 0
-1060 -9090 9144 0
-1060 -9091 9145 0
-1060 -9092 9146 0
-1060 -9093 9147 0
-1060 -9094 9148 0
-1060 -9095 9149 0
-1060 -9096 9150 0
-1060 -9097 9151 0
-1060 -9098 9152 0
-1060 -9099 9153 0
-1060 -9100 9154 0
-1060 -9101 9155 0
-1060 -9102 9156 0
-1060 -9103 9157 0
-1060 -9104 9158 0
-1060 -9105 9159 0
-1060 -9106 9160 0
-1060 -9107 9161 0
-1060 -9108 9162 0
-1060 -9109 9163 0
-1060 -9110 9164 0
-1060 -9111 9165 0
-1060 -9112 9166 0
-1060 -9113 9167 0
-1060 -9114 9168 0
-1060 -9115 9169 0
-1060 -9116 9170 0
-1060 -9117 9171 0
-1060 -9118 9172 0
-1060 -9119 9173 0
-1060 -9120 9174 0
-1060 -9121 9175 0
-1060 -9122 9176 0
-1060 -9123 9177 0
-1060 -9124 9178 0
-1060 -9125 9179 0
-1060 -9126 9180 0
-1060 -9127 9181 0
-1060 -9128 9182 0
-1060 -9129 9183 0
-1060 -9130 9184 0
-1060 -9131 9185 0
-1060 -9132 9186 0
-1060 -9133 9187 0
-1060 -9134 9188 0
-1060 -9135 0
-9136 9189 0
-9137 9190 0
-9138 9191 0
-9139 9192 0
-9140 9193 0
-9141 9194 0
-9142 9195 0
-9143 9196 0
-9144 9197 0
-9145 9198 0
-9146 9199 0
-9147 9200 0
-9148 9201 0
-9149 9202 0
-9150 9203 0
-9151 9204 0
-9152 9205 0
-9153 9206 0
-9154 9207 0
-9155 9208 0
-9156 9209 0
-9157 9210 0
-9158 9211 0
-9159 9212 0
-9160 9213 0
-9161 9214 0
-9162 9215 0
-9163 9216 0
-9164 9217 0
-9165 9218 0
-9166 9219 0
-9167 9220 0
-9168 9221 0
-9169 9222 0
-9170 9223 0
-9171 9224 0
-9172 9225 0
-9173 9226 0
-9174 9227 0
-9175 9228 0
-9176 9229 0
-9177 9230 0
-9178 9231 0
-9179 9232 0
-9180 9233 0
-9181 9234 0
-9182 9235 0
-9183 9236 0
-9184 9237 0
-9185 9238 0
-9186 9239 0
-9187 9240 0
-9188 9241 0
-1062 -9136 9190 0
-1062 -9137 9191 0
-1062 -9138 9192 0
-1062 -9139 9193 0
-1062 -9140 9194 0
-1062 -9141 9195 0
-1062 -9142 9196 0
-1062 -9143 9197 0
-1062 -9144 9198 0
-1062 -9145 9199 0
-1062 -9146 9200 0
-1062 -9147 9201 0
-1062 -9148 9202 0
-1062 -9149 9203 0
-1062 -9150 9204 0
-1062 -9151 9205 0
-1062 -9152 9206 0
-1062 -9153 9207 0
-1062 -9154 9208 0
-1062 -9155 9209 0
-1062 -9156 9210 0
-1062 -9157 9211 0
-1062 -9158 9212 0
-1062 -9159 9213 0
-1062 -9160 9214 0
-1062 -9161 9215 0
-1062 -9162 9216 0
-1062 -9163 9217 0
-1062 -9164 9218 0
-1062 -9165 9219 0
-1062 -9166 9220 0
-1062 -9167 9221 0
-1062 -9168 9222 0
-1062 -9169 9223 0
-1062 -9170 9224 0
-1062 -9171 9225 0
-1062 -9172 9226 0
-1062 -9173 9227 0
-1062 -9174 9228 0
-1062 -9175 9229 0
-1062 -9176 9230 0
-1062 -9177 9231 0
-1062 -9178 9232 0
-1062 -9179 9233 0
-1062 -9180 9234 0
-1062 -9181 9235 0
-1062 -9182 9236 0
-1062 -9183 9237 0
-1062 -9184 9238 0
-1062 -9185 9239 0
-1062 -9186 9240 0
-1062 -9187 9241 0
-1062 -9188 0
-9189 9242 0
-9190 9243 0
-9191 9244 0
-9192 9245 0
-9193 9246 0
-9194 9247 0
-9195 9248 0
-9196 9249 0
-9197 9250 0
-9198 9251 0
-9199 9252 0
-9200 9253 0
-9201 9254 0
-9202 9255 0
-9203 9256 0
-9204 9257 0
-9205 9258 0
-9206 9259 0
-9207 9260 0
-9208 9261 0
-9209 9262 0
-9210 9263 0
-9211 9264 0
-9212 9265 0
-9213 9266 0
-9214 9267 0
-9215 9268 0
-9216 9269 0
-9217 9270 0
-9218 9271 0
-9219 9272 0
-9220 9273 0
-9221 9274 0
-9222 9275 0
-9223 9276 0
-9224 9277 0
-9225 9278 0
-9226 9279 0
-9227 9280 0
-9228 9281 0
-9229 9282 0
-9230 9283 0
-9231 9284 0
-9232 9285 0
-9233 9286 0
-9234 9287 0
-9235 9288 0
-9236 9289 0
-9237 9290 0
-9238 9291 0
-9239 9292 0
-9240 9293 0
-9241 9294 0
-1064 -9189 9243 0
-1064 -9190 9244 0
-1064 -9191 9245 0
-1064 -9192 9246 0
-1064 -9193 9247 0
-1064 -9194 9248 0
-1064 -9195 9249 0
-1064 -9196 9250 0
-1064 -9197 9251 0
-1064 -9198 9252 0
-1064 -9199 9253 0
-1064 -9200 9254 0
-1064 -9201 9255 0
-1064 -9202 9256 0
-1064 -9203 9257 0
-1064 -9204 9258 0
-1064 -9205 9259 0
-1064 -9206 9260 0
-1064 -9207 9261 0
-1064 -9208 9262 0
-1064 -9209 9263 0
-1064 -9210 9264 0
-1064 -9211 9265 0
-1064 -9212 9266 0
-1064 -9213 9267 0
-1064 -9214 9268 0
-1064 -9215 9269 0
-1064 -9216 9270 0
-1064 -9217 9271 0
-1064 -9218 9272 0
-1064 -9219 9273 0
-1064 -9220 9274 0
-1064 -9221 9275 0
-1064 -9222 9276 0
-1064 -9223 9277 0
-1064 -9224 9278 0
-1064 -9225 9279 0
-1064 -9226 9280 0
-1064 -9227 9281 0
-1064 -9228 9282 0
-1064 -9229 9283 0
-1064 -9230 9284 0
-1064 -9231 9285 0
-1064 -9232 9286 0
-1064 -9233 9287 0
-1064 -9234 9288 0
-1064 -9235 9289 0
-1064 -9236 9290 0
-1064 -9237 9291 0
-1064 -9238 9292 0
-1064 -9239 9293 0
-1064 -9240 9294 0
-1064 -9241 0
-9242 9295 0
-9243 9296 0
-9244 9297 0
-9245 9298 0
-9246 9299 0
-9247 9300 0
-9248 9301 0
-9249 9302 0
-9250 9303 0
-9251 9304 0
-9252 9305 0
-9253 9306 0
-9254 9307 0
-9255 9308 0
-9256 9309 0
-9257 9310 0
-9258 9311 0
-9259 9312 0
-9260 9313 0
-9261 9314 0
-9262 9315 0
-9263 9316 0
-9264 9317 0
-9265 9318 0
-9266 9319 0
-9267 9320 0
-9268 9321 0
-9269 9322 0
-9270 9323 0
-9271 9324 0
-9272 9325 0
-9273 9326 0
-9274 9327 0
-9275 9328 0
-9276 9329 0
-9277 9330 0
-9278 9331 0
-9279 9332 0
-9280 9333 0
-9281 9334 0
-9282 9335 0
-9283 9336 0
-9284 9337 0
-9285 9338 0
-9286 9339 0
-9287 9340 0
-9288 9341 0
-9289 9342 0
-9290 9343 0
-9291 9344 0
-9292 9345 0
-9293 9346 0
-9294 9347 0
-1066 -9242 9296 0
-1066 -9243 9297 0
-1066 -9244 9298 0
-1066 -9245 9299 0
-1066 -9246 9300 0
-1066 -9247 9301 0
-1066 -9248 9302 0
-1066 -9249 9303 0
-1066 -9250 9304 0
-1066 -9251 9305 0
-1066 -9252 9306 0
-1066 -9253 9307 0
-1066 -9254 9308 0
-1066 -9255 9309 0
-1066 -9256 9310 0
-1066 -9257 9311 0
-1066 -9258 9312 0
-1066 -9259 9313 0
-1066 -9260 9314 0
-1066 -9261 9315 0
-1066 -9262 9316 0
-1066 -9263 9317 0
-1066 -9264 9318 0
-1066 -9265 9319 0
-1066 -9266 9320 0
-1066 -9267 9321 0
-1066 -9268 9322 0
-1066 -9269 9323 0
-1066 -9270 9324 0
-1066 -9271 9325 0
-1066 -9272 9326 0
-1066 -9273 9327 0
-1066 -9274 9328 0
-1066 -9275 9329 0
-1066 -9276 9330 0
-1066 -9277 9331 0
-1066 -9278 9332 0
-1066 -9279 9333 0
-1066 -9280 9334 0
-1066 -9281 9335 0
-1066 -9282 9336 0
-1066 -9283 9337 0
-1066 -9284 9338 0
-1066 -9285 9339 0
-1066 -9286 9340 0
-1066 -9287 9341 0
-1066 -9288 9342 0
-1066 -9289 9343 0
-1066 -9290 9344 0
-1066 -9291 9345 0
-1066 -9292 9346 0
-1066 -9293 9347 0
-1066 -9294 0
-9295 9348 0
-9296 9349 0
-9297 9350 0
-9298 9351 0
-9299 9352 0
-9300 9353 0
-9301 9354 0
-9302 9355 0
-9303 9356 0
-9304 9357 0
-9305 9358 0
-9306 9359 0
-9307 9360 0
-9308 9361 0
-9309 9362 0
-9310 9363 0
-9311 9364 0
-9312 9365 0
-9313 9366 0
-9314 9367 0
-9315 9368 0
-9316 9369 0
-9317 9370 0
-9318 9371 0
-9319 9372 0
-9320 9373 0
-9321 9374 0
-9322 9375 0
-9323 9376 0
-9324 9377 0
-9325 9378 0
-9326 9379 0
-9327 9380 0
-9328 9381 0
-9329 9382 0
-9330 9383 0
-9331 9384 0
-9332 9385 0
-9333 9386 0
-9334 9387 0
-9335 9388 0
-9336 9389 0
-9337 9390 0
-9338 9391 0
-9339 9392 0
-9340 9393 0
-9341 9394 0
-9342 9395 0
-9343 9396 0
-9344 9397 0
-9345 9398 0
-9346 9399 0
-9347 9400 0
-1068 -9295 9349 0
-1068 -9296 9350 0
-1068 -9297 9351 0
-1068 -9298 9352 0
-1068 -9299 9353 0
-1068 -9300 9354 0
-1068 -9301 9355 0
-1068 -9302 9356 0
-1068 -9303 9357 0
-1068 -9304 9358 0
-1068 -9305 9359 0
-1068 -9306 9360 0
-1068 -9307 9361 0
-1068 -9308 9362 0
-1068 -9309 9363 0
-1068 -9310 9364 0
-1068 -9311 9365 0
-1068 -9312 9366 0
-1068 -9313 9367 0
-1068 -9314 9368 0
-1068 -9315 9369 0
-1068 -9316 9370 0
-1068 -9317 9371 0
-1068 -9318 9372 0
-1068 -9319 9373 0
-1068 -9320 9374 0
-1068 -9321 9375 0
-1068 -9322 9376 0
-1068 -9323 9377 0
-1068 -9324 9378 0
-1068 -9325 9379 0
-1068 -9326 9380 0
-1068 -9327 9381 0
-1068 -9328 9382 0
-1068 -9329 9383 0
-1068 -9330 9384 0
-1068 -9331 9385 0
-1068 -9332 9386 0
-1068 -9333 9387 0
-1068 -9334 9388 0
-1068 -9335 9389 0
-1068 -9336 9390 0
-1068 -9337 9391 0
-1068 -9338 9392 0
-1068 -9339 9393 0
-1068 -9340 9394 0
-1068 -9341 9395 0
-1068 -9342 9396 0
-1068 -9343 9397 0
-1068 -9344 9398 0
-1068 -9345 9399 0
-1068 -9346 9400 0
-1068 -9347 0
-9348 9401 0
-9349 9402 0
-9350 9403 0
-9351 9404 0
-9352 9405 0
-9353 9406 0
-9354 9407 0
-9355 9408 0
-9356 9409 0
-9357 9410 0
-9358 9411 0
-9359 9412 0
-9360 9413 0
-9361 9414 0
-9362 9415 0
-9363 9416 0
-9364 9417 0
-9365 9418 0
-9366 9419 0
-9367 9420 0
-9368 9421 0
-9369 9422 0
-9370 9423 0
-9371 9424 0
-9372 9425 0
-9373 9426 0
-9374 9427 0
-9375 9428 0
-9376 9429 0
-9377 9430 0
-9378 9431 0
-9379 9432 0
-9380 9433 0
-9381 9434 0
-9382 9435 0
-9383 9436 0
-9384 9437 0
-9385 9438 0
-9386 9439 0
-9387 9440 0
-9388 9441 0
-9389 9442 0
-9390 9443 0
-9391 9444 0
-9392 9445 0
-9393 9446 0
-9394 9447 0
-9395 9448 0
-9396 9449 0
-9397 9450 0
-9398 9451 0
-9399 9452 0
-9400 9453 0
-1070 -9348 9402 0
-1070 -9349 9403 0
-1070 -9350 9404 0
-1070 -9351 9405 0
-1070 -9352 9406 0
-1070 -9353 9407 0
-1070 -9354 9408 0
-1070 -9355 9409 0
-1070 -9356 9410 0
-1070 -9357 9411 0
-1070 -9358 9412 0
-1070 -9359 9413 0
-1070 -9360 9414 0
-1070 -9361 9415 0
-1070 -9362 9416 0
-1070 -9363 9417 0
-1070 -9364 9418 0
-1070 -9365 9419 0
-1070 -9366 9420 0
-1070 -9367 9421 0
-1070 -9368 9422 0
-1070 -9369 9423 0
-1070 -9370 9424 0
-1070 -9371 9425 0
-1070 -9372 9426 0
-1070 -9373 9427 0
-1070 -9374 9428 0
-1070 -9375 9429 0
-1070 -9376 9430 0
-1070 -9377 9431 0
-1070 -9378 9432 0
-1070 -9379 9433 0
-1070 -9380 9434 0
-1070 -9381 9435 0
-1070 -9382 9436 0
-1070 -9383 9437 0
-1070 -9384 9438 0
-1070 -9385 9439 0
-1070 -9386 9440 0
-1070 -9387 9441 0
-1070 -9388 9442 0
-1070 -9389 9443 0
-1070 -9390 9444 0
-1070 -9391 9445 0
-1070 -9392 9446 0
-1070 -9393 9447 0
-1070 -9394 9448 0
-1070 -9395 9449 0
-1070 -9396 9450 0
-1070 -9397 9451 0
-1070 -9398 9452 0
-1070 -9399 9453 0
-1070 -9400 0
-9401 9454 0
-9402 9455 0
-9403 9456 0
-9404 9457 0
-9405 9458 0
-9406 9459 0
-9407 9460 0
-9408 9461 0
-9409 9462 0
-9410 9463 0
-9411 9464 0
-9412 9465 0
-9413 9466 0
-9414 9467 0
-9415 9468 0
-9416 9469 0
-9417 9470 0
-9418 9471 0
-9419 9472 0
-9420 9473 0
-9421 9474 0
-9422 9475 0
-9423 9476 0
-9424 9477 0
-9425 9478 0
-9426 9479 0
-9427 9480 0
-9428 9481 0
-9429 9482 0
-9430 9483 0
-9431 9484 0
-9432 9485 0
-9433 9486 0
-9434 9487 0
-9435 9488 0
-9436 9489 0
-9437 9490 0
-9438 9491 0
-9439 9492 0
-9440 9493 0
-9441 9494 0
-9442 9495 0
-9443 9496 0
-9444 9497 0
-9445 9498 0
-9446 9499 0
-9447 9500 0
-9448 9501 0
-9449 9502 0
-9450 9503 0
-9451 9504 0
-9452 9505 0
-9453 9506 0
-1072 -9401 9455 0
-1072 -9402 9456 0
-1072 -9403 9457 0
-1072 -9404 9458 0
-1072 -9405 9459 0
-1072 -9406 9460 0
-1072 -9407 9461 0
-1072 -9408 9462 0
-1072 -9409 9463 0
-1072 -9410 9464 0
-1072 -9411 9465 0
-1072 -9412 9466 0
-1072 -9413 9467 0
-1072 -9414 9468 0
-1072 -9415 9469 0
-1072 -9416 9470 0
-1072 -9417 9471 0
-1072 -9418 9472 0
-1072 -9419 9473 0
-1072 -9420 9474 0
-1072 -9421 9475 0
-1072 -9422 9476 0
-1072 -9423 9477 0
-1072 -9424 9478 0
-1072 -9425 9479 0
-1072 -9426 9480 0
-1072 -9427 9481 0
-1072 -9428 9482 0
-1072 -9429 9483 0
-1072 -9430 9484 0
-1072 -9431 9485 0
-1072 -9432 9486 0
-1072 -9433 9487 0
-1072 -9434 9488 0
-1072 -9435 9489 0
-1072 -9436 9490 0
-1072 -9437 9491 0
-1072 -9438 9492 0
-1072 -9439 9493 0
-1072 -9440 9494 0
-1072 -9441 9495 0
-1072 -9442 9496 0
-1072 -9443 9497 0
-1072 -9444 9498 0
-1072 -9445 9499 0
-1072 -9446 9500 0
-1072 -9447 9501 0
-1072 -9448 9502 0
-1072 -9449 9503 0
-1072 -9450 9504 0
-1072 -9451 9505 0
-1072 -9452 9506 0
-1072 -9453 0
-9454 9507 0
-9455 9508 0
-9456 9509 0
-9457 9510 0
-9458 9511 0
-9459 9512 0
-9460 9513 0
-9461 9514 0
-9462 9515 0
-9463 9516 0
-9464 9517 0
-9465 9518 0
-9466 9519 0
-9467 9520 0
-9468 9521 0
-9469 9522 0
-9470 9523 0
-9471 9524 0
-9472 9525 0
-9473 9526 0
-9474 9527 0
-9475 9528 0
-9476 9529 0
-9477 9530 0
-9478 9531 0
-9479 9532 0
-9480 9533 0
-9481 9534 0
-9482 9535 0
-9483 9536 0
-9484 9537 0
-9485 9538 0
-9486 9539 0
-9487 9540 0
-9488 9541 0
-9489 9542 0
-9490 9543 0
-9491 9544 0
-9492 9545 0
-9493 9546 0
-9494 9547 0
-9495 9548 0
-9496 9549 0
-9497 9550 0
-9498 9551 0
-9499 9552 0
-9500 9553 0
-9501 9554 0
-9502 9555 0
-9503 9556 0
-9504 9557 0
-9505 9558 0
-9506 9559 0
-1074 -9454 9508 0
-1074 -9455 9509 0
-1074 -9456 9510 0
-1074 -9457 9511 0
-1074 -9458 9512 0
-1074 -9459 9513 0
-1074 -9460 9514 0
-1074 -9461 9515 0
-1074 -9462 9516 0
-1074 -9463 9517 0
-1074 -9464 9518 0
-1074 -9465 9519 0
-1074 -9466 9520 0
-1074 -9467 9521 0
-1074 -9468 9522 0
-1074 -9469 9523 0
-1074 -9470 9524 0
-1074 -9471 9525 0
-1074 -9472 9526 0
-1074 -9473 9527 0
-1074 -9474 9528 0
-1074 -9475 9529 0
-1074 -9476 9530 0
-1074 -9477 9531 0
-1074 -9478 9532 0
-1074 -9479 9533 0
-1074 -9480 9534 0
-1074 -9481 9535 0
-1074 -9482 9536 0
-1074 -9483 9537 0
-1074 -9484 9538 0
-1074 -9485 9539 0
-1074 -9486 9540 0
-1074 -9487 9541 0
-1074 -9488 9542 0
-1074 -9489 9543 0
-1074 -9490 9544 0
-1074 -9491 9545 0
-1074 -9492 9546 0
-1074 -9493 9547 0
-1074 -9494 9548 0
-1074 -9495 9549 0
-1074 -9496 9550 0
-1074 -9497 9551 0
-1074 -9498 9552 0
-1074 -9499 9553 0
-1074 -9500 9554 0
-1074 -9501 9555 0
-1074 -9502 9556 0
-1074 -9503 9557 0
-1074 -9504 9558 0
-1074 -9505 9559 0
-1074 -9506 0
-9507 9560 0
-9508 9561 0
-9509 9562 0
-9510 9563 0
-9511 9564 0
-9512 9565 0
-9513 9566 0
-9514 9567 0
-9515 9568 0
-9516 9569 0
-9517 9570 0
-9518 9571 0
-9519 9572 0
-9520 9573 0
-9521 9574 0
-9522 9575 0
-9523 9576 0
-9524 9577 0
-9525 9578 0
-9526 9579 0
-9527 9580 0
-9528 9581 0
-9529 9582 0
-9530 9583 0
-9531 9584 0
-9532 9585 0
-9533 9586 0
-9534 9587 0
-9535 9588 0
-9536 9589 0
-9537 9590 0
-9538 9591 0
-9539 9592 0
-9540 9593 0
-9541 9594 0
-9542 9595 0
-9543 9596 0
-9544 9597 0
-9545 9598 0
-9546 9599 0
-9547 9600 0
-9548 9601 0
-9549 9602 0
-9550 9603 0
-9551 9604 0
-9552 9605 0
-9553 9606 0
-9554 9607 0
-9555 9608 0
-9556 9609 0
-9557 9610 0
-9558 9611 0
-9559 9612 0
-1076 -9507 9561 0
-1076 -9508 9562 0
-1076 -9509 9563 0
-1076 -9510 9564 0
-1076 -9511 9565 0
-1076 -9512 9566 0
-1076 -9513 9567 0
-1076 -9514 9568 0
-1076 -9515 9569 0
-1076 -9516 9570 0
-1076 -9517 9571 0
-1076 -9518 9572 0
-1076 -9519 9573 0
-1076 -9520 9574 0
-1076 -9521 9575 0
-1076 -9522 9576 0
-1076 -9523 9577 0
-1076 -9524 9578 0
-1076 -9525 9579 0
-1076 -9526 9580 0
-1076 -9527 9581 0
-1076 -9528 9582 0
-1076 -9529 9583 0
-1076 -9530 9584 0
-1076 -9531 9585 0
-1076 -9532 9586 0
-1076 -9533 9587 0
-1076 -9534 9588 0
-1076 -9535 9589 0
-1076 -9536 9590 0
-1076 -9537 9591 0
-1076 -9538 9592 0
-1076 -9539 9593 0
-1076 -9540 9594 0
-1076 -9541 9595 0
-1076 -9542 9596 0
-1076 -9543 9597 0
-1076 -9544 9598 0
-1076 -9545 9599 0
-1076 -9546 9600 0
-1076 -9547 9601 0
-1076 -9548 9602 0
-1076 -9549 9603 0
-1076 -9550 9604 0
-1076 -9551 9605 0
-1076 -9552 9606 0
-1076 -9553 9607 0
-1076 -9554 9608 0
-1076 -9555 9609 0
-1076 -9556 9610 0
-1076 -9557 9611 0
-1076 -9558 9612 0
-1076 -9559 0
-9560 9613 0
-9561 9614 0
-9562 9615 0
-9563 9616 0
-9564 9617 0
-9565 9618 0
-9566 9619 0
-9567 9620 0
-9568 9621 0
-9569 9622 0
-9570 9623 0
-9571 9624 0
-9572 9625 0
-9573 9626 0
-9574 9627 0
-9575 9628 0
-9576 9629 0
-9577 9630 0
-9578 9631 0
-9579 9632 0
-9580 9633 0
-9581 9634 0
-9582 9635 0
-9583 9636 0
-9584 9637 0
-9585 9638 0
-9586 9639 0
-9587 9640 0
-9588 9641 0
-9589 9642 0
-9590 9643 0
-9591 9644 0
-9592 9645 0
-9593 9646 0
-9594 9647 0
-9595 9648 0
-9596 9649 0
-9597 9650 0
-9598 9651 0
-9599 9652 0
-9600 9653 0
-9601 9654 0
-9602 9655 0
-9603 9656 0
-9604 9657 0
-9605 9658 0
-9606 9659 0
-9607 9660 0
-9608 9661 0
-9609 9662 0
-9610 9663 0
-9611 9664 0
-9612 9665 0
-1078 -9560 9614 0
-1078 -9561 9615 0
-1078 -9562 9616 0
-1078 -9563 9617 0
-1078 -9564 9618 0
-1078 -9565 9619 0
-1078 -9566 9620 0
-1078 -9567 9621 0
-1078 -9568 9622 0
-1078 -9569 9623 0
-1078 -9570 9624 0
-1078 -9571 9625 0
-1078 -9572 9626 0
-1078 -9573 9627 0
-1078 -9574 9628 0
-1078 -9575 9629 0
-1078 -9576 9630 0
-1078 -9577 9631 0
-1078 -9578 9632 0
-1078 -9579 9633 0
-1078 -9580 9634 0
-1078 -9581 9635 0
-1078 -9582 9636 0
-1078 -9583 9637 0
-1078 -9584 9638 0
-1078 -9585 9639 0
-1078 -9586 9640 0
-1078 -9587 9641 0
-1078 -9588 9642 0
-1078 -9589 9643 0
-1078 -9590 9644 0
-1078 -9591 9645 0
-1078 -9592 9646 0
-1078 -9593 9647 0
-1078 -9594 9648 0
-1078 -9595 9649 0
-1078 -9596 9650 0
-1078 -9597 9651 0
-1078 -9598 9652 0
-1078 -9599 9653 0
-1078 -9600 9654 0
-1078 -9601 9655 0
-1078 -9602 9656 0
-1078 -9603 9657 0
-1078 -9604 9658 0
-1078 -9605 9659 0
-1078 -9606 9660 0
-1078 -9607 9661 0
-1078 -9608 9662 0
-1078 -9609 9663 0
-1078 -9610 9664 0
-1078 -9611 9665 0
-1078 -9612 0
-9613 9666 0
-9614 9667 0
-9615 9668 0
-9616 9669 0
-9617 9670 0
-9618 9671 0
-9619 9672 0
-9620 9673 0
-9621 9674 0
-9622 9675 0
-9623 9676 0
-9624 9677 0
-9625 9678 0
-9626 9679 0
-9627 9680 0
-9628 9681 0
-9629 9682 0
-9630 9683 0
-9631 9684 0
-9632 9685 0
-9633 9686 0
-9634 9687 0
-9635 9688 0
-9636 9689 0
-9637 9690 0
-9638 9691 0
-9639 9692 0
-9640 9693 0
-9641 9694 0
-9642 9695 0
-9643 9696 0
-9644 9697 0
-9645 9698 0
-9646 9699 0
-9647 9700 0
-9648 9701 0
-9649 9702 0
-9650 9703 0
-9651 9704 0
-9652 9705 0
-9653 9706 0
-9654 9707 0
-9655 9708 0
-9656 9709 0
-9657 9710 0
-9658 9711 0
-9659 9712 0
-9660 9713 0
-9661 9714 0
-9662 9715 0
-9663 9716 0
-9664 9717 0
-9665 9718 0
-1080 -9613 9667 0
-1080 -9614 9668 0
-1080 -9615 9669 0
-1080 -9616 9670 0
-1080 -9617 9671 0
-1080 -9618 9672 0
-1080 -9619 9673 0
-1080 -9620 9674 0
-1080 -9621 9675 0
-1080 -9622 9676 0
-1080 -9623 9677 0
-1080 -9624 9678 0
-1080 -9625 9679 0
-1080 -9626 9680 0
-1080 -9627 9681 0
-1080 -9628 9682 0
-1080 -9629 9683 0
-1080 -9630 9684 0
-1080 -9631 9685 0
-1080 -9632 9686 0
-1080 -9633 9687 0
-1080 -9634 9688 0
-1080 -9635 9689 0
-1080 -9636 9690 0
-1080 -9637 9691 0
-1080 -9638 9692 0
-1080 -9639 9693 0
-1080 -9640 9694 0
-1080 -9641 9695 0
-1080 -9642 9696 0
-1080 -9643 9697 0
-1080 -9644 9698 0
-1080 -9645 9699 0
-1080 -9646 9700 0
-1080 -9647 9701 0
-1080 -9648 9702 0
-1080 -9649 9703 0
-1080 -9650 9704 0
-1080 -9651 9705 0
-1080 -9652 9706 0
-1080 -9653 9707 0
-1080 -9654 9708 0
-1080 -9655 9709 0
-1080 -9656 9710 0
-1080 -9657 9711 0
-1080 -9658 9712 0
-1080 -9659 9713 0
-1080 -9660 9714 0
-1080 -9661 9715 0
-1080 -9662 9716 0
-1080 -9663 9717 0
-1080 -9664 9718 0
-1080 -9665 0
-9666 9719 0
-9667 9720 0
-9668 9721 0
-9669 9722 0
-9670 9723 0
-9671 9724 0
-9672 9725 0
-9673 9726 0
-9674 9727 0
-9675 9728 0
-9676 9729 0
-9677 9730 0
-9678 9731 0
-9679 9732 0
-9680 9733 0
-9681 9734 0
-9682 9735 0
-9683 9736 0
-9684 9737 0
-9685 9738 0
-9686 9739 0
-9687 9740 0
-9688 9741 0
-9689 9742 0
-9690 9743 0
-9691 9744 0
-9692 9745 0
-9693 9746 0
-9694 9747 0
-9695 9748 0
-9696 9749 0
-9697 9750 0
-9698 9751 0
-9699 9752 0
-9700 9753 0
-9701 9754 0
-9702 9755 0
-9703 9756 0
-9704 9757 0
-9705 9758 0
-9706 9759 0
-9707 9760 0
-9708 9761 0
-9709 9762 0
-9710 9763 0
-9711 9764 0
-9712 9765 0
-9713 9766 0
-9714 9767 0
-9715 9768 0
-9716 9769 0
-9717 9770 0
-9718 9771 0
-1082 -9666 9720 0
-1082 -9667 9721 0
-1082 -9668 9722 0
-1082 -9669 9723 0
-1082 -9670 9724 0
-1082 -9671 9725 0
-1082 -9672 9726 0
-1082 -9673 9727 0
-1082 -9674 9728 0
-1082 -9675 9729 0
-1082 -9676 9730 0
-1082 -9677 9731 0
-1082 -9678 9732 0
-1082 -9679 9733 0
-1082 -9680 9734 0
-1082 -9681 9735 0
-1082 -9682 9736 0
-1082 -9683 9737 0
-1082 -9684 9738 0
-1082 -9685 9739 0
-1082 -9686 9740 0
-1082 -9687 9741 0
-1082 -9688 9742 0
-1082 -9689 9743 0
-1082 -9690 9744 0
-1082 -9691 9745 0
-1082 -9692 9746 0
-1082 -9693 9747 0
-1082 -9694 9748 0
-1082 -9695 9749 0
-1082 -9696 9750 0
-1082 -9697 9751 0
-1082 -9698 9752 0
-1082 -9699 9753 0
-1082 -9700 9754 0
-1082 -9701 9755 0
-1082 -9702 9756 0
-1082 -9703 9757 0
-1082 -9704 9758 0
-1082 -9705 9759 0
-1082 -9706 9760 0
-1082 -9707 9761 0
-1082 -9708 9762 0
-1082 -9709 9763 0
-1082 -9710 9764 0
-1082 -9711 9765 0
-1082 -9712 9766 0
-1082 -9713 9767 0
-1082 -9714 9768 0
-1082 -9715 9769 0
-1082 -9716 9770 0
-1082 -9717 9771 0
-1082 -9718 0
-9719 9772 0
-9720 9773 0
-9721 9774 0
-9722 9775 0
-9723 9776 0
-9724 9777 0
-9725 9778 0
-9726 9779 0
-9727 9780 0
-9728 9781 0
-9729 9782 0
-9730 9783 0
-9731 9784 0
-9732 9785 0
-9733 9786 0
-9734 9787 0
-9735 9788 0
-9736 9789 0
-9737 9790 0
-9738 9791 0
-9739 9792 0
-9740 9793 0
-9741 9794 0
-9742 9795 0
-9743 9796 0
-9744 9797 0
-9745 9798 0
-9746 9799 0
-9747 9800 0
-9748 9801 0
-9749 9802 0
-9750 9803 0
-9751 9804 0
-9752 9805 0
-9753 9806 0
-9754 9807 0
-9755 9808 0
-9756 9809 0
-9757 9810 0
-9758 9811 0
-9759 9812 0
-9760 9813 0
-9761 9814 0
-9762 9815 0
-9763 9816 0
-9764 9817 0
-9765 9818 0
-9766 9819 0
-9767 9820 0
-9768 9821 0
-9769 9822 0
-9770 9823 0
-9771 9824 0
-1084 -9719 9773 0
-1084 -9720 9774 0
-1084 -9721 9775 0
-1084 -9722 9776 0
-1084 -9723 9777 0
-1084 -9724 9778 0
-1084 -9725 9779 0
-1084 -9726 9780 0
-1084 -9727 9781 0
-1084 -9728 9782 0
-1084 -9729 9783 0
-1084 -9730 9784 0
-1084 -9731 9785 0
-1084 -9732 9786 0
-1084 -9733 9787 0
-1084 -9734 9788 0
-1084 -9735 9789 0
-1084 -9736 9790 0
-1084 -9737 9791 0
-1084 -9738 9792 0
-1084 -9739 9793 0
-1084 -9740 9794 0
-1084 -9741 9795 0
-1084 -9742 9796 0
-1084 -9743 9797 0
-1084 -9744 9798 0
-1084 -9745 9799 0
-1084 -9746 9800 0
-1084 -9747 9801 0
-1084 -9748 9802 0
-1084 -9749 9803 0
-1084 -9750 9804 0
-1084 -9751 9805 0
-1084 -9752 9806 0
-1084 -9753 9807 0
-1084 -9754 9808 0
-1084 -9755 9809 0
-1084 -9756 9810 0
-1084 -9757 9811 0
-1084 -9758 9812 0
-1084 -9759 9813 0
-1084 -9760 9814 0
-1084 -9761 9815 0
-1084 -9762 9816 0
-1084 -9763 9817 0
-1084 -9764 9818 0
-1084 -9765 9819 0
-1084 -9766 9820 0
-1084 -9767 9821 0
-1084 -9768 9822 0
-1084 -9769 9823 0
-1084 -9770 9824 0
-1084 -9771 0
-9772 9825 0
-9773 9826 0
-9774 9827 0
-9775 9828 0
-9776 9829 0
-9777 9830 0
-9778 9831 0
-9779 9832 0
-9780 9833 0
-9781 9834 0
-9782 9835 0
-9783 9836 0
-9784 9837 0
-9785 9838 0
-9786 9839 0
-9787 9840 0
-9788 9841 0
-9789 9842 0
-9790 9843 0
-9791 9844 0
-9792 9845 0
-9793 9846 0
-9794 9847 0
-9795 9848 0
-9796 9849 0
-9797 9850 0
-9798 9851 0
-9799 9852 0
-9800 9853 0
-9801 9854 0
-9802 9855 0
-9803 9856 0
-9804 9857 0
-9805 9858 0
-9806 9859 0
-9807 9860 0
-9808 9861 0
-9809 9862 0
-9810 9863 0
-9811 9864 0
-9812 9865 0
-9813 9866 0
-9814 9867 0
-9815 9868 0
-9816 9869 0
-9817 9870 0
-9818 9871 0
-9819 9872 0
-9820 9873 0
-9821 9874 0
-9822 9875 0
-9823 9876 0
-9824 9877 0
-1086 -9772 9826 0
-1086 -9773 9827 0
-1086 -9774 9828 0
-1086 -9775 9829 0
-1086 -9776 9830 0
-1086 -9777 9831 0
-1086 -9778 9832 0
-1086 -9779 9833 0
-1086 -9780 9834 0
-1086 -9781 9835 0
-1086 -9782 9836 0
-1086 -9783 9837 0
-1086 -9784 9838 0
-1086 -9785 9839 0
-1086 -9786 9840 0
-1086 -9787 9841 0
-1086 -9788 9842 0
-1086 -9789 9843 0
-1086 -9790 9844 0
-1086 -9791 9845 0
-1086 -9792 9846 0
-1086 -9793 9847 0
-1086 -9794 9848 0
-1086 -9795 9849 0
-1086 -9796 9850 0
-1086 -9797 9851 0
-1086 -9798 9852 0
-1086 -9799 9853 0
-1086 -9800 9854 0
-1086 -9801 9855 0
-1086 -9802 9856 0
-1086 -9803 9857 0
-1086 -9804 9858 0
-1086 -9805 9859 0
-1086 -9806 9860 0
-1086 -9807 9861 0
-1086 -9808 9862 0
-1086 -9809 9863 0
-1086 -9810 9864 0
-1086 -9811 9865 0
-1086 -9812 9866 0
-1086 -9813 9867 0
-1086 -9814 9868 0
-1086 -9815 9869 0
-1086 -9816 9870 0
-1086 -9817 9871 0
-1086 -9818 9872 0
-1086 -9819 9873 0
-1086 -9820 9874 0
-1086 -9821 9875 0
-1086 -9822 9876 0
-1086 -9823 9877 0
-1086 -9824 0
-9825 9878 0
-9826 9879 0
-9827 9880 0
-9828 9881 0
-9829 9882 0
-9830 9883 0
-9831 9884 0
-9832 9885 0
-9833 9886 0
-9834 9887 0
-9835 9888 0
-9836 9889 0
-9837 9890 0
-9838 9891 0
-9839 9892 0
-9840 9893 0
-9841 9894 0
-9842 9895 0
-9843 9896 0
-9844 9897 0
-9845 9898 0
-9846 9899 0
-9847 9900 0
-9848 9901 0
-9849 9902 0
-9850 9903 0
-9851 9904 0
-9852 9905 0
-9853 9906 0
-9854 9907 0
-9855 9908 0
-9856 9909 0
-9857 9910 0
-9858 9911 0
-9859 9912 0
-9860 9913 0
-9861 9914 0
-9862 9915 0
-9863 9916 0
-9864 9917 0
-9865 9918 0
-9866 9919 0
-9867 9920 0
-9868 9921 0
-9869 9922 0
-9870 9923 0
-9871 9924 0
-9872 9925 0
-9873 9926 0
-9874 9927 0
-9875 9928 0
-9876 9929 0
-9877 9930 0
-1088 -9825 9879 0
-1088 -9826 9880 0
-1088 -9827 9881 0
-1088 -9828 9882 0
-1088 -9829 9883 0
-1088 -9830 9884 0
-1088 -9831 9885 0
-1088 -9832 9886 0
-1088 -9833 9887 0
-1088 -9834 9888 0
-1088 -9835 9889 0
-1088 -9836 9890 0
-1088 -9837 9891 0
-1088 -9838 9892 0
-1088 -9839 9893 0
-1088 -9840 9894 0
-1088 -9841 9895 0
-1088 -9842 9896 0
-1088 -9843 9897 0
-1088 -9844 9898 0
-1088 -9845 9899 0
-1088 -9846 9900 0
-1088 -9847 9901 0
-1088 -9848 9902 0
-1088 -9849 9903 0
-1088 -9850 9904 0
-1088 -9851 9905 0
-1088 -9852 9906 0
-1088 -9853 9907 0
-1088 -9854 9908 0
-1088 -9855 9909 0
-1088 -9856 9910 0
-1088 -9857 9911 0
-1088 -9858 9912 0
-1088 -9859 9913 0
-1088 -9860 9914 0
-1088 -9861 9915 0
-1088 -9862 9916 0
-1088 -9863 9917 0
-1088 -9864 9918 0
-1088 -9865 9919 0
-1088 -9866 9920 0
-1088 -9867 9921 0
-1088 -9868 9922 0
-1088 -9869 9923 0
-1088 -9870 9924 0
-1088 -9871 9925 0
-1088 -9872 9926 0
-1088 -9873 9927 0
-1088 -9874 9928 0
-1088 -9875 9929 0
-1088 -9876 9930 0
-1088 -9877 0
-9878 9931 0
-9879 9932 0
-9880 9933 0
-9881 9934 0
-9882 9935 0
-9883 9936 0
-9884 9937 0
-9885 9938 0
-9886 9939 0
-9887 9940 0
-9888 9941 0
-9889 9942 0
-9890 9943 0
-9891 9944 0
-9892 9945 0
-9893 9946 0
-9894 9947 0
-9895 9948 0
-9896 9949 0
-9897 9950 0
-9898 9951 0
-9899 9952 0
-9900 9953 0
-9901 9954 0
-9902 9955 0
-9903 9956 0
-9904 9957 0
-9905 9958 0
-9906 9959 0
-9907 9960 0
-9908 9961 0
-9909 9962 0
-9910 9963 0
-9911 9964 0
-9912 9965 0
-9913 9966 0
-9914 9967 0
-9915 9968 0
-9916 9969 0
-9917 9970 0
-9918 9971 0
-9919 9972 0
-9920 9973 0
-9921 9974 0
-9922 9975 0
-9923 9976 0
-9924 9977 0
-9925 9978 0
-9926 9979 0
-9927 9980 0
-9928 9981 0
-9929 9982 0
-9930 9983 0
-1090 -9878 9932 0
-1090 -9879 9933 0
-1090 -9880 9934 0
-1090 -9881 9935 0
-1090 -9882 9936 0
-1090 -9883 9937 0
-1090 -9884 9938 0
-1090 -9885 9939 0
-1090 -9886 9940 0
-1090 -9887 9941 0
-1090 -9888 9942 0
-1090 -9889 9943 0
-1090 -9890 9944 0
-1090 -9891 9945 0
-1090 -9892 9946 0
-1090 -9893 9947 0
-1090 -9894 9948 0
-1090 -9895 9949 0
-1090 -9896 9950 0
-1090 -9897 9951 0
-1090 -9898 9952 0
-1090 -9899 9953 0
-1090 -9900 9954 0
-1090 -9901 9955 0
-1090 -9902 9956 0
-1090 -9903 9957 0
-1090 -9904 9958 0
-1090 -9905 9959 0
-1090 -9906 9960 0
-1090 -9907 9961 0
-1090 -9908 9962 0
-1090 -9909 9963 0
-1090 -9910 9964 0
-1090 -9911 9965 0
-1090 -9912 9966 0
-1090 -9913 9967 0
-1090 -9914 9968 0
-1090 -9915 9969 0
-1090 -9916 9970 0
-1090 -9917 9971 0
-1090 -9918 9972 0
-1090 -9919 9973 0
-1090 -9920 9974 0
-1090 -9921 9975 0
-1090 -9922 9976 0
-1090 -9923 9977 0
-1090 -9924 9978 0
-1090 -9925 9979 0
-1090 -9926 9980 0
-1090 -9927 9981 0
-1090 -9928 9982 0
-1090 -9929 9983 0
-1090 -9930 0
-9931 9984 0
-9932 9985 0
-9933 9986 0
-9934 9987 0
-9935 9988 0
-9936 9989 0
-9937 9990 0
-9938 9991 0
-9939 9992 0
-9940 9993 0
-9941 9994 0
-9942 9995 0
-9943 9996 0
-9944 9997 0
-9945 9998 0
-9946 9999 0
-9947 10000 0
-9948 10001 0
-9949 10002 0
-9950 10003 0
-9951 10004 0
-9952 10005 0
-9953 10006 0
-9954 10007 0
-9955 10008 0
-9956 10009 0
-9957 10010 0
-9958 10011 0
-9959 10012 0
-9960 10013 0
-9961 10014 0
-9962 10015 0
-9963 10016 0
-9964 10017 0
-9965 10018 0
-9966 10019 0
-9967 10020 0
-9968 10021 0
-9969 10022 0
-9970 10023 0
-9971 10024 0
-9972 10025 0
-9973 10026 0
-9974 10027 0
-9975 10028 0
-9976 10029 0
-9977 10030 0
-9978 10031 0
-9979 10032 0
-9980 10033 0
-9981 10034 0
-9982 10035 0
-9983 10036 0
-1092 -9931 9985 0
-1092 -9932 9986 0
-1092 -9933 9987 0
-1092 -9934 9988 0
-1092 -9935 9989 0
-1092 -9936 9990 0
-1092 -9937 9991 0
-1092 -9938 9992 0
-1092 -9939 9993 0
-1092 -9940 9994 0
-1092 -9941 9995 0
-1092 -9942 9996 0
-1092 -9943 9997 0
-1092 -9944 9998 0
-1092 -9945 9999 0
-1092 -9946 10000 0
-1092 -9947 10001 0
-1092 -9948 10002 0
-1092 -9949 10003 0
-1092 -9950 10004 0
-1092 -9951 10005 0
-1092 -9952 10006 0
-1092 -9953 10007 0
-1092 -9954 10008 0
-1092 -9955 10009 0
-1092 -9956 10010 0
-1092 -9957 10011 0
-1092 -9958 10012 0
-1092 -9959 10013 0
-1092 -9960 10014 0
-1092 -9961 10015 0
-1092 -9962 10016 0
-1092 -9963 10017 0
-1092 -9964 10018 0
-1092 -9965 10019 0
-1092 -9966 10020 0
-1092 -9967 10021 0
-1092 -9968 10022 0
-1092 -9969 10023 0
-1092 -9970 10024 0
-1092 -9971 10025 0
-1092 -9972 10026 0
-1092 -9973 10027 0
-1092 -9974 10028 0
-1092 -9975 10029 0
-1092 -9976 10030 0
-1092 -9977 10031 0
-1092 -9978 10032 0
-1092 -9979 10033 0
-1092 -9980 10034 0
-1092 -9981 10035 0
-1092 -9982 10036 0
-1092 -9983 0
-9984 10037 0
-9985 10038 0
-9986 10039 0
-9987 10040 0
-9988 10041 0
-9989 10042 0
-9990 10043 0
-9991 10044 0
-9992 10045 0
-9993 10046 0
-9994 10047 0
-9995 10048 0
-9996 10049 0
-9997 10050 0
-9998 10051 0
-9999 10052 0
-10000 10053 0
-10001 10054 0
-10002 10055 0
-10003 10056 0
-10004 10057 0
-10005 10058 0
-10006 10059 0
-10007 10060 0
-10008 10061 0
-10009 10062 0
-10010 10063 0
-10011 10064 0
-10012 10065 0
-10013 10066 0
-10014 10067 0
-10015 10068 0
-10016 10069 0
-10017 10070 0
-10018 10071 0
-10019 10072 0
-10020 10073 0
-10021 10074 0
-10022 10075 0
-10023 10076 0
-10024 10077 0
-10025 10078 0
-10026 10079 0
-10027 10080 0
-10028 10081 0
-10029 10082 0
-10030 10083 0
-10031 10084 0
-10032 10085 0
-10033 10086 0
-10034 10087 0
-10035 10088 0
-10036 10089 0
-1094 -9984 10038 0
-1094 -9985 10039 0
-1094 -9986 10040 0
-1094 -9987 10041 0
-1094 -9988 10042 0
-1094 -9989 10043 0
-1094 -9990 10044 0
-1094 -9991 10045 0
-1094 -9992 10046 0
-1094 -9993 10047 0
-1094 -9994 10048 0
-1094 -9995 10049 0
-1094 -9996 10050 0
-1094 -9997 10051 0
-1094 -9998 10052 0
-1094 -9999 10053 0
-1094 -10000 10054 0
-1094 -10001 10055 0
-1094 -10002 10056 0
-1094 -10003 10057 0
-1094 -10004 10058 0
-1094 -10005 10059 0
-1094 -10006 10060 0
-1094 -10007 10061 0
-1094 -10008 10062 0
-1094 -10009 10063 0
-1094 -10010 10064 0
-1094 -10011 10065 0
-1094 -10012 10066 0
-1094 -10013 10067 0
-1094 -10014 10068 0
-1094 -10015 10069 0
-1094 -10016 10070 0
-1094 -10017 10071 0
-1094 -10018 10072 0
-1094 -10019 10073 0
-1094 -10020 10074 0
-1094 -10021 10075 0
-1094 -10022 10076 0
-1094 -10023 10077 0
-1094 -10024 10078 0
-1094 -10025 10079 0
-1094 -10026 10080 0
-1094 -10027 10081 0
-1094 -10028 10082 0
-1094 -10029 10083 0
-1094 -10030 10084 0
-1094 -10031 10085 0
-1094 -10032 10086 0
-1094 -10033 10087 0
-1094 -10034 10088 0
-1094 -10035 10089 0
-1094 -10036 0
-10037 10090 0
-10038 10091 0
-10039 10092 0
-10040 10093 0
-10041 10094 0
-10042 10095 0
-10043 10096 0
-10044 10097 0
-10045 10098 0
-10046 10099 0
-10047 10100 0
-10048 10101 0
-10049 10102 0
-10050 10103 0
-10051 10104 0
-10052 10105 0
-10053 10106 0
-10054 10107 0
-10055 10108 0
-10056 10109 0
-10057 10110 0
-10058 10111 0
-10059 10112 0
-10060 10113 0
-10061 10114 0
-10062 10115 0
-10063 10116 0
-10064 10117 0
-10065 10118 0
-10066 10119 0
-10067 10120 0
-10068 10121 0
-10069 10122 0
-10070 10123 0
-10071 10124 0
-10072 10125 0
-10073 10126 0
-10074 10127 0
-10075 10128 0
-10076 10129 0
-10077 10130 0
-10078 10131 0
-10079 10132 0
-10080 10133 0
-10081 10134 0
-10082 10135 0
-10083 10136 0
-10084 10137 0
-10085 10138 0
-10086 10139 0
-10087 10140 0
-10088 10141 0
-10089 10142 0
-1096 -10037 10091 0
-1096 -10038 10092 0
-1096 -10039 10093 0
-1096 -10040 10094 0
-1096 -10041 10095 0
-1096 -10042 10096 0
-1096 -10043 10097 0
-1096 -10044 10098 0
-1096 -10045 10099 0
-1096 -10046 10100 0
-1096 -10047 10101 0
-1096 -10048 10102 0
-1096 -10049 10103 0
-1096 -10050 10104 0
-1096 -10051 10105 0
-1096 -10052 10106 0
-1096 -10053 10107 0
-1096 -10054 10108 0
-1096 -10055 10109 0
-1096 -10056 10110 0
-1096 -10057 10111 0
-1096 -10058 10112 0
-1096 -10059 10113 0
-1096 -10060 10114 0
-1096 -10061 10115 0
-1096 -10062 10116 0
-1096 -10063 10117 0
-1096 -10064 10118 0
-1096 -10065 10119 0
-1096 -10066 10120 0
-1096 -10067 10121 0
-1096 -10068 10122 0
-1096 -10069 10123 0
-1096 -10070 10124 0
-1096 -10071 10125 0
-1096 -10072 10126 0
-1096 -10073 10127 0
-1096 -10074 10128 0
-1096 -10075 10129 0
-1096 -10076 10130 0
-1096 -10077 10131 0
-1096 -10078 10132 0
-1096 -10079 10133 0
-1096 -10080 10134 0
-1096 -10081 10135 0
-1096 -10082 10136 0
-1096 -10083 10137 0
-1096 -10084 10138 0
-1096 -10085 10139 0
-1096 -10086 10140 0
-1096 -10087 10141 0
-1096 -10088 10142 0
-1096 -10089 0
-10090 10143 0
-10091 10144 0
-10092 10145 0
-10093 10146 0
-10094 10147 0
-10095 10148 0
-10096 10149 0
-10097 10150 0
-10098 10151 0
-10099 10152 0
-10100 10153 0
-10101 10154 0
-10102 10155 0
-10103 10156 0
-10104 10157 0
-10105 10158 0
-10106 10159 0
-10107 10160 0
-10108 10161 0
-10109 10162 0
-10110 10163 0
-10111 10164 0
-10112 10165 0
-10113 10166 0
-10114 10167 0
-10115 10168 0
-10116 10169 0
-10117 10170 0
-10118 10171 0
-10119 10172 0
-10120 10173 0
-10121 10174 0
-10122 10175 0
-10123 10176 0
-10124 10177 0
-10125 10178 0
-10126 10179 0
-10127 10180 0
-10128 10181 0
-10129 10182 0
-10130 10183 0
-10131 10184 0
-10132 10185 0
-10133 10186 0
-10134 10187 0
-10135 10188 0
-10136 10189 0
-10137 10190 0
-10138 10191 0
-10139 10192 0
-10140 10193 0
-10141 10194 0
-10142 10195 0
-1098 -10090 10144 0
-1098 -10091 10145 0
-1098 -10092 10146 0
-1098 -10093 10147 0
-1098 -10094 10148 0
-1098 -10095 10149 0
-1098 -10096 10150 0
-1098 -10097 10151 0
-1098 -10098 10152 0
-1098 -10099 10153 0
-1098 -10100 10154 0
-1098 -10101 10155 0
-1098 -10102 10156 0
-1098 -10103 10157 0
-1098 -10104 10158 0
-1098 -10105 10159 0
-1098 -10106 10160 0
-1098 -10107 10161 0
-1098 -10108 10162 0
-1098 -10109 10163 0
-1098 -10110 10164 0
-1098 -10111 10165 0
-1098 -10112 10166 0
-1098 -10113 10167 0
-1098 -10114 10168 0
-1098 -10115 10169 0
-1098 -10116 10170 0
-1098 -10117 10171 0
-1098 -10118 10172 0
-1098 -10119 10173 0
-1098 -10120 10174 0
-1098 -10121 10175 0
-1098 -10122 10176 0
-1098 -10123 10177 0
-1098 -10124 10178 0
-1098 -10125 10179 0
-1098 -10126 10180 0
-1098 -10127 10181 0
-1098 -10128 10182 0
-1098 -10129 10183 0
-1098 -10130 10184 0
-1098 -10131 10185 0
-1098 -10132 10186 0
-1098 -10133 10187 0
-1098 -10134 10188 0
-1098 -10135 10189 0
-1098 -10136 10190 0
-1098 -10137 10191 0
-1098 -10138 10192 0
-1098 -10139 10193 0
-1098 -10140 10194 0
-1098 -10141 10195 0
-1098 -10142 0
-10143 10196 0
-10144 10197 0
-10145 10198 0
-10146 10199 0
-10147 10200 0
-10148 10201 0
-10149 10202 0
-10150 10203 0
-10151 10204 0
-10152 10205 0
-10153 10206 0
-10154 10207 0
-10155 10208 0
-10156 10209 0
-10157 10210 0
-10158 10211 0
-10159 10212 0
-10160 10213 0
-10161 10214 0
-10162 10215 0
-10163 10216 0
-10164 10217 0
-10165 10218 0
-10166 10219 0
-10167 10220 0
-10168 10221 0
-10169 10222 0
-10170 10223 0
-10171 10224 0
-10172 10225 0
-10173 10226 0
-10174 10227 0
-10175 10228 0
-10176 10229 0
-10177 10230 0
-10178 10231 0
-10179 10232 0
-10180 10233 0
-10181 10234 0
-10182 10235 0
-10183 10236 0
-10184 10237 0
-10185 10238 0
-10186 10239 0
-10187 10240 0
-10188 10241 0
-10189 10242 0
-10190 10243 0
-10191 10244 0
-10192 10245 0
-10193 10246 0
-10194 10247 0
-10195 10248 0
-1100 -10143 10197 0
-1100 -10144 10198 0
-1100 -10145 10199 0
-1100 -10146 10200 0
-1100 -10147 10201 0
-1100 -10148 10202 0
-1100 -10149 10203 0
-1100 -10150 10204 0
-1100 -10151 10205 0
-1100 -10152 10206 0
-1100 -10153 10207 0
-1100 -10154 10208 0
-1100 -10155 10209 0
-1100 -10156 10210 0
-1100 -10157 10211 0
-1100 -10158 10212 0
-1100 -10159 10213 0
-1100 -10160 10214 0
-1100 -10161 10215 0
-1100 -10162 10216 0
-1100 -10163 10217 0
-1100 -10164 10218 0
-1100 -10165 10219 0
-1100 -10166 10220 0
-1100 -10167 10221 0
-1100 -10168 10222 0
-1100 -10169 10223 0
-1100 -10170 10224 0
-1100 -10171 10225 0
-1100 -10172 10226 0
-1100 -10173 10227 0
-1100 -10174 10228 0
-1100 -10175 10229 0
-1100 -10176 10230 0
-1100 -10177 10231 0
-1100 -10178 10232 0
-1100 -10179 10233 0
-1100 -10180 10234 0
-1100 -10181 10235 0
-1100 -10182 10236 0
-1100 -10183 10237 0
-1100 -10184 10238 0
-1100 -10185 10239 0
-1100 -10186 10240 0
-1100 -10187 10241 0
-1100 -10188 10242 0
-1100 -10189 10243 0
-1100 -10190 10244 0
-1100 -10191 10245 0
-1100 -10192 10246 0
-1100 -10193 10247 0
-1100 -10194 10248 0
-1100 -10195 0
-10196 10249 0
-10197 10250 0
-10198 10251 0
-10199 10252 0
-10200 10253 0
-10201 10254 0
-10202 10255 0
-10203 10256 0
-10204 10257 0
-10205 10258 0
-10206 10259 0
-10207 10260 0
-10208 10261 0
-10209 10262 0
-10210 10263 0
-10211 10264 0
-10212 10265 0
-10213 10266 0
-10214 10267 0
-10215 10268 0
-10216 10269 0
-10217 10270 0
-10218 10271 0
-10219 10272 0
-10220 10273 0
-10221 10274 0
-10222 10275 0
-10223 10276 0
-10224 10277 0
-10225 10278 0
-10226 10279 0
-10227 10280 0
-10228 10281 0
-10229 10282 0
-10230 10283 0
-10231 10284 0
-10232 10285 0
-10233 10286 0
-10234 10287 0
-10235 10288 0
-10236 10289 0
-10237 10290 0
-10238 10291 0
-10239 10292 0
-10240 10293 0
-10241 10294 0
-10242 10295 0
-10243 10296 0
-10244 10297 0
-10245 10298 0
-10246 10299 0
-10247 10300 0
-10248 10301 0
-1102 -10196 10250 0
-1102 -10197 10251 0
-1102 -10198 10252 0
-1102 -10199 10253 0
-1102 -10200 10254 0
-1102 -10201 10255 0
-1102 -10202 10256 0
-1102 -10203 10257 0
-1102 -10204 10258 0
-1102 -10205 10259 0
-1102 -10206 10260 0
-1102 -10207 10261 0
-1102 -10208 10262 0
-1102 -10209 10263 0
-1102 -10210 10264 0
-1102 -10211 10265 0
-1102 -10212 10266 0
-1102 -10213 10267 0
-1102 -10214 10268 0
-1102 -10215 10269 0
-1102 -10216 10270 0
-1102 -10217 10271 0
-1102 -10218 10272 0
-1102 -10219 10273 0
-1102 -10220 10274 0
-1102 -10221 10275 0
-1102 -10222 10276 0
-1102 -10223 10277 0
-1102 -10224 10278 0
-1102 -10225 10279 0
-1102 -10226 10280 0
-1102 -10227 10281 0
-1102 -10228 10282 0
-1102 -10229 10283 0
-1102 -10230 10284 0
-1102 -10231 10285 0
-1102 -10232 10286 0
-1102 -10233 10287 0
-1102 -10234 10288 0
-1102 -10235 10289 0
-1102 -10236 10290 0
-1102 -10237 10291 0
-1102 -10238 10292 0
-1102 -10239 10293 0
-1102 -10240 10294 0
-1102 -10241 10295 0
-1102 -10242 10296 0
-1102 -10243 10297 0
-1102 -10244 10298 0
-1102 -10245 10299 0
-1102 -10246 10300 0
-1102 -10247 10301 0
-1102 -10248 0
-10249 10302 0
-10250 10303 0
-10251 10304 0
-10252 10305 0
-10253 10306 0
-10254 10307 0
-10255 10308 0
-10256 10309 0
-10257 10310 0
-10258 10311 0
-10259 10312 0
-10260 10313 0
-10261 10314 0
-10262 10315 0
-10263 10316 0
-10264 10317 0
-10265 10318 0
-10266 10319 0
-10267 10320 0
-10268 10321 0
-10269 10322 0
-10270 10323 0
-10271 10324 0
-10272 10325 0
-10273 10326 0
-10274 10327 0
-10275 10328 0
-10276 10329 0
-10277 10330 0
-10278 10331 0
-10279 10332 0
-10280 10333 0
-10281 10334 0
-10282 10335 0
-10283 10336 0
-10284 10337 0
-10285 10338 0
-10286 10339 0
-10287 10340 0
-10288 10341 0
-10289 10342 0
-10290 10343 0
-10291 10344 0
-10292 10345 0
-10293 10346 0
-10294 10347 0
-10295 10348 0
-10296 10349 0
-10297 10350 0
-10298 10351 0
-10299 10352 0
-10300 10353 0
-10301 10354 0
-1104 -10249 10303 0
-1104 -10250 10304 0
-1104 -10251 10305 0
-1104 -10252 10306 0
-1104 -10253 10307 0
-1104 -10254 10308 0
-1104 -10255 10309 0
-1104 -10256 10310 0
-1104 -10257 10311 0
-1104 -10258 10312 0
-1104 -10259 10313 0
-1104 -10260 10314 0
-1104 -10261 10315 0
-1104 -10262 10316 0
-1104 -10263 10317 0
-1104 -10264 10318 0
-1104 -10265 10319 0
-1104 -10266 10320 0
-1104 -10267 10321 0
-1104 -10268 10322 0
-1104 -10269 10323 0
-1104 -10270 10324 0
-1104 -10271 10325 0
-1104 -10272 10326 0
-1104 -10273 10327 0
-1104 -10274 10328 0
-1104 -10275 10329 0
-1104 -10276 10330 0
-1104 -10277 10331 0
-1104 -10278 10332 0
-1104 -10279 10333 0
-1104 -10280 10334 0
-1104 -10281 10335 0
-1104 -10282 10336 0
-1104 -10283 10337 0
-1104 -10284 10338 0
-1104 -10285 10339 0
-1104 -10286 10340 0
-1104 -10287 10341 0
-1104 -10288 10342 0
-1104 -10289 10343 0
-1104 -10290 10344 0
-1104 -10291 10345 0
-1104 -10292 10346 0
-1104 -10293 10347 0
-1104 -10294 10348 0
-1104 -10295 10349 0
-1104 -10296 10350 0
-1104 -10297 10351 0
-1104 -10298 10352 0
-1104 -10299 10353 0
-1104 -10300 10354 0
-1104 -10301 0
-10302 10355 0
-10303 10356 0
-10304 10357 0
-10305 10358 0
-10306 10359 0
-10307 10360 0
-10308 10361 0
-10309 10362 0
-10310 10363 0
-10311 10364 0
-10312 10365 0
-10313 10366 0
-10314 10367 0
-10315 10368 0
-10316 10369 0
-10317 10370 0
-10318 10371 0
-10319 10372 0
-10320 10373 0
-10321 10374 0
-10322 10375 0
-10323 10376 0
-10324 10377 0
-10325 10378 0
-10326 10379 0
-10327 10380 0
-10328 10381 0
-10329 10382 0
-10330 10383 0
-10331 10384 0
-10332 10385 0
-10333 10386 0
-10334 10387 0
-10335 10388 0
-10336 10389 0
-10337 10390 0
-10338 10391 0
-10339 10392 0
-10340 10393 0
-10341 10394 0
-10342 10395 0
-10343 10396 0
-10344 10397 0
-10345 10398 0
-10346 10399 0
-10347 10400 0
-10348 10401 0
-10349 10402 0
-10350 10403 0
-10351 10404 0
-10352 10405 0
-10353 10406 0
-10354 10407 0
-1106 -10302 10356 0
-1106 -10303 10357 0
-1106 -10304 10358 0
-1106 -10305 10359 0
-1106 -10306 10360 0
-1106 -10307 10361 0
-1106 -10308 10362 0
-1106 -10309 10363 0
-1106 -10310 10364 0
-1106 -10311 10365 0
-1106 -10312 10366 0
-1106 -10313 10367 0
-1106 -10314 10368 0
-1106 -10315 10369 0
-1106 -10316 10370 0
-1106 -10317 10371 0
-1106 -10318 10372 0
-1106 -10319 10373 0
-1106 -10320 10374 0
-1106 -10321 10375 0
-1106 -10322 10376 0
-1106 -10323 10377 0
-1106 -10324 10378 0
-1106 -10325 10379 0
-1106 -10326 10380 0
-1106 -10327 10381 0
-1106 -10328 10382 0
-1106 -10329 10383 0
-1106 -10330 10384 0
-1106 -10331 10385 0
-1106 -10332 10386 0
-1106 -10333 10387 0
-1106 -10334 10388 0
-1106 -10335 10389 0
-1106 -10336 10390 0
-1106 -10337 10391 0
-1106 -10338 10392 0
-1106 -10339 10393 0
-1106 -10340 10394 0
-1106 -10341 10395 0
-1106 -10342 10396 0
-1106 -10343 10397 0
-1106 -10344 10398 0
-1106 -10345 10399 0
-1106 -10346 10400 0
-1106 -10347 10401 0
-1106 -10348 10402 0
-1106 -10349 10403 0
-1106 -10350 10404 0
-1106 -10351 10405 0
-1106 -10352 10406 0
-1106 -10353 10407 0
-1106 -10354 0
-10355 10408 0
-10356 10409 0
-10357 10410 0
-10358 10411 0
-10359 10412 0
-10360 10413 0
-10361 10414 0
-10362 10415 0
-10363 10416 0
-10364 10417 0
-10365 10418 0
-10366 10419 0
-10367 10420 0
-10368 10421 0
-10369 10422 0
-10370 10423 0
-10371 10424 0
-10372 10425 0
-10373 10426 0
-10374 10427 0
-10375 10428 0
-10376 10429 0
-10377 10430 0
-10378 10431 0
-10379 10432 0
-10380 10433 0
-10381 10434 0
-10382 10435 0
-10383 10436 0
-10384 10437 0
-10385 10438 0
-10386 10439 0
-10387 10440 0
-10388 10441 0
-10389 10442 0
-10390 10443 0
-10391 10444 0
-10392 10445 0
-10393 10446 0
-10394 10447 0
-10395 10448 0
-10396 10449 0
-10397 10450 0
-10398 10451 0
-10399 10452 0
-10400 10453 0
-10401 10454 0
-10402 10455 0
-10403 10456 0
-10404 10457 0
-10405 10458 0
-10406 10459 0
-10407 10460 0
-1108 -10355 10409 0
-1108 -10356 10410 0
-1108 -10357 10411 0
-1108 -10358 10412 0
-1108 -10359 10413 0
-1108 -10360 10414 0
-1108 -10361 10415 0
-1108 -10362 10416 0
-1108 -10363 10417 0
-1108 -10364 10418 0
-1108 -10365 10419 0
-1108 -10366 10420 0
-1108 -10367 10421 0
-1108 -10368 10422 0
-1108 -10369 10423 0
-1108 -10370 10424 0
-1108 -10371 10425 0
-1108 -10372 10426 0
-1108 -10373 10427 0
-1108 -10374 10428 0
-1108 -10375 10429 0
-1108 -10376 10430 0
-1108 -10377 10431 0
-1108 -10378 10432 0
-1108 -10379 10433 0
-1108 -10380 10434 0
-1108 -10381 10435 0
-1108 -10382 10436 0
-1108 -10383 10437 0
-1108 -10384 10438 0
-1108 -10385 10439 0
-1108 -10386 10440 0
-1108 -10387 10441 0
-1108 -10388 10442 0
-1108 -10389 10443 0
-1108 -10390 10444 0
-1108 -10391 10445 0
-1108 -10392 10446 0
-1108 -10393 10447 0
-1108 -10394 10448 0
-1108 -10395 10449 0
-1108 -10396 10450 0
-1108 -10397 10451 0
-1108 -10398 10452 0
-1108 -10399 10453 0
-1108 -10400 10454 0
-1108 -10401 10455 0
-1108 -10402 10456 0
-1108 -10403 10457 0
-1108 -10404 10458 0
-1108 -10405 10459 0
-1108 -10406 10460 0
-1108 -10407 0
-10408 10461 0
-10409 10462 0
-10410 10463 0
-10411 10464 0
-10412 10465 0
-10413 10466 0
-10414 10467 0
-10415 10468 0
-10416 10469 0
-10417 10470 0
-10418 10471 0
-10419 10472 0
-10420 10473 0
-10421 10474 0
-10422 10475 0
-10423 10476 0
-10424 10477 0
-10425 10478 0
-10426 10479 0
-10427 10480 0
-10428 10481 0
-10429 10482 0
-10430 10483 0
-10431 10484 0
-10432 10485 0
-10433 10486 0
-10434 10487 0
-10435 10488 0
-10436 10489 0
-10437 10490 0
-10438 10491 0
-10439 10492 0
-10440 10493 0
-10441 10494 0
-10442 10495 0
-10443 10496 0
-10444 10497 0
-10445 10498 0
-10446 10499 0
-10447 10500 0
-10448 10501 0
-10449 10502 0
-10450 10503 0
-10451 10504 0
-10452 10505 0
-10453 10506 0
-10454 10507 0
-10455 10508 0
-10456 10509 0
-10457 10510 0
-10458 10511 0
-10459 10512 0
-10460 10513 0
-1110 -10408 10462 0
-1110 -10409 10463 0
-1110 -10410 10464 0
-1110 -10411 10465 0
-1110 -10412 10466 0
-1110 -10413 10467 0
-1110 -10414 10468 0
-1110 -10415 10469 0
-1110 -10416 10470 0
-1110 -10417 10471 0
-1110 -10418 10472 0
-1110 -10419 10473 0
-1110 -10420 10474 0
-1110 -10421 10475 0
-1110 -10422 10476 0
-1110 -10423 10477 0
-1110 -10424 10478 0
-1110 -10425 10479 0
-1110 -10426 10480 0
-1110 -10427 10481 0
-1110 -10428 10482 0
-1110 -10429 10483 0
-1110 -10430 10484 0
-1110 -10431 10485 0
-1110 -10432 10486 0
-1110 -10433 10487 0
-1110 -10434 10488 0
-1110 -10435 10489 0
-1110 -10436 10490 0
-1110 -10437 10491 0
-1110 -10438 10492 0
-1110 -10439 10493 0
-1110 -10440 10494 0
-1110 -10441 10495 0
-1110 -10442 10496 0
-1110 -10443 10497 0
-1110 -10444 10498 0
-1110 -10445 10499 0
-1110 -10446 10500 0
-1110 -10447 10501 0
-1110 -10448 10502 0
-1110 -10449 10503 0
-1110 -10450 10504 0
-1110 -10451 10505 0
-1110 -10452 10506 0
-1110 -10453 10507 0
-1110 -10454 10508 0
-1110 -10455 10509 0
-1110 -10456 10510 0
-1110 -10457 10511 0
-1110 -10458 10512 0
-1110 -10459 10513 0
-1110 -10460 0
-10461 10514 0
-10462 10515 0
-10463 10516 0
-10464 10517 0
-10465 10518 0
-10466 10519 0
-10467 10520 0
-10468 10521 0
-10469 10522 0
-10470 10523 0
-10471 10524 0
-10472 10525 0
-10473 10526 0
-10474 10527 0
-10475 10528 0
-10476 10529 0
-10477 10530 0
-10478 10531 0
-10479 10532 0
-10480 10533 0
-10481 10534 0
-10482 10535 0
-10483 10536 0
-10484 10537 0
-10485 10538 0
-10486 10539 0
-10487 10540 0
-10488 10541 0
-10489 10542 0
-10490 10543 0
-10491 10544 0
-10492 10545 0
-10493 10546 0
-10494 10547 0
-10495 10548 0
-10496 10549 0
-10497 10550 0
-10498 10551 0
-10499 10552 0
-10500 10553 0
-10501 10554 0
-10502 10555 0
-10503 10556 0
-10504 10557 0
-10505 10558 0
-10506 10559 0
-10507 10560 0
-10508 10561 0
-10509 10562 0
-10510 10563 0
-10511 10564 0
-10512 10565 0
-10513 10566 0
-1112 -10461 10515 0
-1112 -10462 10516 0
-1112 -10463 10517 0
-1112 -10464 10518 0
-1112 -10465 10519 0
-1112 -10466 10520 0
-1112 -10467 10521 0
-1112 -10468 10522 0
-1112 -10469 10523 0
-1112 -10470 10524 0
-1112 -10471 10525 0
-1112 -10472 10526 0
-1112 -10473 10527 0
-1112 -10474 10528 0
-1112 -10475 10529 0
-1112 -10476 10530 0
-1112 -10477 10531 0
-1112 -10478 10532 0
-1112 -10479 10533 0
-1112 -10480 10534 0
-1112 -10481 10535 0
-1112 -10482 10536 0
-1112 -10483 10537 0
-1112 -10484 10538 0
-1112 -10485 10539 0
-1112 -10486 10540 0
-1112 -10487 10541 0
-1112 -10488 10542 0
-1112 -10489 10543 0
-1112 -10490 10544 0
-1112 -10491 10545 0
-1112 -10492 10546 0
-1112 -10493 10547 0
-1112 -10494 10548 0
-1112 -10495 10549 0
-1112 -10496 10550 0
-1112 -10497 10551 0
-1112 -10498 10552 0
-1112 -10499 10553 0
-1112 -10500 10554 0
-1112 -10501 10555 0
-1112 -10502 10556 0
-1112 -10503 10557 0
-1112 -10504 10558 0
-1112 -10505 10559 0
-1112 -10506 10560 0
-1112 -10507 10561 0
-1112 -10508 10562 0
-1112 -10509 10563 0
-1112 -10510 10564 0
-1112 -10511 10565 0
-1112 -10512 10566 0
-1112 -10513 0
-10514 10567 0
-10515 10568 0
-10516 10569 0
-10517 10570 0
-10518 10571 0
-10519 10572 0
-10520 10573 0
-10521 10574 0
-10522 10575 0
-10523 10576 0
-10524 10577 0
-10525 10578 0
-10526 10579 0
-10527 10580 0
-10528 10581 0
-10529 10582 0
-10530 10583 0
-10531 10584 0
-10532 10585 0
-10533 10586 0
-10534 10587 0
-10535 10588 0
-10536 10589 0
-10537 10590 0
-10538 10591 0
-10539 10592 0
-10540 10593 0
-10541 10594 0
-10542 10595 0
-10543 10596 0
-10544 10597 0
-10545 10598 0
-10546 10599 0
-10547 10600 0
-10548 10601 0
-10549 10602 0
-10550 10603 0
-10551 10604 0
-10552 10605 0
-10553 10606 0
-10554 10607 0
-10555 10608 0
-10556 10609 0
-10557 10610 0
-10558 10611 0
-10559 10612 0
-10560 10613 0
-10561 10614 0
-10562 10615 0
-10563 10616 0
-10564 10617 0
-10565 10618 0
-10566 10619 0
-1114 -10514 10568 0
-1114 -10515 10569 0
-1114 -10516 10570 0
-1114 -10517 10571 0
-1114 -10518 10572 0
-1114 -10519 10573 0
-1114 -10520 10574 0
-1114 -10521 10575 0
-1114 -10522 10576 0
-1114 -10523 10577 0
-1114 -10524 10578 0
-1114 -10525 10579 0
-1114 -10526 10580 0
-1114 -10527 10581 0
-1114 -10528 10582 0
-1114 -10529 10583 0
-1114 -10530 10584 0
-1114 -10531 10585 0
-1114 -10532 10586 0
-1114 -10533 10587 0
-1114 -10534 10588 0
-1114 -10535 10589 0
-1114 -10536 10590 0
-1114 -10537 10591 0
-1114 -10538 10592 0
-1114 -10539 10593 0
-1114 -10540 10594 0
-1114 -10541 10595 0
-1114 -10542 10596 0
-1114 -10543 10597 0
-1114 -10544 10598 0
-1114 -10545 10599 0
-1114 -10546 10600 0
-1114 -10547 10601 0
-1114 -10548 10602 0
-1114 -10549 10603 0
-1114 -10550 10604 0
-1114 -10551 10605 0
-1114 -10552 10606 0
-1114 -10553 10607 0
-1114 -10554 10608 0
-1114 -10555 10609 0
-1114 -10556 10610 0
-1114 -10557 10611 0
-1114 -10558 10612 0
-1114 -10559 10613 0
-1114 -10560 10614 0
-1114 -10561 10615 0
-1114 -10562 10616 0
-1114 -10563 10617 0
-1114 -10564 10618 0
-1114 -10565 10619 0
-1114 -10566 0
-10567 10620 0
-10568 10621 0
-10569 10622 0
-10570 10623 0
-10571 10624 0
-10572 10625 0
-10573 10626 0
-10574 10627 0
-10575 10628 0
-10576 10629 0
-10577 10630 0
-10578 10631 0
-10579 10632 0
-10580 10633 0
-10581 10634 0
-10582 10635 0
-10583 10636 0
-10584 10637 0
-10585 10638 0
-10586 10639 0
-10587 10640 0
-10588 10641 0
-10589 10642 0
-10590 10643 0
-10591 10644 0
-10592 10645 0
-10593 10646 0
-10594 10647 0
-10595 10648 0
-10596 10649 0
-10597 10650 0
-10598 10651 0
-10599 10652 0
-10600 10653 0
-10601 10654 0
-10602 10655 0
-10603 10656 0
-10604 10657 0
-10605 10658 0
-10606 10659 0
-10607 10660 0
-10608 10661 0
-10609 10662 0
-10610 10663 0
-10611 10664 0
-10612 10665 0
-10613 10666 0
-10614 10667 0
-10615 10668 0
-10616 10669 0
-10617 10670 0
-10618 10671 0
-10619 10672 0
-1116 -10567 10621 0
-1116 -10568 10622 0
-1116 -10569 10623 0
-1116 -10570 10624 0
-1116 -10571 10625 0
-1116 -10572 10626 0
-1116 -10573 10627 0
-1116 -10574 10628 0
-1116 -10575 10629 0
-1116 -10576 10630 0
-1116 -10577 10631 0
-1116 -10578 10632 0
-1116 -10579 10633 0
-1116 -10580 10634 0
-1116 -10581 10635 0
-1116 -10582 10636 0
-1116 -10583 10637 0
-1116 -10584 10638 0
-1116 -10585 10639 0
-1116 -10586 10640 0
-1116 -10587 10641 0
-1116 -10588 10642 0
-1116 -10589 10643 0
-1116 -10590 10644 0
-1116 -10591 10645 0
-1116 -10592 10646 0
-1116 -10593 10647 0
-1116 -10594 10648 0
-1116 -10595 10649 0
-1116 -10596 10650 0
-1116 -10597 10651 0
-1116 -10598 10652 0
-1116 -10599 10653 0
-1116 -10600 10654 0
-1116 -10601 10655 0
-1116 -10602 10656 0
-1116 -10603 10657 0
-1116 -10604 10658 0
-1116 -10605 10659 0
-1116 -10606 10660 0
-1116 -10607 10661 0
-1116 -10608 10662 0
-1116 -10609 10663 0
-1116 -10610 10664 0
-1116 -10611 10665 0
-1116 -10612 10666 0
-1116 -10613 10667 0
-1116 -10614 10668 0
-1116 -10615 10669 0
-1116 -10616 10670 0
-1116 -10617 10671 0
-1116 -10618 10672 0
-1116 -10619 0
-10620 10673 0
-10621 10674 0
-10622 10675 0
-10623 10676 0
-10624 10677 0
-10625 10678 0
-10626 10679 0
-10627 10680 0
-10628 10681 0
-10629 10682 0
-10630 10683 0
-10631 10684 0
-10632 10685 0
-10633 10686 0
-10634 10687 0
-10635 10688 0
-10636 10689 0
-10637 10690 0
-10638 10691 0
-10639 10692 0
-10640 10693 0
-10641 10694 0
-10642 10695 0
-10643 10696 0
-10644 10697 0
-10645 10698 0
-10646 10699 0
-10647 10700 0
-10648 10701 0
-10649 10702 0
-10650 10703 0
-10651 10704 0
-10652 10705 0
-10653 10706 0
-10654 10707 0
-10655 10708 0
-10656 10709 0
-10657 10710 0
-10658 10711 0
-10659 10712 0
-10660 10713 0
-10661 10714 0
-10662 10715 0
-10663 10716 0
-10664 10717 0
-10665 10718 0
-10666 10719 0
-10667 10720 0
-10668 10721 0
-10669 10722 0
-10670 10723 0
-10671 10724 0
-10672 10725 0
-1118 -10620 10674 0
-1118 -10621 10675 0
-1118 -10622 10676 0
-1118 -10623 10677 0
-1118 -10624 10678 0
-1118 -10625 10679 0
-1118 -10626 10680 0
-1118 -10627 10681 0
-1118 -10628 10682 0
-1118 -10629 10683 0
-1118 -10630 10684 0
-1118 -10631 10685 0
-1118 -10632 10686 0
-1118 -10633 10687 0
-1118 -10634 10688 0
-1118 -10635 10689 0
-1118 -10636 10690 0
-1118 -10637 10691 0
-1118 -10638 10692 0
-1118 -10639 10693 0
-1118 -10640 10694 0
-1118 -10641 10695 0
-1118 -10642 10696 0
-1118 -10643 10697 0
-1118 -10644 10698 0
-1118 -10645 10699 0
-1118 -10646 10700 0
-1118 -10647 10701 0
-1118 -10648 10702 0
-1118 -10649 10703 0
-1118 -10650 10704 0
-1118 -10651 10705 0
-1118 -10652 10706 0
-1118 -10653 10707 0
-1118 -10654 10708 0
-1118 -10655 10709 0
-1118 -10656 10710 0
-1118 -10657 10711 0
-1118 -10658 10712 0
-1118 -10659 10713 0
-1118 -10660 10714 0
-1118 -10661 10715 0
-1118 -10662 10716 0
-1118 -10663 10717 0
-1118 -10664 10718 0
-1118 -10665 10719 0
-1118 -10666 10720 0
-1118 -10667 10721 0
-1118 -10668 10722 0
-1118 -10669 10723 0
-1118 -10670 10724 0
-1118 -10671 10725 0
-1118 -10672 0
-10673 10726 0
-10674 10727 0
-10675 10728 0
-10676 10729 0
-10677 10730 0
-10678 10731 0
-10679 10732 0
-10680 10733 0
-10681 10734 0
-10682 10735 0
-10683 10736 0
-10684 10737 0
-10685 10738 0
-10686 10739 0
-10687 10740 0
-10688 10741 0
-10689 10742 0
-10690 10743 0
-10691 10744 0
-10692 10745 0
-10693 10746 0
-10694 10747 0
-10695 10748 0
-10696 10749 0
-10697 10750 0
-10698 10751 0
-10699 10752 0
-10700 10753 0
-10701 10754 0
-10702 10755 0
-10703 10756 0
-10704 10757 0
-10705 10758 0
-10706 10759 0
-10707 10760 0
-10708 10761 0
-10709 10762 0
-10710 10763 0
-10711 10764 0
-10712 10765 0
-10713 10766 0
-10714 10767 0
-10715 10768 0
-10716 10769 0
-10717 10770 0
-10718 10771 0
-10719 10772 0
-10720 10773 0
-10721 10774 0
-10722 10775 0
-10723 10776 0
-10724 10777 0
-10725 10778 0
-1120 -10673 10727 0
-1120 -10674 10728 0
-1120 -10675 10729 0
-1120 -10676 10730 0
-1120 -10677 10731 0
-1120 -10678 10732 0
-1120 -10679 10733 0
-1120 -10680 10734 0
-1120 -10681 10735 0
-1120 -10682 10736 0
-1120 -10683 10737 0
-1120 -10684 10738 0
-1120 -10685 10739 0
-1120 -10686 10740 0
-1120 -10687 10741 0
-1120 -10688 10742 0
-1120 -10689 10743 0
-1120 -10690 10744 0
-1120 -10691 10745 0
-1120 -10692 10746 0
-1120 -10693 10747 0
-1120 -10694 10748 0
-1120 -10695 10749 0
-1120 -10696 10750 0
-1120 -10697 10751 0
-1120 -10698 10752 0
-1120 -10699 10753 0
-1120 -10700 10754 0
-1120 -10701 10755 0
-1120 -10702 10756 0
-1120 -10703 10757 0
-1120 -10704 10758 0
-1120 -10705 10759 0
-1120 -10706 10760 0
-1120 -10707 10761 0
-1120 -10708 10762 0
-1120 -10709 10763 0
-1120 -10710 10764 0
-1120 -10711 10765 0
-1120 -10712 10766 0
-1120 -10713 10767 0
-1120 -10714 10768 0
-1120 -10715 10769 0
-1120 -10716 10770 0
-1120 -10717 10771 0
-1120 -10718 10772 0
-1120 -10719 10773 0
-1120 -10720 10774 0
-1120 -10721 10775 0
-1120 -10722 10776 0
-1120 -10723 10777 0
-1120 -10724 10778 0
-1120 -10725 0
-10726 10779 0
-10727 10780 0
-10728 10781 0
-10729 10782 0
-10730 10783 0
-10731 10784 0
-10732 10785 0
-10733 10786 0
-10734 10787 0
-10735 10788 0
-10736 10789 0
-10737 10790 0
-10738 10791 0
-10739 10792 0
-10740 10793 0
-10741 10794 0
-10742 10795 0
-10743 10796 0
-10744 10797 0
-10745 10798 0
-10746 10799 0
-10747 10800 0
-10748 10801 0
-10749 10802 0
-10750 10803 0
-10751 10804 0
-10752 10805 0
-10753 10806 0
-10754 10807 0
-10755 10808 0
-10756 10809 0
-10757 10810 0
-10758 10811 0
-10759 10812 0
-10760 10813 0
-10761 10814 0
-10762 10815 0
-10763 10816 0
-10764 10817 0
-10765 10818 0
-10766 10819 0
-10767 10820 0
-10768 10821 0
-10769 10822 0
-10770 10823 0
-10771 10824 0
-10772 10825 0
-10773 10826 0
-10774 10827 0
-10775 10828 0
-10776 10829 0
-10777 10830 0
-10778 10831 0
-1122 -10726 10780 0
-1122 -10727 10781 0
-1122 -10728 10782 0
-1122 -10729 10783 0
-1122 -10730 10784 0
-1122 -10731 10785 0
-1122 -10732 10786 0
-1122 -10733 10787 0
-1122 -10734 10788 0
-1122 -10735 10789 0
-1122 -10736 10790 0
-1122 -10737 10791 0
-1122 -10738 10792 0
-1122 -10739 10793 0
-1122 -10740 10794 0
-1122 -10741 10795 0
-1122 -10742 10796 0
-1122 -10743 10797 0
-1122 -10744 10798 0
-1122 -10745 10799 0
-1122 -10746 10800 0
-1122 -10747 10801 0
-1122 -10748 10802 0
-1122 -10749 10803 0
-1122 -10750 10804 0
-1122 -10751 10805 0
-1122 -10752 10806 0
-1122 -10753 10807 0
-1122 -10754 10808 0
-1122 -10755 10809 0
-1122 -10756 10810 0
-1122 -10757 10811 0
-1122 -10758 10812 0
-1122 -10759 10813 0
-1122 -10760 10814 0
-1122 -10761 10815 0
-1122 -10762 10816 0
-1122 -10763 10817 0
-1122 -10764 10818 0
-1122 -10765 10819 0
-1122 -10766 10820 0
-1122 -10767 10821 0
-1122 -10768 10822 0
-1122 -10769 10823 0
-1122 -10770 10824 0
-1122 -10771 10825 0
-1122 -10772 10826 0
-1122 -10773 10827 0
-1122 -10774 10828 0
-1122 -10775 10829 0
-1122 -10776 10830 0
-1122 -10777 10831 0
-1122 -10778 0
-10779 10832 0
-10780 10833 0
-10781 10834 0
-10782 10835 0
-10783 10836 0
-10784 10837 0
-10785 10838 0
-10786 10839 0
-10787 10840 0
-10788 10841 0
-10789 10842 0
-10790 10843 0
-10791 10844 0
-10792 10845 0
-10793 10846 0
-10794 10847 0
-10795 10848 0
-10796 10849 0
-10797 10850 0
-10798 10851 0
-10799 10852 0
-10800 10853 0
-10801 10854 0
-10802 10855 0
-10803 10856 0
-10804 10857 0
-10805 10858 0
-10806 10859 0
-10807 10860 0
-10808 10861 0
-10809 10862 0
-10810 10863 0
-10811 10864 0
-10812 10865 0
-10813 10866 0
-10814 10867 0
-10815 10868 0
-10816 10869 0
-10817 10870 0
-10818 10871 0
-10819 10872 0
-10820 10873 0
-10821 10874 0
-10822 10875 0
-10823 10876 0
-10824 10877 0
-10825 10878 0
-10826 10879 0
-10827 10880 0
-10828 10881 0
-10829 10882 0
-10830 10883 0
-10831 10884 0
-1124 -10779 10833 0
-1124 -10780 10834 0
-1124 -10781 10835 0
-1124 -10782 10836 0
-1124 -10783 10837 0
-1124 -10784 10838 0
-1124 -10785 10839 0
-1124 -10786 10840 0
-1124 -10787 10841 0
-1124 -10788 10842 0
-1124 -10789 10843 0
-1124 -10790 10844 0
-1124 -10791 10845 0
-1124 -10792 10846 0
-1124 -10793 10847 0
-1124 -10794 10848 0
-1124 -10795 10849 0
-1124 -10796 10850 0
-1124 -10797 10851 0
-1124 -10798 10852 0
-1124 -10799 10853 0
-1124 -10800 10854 0
-1124 -10801 10855 0
-1124 -10802 10856 0
-1124 -10803 10857 0
-1124 -10804 10858 0
-1124 -10805 10859 0
-1124 -10806 10860 0
-1124 -10807 10861 0
-1124 -10808 10862 0
-1124 -10809 10863 0
-1124 -10810 10864 0
-1124 -10811 10865 0
-1124 -10812 10866 0
-1124 -10813 10867 0
-1124 -10814 10868 0
-1124 -10815 10869 0
-1124 -10816 10870 0
-1124 -10817 10871 0
-1124 -10818 10872 0
-1124 -10819 10873 0
-1124 -10820 10874 0
-1124 -10821 10875 0
-1124 -10822 10876 0
-1124 -10823 10877 0
-1124 -10824 10878 0
-1124 -10825 10879 0
-1124 -10826 10880 0
-1124 -10827 10881 0
-1124 -10828 10882 0
-1124 -10829 10883 0
-1124 -10830 10884 0
-1124 -10831 0
-10832 10885 0
-10833 10886 0
-10834 10887 0
-10835 10888 0
-10836 10889 0
-10837 10890 0
-10838 10891 0
-10839 10892 0
-10840 10893 0
-10841 10894 0
-10842 10895 0
-10843 10896 0
-10844 10897 0
-10845 10898 0
-10846 10899 0
-10847 10900 0
-10848 10901 0
-10849 10902 0
-10850 10903 0
-10851 10904 0
-10852 10905 0
-10853 10906 0
-10854 10907 0
-10855 10908 0
-10856 10909 0
-10857 10910 0
-10858 10911 0
-10859 10912 0
-10860 10913 0
-10861 10914 0
-10862 10915 0
-10863 10916 0
-10864 10917 0
-10865 10918 0
-10866 10919 0
-10867 10920 0
-10868 10921 0
-10869 10922 0
-10870 10923 0
-10871 10924 0
-10872 10925 0
-10873 10926 0
-10874 10927 0
-10875 10928 0
-10876 10929 0
-10877 10930 0
-10878 10931 0
-10879 10932 0
-10880 10933 0
-10881 10934 0
-10882 10935 0
-10883 10936 0
-10884 10937 0
-1126 -10832 10886 0
-1126 -10833 10887 0
-1126 -10834 10888 0
-1126 -10835 10889 0
-1126 -10836 10890 0
-1126 -10837 10891 0
-1126 -10838 10892 0
-1126 -10839 10893 0
-1126 -10840 10894 0
-1126 -10841 10895 0
-1126 -10842 10896 0
-1126 -10843 10897 0
-1126 -10844 10898 0
-1126 -10845 10899 0
-1126 -10846 10900 0
-1126 -10847 10901 0
-1126 -10848 10902 0
-1126 -10849 10903 0
-1126 -10850 10904 0
-1126 -10851 10905 0
-1126 -10852 10906 0
-1126 -10853 10907 0
-1126 -10854 10908 0
-1126 -10855 10909 0
-1126 -10856 10910 0
-1126 -10857 10911 0
-1126 -10858 10912 0
-1126 -10859 10913 0
-1126 -10860 10914 0
-1126 -10861 10915 0
-1126 -10862 10916 0
-1126 -10863 10917 0
-1126 -10864 10918 0
-1126 -10865 10919 0
-1126 -10866 10920 0
-1126 -10867 10921 0
-1126 -10868 10922 0
-1126 -10869 10923 0
-1126 -10870 10924 0
-1126 -10871 10925 0
-1126 -10872 10926 0
-1126 -10873 10927 0
-1126 -10874 10928 0
-1126 -10875 10929 0
-1126 -10876 10930 0
-1126 -10877 10931 0
-1126 -10878 10932 0
-1126 -10879 10933 0
-1126 -10880 10934 0
-1126 -10881 10935 0
-1126 -10882 10936 0
-1126 -10883 10937 0
-1126 -10884 0
-10885 10938 0
-10886 10939 0
-10887 10940 0
-10888 10941 0
-10889 10942 0
-10890 10943 0
-10891 10944 0
-10892 10945 0
-10893 10946 0
-10894 10947 0
-10895 10948 0
-10896 10949 0
-10897 10950 0
-10898 10951 0
-10899 10952 0
-10900 10953 0
-10901 10954 0
-10902 10955 0
-10903 10956 0
-10904 10957 0
-10905 10958 0
-10906 10959 0
-10907 10960 0
-10908 10961 0
-10909 10962 0
-10910 10963 0
-10911 10964 0
-10912 10965 0
-10913 10966 0
-10914 10967 0
-10915 10968 0
-10916 10969 0
-10917 10970 0
-10918 10971 0
-10919 10972 0
-10920 10973 0
-10921 10974 0
-10922 10975 0
-10923 10976 0
-10924 10977 0
-10925 10978 0
-10926 10979 0
-10927 10980 0
-10928 10981 0
-10929 10982 0
-10930 10983 0
-10931 10984 0
-10932 10985 0
-10933 10986 0
-10934 10987 0
-10935 10988 0
-10936 10989 0
-10937 10990 0
-1128 -10885 10939 0
-1128 -10886 10940 0
-1128 -10887 10941 0
-1128 -10888 10942 0
-1128 -10889 10943 0
-1128 -10890 10944 0
-1128 -10891 10945 0
-1128 -10892 10946 0
-1128 -10893 10947 0
-1128 -10894 10948 0
-1128 -10895 10949 0
-1128 -10896 10950 0
-1128 -10897 10951 0
-1128 -10898 10952 0
-1128 -10899 10953 0
-1128 -10900 10954 0
-1128 -10901 10955 0
-1128 -10902 10956 0
-1128 -10903 10957 0
-1128 -10904 10958 0
-1128 -10905 10959 0
-1128 -10906 10960 0
-1128 -10907 10961 0
-1128 -10908 10962 0
-1128 -10909 10963 0
-1128 -10910 10964 0
-1128 -10911 10965 0
-1128 -10912 10966 0
-1128 -10913 10967 0
-1128 -10914 10968 0
-1128 -10915 10969 0
-1128 -10916 10970 0
-1128 -10917 10971 0
-1128 -10918 10972 0
-1128 -10919 10973 0
-1128 -10920 10974 0
-1128 -10921 10975 0
-1128 -10922 10976 0
-1128 -10923 10977 0
-1128 -10924 10978 0
-1128 -10925 10979 0
-1128 -10926 10980 0
-1128 -10927 10981 0
-1128 -10928 10982 0
-1128 -10929 10983 0
-1128 -10930 10984 0
-1128 -10931 10985 0
-1128 -10932 10986 0
-1128 -10933 10987 0
-1128 -10934 10988 0
-1128 -10935 10989 0
-1128 -10936 10990 0
-1128 -10937 0
-10938 10991 0
-10939 10992 0
-10940 10993 0
-10941 10994 0
-10942 10995 0
-10943 10996 0
-10944 10997 0
-10945 10998 0
-10946 10999 0
-10947 11000 0
-10948 11001 0
-10949 11002 0
-10950 11003 0
-10951 11004 0
-10952 11005 0
-10953 11006 0
-10954 11007 0
-10955 11008 0
-10956 11009 0
-10957 11010 0
-10958 11011 0
-10959 11012 0
-10960 11013 0
-10961 11014 0
-10962 11015 0
-10963 11016 0
-10964 11017 0
-10965 11018 0
-10966 11019 0
-10967 11020 0
-10968 11021 0
-10969 11022 0
-10970 11023 0
-10971 11024 0
-10972 11025 0
-10973 11026 0
-10974 11027 0
-10975 11028 0
-10976 11029 0
-10977 11030 0
-10978 11031 0
-10979 11032 0
-10980 11033 0
-10981 11034 0
-10982 11035 0
-10983 11036 0
-10984 11037 0
-10985 11038 0
-10986 11039 0
-10987 11040 0
-10988 11041 0
-10989 11042 0
-10990 11043 0
-1130 -10938 10992 0
-1130 -10939 10993 0
-1130 -10940 10994 0
-1130 -10941 10995 0
-1130 -10942 10996 0
-1130 -10943 10997 0
-1130 -10944 10998 0
-1130 -10945 10999 0
-1130 -10946 11000 0
-1130 -10947 11001 0
-1130 -10948 11002 0
-1130 -10949 11003 0
-1130 -10950 11004 0
-1130 -10951 11005 0
-1130 -10952 11006 0
-1130 -10953 11007 0
-1130 -10954 11008 0
-1130 -10955 11009 0
-1130 -10956 11010 0
-1130 -10957 11011 0
-1130 -10958 11012 0
-1130 -10959 11013 0
-1130 -10960 11014 0
-1130 -10961 11015 0
-1130 -10962 11016 0
-1130 -10963 11017 0
-1130 -10964 11018 0
-1130 -10965 11019 0
-1130 -10966 11020 0
-1130 -10967 11021 0
-1130 -10968 11022 0
-1130 -10969 11023 0
-1130 -10970 11024 0
-1130 -10971 11025 0
-1130 -10972 11026 0
-1130 -10973 11027 0
-1130 -10974 11028 0
-1130 -10975 11029 0
-1130 -10976 11030 0
-1130 -10977 11031 0
-1130 -10978 11032 0
-1130 -10979 11033 0
-1130 -10980 11034 0
-1130 -10981 11035 0
-1130 -10982 11036 0
-1130 -10983 11037 0
-1130 -10984 11038 0
-1130 -10985 11039 0
-1130 -10986 11040 0
-1130 -10987 11041 0
-1130 -10988 11042 0
-1130 -10989 11043 0
-1130 -10990 0
-10991 11044 0
-10992 11045 0
-10993 11046 0
-10994 11047 0
-10995 11048 0
-10996 11049 0
-10997 11050 0
-10998 11051 0
-10999 11052 0
-11000 11053 0
-11001 11054 0
-11002 11055 0
-11003 11056 0
-11004 11057 0
-11005 11058 0
-11006 11059 0
-11007 11060 0
-11008 11061 0
-11009 11062 0
-11010 11063 0
-11011 11064 0
-11012 11065 0
-11013 11066 0
-11014 11067 0
-11015 11068 0
-11016 11069 0
-11017 11070 0
-11018 11071 0
-11019 11072 0
-11020 11073 0
-11021 11074 0
-11022 11075 0
-11023 11076 0
-11024 11077 0
-11025 11078 0
-11026 11079 0
-11027 11080 0
-11028 11081 0
-11029 11082 0
-11030 11083 0
-11031 11084 0
-11032 11085 0
-11033 11086 0
-11034 11087 0
-11035 11088 0
-11036 11089 0
-11037 11090 0
-11038 11091 0
-11039 11092 0
-11040 11093 0
-11041 11094 0
-11042 11095 0
-11043 11096 0
-1132 -10991 11045 0
-1132 -10992 11046 0
-1132 -10993 11047 0
-1132 -10994 11048 0
-1132 -10995 11049 0
-1132 -10996 11050 0
-1132 -10997 11051 0
-1132 -10998 11052 0
-1132 -10999 11053 0
-1132 -11000 11054 0
-1132 -11001 11055 0
-1132 -11002 11056 0
-1132 -11003 11057 0
-1132 -11004 11058 0
-1132 -11005 11059 0
-1132 -11006 11060 0
-1132 -11007 11061 0
-1132 -11008 11062 0
-1132 -11009 11063 0
-1132 -11010 11064 0
-1132 -11011 11065 0
-1132 -11012 11066 0
-1132 -11013 11067 0
-1132 -11014 11068 0
-1132 -11015 11069 0
-1132 -11016 11070 0
-1132 -11017 11071 0
-1132 -11018 11072 0
-1132 -11019 11073 0
-1132 -11020 11074 0
-1132 -11021 11075 0
-1132 -11022 11076 0
-1132 -11023 11077 0
-1132 -11024 11078 0
-1132 -11025 11079 0
-1132 -11026 11080 0
-1132 -11027 11081 0
-1132 -11028 11082 0
-1132 -11029 11083 0
-1132 -11030 11084 0
-1132 -11031 11085 0
-1132 -11032 11086 0
-1132 -11033 11087 0
-1132 -11034 11088 0
-1132 -11035 11089 0
-1132 -11036 11090 0
-1132 -11037 11091 0
-1132 -11038 11092 0
-1132 -11039 11093 0
-1132 -11040 11094 0
-1132 -11041 11095 0
-1132 -11042 11096 0
-1132 -11043 0
-11044 11097 0
-11045 11098 0
-11046 11099 0
-11047 11100 0
-11048 11101 0
-11049 11102 0
-11050 11103 0
-11051 11104 0
-11052 11105 0
-11053 11106 0
-11054 11107 0
-11055 11108 0
-11056 11109 0
-11057 11110 0
-11058 11111 0
-11059 11112 0
-11060 11113 0
-11061 11114 0
-11062 11115 0
-11063 11116 0
-11064 11117 0
-11065 11118 0
-11066 11119 0
-11067 11120 0
-11068 11121 0
-11069 11122 0
-11070 11123 0
-11071 11124 0
-11072 11125 0
-11073 11126 0
-11074 11127 0
-11075 11128 0
-11076 11129 0
-11077 11130 0
-11078 11131 0
-11079 11132 0
-11080 11133 0
-11081 11134 0
-11082 11135 0
-11083 11136 0
-11084 11137 0
-11085 11138 0
-11086 11139 0
-11087 11140 0
-11088 11141 0
-11089 11142 0
-11090 11143 0
-11091 11144 0
-11092 11145 0
-11093 11146 0
-11094 11147 0
-11095 11148 0
-11096 11149 0
-1134 -11044 11098 0
-1134 -11045 11099 0
-1134 -11046 11100 0
-1134 -11047 11101 0
-1134 -11048 11102 0
-1134 -11049 11103 0
-1134 -11050 11104 0
-1134 -11051 11105 0
-1134 -11052 11106 0
-1134 -11053 11107 0
-1134 -11054 11108 0
-1134 -11055 11109 0
-1134 -11056 11110 0
-1134 -11057 11111 0
-1134 -11058 11112 0
-1134 -11059 11113 0
-1134 -11060 11114 0
-1134 -11061 11115 0
-1134 -11062 11116 0
-1134 -11063 11117 0
-1134 -11064 11118 0
-1134 -11065 11119 0
-1134 -11066 11120 0
-1134 -11067 11121 0
-1134 -11068 11122 0
-1134 -11069 11123 0
-1134 -11070 11124 0
-1134 -11071 11125 0
-1134 -11072 11126 0
-1134 -11073 11127 0
-1134 -11074 11128 0
-1134 -11075 11129 0
-1134 -11076 11130 0
-1134 -11077 11131 0
-1134 -11078 11132 0
-1134 -11079 11133 0
-1134 -11080 11134 0
-1134 -11081 11135 0
-1134 -11082 11136 0
-1134 -11083 11137 0
-1134 -11084 11138 0
-1134 -11085 11139 0
-1134 -11086 11140 0
-1134 -11087 11141 0
-1134 -11088 11142 0
-1134 -11089 11143 0
-1134 -11090 11144 0
-1134 -11091 11145 0
-1134 -11092 11146 0
-1134 -11093 11147 0
-1134 -11094 11148 0
-1134 -11095 11149 0
-1134 -11096 0
-11097 11150 0
-11098 11151 0
-11099 11152 0
-11100 11153 0
-11101 11154 0
-11102 11155 0
-11103 11156 0
-11104 11157 0
-11105 11158 0
-11106 11159 0
-11107 11160 0
-11108 11161 0
-11109 11162 0
-11110 11163 0
-11111 11164 0
-11112 11165 0
-11113 11166 0
-11114 11167 0
-11115 11168 0
-11116 11169 0
-11117 11170 0
-11118 11171 0
-11119 11172 0
-11120 11173 0
-11121 11174 0
-11122 11175 0
-11123 11176 0
-11124 11177 0
-11125 11178 0
-11126 11179 0
-11127 11180 0
-11128 11181 0
-11129 11182 0
-11130 11183 0
-11131 11184 0
-11132 11185 0
-11133 11186 0
-11134 11187 0
-11135 11188 0
-11136 11189 0
-11137 11190 0
-11138 11191 0
-11139 11192 0
-11140 11193 0
-11141 11194 0
-11142 11195 0
-11143 11196 0
-11144 11197 0
-11145 11198 0
-11146 11199 0
-11147 11200 0
-11148 11201 0
-11149 11202 0
-1136 -11097 11151 0
-1136 -11098 11152 0
-1136 -11099 11153 0
-1136 -11100 11154 0
-1136 -11101 11155 0
-1136 -11102 11156 0
-1136 -11103 11157 0
-1136 -11104 11158 0
-1136 -11105 11159 0
-1136 -11106 11160 0
-1136 -11107 11161 0
-1136 -11108 11162 0
-1136 -11109 11163 0
-1136 -11110 11164 0
-1136 -11111 11165 0
-1136 -11112 11166 0
-1136 -11113 11167 0
-1136 -11114 11168 0
-1136 -11115 11169 0
-1136 -11116 11170 0
-1136 -11117 11171 0
-1136 -11118 11172 0
-1136 -11119 11173 0
-1136 -11120 11174 0
-1136 -11121 11175 0
-1136 -11122 11176 0
-1136 -11123 11177 0
-1136 -11124 11178 0
-1136 -11125 11179 0
-1136 -11126 11180 0
-1136 -11127 11181 0
-1136 -11128 11182 0
-1136 -11129 11183 0
-1136 -11130 11184 0
-1136 -11131 11185 0
-1136 -11132 11186 0
-1136 -11133 11187 0
-1136 -11134 11188 0
-1136 -11135 11189 0
-1136 -11136 11190 0
-1136 -11137 11191 0
-1136 -11138 11192 0
-1136 -11139 11193 0
-1136 -11140 11194 0
-1136 -11141 11195 0
-1136 -11142 11196 0
-1136 -11143 11197 0
-1136 -11144 11198 0
-1136 -11145 11199 0
-1136 -11146 11200 0
-1136 -11147 11201 0
-1136 -11148 11202 0
-1136 -11149 0
-11150 11203 0
-11151 11204 0
-11152 11205 0
-11153 11206 0
-11154 11207 0
-11155 11208 0
-11156 11209 0
-11157 11210 0
-11158 11211 0
-11159 11212 0
-11160 11213 0
-11161 11214 0
-11162 11215 0
-11163 11216 0
-11164 11217 0
-11165 11218 0
-11166 11219 0
-11167 11220 0
-11168 11221 0
-11169 11222 0
-11170 11223 0
-11171 11224 0
-11172 11225 0
-11173 11226 0
-11174 11227 0
-11175 11228 0
-11176 11229 0
-11177 11230 0
-11178 11231 0
-11179 11232 0
-11180 11233 0
-11181 11234 0
-11182 11235 0
-11183 11236 0
-11184 11237 0
-11185 11238 0
-11186 11239 0
-11187 11240 0
-11188 11241 0
-11189 11242 0
-11190 11243 0
-11191 11244 0
-11192 11245 0
-11193 11246 0
-11194 11247 0
-11195 11248 0
-11196 11249 0
-11197 11250 0
-11198 11251 0
-11199 11252 0
-11200 11253 0
-11201 11254 0
-11202 11255 0
-1138 -11150 11204 0
-1138 -11151 11205 0
-1138 -11152 11206 0
-1138 -11153 11207 0
-1138 -11154 11208 0
-1138 -11155 11209 0
-1138 -11156 11210 0
-1138 -11157 11211 0
-1138 -11158 11212 0
-1138 -11159 11213 0
-1138 -11160 11214 0
-1138 -11161 11215 0
-1138 -11162 11216 0
-1138 -11163 11217 0
-1138 -11164 11218 0
-1138 -11165 11219 0
-1138 -11166 11220 0
-1138 -11167 11221 0
-1138 -11168 11222 0
-1138 -11169 11223 0
-1138 -11170 11224 0
-1138 -11171 11225 0
-1138 -11172 11226 0
-1138 -11173 11227 0
-1138 -11174 11228 0
-1138 -11175 11229 0
-1138 -11176 11230 0
-1138 -11177 11231 0
-1138 -11178 11232 0
-1138 -11179 11233 0
-1138 -11180 11234 0
-1138 -11181 11235 0
-1138 -11182 11236 0
-1138 -11183 11237 0
-1138 -11184 11238 0
-1138 -11185 11239 0
-1138 -11186 11240 0
-1138 -11187 11241 0
-1138 -11188 11242 0
-1138 -11189 11243 0
-1138 -11190 11244 0
-1138 -11191 11245 0
-1138 -11192 11246 0
-1138 -11193 11247 0
-1138 -11194 11248 0
-1138 -11195 11249 0
-1138 -11196 11250 0
-1138 -11197 11251 0
-1138 -11198 11252 0
-1138 -11199 11253 0
-1138 -11200 11254 0
-1138 -11201 11255 0
-1138 -11202 0
-11203 11256 0
-11204 11257 0
-11205 11258 0
-11206 11259 0
-11207 11260 0
-11208 11261 0
-11209 11262 0
-11210 11263 0
-11211 11264 0
-11212 11265 0
-11213 11266 0
-11214 11267 0
-11215 11268 0
-11216 11269 0
-11217 11270 0
-11218 11271 0
-11219 11272 0
-11220 11273 0
-11221 11274 0
-11222 11275 0
-11223 11276 0
-11224 11277 0
-11225 11278 0
-11226 11279 0
-11227 11280 0
-11228 11281 0
-11229 11282 0
-11230 11283 0
-11231 11284 0
-11232 11285 0
-11233 11286 0
-11234 11287 0
-11235 11288 0
-11236 11289 0
-11237 11290 0
-11238 11291 0
-11239 11292 0
-11240 11293 0
-11241 11294 0
-11242 11295 0
-11243 11296 0
-11244 11297 0
-11245 11298 0
-11246 11299 0
-11247 11300 0
-11248 11301 0
-11249 11302 0
-11250 11303 0
-11251 11304 0
-11252 11305 0
-11253 11306 0
-11254 11307 0
-11255 11308 0
-1140 -11203 11257 0
-1140 -11204 11258 0
-1140 -11205 11259 0
-1140 -11206 11260 0
-1140 -11207 11261 0
-1140 -11208 11262 0
-1140 -11209 11263 0
-1140 -11210 11264 0
-1140 -11211 11265 0
-1140 -11212 11266 0
-1140 -11213 11267 0
-1140 -11214 11268 0
-1140 -11215 11269 0
-1140 -11216 11270 0
-1140 -11217 11271 0
-1140 -11218 11272 0
-1140 -11219 11273 0
-1140 -11220 11274 0
-1140 -11221 11275 0
-1140 -11222 11276 0
-1140 -11223 11277 0
-1140 -11224 11278 0
-1140 -11225 11279 0
-1140 -11226 11280 0
-1140 -11227 11281 0
-1140 -11228 11282 0
-1140 -11229 11283 0
-1140 -11230 11284 0
-1140 -11231 11285 0
-1140 -11232 11286 0
-1140 -11233 11287 0
-1140 -11234 11288 0
-1140 -11235 11289 0
-1140 -11236 11290 0
-1140 -11237 11291 0
-1140 -11238 11292 0
-1140 -11239 11293 0
-1140 -11240 11294 0
-1140 -11241 11295 0
-1140 -11242 11296 0
-1140 -11243 11297 0
-1140 -11244 11298 0
-1140 -11245 11299 0
-1140 -11246 11300 0
-1140 -11247 11301 0
-1140 -11248 11302 0
-1140 -11249 11303 0
-1140 -11250 11304 0
-1140 -11251 11305 0
-1140 -11252 11306 0
-1140 -11253 11307 0
-1140 -11254 11308 0
-1140 -11255 0
-11256 11309 0
-11257 11310 0
-11258 11311 0
-11259 11312 0
-11260 11313 0
-11261 11314 0
-11262 11315 0
-11263 11316 0
-11264 11317 0
-11265 11318 0
-11266 11319 0
-11267 11320 0
-11268 11321 0
-11269 11322 0
-11270 11323 0
-11271 11324 0
-11272 11325 0
-11273 11326 0
-11274 11327 0
-11275 11328 0
-11276 11329 0
-11277 11330 0
-11278 11331 0
-11279 11332 0
-11280 11333 0
-11281 11334 0
-11282 11335 0
-11283 11336 0
-11284 11337 0
-11285 11338 0
-11286 11339 0
-11287 11340 0
-11288 11341 0
-11289 11342 0
-11290 11343 0
-11291 11344 0
-11292 11345 0
-11293 11346 0
-11294 11347 0
-11295 11348 0
-11296 11349 0
-11297 11350 0
-11298 11351 0
-11299 11352 0
-11300 11353 0
-11301 11354 0
-11302 11355 0
-11303 11356 0
-11304 11357 0
-11305 11358 0
-11306 11359 0
-11307 11360 0
-11308 11361 0
-1142 -11256 11310 0
-1142 -11257 11311 0
-1142 -11258 11312 0
-1142 -11259 11313 0
-1142 -11260 11314 0
-1142 -11261 11315 0
-1142 -11262 11316 0
-1142 -11263 11317 0
-1142 -11264 11318 0
-1142 -11265 11319 0
-1142 -11266 11320 0
-1142 -11267 11321 0
-1142 -11268 11322 0
-1142 -11269 11323 0
-1142 -11270 11324 0
-1142 -11271 11325 0
-1142 -11272 11326 0
-1142 -11273 11327 0
-1142 -11274 11328 0
-1142 -11275 11329 0
-1142 -11276 11330 0
-1142 -11277 11331 0
-1142 -11278 11332 0
-1142 -11279 11333 0
-1142 -11280 11334 0
-1142 -11281 11335 0
-1142 -11282 11336 0
-1142 -11283 11337 0
-1142 -11284 11338 0
-1142 -11285 11339 0
-1142 -11286 11340 0
-1142 -11287 11341 0
-1142 -11288 11342 0
-1142 -11289 11343 0
-1142 -11290 11344 0
-1142 -11291 11345 0
-1142 -11292 11346 0
-1142 -11293 11347 0
-1142 -11294 11348 0
-1142 -11295 11349 0
-1142 -11296 11350 0
-1142 -11297 11351 0
-1142 -11298 11352 0
-1142 -11299 11353 0
-1142 -11300 11354 0
-1142 -11301 11355 0
-1142 -11302 11356 0
-1142 -11303 11357 0
-1142 -11304 11358 0
-1142 -11305 11359 0
-1142 -11306 11360 0
-1142 -11307 11361 0
-1142 -11308 0
-11309 11362 0
-11310 11363 0
-11311 11364 0
-11312 11365 0
-11313 11366 0
-11314 11367 0
-11315 11368 0
-11316 11369 0
-11317 11370 0
-11318 11371 0
-11319 11372 0
-11320 11373 0
-11321 11374 0
-11322 11375 0
-11323 11376 0
-11324 11377 0
-11325 11378 0
-11326 11379 0
-11327 11380 0
-11328 11381 0
-11329 11382 0
-11330 11383 0
-11331 11384 0
-11332 11385 0
-11333 11386 0
-11334 11387 0
-11335 11388 0
-11336 11389 0
-11337 11390 0
-11338 11391 0
-11339 11392 0
-11340 11393 0
-11341 11394 0
-11342 11395 0
-11343 11396 0
-11344 11397 0
-11345 11398 0
-11346 11399 0
-11347 11400 0
-11348 11401 0
-11349 11402 0
-11350 11403 0
-11351 11404 0
-11352 11405 0
-11353 11406 0
-11354 11407 0
-11355 11408 0
-11356 11409 0
-11357 11410 0
-11358 11411 0
-11359 11412 0
-11360 11413 0
-11361 11414 0
-1144 -11309 11363 0
-1144 -11310 11364 0
-1144 -11311 11365 0
-1144 -11312 11366 0
-1144 -11313 11367 0
-1144 -11314 11368 0
-1144 -11315 11369 0
-1144 -11316 11370 0
-1144 -11317 11371 0
-1144 -11318 11372 0
-1144 -11319 11373 0
-1144 -11320 11374 0
-1144 -11321 11375 0
-1144 -11322 11376 0
-1144 -11323 11377 0
-1144 -11324 11378 0
-1144 -11325 11379 0
-1144 -11326 11380 0
-1144 -11327 11381 0
-1144 -11328 11382 0
-1144 -11329 11383 0
-1144 -11330 11384 0
-1144 -11331 11385 0
-1144 -11332 11386 0
-1144 -11333 11387 0
-1144 -11334 11388 0
-1144 -11335 11389 0
-1144 -11336 11390 0
-1144 -11337 11391 0
-1144 -11338 11392 0
-1144 -11339 11393 0
-1144 -11340 11394 0
-1144 -11341 11395 0
-1144 -11342 11396 0
-1144 -11343 11397 0
-1144 -11344 11398 0
-1144 -11345 11399 0
-1144 -11346 11400 0
-1144 -11347 11401 0
-1144 -11348 11402 0
-1144 -11349 11403 0
-1144 -11350 11404 0
-1144 -11351 11405 0
-1144 -11352 11406 0
-1144 -11353 11407 0
-1144 -11354 11408 0
-1144 -11355 11409 0
-1144 -11356 11410 0
-1144 -11357 11411 0
-1144 -11358 11412 0
-1144 -11359 11413 0
-1144 -11360 11414 0
-1144 -11361 0
-11362 11415 0
-11363 11416 0
-11364 11417 0
-11365 11418 0
-11366 11419 0
-11367 11420 0
-11368 11421 0
-11369 11422 0
-11370 11423 0
-11371 11424 0
-11372 11425 0
-11373 11426 0
-11374 11427 0
-11375 11428 0
-11376 11429 0
-11377 11430 0
-11378 11431 0
-11379 11432 0
-11380 11433 0
-11381 11434 0
-11382 11435 0
-11383 11436 0
-11384 11437 0
-11385 11438 0
-11386 11439 0
-11387 11440 0
-11388 11441 0
-11389 11442 0
-11390 11443 0
-11391 11444 0
-11392 11445 0
-11393 11446 0
-11394 11447 0
-11395 11448 0
-11396 11449 0
-11397 11450 0
-11398 11451 0
-11399 11452 0
-11400 11453 0
-11401 11454 0
-11402 11455 0
-11403 11456 0
-11404 11457 0
-11405 11458 0
-11406 11459 0
-11407 11460 0
-11408 11461 0
-11409 11462 0
-11410 11463 0
-11411 11464 0
-11412 11465 0
-11413 11466 0
-11414 11467 0
-1146 -11362 11416 0
-1146 -11363 11417 0
-1146 -11364 11418 0
-1146 -11365 11419 0
-1146 -11366 11420 0
-1146 -11367 11421 0
-1146 -11368 11422 0
-1146 -11369 11423 0
-1146 -11370 11424 0
-1146 -11371 11425 0
-1146 -11372 11426 0
-1146 -11373 11427 0
-1146 -11374 11428 0
-1146 -11375 11429 0
-1146 -11376 11430 0
-1146 -11377 11431 0
-1146 -11378 11432 0
-1146 -11379 11433 0
-1146 -11380 11434 0
-1146 -11381 11435 0
-1146 -11382 11436 0
-1146 -11383 11437 0
-1146 -11384 11438 0
-1146 -11385 11439 0
-1146 -11386 11440 0
-1146 -11387 11441 0
-1146 -11388 11442 0
-1146 -11389 11443 0
-1146 -11390 11444 0
-1146 -11391 11445 0
-1146 -11392 11446 0
-1146 -11393 11447 0
-1146 -11394 11448 0
-1146 -11395 11449 0
-1146 -11396 11450 0
-1146 -11397 11451 0
-1146 -11398 11452 0
-1146 -11399 11453 0
-1146 -11400 11454 0
-1146 -11401 11455 0
-1146 -11402 11456 0
-1146 -11403 11457 0
-1146 -11404 11458 0
-1146 -11405 11459 0
-1146 -11406 11460 0
-1146 -11407 11461 0
-1146 -11408 11462 0
-1146 -11409 11463 0
-1146 -11410 11464 0
-1146 -11411 11465 0
-1146 -11412 11466 0
-1146 -11413 11467 0
-1146 -11414 0
-11415 11468 0
-11416 11469 0
-11417 11470 0
-11418 11471 0
-11419 11472 0
-11420 11473 0
-11421 11474 0
-11422 11475 0
-11423 11476 0
-11424 11477 0
-11425 11478 0
-11426 11479 0
-11427 11480 0
-11428 11481 0
-11429 11482 0
-11430 11483 0
-11431 11484 0
-11432 11485 0
-11433 11486 0
-11434 11487 0
-11435 11488 0
-11436 11489 0
-11437 11490 0
-11438 11491 0
-11439 11492 0
-11440 11493 0
-11441 11494 0
-11442 11495 0
-11443 11496 0
-11444 11497 0
-11445 11498 0
-11446 11499 0
-11447 11500 0
-11448 11501 0
-11449 11502 0
-11450 11503 0
-11451 11504 0
-11452 11505 0
-11453 11506 0
-11454 11507 0
-11455 11508 0
-11456 11509 0
-11457 11510 0
-11458 11511 0
-11459 11512 0
-11460 11513 0
-11461 11514 0
-11462 11515 0
-11463 11516 0
-11464 11517 0
-11465 11518 0
-11466 11519 0
-11467 11520 0
-1148 -11415 11469 0
-1148 -11416 11470 0
-1148 -11417 11471 0
-1148 -11418 11472 0
-1148 -11419 11473 0
-1148 -11420 11474 0
-1148 -11421 11475 0
-1148 -11422 11476 0
-1148 -11423 11477 0
-1148 -11424 11478 0
-1148 -11425 11479 0
-1148 -11426 11480 0
-1148 -11427 11481 0
-1148 -11428 11482 0
-1148 -11429 11483 0
-1148 -11430 11484 0
-1148 -11431 11485 0
-1148 -11432 11486 0
-1148 -11433 11487 0
-1148 -11434 11488 0
-1148 -11435 11489 0
-1148 -11436 11490 0
-1148 -11437 11491 0
-1148 -11438 11492 0
-1148 -11439 11493 0
-1148 -11440 11494 0
-1148 -11441 11495 0
-1148 -11442 11496 0
-1148 -11443 11497 0
-1148 -11444 11498 0
-1148 -11445 11499 0
-1148 -11446 11500 0
-1148 -11447 11501 0
-1148 -11448 11502 0
-1148 -11449 11503 0
-1148 -11450 11504 0
-1148 -11451 11505 0
-1148 -11452 11506 0
-1148 -11453 11507 0
-1148 -11454 11508 0
-1148 -11455 11509 0
-1148 -11456 11510 0
-1148 -11457 11511 0
-1148 -11458 11512 0
-1148 -11459 11513 0
-1148 -11460 11514 0
-1148 -11461 11515 0
-1148 -11462 11516 0
-1148 -11463 11517 0
-1148 -11464 11518 0
-1148 -11465 11519 0
-1148 -11466 11520 0
-1148 -11467 0
-11468 11521 0
-11469 11522 0
-11470 11523 0
-11471 11524 0
-11472 11525 0
-11473 11526 0
-11474 11527 0
-11475 11528 0
-11476 11529 0
-11477 11530 0
-11478 11531 0
-11479 11532 0
-11480 11533 0
-11481 11534 0
-11482 11535 0
-11483 11536 0
-11484 11537 0
-11485 11538 0
-11486 11539 0
-11487 11540 0
-11488 11541 0
-11489 11542 0
-11490 11543 0
-11491 11544 0
-11492 11545 0
-11493 11546 0
-11494 11547 0
-11495 11548 0
-11496 11549 0
-11497 11550 0
-11498 11551 0
-11499 11552 0
-11500 11553 0
-11501 11554 0
-11502 11555 0
-11503 11556 0
-11504 11557 0
-11505 11558 0
-11506 11559 0
-11507 11560 0
-11508 11561 0
-11509 11562 0
-11510 11563 0
-11511 11564 0
-11512 11565 0
-11513 11566 0
-11514 11567 0
-11515 11568 0
-11516 11569 0
-11517 11570 0
-11518 11571 0
-11519 11572 0
-11520 11573 0
-1150 -11468 11522 0
-1150 -11469 11523 0
-1150 -11470 11524 0
-1150 -11471 11525 0
-1150 -11472 11526 0
-1150 -11473 11527 0
-1150 -11474 11528 0
-1150 -11475 11529 0
-1150 -11476 11530 0
-1150 -11477 11531 0
-1150 -11478 11532 0
-1150 -11479 11533 0
-1150 -11480 11534 0
-1150 -11481 11535 0
-1150 -11482 11536 0
-1150 -11483 11537 0
-1150 -11484 11538 0
-1150 -11485 11539 0
-1150 -11486 11540 0
-1150 -11487 11541 0
-1150 -11488 11542 0
-1150 -11489 11543 0
-1150 -11490 11544 0
-1150 -11491 11545 0
-1150 -11492 11546 0
-1150 -11493 11547 0
-1150 -11494 11548 0
-1150 -11495 11549 0
-1150 -11496 11550 0
-1150 -11497 11551 0
-1150 -11498 11552 0
-1150 -11499 11553 0
-1150 -11500 11554 0
-1150 -11501 11555 0
-1150 -11502 11556 0
-1150 -11503 11557 0
-1150 -11504 11558 0
-1150 -11505 11559 0
-1150 -11506 11560 0
-1150 -11507 11561 0
-1150 -11508 11562 0
-1150 -11509 11563 0
-1150 -11510 11564 0
-1150 -11511 11565 0
-1150 -11512 11566 0
-1150 -11513 11567 0
-1150 -11514 11568 0
-1150 -11515 11569 0
-1150 -11516 11570 0
-1150 -11517 11571 0
-1150 -11518 11572 0
-1150 -11519 11573 0
-1150 -11520 0
-11521 11574 0
-11522 11575 0
-11523 11576 0
-11524 11577 0
-11525 11578 0
-11526 11579 0
-11527 11580 0
-11528 11581 0
-11529 11582 0
-11530 11583 0
-11531 11584 0
-11532 11585 0
-11533 11586 0
-11534 11587 0
-11535 11588 0
-11536 11589 0
-11537 11590 0
-11538 11591 0
-11539 11592 0
-11540 11593 0
-11541 11594 0
-11542 11595 0
-11543 11596 0
-11544 11597 0
-11545 11598 0
-11546 11599 0
-11547 11600 0
-11548 11601 0
-11549 11602 0
-11550 11603 0
-11551 11604 0
-11552 11605 0
-11553 11606 0
-11554 11607 0
-11555 11608 0
-11556 11609 0
-11557 11610 0
-11558 11611 0
-11559 11612 0
-11560 11613 0
-11561 11614 0
-11562 11615 0
-11563 11616 0
-11564 11617 0
-11565 11618 0
-11566 11619 0
-11567 11620 0
-11568 11621 0
-11569 11622 0
-11570 11623 0
-11571 11624 0
-11572 11625 0
-11573 11626 0
-1152 -11521 11575 0
-1152 -11522 11576 0
-1152 -11523 11577 0
-1152 -11524 11578 0
-1152 -11525 11579 0
-1152 -11526 11580 0
-1152 -11527 11581 0
-1152 -11528 11582 0
-1152 -11529 11583 0
-1152 -11530 11584 0
-1152 -11531 11585 0
-1152 -11532 11586 0
-1152 -11533 11587 0
-1152 -11534 11588 0
-1152 -11535 11589 0
-1152 -11536 11590 0
-1152 -11537 11591 0
-1152 -11538 11592 0
-1152 -11539 11593 0
-1152 -11540 11594 0
-1152 -11541 11595 0
-1152 -11542 11596 0
-1152 -11543 11597 0
-1152 -11544 11598 0
-1152 -11545 11599 0
-1152 -11546 11600 0
-1152 -11547 11601 0
-1152 -11548 11602 0
-1152 -11549 11603 0
-1152 -11550 11604 0
-1152 -11551 11605 0
-1152 -11552 11606 0
-1152 -11553 11607 0
-1152 -11554 11608 0
-1152 -11555 11609 0
-1152 -11556 11610 0
-1152 -11557 11611 0
-1152 -11558 11612 0
-1152 -11559 11613 0
-1152 -11560 11614 0
-1152 -11561 11615 0
-1152 -11562 11616 0
-1152 -11563 11617 0
-1152 -11564 11618 0
-1152 -11565 11619 0
-1152 -11566 11620 0
-1152 -11567 11621 0
-1152 -11568 11622 0
-1152 -11569 11623 0
-1152 -11570 11624 0
-1152 -11571 11625 0
-1152 -11572 11626 0
-1152 -11573 0
-11574 11627 0
-11575 11628 0
-11576 11629 0
-11577 11630 0
-11578 11631 0
-11579 11632 0
-11580 11633 0
-11581 11634 0
-11582 11635 0
-11583 11636 0
-11584 11637 0
-11585 11638 0
-11586 11639 0
-11587 11640 0
-11588 11641 0
-11589 11642 0
-11590 11643 0
-11591 11644 0
-11592 11645 0
-11593 11646 0
-11594 11647 0
-11595 11648 0
-11596 11649 0
-11597 11650 0
-11598 11651 0
-11599 11652 0
-11600 11653 0
-11601 11654 0
-11602 11655 0
-11603 11656 0
-11604 11657 0
-11605 11658 0
-11606 11659 0
-11607 11660 0
-11608 11661 0
-11609 11662 0
-11610 11663 0
-11611 11664 0
-11612 11665 0
-11613 11666 0
-11614 11667 0
-11615 11668 0
-11616 11669 0
-11617 11670 0
-11618 11671 0
-11619 11672 0
-11620 11673 0
-11621 11674 0
-11622 11675 0
-11623 11676 0
-11624 11677 0
-11625 11678 0
-11626 11679 0
-1154 -11574 11628 0
-1154 -11575 11629 0
-1154 -11576 11630 0
-1154 -11577 11631 0
-1154 -11578 11632 0
-1154 -11579 11633 0
-1154 -11580 11634 0
-1154 -11581 11635 0
-1154 -11582 11636 0
-1154 -11583 11637 0
-1154 -11584 11638 0
-1154 -11585 11639 0
-1154 -11586 11640 0
-1154 -11587 11641 0
-1154 -11588 11642 0
-1154 -11589 11643 0
-1154 -11590 11644 0
-1154 -11591 11645 0
-1154 -11592 11646 0
-1154 -11593 11647 0
-1154 -11594 11648 0
-1154 -11595 11649 0
-1154 -11596 11650 0
-1154 -11597 11651 0
-1154 -11598 11652 0
-1154 -11599 11653 0
-1154 -11600 11654 0
-1154 -11601 11655 0
-1154 -11602 11656 0
-1154 -11603 11657 0
-1154 -11604 11658 0
-1154 -11605 11659 0
-1154 -11606 11660 0
-1154 -11607 11661 0
-1154 -11608 11662 0
-1154 -11609 11663 0
-1154 -11610 11664 0
-1154 -11611 11665 0
-1154 -11612 11666 0
-1154 -11613 11667 0
-1154 -11614 11668 0
-1154 -11615 11669 0
-1154 -11616 11670 0
-1154 -11617 11671 0
-1154 -11618 11672 0
-1154 -11619 11673 0
-1154 -11620 11674 0
-1154 -11621 11675 0
-1154 -11622 11676 0
-1154 -11623 11677 0
-1154 -11624 11678 0
-1154 -11625 11679 0
-1154 -11626 0
-11627 11680 0
-11628 11681 0
-11629 11682 0
-11630 11683 0
-11631 11684 0
-11632 11685 0
-11633 11686 0
-11634 11687 0
-11635 11688 0
-11636 11689 0
-11637 11690 0
-11638 11691 0
-11639 11692 0
-11640 11693 0
-11641 11694 0
-11642 11695 0
-11643 11696 0
-11644 11697 0
-11645 11698 0
-11646 11699 0
-11647 11700 0
-11648 11701 0
-11649 11702 0
-11650 11703 0
-11651 11704 0
-11652 11705 0
-11653 11706 0
-11654 11707 0
-11655 11708 0
-11656 11709 0
-11657 11710 0
-11658 11711 0
-11659 11712 0
-11660 11713 0
-11661 11714 0
-11662 11715 0
-11663 11716 0
-11664 11717 0
-11665 11718 0
-11666 11719 0
-11667 11720 0
-11668 11721 0
-11669 11722 0
-11670 11723 0
-11671 11724 0
-11672 11725 0
-11673 11726 0
-11674 11727 0
-11675 11728 0
-11676 11729 0
-11677 11730 0
-11678 11731 0
-11679 11732 0
-1156 -11627 11681 0
-1156 -11628 11682 0
-1156 -11629 11683 0
-1156 -11630 11684 0
-1156 -11631 11685 0
-1156 -11632 11686 0
-1156 -11633 11687 0
-1156 -11634 11688 0
-1156 -11635 11689 0
-1156 -11636 11690 0
-1156 -11637 11691 0
-1156 -11638 11692 0
-1156 -11639 11693 0
-1156 -11640 11694 0
-1156 -11641 11695 0
-1156 -11642 11696 0
-1156 -11643 11697 0
-1156 -11644 11698 0
-1156 -11645 11699 0
-1156 -11646 11700 0
-1156 -11647 11701 0
-1156 -11648 11702 0
-1156 -11649 11703 0
-1156 -11650 11704 0
-1156 -11651 11705 0
-1156 -11652 11706 0
-1156 -11653 11707 0
-1156 -11654 11708 0
-1156 -11655 11709 0
-1156 -11656 11710 0
-1156 -11657 11711 0
-1156 -11658 11712 0
-1156 -11659 11713 0
-1156 -11660 11714 0
-1156 -11661 11715 0
-1156 -11662 11716 0
-1156 -11663 11717 0
-1156 -11664 11718 0
-1156 -11665 11719 0
-1156 -11666 11720 0
-1156 -11667 11721 0
-1156 -11668 11722 0
-1156 -11669 11723 0
-1156 -11670 11724 0
-1156 -11671 11725 0
-1156 -11672 11726 0
-1156 -11673 11727 0
-1156 -11674 11728 0
-1156 -11675 11729 0
-1156 -11676 11730 0
-1156 -11677 11731 0
-1156 -11678 11732 0
-1156 -11679 0
-11680 11733 0
-11681 11734 0
-11682 11735 0
-11683 11736 0
-11684 11737 0
-11685 11738 0
-11686 11739 0
-11687 11740 0
-11688 11741 0
-11689 11742 0
-11690 11743 0
-11691 11744 0
-11692 11745 0
-11693 11746 0
-11694 11747 0
-11695 11748 0
-11696 11749 0
-11697 11750 0
-11698 11751 0
-11699 11752 0
-11700 11753 0
-11701 11754 0
-11702 11755 0
-11703 11756 0
-11704 11757 0
-11705 11758 0
-11706 11759 0
-11707 11760 0
-11708 11761 0
-11709 11762 0
-11710 11763 0
-11711 11764 0
-11712 11765 0
-11713 11766 0
-11714 11767 0
-11715 11768 0
-11716 11769 0
-11717 11770 0
-11718 11771 0
-11719 11772 0
-11720 11773 0
-11721 11774 0
-11722 11775 0
-11723 11776 0
-11724 11777 0
-11725 11778 0
-11726 11779 0
-11727 11780 0
-11728 11781 0
-11729 11782 0
-11730 11783 0
-11731 11784 0
-11732 11785 0
-1158 -11680 11734 0
-1158 -11681 11735 0
-1158 -11682 11736 0
-1158 -11683 11737 0
-1158 -11684 11738 0
-1158 -11685 11739 0
-1158 -11686 11740 0
-1158 -11687 11741 0
-1158 -11688 11742 0
-1158 -11689 11743 0
-1158 -11690 11744 0
-1158 -11691 11745 0
-1158 -11692 11746 0
-1158 -11693 11747 0
-1158 -11694 11748 0
-1158 -11695 11749 0
-1158 -11696 11750 0
-1158 -11697 11751 0
-1158 -11698 11752 0
-1158 -11699 11753 0
-1158 -11700 11754 0
-1158 -11701 11755 0
-1158 -11702 11756 0
-1158 -11703 11757 0
-1158 -11704 11758 0
-1158 -11705 11759 0
-1158 -11706 11760 0
-1158 -11707 11761 0
-1158 -11708 11762 0
-1158 -11709 11763 0
-1158 -11710 11764 0
-1158 -11711 11765 0
-1158 -11712 11766 0
-1158 -11713 11767 0
-1158 -11714 11768 0
-1158 -11715 11769 0
-1158 -11716 11770 0
-1158 -11717 11771 0
-1158 -11718 11772 0
-1158 -11719 11773 0
-1158 -11720 11774 0
-1158 -11721 11775 0
-1158 -11722 11776 0
-1158 -11723 11777 0
-1158 -11724 11778 0
-1158 -11725 11779 0
-1158 -11726 11780 0
-1158 -11727 11781 0
-1158 -11728 11782 0
-1158 -11729 11783 0
-1158 -11730 11784 0
-1158 -11731 11785 0
-1158 -11732 0
-11733 11786 0
-11734 11787 0
-11735 11788 0
-11736 11789 0
-11737 11790 0
-11738 11791 0
-11739 11792 0
-11740 11793 0
-11741 11794 0
-11742 11795 0
-11743 11796 0
-11744 11797 0
-11745 11798 0
-11746 11799 0
-11747 11800 0
-11748 11801 0
-11749 11802 0
-11750 11803 0
-11751 11804 0
-11752 11805 0
-11753 11806 0
-11754 11807 0
-11755 11808 0
-11756 11809 0
-11757 11810 0
-11758 11811 0
-11759 11812 0
-11760 11813 0
-11761 11814 0
-11762 11815 0
-11763 11816 0
-11764 11817 0
-11765 11818 0
-11766 11819 0
-11767 11820 0
-11768 11821 0
-11769 11822 0
-11770 11823 0
-11771 11824 0
-11772 11825 0
-11773 11826 0
-11774 11827 0
-11775 11828 0
-11776 11829 0
-11777 11830 0
-11778 11831 0
-11779 11832 0
-11780 11833 0
-11781 11834 0
-11782 11835 0
-11783 11836 0
-11784 11837 0
-11785 11838 0
-1160 -11733 11787 0
-1160 -11734 11788 0
-1160 -11735 11789 0
-1160 -11736 11790 0
-1160 -11737 11791 0
-1160 -11738 11792 0
-1160 -11739 11793 0
-1160 -11740 11794 0
-1160 -11741 11795 0
-1160 -11742 11796 0
-1160 -11743 11797 0
-1160 -11744 11798 0
-1160 -11745 11799 0
-1160 -11746 11800 0
-1160 -11747 11801 0
-1160 -11748 11802 0
-1160 -11749 11803 0
-1160 -11750 11804 0
-1160 -11751 11805 0
-1160 -11752 11806 0
-1160 -11753 11807 0
-1160 -11754 11808 0
-1160 -11755 11809 0
-1160 -11756 11810 0
-1160 -11757 11811 0
-1160 -11758 11812 0
-1160 -11759 11813 0
-1160 -11760 11814 0
-1160 -11761 11815 0
-1160 -11762 11816 0
-1160 -11763 11817 0
-1160 -11764 11818 0
-1160 -11765 11819 0
-1160 -11766 11820 0
-1160 -11767 11821 0
-1160 -11768 11822 0
-1160 -11769 11823 0
-1160 -11770 11824 0
-1160 -11771 11825 0
-1160 -11772 11826 0
-1160 -11773 11827 0
-1160 -11774 11828 0
-1160 -11775 11829 0
-1160 -11776 11830 0
-1160 -11777 11831 0
-1160 -11778 11832 0
-1160 -11779 11833 0
-1160 -11780 11834 0
-1160 -11781 11835 0
-1160 -11782 11836 0
-1160 -11783 11837 0
-1160 -11784 11838 0
-1160 -11785 0
-11786 11839 0
-11787 11840 0
-11788 11841 0
-11789 11842 0
-11790 11843 0
-11791 11844 0
-11792 11845 0
-11793 11846 0
-11794 11847 0
-11795 11848 0
-11796 11849 0
-11797 11850 0
-11798 11851 0
-11799 11852 0
-11800 11853 0
-11801 11854 0
-11802 11855 0
-11803 11856 0
-11804 11857 0
-11805 11858 0
-11806 11859 0
-11807 11860 0
-11808 11861 0
-11809 11862 0
-11810 11863 0
-11811 11864 0
-11812 11865 0
-11813 11866 0
-11814 11867 0
-11815 11868 0
-11816 11869 0
-11817 11870 0
-11818 11871 0
-11819 11872 0
-11820 11873 0
-11821 11874 0
-11822 11875 0
-11823 11876 0
-11824 11877 0
-11825 11878 0
-11826 11879 0
-11827 11880 0
-11828 11881 0
-11829 11882 0
-11830 11883 0
-11831 11884 0
-11832 11885 0
-11833 11886 0
-11834 11887 0
-11835 11888 0
-11836 11889 0
-11837 11890 0
-11838 11891 0
-1162 -11786 11840 0
-1162 -11787 11841 0
-1162 -11788 11842 0
-1162 -11789 11843 0
-1162 -11790 11844 0
-1162 -11791 11845 0
-1162 -11792 11846 0
-1162 -11793 11847 0
-1162 -11794 11848 0
-1162 -11795 11849 0
-1162 -11796 11850 0
-1162 -11797 11851 0
-1162 -11798 11852 0
-1162 -11799 11853 0
-1162 -11800 11854 0
-1162 -11801 11855 0
-1162 -11802 11856 0
-1162 -11803 11857 0
-1162 -11804 11858 0
-1162 -11805 11859 0
-1162 -11806 11860 0
-1162 -11807 11861 0
-1162 -11808 11862 0
-1162 -11809 11863 0
-1162 -11810 11864 0
-1162 -11811 11865 0
-1162 -11812 11866 0
-1162 -11813 11867 0
-1162 -11814 11868 0
-1162 -11815 11869 0
-1162 -11816 11870 0
-1162 -11817 11871 0
-1162 -11818 11872 0
-1162 -11819 11873 0
-1162 -11820 11874 0
-1162 -11821 11875 0
-1162 -11822 11876 0
-1162 -11823 11877 0
-1162 -11824 11878 0
-1162 -11825 11879 0
-1162 -11826 11880 0
-1162 -11827 11881 0
-1162 -11828 11882 0
-1162 -11829 11883 0
-1162 -11830 11884 0
-1162 -11831 11885 0
-1162 -11832 11886 0
-1162 -11833 11887 0
-1162 -11834 11888 0
-1162 -11835 11889 0
-1162 -11836 11890 0
-1162 -11837 11891 0
-1162 -11838 0
-11839 11892 0
-11840 11893 0
-11841 11894 0
-11842 11895 0
-11843 11896 0
-11844 11897 0
-11845 11898 0
-11846 11899 0
-11847 11900 0
-11848 11901 0
-11849 11902 0
-11850 11903 0
-11851 11904 0
-11852 11905 0
-11853 11906 0
-11854 11907 0
-11855 11908 0
-11856 11909 0
-11857 11910 0
-11858 11911 0
-11859 11912 0
-11860 11913 0
-11861 11914 0
-11862 11915 0
-11863 11916 0
-11864 11917 0
-11865 11918 0
-11866 11919 0
-11867 11920 0
-11868 11921 0
-11869 11922 0
-11870 11923 0
-11871 11924 0
-11872 11925 0
-11873 11926 0
-11874 11927 0
-11875 11928 0
-11876 11929 0
-11877 11930 0
-11878 11931 0
-11879 11932 0
-11880 11933 0
-11881 11934 0
-11882 11935 0
-11883 11936 0
-11884 11937 0
-11885 11938 0
-11886 11939 0
-11887 11940 0
-11888 11941 0
-11889 11942 0
-11890 11943 0
-11891 11944 0
-1164 -11839 11893 0
-1164 -11840 11894 0
-1164 -11841 11895 0
-1164 -11842 11896 0
-1164 -11843 11897 0
-1164 -11844 11898 0
-1164 -11845 11899 0
-1164 -11846 11900 0
-1164 -11847 11901 0
-1164 -11848 11902 0
-1164 -11849 11903 0
-1164 -11850 11904 0
-1164 -11851 11905 0
-1164 -11852 11906 0
-1164 -11853 11907 0
-1164 -11854 11908 0
-1164 -11855 11909 0
-1164 -11856 11910 0
-1164 -11857 11911 0
-1164 -11858 11912 0
-1164 -11859 11913 0
-1164 -11860 11914 0
-1164 -11861 11915 0
-1164 -11862 11916 0
-1164 -11863 11917 0
-1164 -11864 11918 0
-1164 -11865 11919 0
-1164 -11866 11920 0
-1164 -11867 11921 0
-1164 -11868 11922 0
-1164 -11869 11923 0
-1164 -11870 11924 0
-1164 -11871 11925 0
-1164 -11872 11926 0
-1164 -11873 11927 0
-1164 -11874 11928 0
-1164 -11875 11929 0
-1164 -11876 11930 0
-1164 -11877 11931 0
-1164 -11878 11932 0
-1164 -11879 11933 0
-1164 -11880 11934 0
-1164 -11881 11935 0
-1164 -11882 11936 0
-1164 -11883 11937 0
-1164 -11884 11938 0
-1164 -11885 11939 0
-1164 -11886 11940 0
-1164 -11887 11941 0
-1164 -11888 11942 0
-1164 -11889 11943 0
-1164 -11890 11944 0
-1164 -11891 0
-11892 11945 0
-11893 11946 0
-11894 11947 0
-11895 11948 0
-11896 11949 0
-11897 11950 0
-11898 11951 0
-11899 11952 0
-11900 11953 0
-11901 11954 0
-11902 11955 0
-11903 11956 0
-11904 11957 0
-11905 11958 0
-11906 11959 0
-11907 11960 0
-11908 11961 0
-11909 11962 0
-11910 11963 0
-11911 11964 0
-11912 11965 0
-11913 11966 0
-11914 11967 0
-11915 11968 0
-11916 11969 0
-11917 11970 0
-11918 11971 0
-11919 11972 0
-11920 11973 0
-11921 11974 0
-11922 11975 0
-11923 11976 0
-11924 11977 0
-11925 11978 0
-11926 11979 0
-11927 11980 0
-11928 11981 0
-11929 11982 0
-11930 11983 0
-11931 11984 0
-11932 11985 0
-11933 11986 0
-11934 11987 0
-11935 11988 0
-11936 11989 0
-11937 11990 0
-11938 11991 0
-11939 11992 0
-11940 11993 0
-11941 11994 0
-11942 11995 0
-11943 11996 0
-11944 11997 0
-1166 -11892 11946 0
-1166 -11893 11947 0
-1166 -11894 11948 0
-1166 -11895 11949 0
-1166 -11896 11950 0
-1166 -11897 11951 0
-1166 -11898 11952 0
-1166 -11899 11953 0
-1166 -11900 11954 0
-1166 -11901 11955 0
-1166 -11902 11956 0
-1166 -11903 11957 0
-1166 -11904 11958 0
-1166 -11905 11959 0
-1166 -11906 11960 0
-1166 -11907 11961 0
-1166 -11908 11962 0
-1166 -11909 11963 0
-1166 -11910 11964 0
-1166 -11911 11965 0
-1166 -11912 11966 0
-1166 -11913 11967 0
-1166 -11914 11968 0
-1166 -11915 11969 0
-1166 -11916 11970 0
-1166 -11917 11971 0
-1166 -11918 11972 0
-1166 -11919 11973 0
-1166 -11920 11974 0
-1166 -11921 11975 0
-1166 -11922 11976 0
-1166 -11923 11977 0
-1166 -11924 11978 0
-1166 -11925 11979 0
-1166 -11926 11980 0
-1166 -11927 11981 0
-1166 -11928 11982 0
-1166 -11929 11983 0
-1166 -11930 11984 0
-1166 -11931 11985 0
-1166 -11932 11986 0
-1166 -11933 11987 0
-1166 -11934 11988 0
-1166 -11935 11989 0
-1166 -11936 11990 0
-1166 -11937 11991 0
-1166 -11938 11992 0
-1166 -11939 11993 0
-1166 -11940 11994 0
-1166 -11941 11995 0
-1166 -11942 11996 0
-1166 -11943 11997 0
-1166 -11944 0
-11945 11998 0
-11946 11999 0
-11947 12000 0
-11948 12001 0
-11949 12002 0
-11950 12003 0
-11951 12004 0
-11952 12005 0
-11953 12006 0
-11954 12007 0
-11955 12008 0
-11956 12009 0
-11957 12010 0
-11958 12011 0
-11959 12012 0
-11960 12013 0
-11961 12014 0
-11962 12015 0
-11963 12016 0
-11964 12017 0
-11965 12018 0
-11966 12019 0
-11967 12020 0
-11968 12021 0
-11969 12022 0
-11970 12023 0
-11971 12024 0
-11972 12025 0
-11973 12026 0
-11974 12027 0
-11975 12028 0
-11976 12029 0
-11977 12030 0
-11978 12031 0
-11979 12032 0
-11980 12033 0
-11981 12034 0
-11982 12035 0
-11983 12036 0
-11984 12037 0
-11985 12038 0
-11986 12039 0
-11987 12040 0
-11988 12041 0
-11989 12042 0
-11990 12043 0
-11991 12044 0
-11992 12045 0
-11993 12046 0
-11994 12047 0
-11995 12048 0
-11996 12049 0
-11997 12050 0
-1168 -11945 11999 0
-1168 -11946 12000 0
-1168 -11947 12001 0
-1168 -11948 12002 0
-1168 -11949 12003 0
-1168 -11950 12004 0
-1168 -11951 12005 0
-1168 -11952 12006 0
-1168 -11953 12007 0
-1168 -11954 12008 0
-1168 -11955 12009 0
-1168 -11956 12010 0
-1168 -11957 12011 0
-1168 -11958 12012 0
-1168 -11959 12013 0
-1168 -11960 12014 0
-1168 -11961 12015 0
-1168 -11962 12016 0
-1168 -11963 12017 0
-1168 -11964 12018 0
-1168 -11965 12019 0
-1168 -11966 12020 0
-1168 -11967 12021 0
-1168 -11968 12022 0
-1168 -11969 12023 0
-1168 -11970 12024 0
-1168 -11971 12025 0
-1168 -11972 12026 0
-1168 -11973 12027 0
-1168 -11974 12028 0
-1168 -11975 12029 0
-1168 -11976 12030 0
-1168 -11977 12031 0
-1168 -11978 12032 0
-1168 -11979 12033 0
-1168 -11980 12034 0
-1168 -11981 12035 0
-1168 -11982 12036 0
-1168 -11983 12037 0
-1168 -11984 12038 0
-1168 -11985 12039 0
-1168 -11986 12040 0
-1168 -11987 12041 0
-1168 -11988 12042 0
-1168 -11989 12043 0
-1168 -11990 12044 0
-1168 -11991 12045 0
-1168 -11992 12046 0
-1168 -11993 12047 0
-1168 -11994 12048 0
-1168 -11995 12049 0
-1168 -11996 12050 0
-1168 -11997 0
-11998 12051 0
-11999 12052 0
-12000 12053 0
-12001 12054 0
-12002 12055 0
-12003 12056 0
-12004 12057 0
-12005 12058 0
-12006 12059 0
-12007 12060 0
-12008 12061 0
-12009 12062 0
-12010 12063 0
-12011 12064 0
-12012 12065 0
-12013 12066 0
-12014 12067 0
-12015 12068 0
-12016 12069 0
-12017 12070 0
-12018 12071 0
-12019 12072 0
-12020 12073 0
-12021 12074 0
-12022 12075 0
-12023 12076 0
-12024 12077 0
-12025 12078 0
-12026 12079 0
-12027 12080 0
-12028 12081 0
-12029 12082 0
-12030 12083 0
-12031 12084 0
-12032 12085 0
-12033 12086 0
-12034 12087 0
-12035 12088 0
-12036 12089 0
-12037 12090 0
-12038 12091 0
-12039 12092 0
-12040 12093 0
-12041 12094 0
-12042 12095 0
-12043 12096 0
-12044 12097 0
-12045 12098 0
-12046 12099 0
-12047 12100 0
-12048 12101 0
-12049 12102 0
-12050 12103 0
-1170 -11998 12052 0
-1170 -11999 12053 0
-1170 -12000 12054 0
-1170 -12001 12055 0
-1170 -12002 12056 0
-1170 -12003 12057 0
-1170 -12004 12058 0
-1170 -12005 12059 0
-1170 -12006 12060 0
-1170 -12007 12061 0
-1170 -12008 12062 0
-1170 -12009 12063 0
-1170 -12010 12064 0
-1170 -12011 12065 0
-1170 -12012 12066 0
-1170 -12013 12067 0
-1170 -12014 12068 0
-1170 -12015 12069 0
-1170 -12016 12070 0
-1170 -12017 12071 0
-1170 -12018 12072 0
-1170 -12019 12073 0
-1170 -12020 12074 0
-1170 -12021 12075 0
-1170 -12022 12076 0
-1170 -12023 12077 0
-1170 -12024 12078 0
-1170 -12025 12079 0
-1170 -12026 12080 0
-1170 -12027 12081 0
-1170 -12028 12082 0
-1170 -12029 12083 0
-1170 -12030 12084 0
-1170 -12031 12085 0
-1170 -12032 12086 0
-1170 -12033 12087 0
-1170 -12034 12088 0
-1170 -12035 12089 0
-1170 -12036 12090 0
-1170 -12037 12091 0
-1170 -12038 12092 0
-1170 -12039 12093 0
-1170 -12040 12094 0
-1170 -12041 12095 0
-1170 -12042 12096 0
-1170 -12043 12097 0
-1170 -12044 12098 0
-1170 -12045 12099 0
-1170 -12046 12100 0
-1170 -12047 12101 0
-1170 -12048 12102 0
-1170 -12049 12103 0
-1170 -12050 0
-12051 12104 0
-12052 12105 0
-12053 12106 0
-12054 12107 0
-12055 12108 0
-12056 12109 0
-12057 12110 0
-12058 12111 0
-12059 12112 0
-12060 12113 0
-12061 12114 0
-12062 12115 0
-12063 12116 0
-12064 12117 0
-12065 12118 0
-12066 12119 0
-12067 12120 0
-12068 12121 0
-12069 12122 0
-12070 12123 0
-12071 12124 0
-12072 12125 0
-12073 12126 0
-12074 12127 0
-12075 12128 0
-12076 12129 0
-12077 12130 0
-12078 12131 0
-12079 12132 0
-12080 12133 0
-12081 12134 0
-12082 12135 0
-12083 12136 0
-12084 12137 0
-12085 12138 0
-12086 12139 0
-12087 12140 0
-12088 12141 0
-12089 12142 0
-12090 12143 0
-12091 12144 0
-12092 12145 0
-12093 12146 0
-12094 12147 0
-12095 12148 0
-12096 12149 0
-12097 12150 0
-12098 12151 0
-12099 12152 0
-12100 12153 0
-12101 12154 0
-12102 12155 0
-12103 12156 0
-1172 -12051 12105 0
-1172 -12052 12106 0
-1172 -12053 12107 0
-1172 -12054 12108 0
-1172 -12055 12109 0
-1172 -12056 12110 0
-1172 -12057 12111 0
-1172 -12058 12112 0
-1172 -12059 12113 0
-1172 -12060 12114 0
-1172 -12061 12115 0
-1172 -12062 12116 0
-1172 -12063 12117 0
-1172 -12064 12118 0
-1172 -12065 12119 0
-1172 -12066 12120 0
-1172 -12067 12121 0
-1172 -12068 12122 0
-1172 -12069 12123 0
-1172 -12070 12124 0
-1172 -12071 12125 0
-1172 -12072 12126 0
-1172 -12073 12127 0
-1172 -12074 12128 0
-1172 -12075 12129 0
-1172 -12076 12130 0
-1172 -12077 12131 0
-1172 -12078 12132 0
-1172 -12079 12133 0
-1172 -12080 12134 0
-1172 -12081 12135 0
-1172 -12082 12136 0
-1172 -12083 12137 0
-1172 -12084 12138 0
-1172 -12085 12139 0
-1172 -12086 12140 0
-1172 -12087 12141 0
-1172 -12088 12142 0
-1172 -12089 12143 0
-1172 -12090 12144 0
-1172 -12091 12145 0
-1172 -12092 12146 0
-1172 -12093 12147 0
-1172 -12094 12148 0
-1172 -12095 12149 0
-1172 -12096 12150 0
-1172 -12097 12151 0
-1172 -12098 12152 0
-1172 -12099 12153 0
-1172 -12100 12154 0
-1172 -12101 12155 0
-1172 -12102 12156 0
-1172 -12103 0
-12104 12157 0
-12105 12158 0
-12106 12159 0
-12107 12160 0
-12108 12161 0
-12109 12162 0
-12110 12163 0
-12111 12164 0
-12112 12165 0
-12113 12166 0
-12114 12167 0
-12115 12168 0
-12116 12169 0
-12117 12170 0
-12118 12171 0
-12119 12172 0
-12120 12173 0
-12121 12174 0
-12122 12175 0
-12123 12176 0
-12124 12177 0
-12125 12178 0
-12126 12179 0
-12127 12180 0
-12128 12181 0
-12129 12182 0
-12130 12183 0
-12131 12184 0
-12132 12185 0
-12133 12186 0
-12134 12187 0
-12135 12188 0
-12136 12189 0
-12137 12190 0
-12138 12191 0
-12139 12192 0
-12140 12193 0
-12141 12194 0
-12142 12195 0
-12143 12196 0
-12144 12197 0
-12145 12198 0
-12146 12199 0
-12147 12200 0
-12148 12201 0
-12149 12202 0
-12150 12203 0
-12151 12204 0
-12152 12205 0
-12153 12206 0
-12154 12207 0
-12155 12208 0
-12156 12209 0
-1174 -12104 12158 0
-1174 -12105 12159 0
-1174 -12106 12160 0
-1174 -12107 12161 0
-1174 -12108 12162 0
-1174 -12109 12163 0
-1174 -12110 12164 0
-1174 -12111 12165 0
-1174 -12112 12166 0
-1174 -12113 12167 0
-1174 -12114 12168 0
-1174 -12115 12169 0
-1174 -12116 12170 0
-1174 -12117 12171 0
-1174 -12118 12172 0
-1174 -12119 12173 0
-1174 -12120 12174 0
-1174 -12121 12175 0
-1174 -12122 12176 0
-1174 -12123 12177 0
-1174 -12124 12178 0
-1174 -12125 12179 0
-1174 -12126 12180 0
-1174 -12127 12181 0
-1174 -12128 12182 0
-1174 -12129 12183 0
-1174 -12130 12184 0
-1174 -12131 12185 0
-1174 -12132 12186 0
-1174 -12133 12187 0
-1174 -12134 12188 0
-1174 -12135 12189 0
-1174 -12136 12190 0
-1174 -12137 12191 0
-1174 -12138 12192 0
-1174 -12139 12193 0
-1174 -12140 12194 0
-1174 -12141 12195 0
-1174 -12142 12196 0
-1174 -12143 12197 0
-1174 -12144 12198 0
-1174 -12145 12199 0
-1174 -12146 12200 0
-1174 -12147 12201 0
-1174 -12148 12202 0
-1174 -12149 12203 0
-1174 -12150 12204 0
-1174 -12151 12205 0
-1174 -12152 12206 0
-1174 -12153 12207 0
-1174 -12154 12208 0
-1174 -12155 12209 0
-1174 -12156 0
-12157 12210 0
-12158 12211 0
-12159 12212 0
-12160 12213 0
-12161 12214 0
-12162 12215 0
-12163 12216 0
-12164 12217 0
-12165 12218 0
-12166 12219 0
-12167 12220 0
-12168 12221 0
-12169 12222 0
-12170 12223 0
-12171 12224 0
-12172 12225 0
-12173 12226 0
-12174 12227 0
-12175 12228 0
-12176 12229 0
-12177 12230 0
-12178 12231 0
-12179 12232 0
-12180 12233 0
-12181 12234 0
-12182 12235 0
-12183 12236 0
-12184 12237 0
-12185 12238 0
-12186 12239 0
-12187 12240 0
-12188 12241 0
-12189 12242 0
-12190 12243 0
-12191 12244 0
-12192 12245 0
-12193 12246 0
-12194 12247 0
-12195 12248 0
-12196 12249 0
-12197 12250 0
-12198 12251 0
-12199 12252 0
-12200 12253 0
-12201 12254 0
-12202 12255 0
-12203 12256 0
-12204 12257 0
-12205 12258 0
-12206 12259 0
-12207 12260 0
-12208 12261 0
-12209 12262 0
-1176 -12157 12211 0
-1176 -12158 12212 0
-1176 -12159 12213 0
-1176 -12160 12214 0
-1176 -12161 12215 0
-1176 -12162 12216 0
-1176 -12163 12217 0
-1176 -12164 12218 0
-1176 -12165 12219 0
-1176 -12166 12220 0
-1176 -12167 12221 0
-1176 -12168 12222 0
-1176 -12169 12223 0
-1176 -12170 12224 0
-1176 -12171 12225 0
-1176 -12172 12226 0
-1176 -12173 12227 0
-1176 -12174 12228 0
-1176 -12175 12229 0
-1176 -12176 12230 0
-1176 -12177 12231 0
-1176 -12178 12232 0
-1176 -12179 12233 0
-1176 -12180 12234 0
-1176 -12181 12235 0
-1176 -12182 12236 0
-1176 -12183 12237 0
-1176 -12184 12238 0
-1176 -12185 12239 0
-1176 -12186 12240 0
-1176 -12187 12241 0
-1176 -12188 12242 0
-1176 -12189 12243 0
-1176 -12190 12244 0
-1176 -12191 12245 0
-1176 -12192 12246 0
-1176 -12193 12247 0
-1176 -12194 12248 0
-1176 -12195 12249 0
-1176 -12196 12250 0
-1176 -12197 12251 0
-1176 -12198 12252 0
-1176 -12199 12253 0
-1176 -12200 12254 0
-1176 -12201 12255 0
-1176 -12202 12256 0
-1176 -12203 12257 0
-1176 -12204 12258 0
-1176 -12205 12259 0
-1176 -12206 12260 0
-1176 -12207 12261 0
-1176 -12208 12262 0
-1176 -12209 0
-12210 12263 0
-12211 12264 0
-12212 12265 0
-12213 12266 0
-12214 12267 0
-12215 12268 0
-12216 12269 0
-12217 12270 0
-12218 12271 0
-12219 12272 0
-12220 12273 0
-12221 12274 0
-12222 12275 0
-12223 12276 0
-12224 12277 0
-12225 12278 0
-12226 12279 0
-12227 12280 0
-12228 12281 0
-12229 12282 0
-12230 12283 0
-12231 12284 0
-12232 12285 0
-12233 12286 0
-12234 12287 0
-12235 12288 0
-12236 12289 0
-12237 12290 0
-12238 12291 0
-12239 12292 0
-12240 12293 0
-12241 12294 0
-12242 12295 0
-12243 12296 0
-12244 12297 0
-12245 12298 0
-12246 12299 0
-12247 12300 0
-12248 12301 0
-12249 12302 0
-12250 12303 0
-12251 12304 0
-12252 12305 0
-12253 12306 0
-12254 12307 0
-12255 12308 0
-12256 12309 0
-12257 12310 0
-12258 12311 0
-12259 12312 0
-12260 12313 0
-12261 12314 0
-12262 12315 0
-1178 -12210 12264 0
-1178 -12211 12265 0
-1178 -12212 12266 0
-1178 -12213 12267 0
-1178 -12214 12268 0
-1178 -12215 12269 0
-1178 -12216 12270 0
-1178 -12217 12271 0
-1178 -12218 12272 0
-1178 -12219 12273 0
-1178 -12220 12274 0
-1178 -12221 12275 0
-1178 -12222 12276 0
-1178 -12223 12277 0
-1178 -12224 12278 0
-1178 -12225 12279 0
-1178 -12226 12280 0
-1178 -12227 12281 0
-1178 -12228 12282 0
-1178 -12229 12283 0
-1178 -12230 12284 0
-1178 -12231 12285 0
-1178 -12232 12286 0
-1178 -12233 12287 0
-1178 -12234 12288 0
-1178 -12235 12289 0
-1178 -12236 12290 0
-1178 -12237 12291 0
-1178 -12238 12292 0
-1178 -12239 12293 0
-1178 -12240 12294 0
-1178 -12241 12295 0
-1178 -12242 12296 0
-1178 -12243 12297 0
-1178 -12244 12298 0
-1178 -12245 12299 0
-1178 -12246 12300 0
-1178 -12247 12301 0
-1178 -12248 12302 0
-1178 -12249 12303 0
-1178 -12250 12304 0
-1178 -12251 12305 0
-1178 -12252 12306 0
-1178 -12253 12307 0
-1178 -12254 12308 0
-1178 -12255 12309 0
-1178 -12256 12310 0
-1178 -12257 12311 0
-1178 -12258 12312 0
-1178 -12259 12313 0
-1178 -12260 12314 0
-1178 -12261 12315 0
-1178 -12262 0
-12263 12316 0
-12264 12317 0
-12265 12318 0
-12266 12319 0
-12267 12320 0
-12268 12321 0
-12269 12322 0
-12270 12323 0
-12271 12324 0
-12272 12325 0
-12273 12326 0
-12274 12327 0
-12275 12328 0
-12276 12329 0
-12277 12330 0
-12278 12331 0
-12279 12332 0
-12280 12333 0
-12281 12334 0
-12282 12335 0
-12283 12336 0
-12284 12337 0
-12285 12338 0
-12286 12339 0
-12287 12340 0
-12288 12341 0
-12289 12342 0
-12290 12343 0
-12291 12344 0
-12292 12345 0
-12293 12346 0
-12294 12347 0
-12295 12348 0
-12296 12349 0
-12297 12350 0
-12298 12351 0
-12299 12352 0
-12300 12353 0
-12301 12354 0
-12302 12355 0
-12303 12356 0
-12304 12357 0
-12305 12358 0
-12306 12359 0
-12307 12360 0
-12308 12361 0
-12309 12362 0
-12310 12363 0
-12311 12364 0
-12312 12365 0
-12313 12366 0
-12314 12367 0
-12315 12368 0
-1180 -12263 12317 0
-1180 -12264 12318 0
-1180 -12265 12319 0
-1180 -12266 12320 0
-1180 -12267 12321 0
-1180 -12268 12322 0
-1180 -12269 12323 0
-1180 -12270 12324 0
-1180 -12271 12325 0
-1180 -12272 12326 0
-1180 -12273 12327 0
-1180 -12274 12328 0
-1180 -12275 12329 0
-1180 -12276 12330 0
-1180 -12277 12331 0
-1180 -12278 12332 0
-1180 -12279 12333 0
-1180 -12280 12334 0
-1180 -12281 12335 0
-1180 -12282 12336 0
-1180 -12283 12337 0
-1180 -12284 12338 0
-1180 -12285 12339 0
-1180 -12286 12340 0
-1180 -12287 12341 0
-1180 -12288 12342 0
-1180 -12289 12343 0
-1180 -12290 12344 0
-1180 -12291 12345 0
-1180 -12292 12346 0
-1180 -12293 12347 0
-1180 -12294 12348 0
-1180 -12295 12349 0
-1180 -12296 12350 0
-1180 -12297 12351 0
-1180 -12298 12352 0
-1180 -12299 12353 0
-1180 -12300 12354 0
-1180 -12301 12355 0
-1180 -12302 12356 0
-1180 -12303 12357 0
-1180 -12304 12358 0
-1180 -12305 12359 0
-1180 -12306 12360 0
-1180 -12307 12361 0
-1180 -12308 12362 0
-1180 -12309 12363 0
-1180 -12310 12364 0
-1180 -12311 12365 0
-1180 -12312 12366 0
-1180 -12313 12367 0
-1180 -12314 12368 0
-1180 -12315 0
-12316 12369 0
-12317 12370 0
-12318 12371 0
-12319 12372 0
-12320 12373 0
-12321 12374 0
-12322 12375 0
-12323 12376 0
-12324 12377 0
-12325 12378 0
-12326 12379 0
-12327 12380 0
-12328 12381 0
-12329 12382 0
-12330 12383 0
-12331 12384 0
-12332 12385 0
-12333 12386 0
-12334 12387 0
-12335 12388 0
-12336 12389 0
-12337 12390 0
-12338 12391 0
-12339 12392 0
-12340 12393 0
-12341 12394 0
-12342 12395 0
-12343 12396 0
-12344 12397 0
-12345 12398 0
-12346 12399 0
-12347 12400 0
-12348 12401 0
-12349 12402 0
-12350 12403 0
-12351 12404 0
-12352 12405 0
-12353 12406 0
-12354 12407 0
-12355 12408 0
-12356 12409 0
-12357 12410 0
-12358 12411 0
-12359 12412 0
-12360 12413 0
-12361 12414 0
-12362 12415 0
-12363 12416 0
-12364 12417 0
-12365 12418 0
-12366 12419 0
-12367 12420 0
-12368 12421 0
-1182 -12316 12370 0
-1182 -12317 12371 0
-1182 -12318 12372 0
-1182 -12319 12373 0
-1182 -12320 12374 0
-1182 -12321 12375 0
-1182 -12322 12376 0
-1182 -12323 12377 0
-1182 -12324 12378 0
-1182 -12325 12379 0
-1182 -12326 12380 0
-1182 -12327 12381 0
-1182 -12328 12382 0
-1182 -12329 12383 0
-1182 -12330 12384 0
-1182 -12331 12385 0
-1182 -12332 12386 0
-1182 -12333 12387 0
-1182 -12334 12388 0
-1182 -12335 12389 0
-1182 -12336 12390 0
-1182 -12337 12391 0
-1182 -12338 12392 0
-1182 -12339 12393 0
-1182 -12340 12394 0
-1182 -12341 12395 0
-1182 -12342 12396 0
-1182 -12343 12397 0
-1182 -12344 12398 0
-1182 -12345 12399 0
-1182 -12346 12400 0
-1182 -12347 12401 0
-1182 -12348 12402 0
-1182 -12349 12403 0
-1182 -12350 12404 0
-1182 -12351 12405 0
-1182 -12352 12406 0
-1182 -12353 12407 0
-1182 -12354 12408 0
-1182 -12355 12409 0
-1182 -12356 12410 0
-1182 -12357 12411 0
-1182 -12358 12412 0
-1182 -12359 12413 0
-1182 -12360 12414 0
-1182 -12361 12415 0
-1182 -12362 12416 0
-1182 -12363 12417 0
-1182 -12364 12418 0
-1182 -12365 12419 0
-1182 -12366 12420 0
-1182 -12367 12421 0
-1182 -12368 0
-12369 12422 0
-12370 12423 0
-12371 12424 0
-12372 12425 0
-12373 12426 0
-12374 12427 0
-12375 12428 0
-12376 12429 0
-12377 12430 0
-12378 12431 0
-12379 12432 0
-12380 12433 0
-12381 12434 0
-12382 12435 0
-12383 12436 0
-12384 12437 0
-12385 12438 0
-12386 12439 0
-12387 12440 0
-12388 12441 0
-12389 12442 0
-12390 12443 0
-12391 12444 0
-12392 12445 0
-12393 12446 0
-12394 12447 0
-12395 12448 0
-12396 12449 0
-12397 12450 0
-12398 12451 0
-12399 12452 0
-12400 12453 0
-12401 12454 0
-12402 12455 0
-12403 12456 0
-12404 12457 0
-12405 12458 0
-12406 12459 0
-12407 12460 0
-12408 12461 0
-12409 12462 0
-12410 12463 0
-12411 12464 0
-12412 12465 0
-12413 12466 0
-12414 12467 0
-12415 12468 0
-12416 12469 0
-12417 12470 0
-12418 12471 0
-12419 12472 0
-12420 12473 0
-12421 12474 0
-1184 -12369 12423 0
-1184 -12370 12424 0
-1184 -12371 12425 0
-1184 -12372 12426 0
-1184 -12373 12427 0
-1184 -12374 12428 0
-1184 -12375 12429 0
-1184 -12376 12430 0
-1184 -12377 12431 0
-1184 -12378 12432 0
-1184 -12379 12433 0
-1184 -12380 12434 0
-1184 -12381 12435 0
-1184 -12382 12436 0
-1184 -12383 12437 0
-1184 -12384 12438 0
-1184 -12385 12439 0
-1184 -12386 12440 0
-1184 -12387 12441 0
-1184 -12388 12442 0
-1184 -12389 12443 0
-1184 -12390 12444 0
-1184 -12391 12445 0
-1184 -12392 12446 0
-1184 -12393 12447 0
-1184 -12394 12448 0
-1184 -12395 12449 0
-1184 -12396 12450 0
-1184 -12397 12451 0
-1184 -12398 12452 0
-1184 -12399 12453 0
-1184 -12400 12454 0
-1184 -12401 12455 0
-1184 -12402 12456 0
-1184 -12403 12457 0
-1184 -12404 12458 0
-1184 -12405 12459 0
-1184 -12406 12460 0
-1184 -12407 12461 0
-1184 -12408 12462 0
-1184 -12409 12463 0
-1184 -12410 12464 0
-1184 -12411 12465 0
-1184 -12412 12466 0
-1184 -12413 12467 0
-1184 -12414 12468 0
-1184 -12415 12469 0
-1184 -12416 12470 0
-1184 -12417 12471 0
-1184 -12418 12472 0
-1184 -12419 12473 0
-1184 -12420 12474 0
-1184 -12421 0
-12422 12475 0
-12423 12476 0
-12424 12477 0
-12425 12478 0
-12426 12479 0
-12427 12480 0
-12428 12481 0
-12429 12482 0
-12430 12483 0
-12431 12484 0
-12432 12485 0
-12433 12486 0
-12434 12487 0
-12435 12488 0
-12436 12489 0
-12437 12490 0
-12438 12491 0
-12439 12492 0
-12440 12493 0
-12441 12494 0
-12442 12495 0
-12443 12496 0
-12444 12497 0
-12445 12498 0
-12446 12499 0
-12447 12500 0
-12448 12501 0
-12449 12502 0
-12450 12503 0
-12451 12504 0
-12452 12505 0
-12453 12506 0
-12454 12507 0
-12455 12508 0
-12456 12509 0
-12457 12510 0
-12458 12511 0
-12459 12512 0
-12460 12513 0
-12461 12514 0
-12462 12515 0
-12463 12516 0
-12464 12517 0
-12465 12518 0
-12466 12519 0
-12467 12520 0
-12468 12521 0
-12469 12522 0
-12470 12523 0
-12471 12524 0
-12472 12525 0
-12473 12526 0
-12474 12527 0
-1186 -12422 12476 0
-1186 -12423 12477 0
-1186 -12424 12478 0
-1186 -12425 12479 0
-1186 -12426 12480 0
-1186 -12427 12481 0
-1186 -12428 12482 0
-1186 -12429 12483 0
-1186 -12430 12484 0
-1186 -12431 12485 0
-1186 -12432 12486 0
-1186 -12433 12487 0
-1186 -12434 12488 0
-1186 -12435 12489 0
-1186 -12436 12490 0
-1186 -12437 12491 0
-1186 -12438 12492 0
-1186 -12439 12493 0
-1186 -12440 12494 0
-1186 -12441 12495 0
-1186 -12442 12496 0
-1186 -12443 12497 0
-1186 -12444 12498 0
-1186 -12445 12499 0
-1186 -12446 12500 0
-1186 -12447 12501 0
-1186 -12448 12502 0
-1186 -12449 12503 0
-1186 -12450 12504 0
-1186 -12451 12505 0
-1186 -12452 12506 0
-1186 -12453 12507 0
-1186 -12454 12508 0
-1186 -12455 12509 0
-1186 -12456 12510 0
-1186 -12457 12511 0
-1186 -12458 12512 0
-1186 -12459 12513 0
-1186 -12460 12514 0
-1186 -12461 12515 0
-1186 -12462 12516 0
-1186 -12463 12517 0
-1186 -12464 12518 0
-1186 -12465 12519 0
-1186 -12466 12520 0
-1186 -12467 12521 0
-1186 -12468 12522 0
-1186 -12469 12523 0
-1186 -12470 12524 0
-1186 -12471 12525 0
-1186 -12472 12526 0
-1186 -12473 12527 0
-1186 -12474 0
-12475 12528 0
-12476 12529 0
-12477 12530 0
-12478 12531 0
-12479 12532 0
-12480 12533 0
-12481 12534 0
-12482 12535 0
-12483 12536 0
-12484 12537 0
-12485 12538 0
-12486 12539 0
-12487 12540 0
-12488 12541 0
-12489 12542 0
-12490 12543 0
-12491 12544 0
-12492 12545 0
-12493 12546 0
-12494 12547 0
-12495 12548 0
-12496 12549 0
-12497 12550 0
-12498 12551 0
-12499 12552 0
-12500 12553 0
-12501 12554 0
-12502 12555 0
-12503 12556 0
-12504 12557 0
-12505 12558 0
-12506 12559 0
-12507 12560 0
-12508 12561 0
-12509 12562 0
-12510 12563 0
-12511 12564 0
-12512 12565 0
-12513 12566 0
-12514 12567 0
-12515 12568 0
-12516 12569 0
-12517 12570 0
-12518 12571 0
-12519 12572 0
-12520 12573 0
-12521 12574 0
-12522 12575 0
-12523 12576 0
-12524 12577 0
-12525 12578 0
-12526 12579 0
-12527 12580 0
-1188 -12475 12529 0
-1188 -12476 12530 0
-1188 -12477 12531 0
-1188 -12478 12532 0
-1188 -12479 12533 0
-1188 -12480 12534 0
-1188 -12481 12535 0
-1188 -12482 12536 0
-1188 -12483 12537 0
-1188 -12484 12538 0
-1188 -12485 12539 0
-1188 -12486 12540 0
-1188 -12487 12541 0
-1188 -12488 12542 0
-1188 -12489 12543 0
-1188 -12490 12544 0
-1188 -12491 12545 0
-1188 -12492 12546 0
-1188 -12493 12547 0
-1188 -12494 12548 0
-1188 -12495 12549 0
-1188 -12496 12550 0
-1188 -12497 12551 0
-1188 -12498 12552 0
-1188 -12499 12553 0
-1188 -12500 12554 0
-1188 -12501 12555 0
-1188 -12502 12556 0
-1188 -12503 12557 0
-1188 -12504 12558 0
-1188 -12505 12559 0
-1188 -12506 12560 0
-1188 -12507 12561 0
-1188 -12508 12562 0
-1188 -12509 12563 0
-1188 -12510 12564 0
-1188 -12511 12565 0
-1188 -12512 12566 0
-1188 -12513 12567 0
-1188 -12514 12568 0
-1188 -12515 12569 0
-1188 -12516 12570 0
-1188 -12517 12571 0
-1188 -12518 12572 0
-1188 -12519 12573 0
-1188 -12520 12574 0
-1188 -12521 12575 0
-1188 -12522 12576 0
-1188 -12523 12577 0
-1188 -12524 12578 0
-1188 -12525 12579 0
-1188 -12526 12580 0
-1188 -12527 0
-12528 12581 0
-12529 12582 0
-12530 12583 0
-12531 12584 0
-12532 12585 0
-12533 12586 0
-12534 12587 0
-12535 12588 0
-12536 12589 0
-12537 12590 0
-12538 12591 0
-12539 12592 0
-12540 12593 0
-12541 12594 0
-12542 12595 0
-12543 12596 0
-12544 12597 0
-12545 12598 0
-12546 12599 0
-12547 12600 0
-12548 12601 0
-12549 12602 0
-12550 12603 0
-12551 12604 0
-12552 12605 0
-12553 12606 0
-12554 12607 0
-12555 12608 0
-12556 12609 0
-12557 12610 0
-12558 12611 0
-12559 12612 0
-12560 12613 0
-12561 12614 0
-12562 12615 0
-12563 12616 0
-12564 12617 0
-12565 12618 0
-12566 12619 0
-12567 12620 0
-12568 12621 0
-12569 12622 0
-12570 12623 0
-12571 12624 0
-12572 12625 0
-12573 12626 0
-12574 12627 0
-12575 12628 0
-12576 12629 0
-12577 12630 0
-12578 12631 0
-12579 12632 0
-12580 12633 0
-1190 -12528 12582 0
-1190 -12529 12583 0
-1190 -12530 12584 0
-1190 -12531 12585 0
-1190 -12532 12586 0
-1190 -12533 12587 0
-1190 -12534 12588 0
-1190 -12535 12589 0
-1190 -12536 12590 0
-1190 -12537 12591 0
-1190 -12538 12592 0
-1190 -12539 12593 0
-1190 -12540 12594 0
-1190 -12541 12595 0
-1190 -12542 12596 0
-1190 -12543 12597 0
-1190 -12544 12598 0
-1190 -12545 12599 0
-1190 -12546 12600 0
-1190 -12547 12601 0
-1190 -12548 12602 0
-1190 -12549 12603 0
-1190 -12550 12604 0
-1190 -12551 12605 0
-1190 -12552 12606 0
-1190 -12553 12607 0
-1190 -12554 12608 0
-1190 -12555 12609 0
-1190 -12556 12610 0
-1190 -12557 12611 0
-1190 -12558 12612 0
-1190 -12559 12613 0
-1190 -12560 12614 0
-1190 -12561 12615 0
-1190 -12562 12616 0
-1190 -12563 12617 0
-1190 -12564 12618 0
-1190 -12565 12619 0
-1190 -12566 12620 0
-1190 -12567 12621 0
-1190 -12568 12622 0
-1190 -12569 12623 0
-1190 -12570 12624 0
-1190 -12571 12625 0
-1190 -12572 12626 0
-1190 -12573 12627 0
-1190 -12574 12628 0
-1190 -12575 12629 0
-1190 -12576 12630 0
-1190 -12577 12631 0
-1190 -12578 12632 0
-1190 -12579 12633 0
-1190 -12580 0
-12581 12634 0
-12582 12635 0
-12583 12636 0
-12584 12637 0
-12585 12638 0
-12586 12639 0
-12587 12640 0
-12588 12641 0
-12589 12642 0
-12590 12643 0
-12591 12644 0
-12592 12645 0
-12593 12646 0
-12594 12647 0
-12595 12648 0
-12596 12649 0
-12597 12650 0
-12598 12651 0
-12599 12652 0
-12600 12653 0
-12601 12654 0
-12602 12655 0
-12603 12656 0
-12604 12657 0
-12605 12658 0
-12606 12659 0
-12607 12660 0
-12608 12661 0
-12609 12662 0
-12610 12663 0
-12611 12664 0
-12612 12665 0
-12613 12666 0
-12614 12667 0
-12615 12668 0
-12616 12669 0
-12617 12670 0
-12618 12671 0
-12619 12672 0
-12620 12673 0
-12621 12674 0
-12622 12675 0
-12623 12676 0
-12624 12677 0
-12625 12678 0
-12626 12679 0
-12627 12680 0
-12628 12681 0
-12629 12682 0
-12630 12683 0
-12631 12684 0
-12632 12685 0
-12633 12686 0
-1192 -12581 12635 0
-1192 -12582 12636 0
-1192 -12583 12637 0
-1192 -12584 12638 0
-1192 -12585 12639 0
-1192 -12586 12640 0
-1192 -12587 12641 0
-1192 -12588 12642 0
-1192 -12589 12643 0
-1192 -12590 12644 0
-1192 -12591 12645 0
-1192 -12592 12646 0
-1192 -12593 12647 0
-1192 -12594 12648 0
-1192 -12595 12649 0
-1192 -12596 12650 0
-1192 -12597 12651 0
-1192 -12598 12652 0
-1192 -12599 12653 0
-1192 -12600 12654 0
-1192 -12601 12655 0
-1192 -12602 12656 0
-1192 -12603 12657 0
-1192 -12604 12658 0
-1192 -12605 12659 0
-1192 -12606 12660 0
-1192 -12607 12661 0
-1192 -12608 12662 0
-1192 -12609 12663 0
-1192 -12610 12664 0
-1192 -12611 12665 0
-1192 -12612 12666 0
-1192 -12613 12667 0
-1192 -12614 12668 0
-1192 -12615 12669 0
-1192 -12616 12670 0
-1192 -12617 12671 0
-1192 -12618 12672 0
-1192 -12619 12673 0
-1192 -12620 12674 0
-1192 -12621 12675 0
-1192 -12622 12676 0
-1192 -12623 12677 0
-1192 -12624 12678 0
-1192 -12625 12679 0
-1192 -12626 12680 0
-1192 -12627 12681 0
-1192 -12628 12682 0
-1192 -12629 12683 0
-1192 -12630 12684 0
-1192 -12631 12685 0
-1192 -12632 12686 0
-1192 -12633 0
-12634 12687 0
-12635 12688 0
-12636 12689 0
-12637 12690 0
-12638 12691 0
-12639 12692 0
-12640 12693 0
-12641 12694 0
-12642 12695 0
-12643 12696 0
-12644 12697 0
-12645 12698 0
-12646 12699 0
-12647 12700 0
-12648 12701 0
-12649 12702 0
-12650 12703 0
-12651 12704 0
-12652 12705 0
-12653 12706 0
-12654 12707 0
-12655 12708 0
-12656 12709 0
-12657 12710 0
-12658 12711 0
-12659 12712 0
-12660 12713 0
-12661 12714 0
-12662 12715 0
-12663 12716 0
-12664 12717 0
-12665 12718 0
-12666 12719 0
-12667 12720 0
-12668 12721 0
-12669 12722 0
-12670 12723 0
-12671 12724 0
-12672 12725 0
-12673 12726 0
-12674 12727 0
-12675 12728 0
-12676 12729 0
-12677 12730 0
-12678 12731 0
-12679 12732 0
-12680 12733 0
-12681 12734 0
-12682 12735 0
-12683 12736 0
-12684 12737 0
-12685 12738 0
-12686 12739 0
-1194 -12634 12688 0
-1194 -12635 12689 0
-1194 -12636 12690 0
-1194 -12637 12691 0
-1194 -12638 12692 0
-1194 -12639 12693 0
-1194 -12640 12694 0
-1194 -12641 12695 0
-1194 -12642 12696 0
-1194 -12643 12697 0
-1194 -12644 12698 0
-1194 -12645 12699 0
-1194 -12646 12700 0
-1194 -12647 12701 0
-1194 -12648 12702 0
-1194 -12649 12703 0
-1194 -12650 12704 0
-1194 -12651 12705 0
-1194 -12652 12706 0
-1194 -12653 12707 0
-1194 -12654 12708 0
-1194 -12655 12709 0
-1194 -12656 12710 0
-1194 -12657 12711 0
-1194 -12658 12712 0
-1194 -12659 12713 0
-1194 -12660 12714 0
-1194 -12661 12715 0
-1194 -12662 12716 0
-1194 -12663 12717 0
-1194 -12664 12718 0
-1194 -12665 12719 0
-1194 -12666 12720 0
-1194 -12667 12721 0
-1194 -12668 12722 0
-1194 -12669 12723 0
-1194 -12670 12724 0
-1194 -12671 12725 0
-1194 -12672 12726 0
-1194 -12673 12727 0
-1194 -12674 12728 0
-1194 -12675 12729 0
-1194 -12676 12730 0
-1194 -12677 12731 0
-1194 -12678 12732 0
-1194 -12679 12733 0
-1194 -12680 12734 0
-1194 -12681 12735 0
-1194 -12682 12736 0
-1194 -12683 12737 0
-1194 -12684 12738 0
-1194 -12685 12739 0
-1194 -12686 0
-12687 12740 0
-12688 12741 0
-12689 12742 0
-12690 12743 0
-12691 12744 0
-12692 12745 0
-12693 12746 0
-12694 12747 0
-12695 12748 0
-12696 12749 0
-12697 12750 0
-12698 12751 0
-12699 12752 0
-12700 12753 0
-12701 12754 0
-12702 12755 0
-12703 12756 0
-12704 12757 0
-12705 12758 0
-12706 12759 0
-12707 12760 0
-12708 12761 0
-12709 12762 0
-12710 12763 0
-12711 12764 0
-12712 12765 0
-12713 12766 0
-12714 12767 0
-12715 12768 0
-12716 12769 0
-12717 12770 0
-12718 12771 0
-12719 12772 0
-12720 12773 0
-12721 12774 0
-12722 12775 0
-12723 12776 0
-12724 12777 0
-12725 12778 0
-12726 12779 0
-12727 12780 0
-12728 12781 0
-12729 12782 0
-12730 12783 0
-12731 12784 0
-12732 12785 0
-12733 12786 0
-12734 12787 0
-12735 12788 0
-12736 12789 0
-12737 12790 0
-12738 12791 0
-12739 12792 0
-1196 -12687 12741 0
-1196 -12688 12742 0
-1196 -12689 12743 0
-1196 -12690 12744 0
-1196 -12691 12745 0
-1196 -12692 12746 0
-1196 -12693 12747 0
-1196 -12694 12748 0
-1196 -12695 12749 0
-1196 -12696 12750 0
-1196 -12697 12751 0
-1196 -12698 12752 0
-1196 -12699 12753 0
-1196 -12700 12754 0
-1196 -12701 12755 0
-1196 -12702 12756 0
-1196 -12703 12757 0
-1196 -12704 12758 0
-1196 -12705 12759 0
-1196 -12706 12760 0
-1196 -12707 12761 0
-1196 -12708 12762 0
-1196 -12709 12763 0
-1196 -12710 12764 0
-1196 -12711 12765 0
-1196 -12712 12766 0
-1196 -12713 12767 0
-1196 -12714 12768 0
-1196 -12715 12769 0
-1196 -12716 12770 0
-1196 -12717 12771 0
-1196 -12718 12772 0
-1196 -12719 12773 0
-1196 -12720 12774 0
-1196 -12721 12775 0
-1196 -12722 12776 0
-1196 -12723 12777 0
-1196 -12724 12778 0
-1196 -12725 12779 0
-1196 -12726 12780 0
-1196 -12727 12781 0
-1196 -12728 12782 0
-1196 -12729 12783 0
-1196 -12730 12784 0
-1196 -12731 12785 0
-1196 -12732 12786 0
-1196 -12733 12787 0
-1196 -12734 12788 0
-1196 -12735 12789 0
-1196 -12736 12790 0
-1196 -12737 12791 0
-1196 -12738 12792 0
-1196 -12739 0
-12740 12793 0
-12741 12794 0
-12742 12795 0
-12743 12796 0
-12744 12797 0
-12745 12798 0
-12746 12799 0
-12747 12800 0
-12748 12801 0
-12749 12802 0
-12750 12803 0
-12751 12804 0
-12752 12805 0
-12753 12806 0
-12754 12807 0
-12755 12808 0
-12756 12809 0
-12757 12810 0
-12758 12811 0
-12759 12812 0
-12760 12813 0
-12761 12814 0
-12762 12815 0
-12763 12816 0
-12764 12817 0
-12765 12818 0
-12766 12819 0
-12767 12820 0
-12768 12821 0
-12769 12822 0
-12770 12823 0
-12771 12824 0
-12772 12825 0
-12773 12826 0
-12774 12827 0
-12775 12828 0
-12776 12829 0
-12777 12830 0
-12778 12831 0
-12779 12832 0
-12780 12833 0
-12781 12834 0
-12782 12835 0
-12783 12836 0
-12784 12837 0
-12785 12838 0
-12786 12839 0
-12787 12840 0
-12788 12841 0
-12789 12842 0
-12790 12843 0
-12791 12844 0
-12792 12845 0
-1198 -12740 12794 0
-1198 -12741 12795 0
-1198 -12742 12796 0
-1198 -12743 12797 0
-1198 -12744 12798 0
-1198 -12745 12799 0
-1198 -12746 12800 0
-1198 -12747 12801 0
-1198 -12748 12802 0
-1198 -12749 12803 0
-1198 -12750 12804 0
-1198 -12751 12805 0
-1198 -12752 12806 0
-1198 -12753 12807 0
-1198 -12754 12808 0
-1198 -12755 12809 0
-1198 -12756 12810 0
-1198 -12757 12811 0
-1198 -12758 12812 0
-1198 -12759 12813 0
-1198 -12760 12814 0
-1198 -12761 12815 0
-1198 -12762 12816 0
-1198 -12763 12817 0
-1198 -12764 12818 0
-1198 -12765 12819 0
-1198 -12766 12820 0
-1198 -12767 12821 0
-1198 -12768 12822 0
-1198 -12769 12823 0
-1198 -12770 12824 0
-1198 -12771 12825 0
-1198 -12772 12826 0
-1198 -12773 12827 0
-1198 -12774 12828 0
-1198 -12775 12829 0
-1198 -12776 12830 0
-1198 -12777 12831 0
-1198 -12778 12832 0
-1198 -12779 12833 0
-1198 -12780 12834 0
-1198 -12781 12835 0
-1198 -12782 12836 0
-1198 -12783 12837 0
-1198 -12784 12838 0
-1198 -12785 12839 0
-1198 -12786 12840 0
-1198 -12787 12841 0
-1198 -12788 12842 0
-1198 -12789 12843 0
-1198 -12790 12844 0
-1198 -12791 12845 0
-1198 -12792 0
-12793 12846 0
-12794 12847 0
-12795 12848 0
-12796 12849 0
-12797 12850 0
-12798 12851 0
-12799 12852 0
-12800 12853 0
-12801 12854 0
-12802 12855 0
-12803 12856 0
-12804 12857 0
-12805 12858 0
-12806 12859 0
-12807 12860 0
-12808 12861 0
-12809 12862 0
-12810 12863 0
-12811 12864 0
-12812 12865 0
-12813 12866 0
-12814 12867 0
-12815 12868 0
-12816 12869 0
-12817 12870 0
-12818 12871 0
-12819 12872 0
-12820 12873 0
-12821 12874 0
-12822 12875 0
-12823 12876 0
-12824 12877 0
-12825 12878 0
-12826 12879 0
-12827 12880 0
-12828 12881 0
-12829 12882 0
-12830 12883 0
-12831 12884 0
-12832 12885 0
-12833 12886 0
-12834 12887 0
-12835 12888 0
-12836 12889 0
-12837 12890 0
-12838 12891 0
-12839 12892 0
-12840 12893 0
-12841 12894 0
-12842 12895 0
-12843 12896 0
-12844 12897 0
-12845 12898 0
-1200 -12793 12847 0
-1200 -12794 12848 0
-1200 -12795 12849 0
-1200 -12796 12850 0
-1200 -12797 12851 0
-1200 -12798 12852 0
-1200 -12799 12853 0
-1200 -12800 12854 0
-1200 -12801 12855 0
-1200 -12802 12856 0
-1200 -12803 12857 0
-1200 -12804 12858 0
-1200 -12805 12859 0
-1200 -12806 12860 0
-1200 -12807 12861 0
-1200 -12808 12862 0
-1200 -12809 12863 0
-1200 -12810 12864 0
-1200 -12811 12865 0
-1200 -12812 12866 0
-1200 -12813 12867 0
-1200 -12814 12868 0
-1200 -12815 12869 0
-1200 -12816 12870 0
-1200 -12817 12871 0
-1200 -12818 12872 0
-1200 -12819 12873 0
-1200 -12820 12874 0
-1200 -12821 12875 0
-1200 -12822 12876 0
-1200 -12823 12877 0
-1200 -12824 12878 0
-1200 -12825 12879 0
-1200 -12826 12880 0
-1200 -12827 12881 0
-1200 -12828 12882 0
-1200 -12829 12883 0
-1200 -12830 12884 0
-1200 -12831 12885 0
-1200 -12832 12886 0
-1200 -12833 12887 0
-1200 -12834 12888 0
-1200 -12835 12889 0
-1200 -12836 12890 0
-1200 -12837 12891 0
-1200 -12838 12892 0
-1200 -12839 12893 0
-1200 -12840 12894 0
-1200 -12841 12895 0
-1200 -12842 12896 0
-1200 -12843 12897 0
-1200 -12844 12898 0
-1200 -12845 0
-12846 12899 0
-12847 12900 0
-12848 12901 0
-12849 12902 0
-12850 12903 0
-12851 12904 0
-12852 12905 0
-12853 12906 0
-12854 12907 0
-12855 12908 0
-12856 12909 0
-12857 12910 0
-12858 12911 0
-12859 12912 0
-12860 12913 0
-12861 12914 0
-12862 12915 0
-12863 12916 0
-12864 12917 0
-12865 12918 0
-12866 12919 0
-12867 12920 0
-12868 12921 0
-12869 12922 0
-12870 12923 0
-12871 12924 0
-12872 12925 0
-12873 12926 0
-12874 12927 0
-12875 12928 0
-12876 12929 0
-12877 12930 0
-12878 12931 0
-12879 12932 0
-12880 12933 0
-12881 12934 0
-12882 12935 0
-12883 12936 0
-12884 12937 0
-12885 12938 0
-12886 12939 0
-12887 12940 0
-12888 12941 0
-12889 12942 0
-12890 12943 0
-12891 12944 0
-12892 12945 0
-12893 12946 0
-12894 12947 0
-12895 12948 0
-12896 12949 0
-12897 12950 0
-12898 12951 0
-1202 -12846 12900 0
-1202 -12847 12901 0
-1202 -12848 12902 0
-1202 -12849 12903 0
-1202 -12850 12904 0
-1202 -12851 12905 0
-1202 -12852 12906 0
-1202 -12853 12907 0
-1202 -12854 12908 0
-1202 -12855 12909 0
-1202 -12856 12910 0
-1202 -12857 12911 0
-1202 -12858 12912 0
-1202 -12859 12913 0
-1202 -12860 12914 0
-1202 -12861 12915 0
-1202 -12862 12916 0
-1202 -12863 12917 0
-1202 -12864 12918 0
-1202 -12865 12919 0
-1202 -12866 12920 0
-1202 -12867 12921 0
-1202 -12868 12922 0
-1202 -12869 12923 0
-1202 -12870 12924 0
-1202 -12871 12925 0
-1202 -12872 12926 0
-1202 -12873 12927 0
-1202 -12874 12928 0
-1202 -12875 12929 0
-1202 -12876 12930 0
-1202 -12877 12931 0
-1202 -12878 12932 0
-1202 -12879 12933 0
-1202 -12880 12934 0
-1202 -12881 12935 0
-1202 -12882 12936 0
-1202 -12883 12937 0
-1202 -12884 12938 0
-1202 -12885 12939 0
-1202 -12886 12940 0
-1202 -12887 12941 0
-1202 -12888 12942 0
-1202 -12889 12943 0
-1202 -12890 12944 0
-1202 -12891 12945 0
-1202 -12892 12946 0
-1202 -12893 12947 0
-1202 -12894 12948 0
-1202 -12895 12949 0
-1202 -12896 12950 0
-1202 -12897 12951 0
-1202 -12898 0
-12899 12952 0
-12900 12953 0
-12901 12954 0
-12902 12955 0
-12903 12956 0
-12904 12957 0
-12905 12958 0
-12906 12959 0
-12907 12960 0
-12908 12961 0
-12909 12962 0
-12910 12963 0
-12911 12964 0
-12912 12965 0
-12913 12966 0
-12914 12967 0
-12915 12968 0
-12916 12969 0
-12917 12970 0
-12918 12971 0
-12919 12972 0
-12920 12973 0
-12921 12974 0
-12922 12975 0
-12923 12976 0
-12924 12977 0
-12925 12978 0
-12926 12979 0
-12927 12980 0
-12928 12981 0
-12929 12982 0
-12930 12983 0
-12931 12984 0
-12932 12985 0
-12933 12986 0
-12934 12987 0
-12935 12988 0
-12936 12989 0
-12937 12990 0
-12938 12991 0
-12939 12992 0
-12940 12993 0
-12941 12994 0
-12942 12995 0
-12943 12996 0
-12944 12997 0
-12945 12998 0
-12946 12999 0
-12947 13000 0
-12948 13001 0
-12949 13002 0
-12950 13003 0
-12951 13004 0
-1204 -12899 12953 0
-1204 -12900 12954 0
-1204 -12901 12955 0
-1204 -12902 12956 0
-1204 -12903 12957 0
-1204 -12904 12958 0
-1204 -12905 12959 0
-1204 -12906 12960 0
-1204 -12907 12961 0
-1204 -12908 12962 0
-1204 -12909 12963 0
-1204 -12910 12964 0
-1204 -12911 12965 0
-1204 -12912 12966 0
-1204 -12913 12967 0
-1204 -12914 12968 0
-1204 -12915 12969 0
-1204 -12916 12970 0
-1204 -12917 12971 0
-1204 -12918 12972 0
-1204 -12919 12973 0
-1204 -12920 12974 0
-1204 -12921 12975 0
-1204 -12922 12976 0
-1204 -12923 12977 0
-1204 -12924 12978 0
-1204 -12925 12979 0
-1204 -12926 12980 0
-1204 -12927 12981 0
-1204 -12928 12982 0
-1204 -12929 12983 0
-1204 -12930 12984 0
-1204 -12931 12985 0
-1204 -12932 12986 0
-1204 -12933 12987 0
-1204 -12934 12988 0
-1204 -12935 12989 0
-1204 -12936 12990 0
-1204 -12937 12991 0
-1204 -12938 12992 0
-1204 -12939 12993 0
-1204 -12940 12994 0
-1204 -12941 12995 0
-1204 -12942 12996 0
-1204 -12943 12997 0
-1204 -12944 12998 0
-1204 -12945 12999 0
-1204 -12946 13000 0
-1204 -12947 13001 0
-1204 -12948 13002 0
-1204 -12949 13003 0
-1204 -12950 13004 0
-1204 -12951 0
-12952 13005 0
-12953 13006 0
-12954 13007 0
-12955 13008 0
-12956 13009 0
-12957 13010 0
-12958 13011 0
-12959 13012 0
-12960 13013 0
-12961 13014 0
-12962 13015 0
-12963 13016 0
-12964 13017 0
-12965 13018 0
-12966 13019 0
-12967 13020 0
-12968 13021 0
-12969 13022 0
-12970 13023 0
-12971 13024 0
-12972 13025 0
-12973 13026 0
-12974 13027 0
-12975 13028 0
-12976 13029 0
-12977 13030 0
-12978 13031 0
-12979 13032 0
-12980 13033 0
-12981 13034 0
-12982 13035 0
-12983 13036 0
-12984 13037 0
-12985 13038 0
-12986 13039 0
-12987 13040 0
-12988 13041 0
-12989 13042 0
-12990 13043 0
-12991 13044 0
-12992 13045 0
-12993 13046 0
-12994 13047 0
-12995 13048 0
-12996 13049 0
-12997 13050 0
-12998 13051 0
-12999 13052 0
-13000 13053 0
-13001 13054 0
-13002 13055 0
-13003 13056 0
-13004 13057 0
-1206 -12952 13006 0
-1206 -12953 13007 0
-1206 -12954 13008 0
-1206 -12955 13009 0
-1206 -12956 13010 0
-1206 -12957 13011 0
-1206 -12958 13012 0
-1206 -12959 13013 0
-1206 -12960 13014 0
-1206 -12961 13015 0
-1206 -12962 13016 0
-1206 -12963 13017 0
-1206 -12964 13018 0
-1206 -12965 13019 0
-1206 -12966 13020 0
-1206 -12967 13021 0
-1206 -12968 13022 0
-1206 -12969 13023 0
-1206 -12970 13024 0
-1206 -12971 13025 0
-1206 -12972 13026 0
-1206 -12973 13027 0
-1206 -12974 13028 0
-1206 -12975 13029 0
-1206 -12976 13030 0
-1206 -12977 13031 0
-1206 -12978 13032 0
-1206 -12979 13033 0
-1206 -12980 13034 0
-1206 -12981 13035 0
-1206 -12982 13036 0
-1206 -12983 13037 0
-1206 -12984 13038 0
-1206 -12985 13039 0
-1206 -12986 13040 0
-1206 -12987 13041 0
-1206 -12988 13042 0
-1206 -12989 13043 0
-1206 -12990 13044 0
-1206 -12991 13045 0
-1206 -12992 13046 0
-1206 -12993 13047 0
-1206 -12994 13048 0
-1206 -12995 13049 0
-1206 -12996 13050 0
-1206 -12997 13051 0
-1206 -12998 13052 0
-1206 -12999 13053 0
-1206 -13000 13054 0
-1206 -13001 13055 0
-1206 -13002 13056 0
-1206 -13003 13057 0
-1206 -13004 0
-13005 13058 0
-13006 13059 0
-13007 13060 0
-13008 13061 0
-13009 13062 0
-13010 13063 0
-13011 13064 0
-13012 13065 0
-13013 13066 0
-13014 13067 0
-13015 13068 0
-13016 13069 0
-13017 13070 0
-13018 13071 0
-13019 13072 0
-13020 13073 0
-13021 13074 0
-13022 13075 0
-13023 13076 0
-13024 13077 0
-13025 13078 0
-13026 13079 0
-13027 13080 0
-13028 13081 0
-13029 13082 0
-13030 13083 0
-13031 13084 0
-13032 13085 0
-13033 13086 0
-13034 13087 0
-13035 13088 0
-13036 13089 0
-13037 13090 0
-13038 13091 0
-13039 13092 0
-13040 13093 0
-13041 13094 0
-13042 13095 0
-13043 13096 0
-13044 13097 0
-13045 13098 0
-13046 13099 0
-13047 13100 0
-13048 13101 0
-13049 13102 0
-13050 13103 0
-13051 13104 0
-13052 13105 0
-13053 13106 0
-13054 13107 0
-13055 13108 0
-13056 13109 0
-13057 13110 0
-1208 -13005 13059 0
-1208 -13006 13060 0
-1208 -13007 13061 0
-1208 -13008 13062 0
-1208 -13009 13063 0
-1208 -13010 13064 0
-1208 -13011 13065 0
-1208 -13012 13066 0
-1208 -13013 13067 0
-1208 -13014 13068 0
-1208 -13015 13069 0
-1208 -13016 13070 0
-1208 -13017 13071 0
-1208 -13018 13072 0
-1208 -13019 13073 0
-1208 -13020 13074 0
-1208 -13021 13075 0
-1208 -13022 13076 0
-1208 -13023 13077 0
-1208 -13024 13078 0
-1208 -13025 13079 0
-1208 -13026 13080 0
-1208 -13027 13081 0
-1208 -13028 13082 0
-1208 -13029 13083 0
-1208 -13030 13084 0
-1208 -13031 13085 0
-1208 -13032 13086 0
-1208 -13033 13087 0
-1208 -13034 13088 0
-1208 -13035 13089 0
-1208 -13036 13090 0
-1208 -13037 13091 0
-1208 -13038 13092 0
-1208 -13039 13093 0
-1208 -13040 13094 0
-1208 -13041 13095 0
-1208 -13042 13096 0
-1208 -13043 13097 0
-1208 -13044 13098 0
-1208 -13045 13099 0
-1208 -13046 13100 0
-1208 -13047 13101 0
-1208 -13048 13102 0
-1208 -13049 13103 0
-1208 -13050 13104 0
-1208 -13051 13105 0
-1208 -13052 13106 0
-1208 -13053 13107 0
-1208 -13054 13108 0
-1208 -13055 13109 0
-1208 -13056 13110 0
-1208 -13057 0
-13058 13111 0
-13059 13112 0
-13060 13113 0
-13061 13114 0
-13062 13115 0
-13063 13116 0
-13064 13117 0
-13065 13118 0
-13066 13119 0
-13067 13120 0
-13068 13121 0
-13069 13122 0
-13070 13123 0
-13071 13124 0
-13072 13125 0
-13073 13126 0
-13074 13127 0
-13075 13128 0
-13076 13129 0
-13077 13130 0
-13078 13131 0
-13079 13132 0
-13080 13133 0
-13081 13134 0
-13082 13135 0
-13083 13136 0
-13084 13137 0
-13085 13138 0
-13086 13139 0
-13087 13140 0
-13088 13141 0
-13089 13142 0
-13090 13143 0
-13091 13144 0
-13092 13145 0
-13093 13146 0
-13094 13147 0
-13095 13148 0
-13096 13149 0
-13097 13150 0
-13098 13151 0
-13099 13152 0
-13100 13153 0
-13101 13154 0
-13102 13155 0
-13103 13156 0
-13104 13157 0
-13105 13158 0
-13106 13159 0
-13107 13160 0
-13108 13161 0
-13109 13162 0
-13110 13163 0
-1210 -13058 13112 0
-1210 -13059 13113 0
-1210 -13060 13114 0
-1210 -13061 13115 0
-1210 -13062 13116 0
-1210 -13063 13117 0
-1210 -13064 13118 0
-1210 -13065 13119 0
-1210 -13066 13120 0
-1210 -13067 13121 0
-1210 -13068 13122 0
-1210 -13069 13123 0
-1210 -13070 13124 0
-1210 -13071 13125 0
-1210 -13072 13126 0
-1210 -13073 13127 0
-1210 -13074 13128 0
-1210 -13075 13129 0
-1210 -13076 13130 0
-1210 -13077 13131 0
-1210 -13078 13132 0
-1210 -13079 13133 0
-1210 -13080 13134 0
-1210 -13081 13135 0
-1210 -13082 13136 0
-1210 -13083 13137 0
-1210 -13084 13138 0
-1210 -13085 13139 0
-1210 -13086 13140 0
-1210 -13087 13141 0
-1210 -13088 13142 0
-1210 -13089 13143 0
-1210 -13090 13144 0
-1210 -13091 13145 0
-1210 -13092 13146 0
-1210 -13093 13147 0
-1210 -13094 13148 0
-1210 -13095 13149 0
-1210 -13096 13150 0
-1210 -13097 13151 0
-1210 -13098 13152 0
-1210 -13099 13153 0
-1210 -13100 13154 0
-1210 -13101 13155 0
-1210 -13102 13156 0
-1210 -13103 13157 0
-1210 -13104 13158 0
-1210 -13105 13159 0
-1210 -13106 13160 0
-1210 -13107 13161 0
-1210 -13108 13162 0
-1210 -13109 13163 0
-1210 -13110 0
-13111 13164 0
-13112 13165 0
-13113 13166 0
-13114 13167 0
-13115 13168 0
-13116 13169 0
-13117 13170 0
-13118 13171 0
-13119 13172 0
-13120 13173 0
-13121 13174 0
-13122 13175 0
-13123 13176 0
-13124 13177 0
-13125 13178 0
-13126 13179 0
-13127 13180 0
-13128 13181 0
-13129 13182 0
-13130 13183 0
-13131 13184 0
-13132 13185 0
-13133 13186 0
-13134 13187 0
-13135 13188 0
-13136 13189 0
-13137 13190 0
-13138 13191 0
-13139 13192 0
-13140 13193 0
-13141 13194 0
-13142 13195 0
-13143 13196 0
-13144 13197 0
-13145 13198 0
-13146 13199 0
-13147 13200 0
-13148 13201 0
-13149 13202 0
-13150 13203 0
-13151 13204 0
-13152 13205 0
-13153 13206 0
-13154 13207 0
-13155 13208 0
-13156 13209 0
-13157 13210 0
-13158 13211 0
-13159 13212 0
-13160 13213 0
-13161 13214 0
-13162 13215 0
-13163 13216 0
-1212 -13111 13165 0
-1212 -13112 13166 0
-1212 -13113 13167 0
-1212 -13114 13168 0
-1212 -13115 13169 0
-1212 -13116 13170 0
-1212 -13117 13171 0
-1212 -13118 13172 0
-1212 -13119 13173 0
-1212 -13120 13174 0
-1212 -13121 13175 0
-1212 -13122 13176 0
-1212 -13123 13177 0
-1212 -13124 13178 0
-1212 -13125 13179 0
-1212 -13126 13180 0
-1212 -13127 13181 0
-1212 -13128 13182 0
-1212 -13129 13183 0
-1212 -13130 13184 0
-1212 -13131 13185 0
-1212 -13132 13186 0
-1212 -13133 13187 0
-1212 -13134 13188 0
-1212 -13135 13189 0
-1212 -13136 13190 0
-1212 -13137 13191 0
-1212 -13138 13192 0
-1212 -13139 13193 0
-1212 -13140 13194 0
-1212 -13141 13195 0
-1212 -13142 13196 0
-1212 -13143 13197 0
-1212 -13144 13198 0
-1212 -13145 13199 0
-1212 -13146 13200 0
-1212 -13147 13201 0
-1212 -13148 13202 0
-1212 -13149 13203 0
-1212 -13150 13204 0
-1212 -13151 13205 0
-1212 -13152 13206 0
-1212 -13153 13207 0
-1212 -13154 13208 0
-1212 -13155 13209 0
-1212 -13156 13210 0
-1212 -13157 13211 0
-1212 -13158 13212 0
-1212 -13159 13213 0
-1212 -13160 13214 0
-1212 -13161 13215 0
-1212 -13162 13216 0
-1212 -13163 0
-13164 13217 0
-13165 13218 0
-13166 13219 0
-13167 13220 0
-13168 13221 0
-13169 13222 0
-13170 13223 0
-13171 13224 0
-13172 13225 0
-13173 13226 0
-13174 13227 0
-13175 13228 0
-13176 13229 0
-13177 13230 0
-13178 13231 0
-13179 13232 0
-13180 13233 0
-13181 13234 0
-13182 13235 0
-13183 13236 0
-13184 13237 0
-13185 13238 0
-13186 13239 0
-13187 13240 0
-13188 13241 0
-13189 13242 0
-13190 13243 0
-13191 13244 0
-13192 13245 0
-13193 13246 0
-13194 13247 0
-13195 13248 0
-13196 13249 0
-13197 13250 0
-13198 13251 0
-13199 13252 0
-13200 13253 0
-13201 13254 0
-13202 13255 0
-13203 13256 0
-13204 13257 0
-13205 13258 0
-13206 13259 0
-13207 13260 0
-13208 13261 0
-13209 13262 0
-13210 13263 0
-13211 13264 0
-13212 13265 0
-13213 13266 0
-13214 13267 0
-13215 13268 0
-13216 13269 0
-1214 -13164 13218 0
-1214 -13165 13219 0
-1214 -13166 13220 0
-1214 -13167 13221 0
-1214 -13168 13222 0
-1214 -13169 13223 0
-1214 -13170 13224 0
-1214 -13171 13225 0
-1214 -13172 13226 0
-1214 -13173 13227 0
-1214 -13174 13228 0
-1214 -13175 13229 0
-1214 -13176 13230 0
-1214 -13177 13231 0
-1214 -13178 13232 0
-1214 -13179 13233 0
-1214 -13180 13234 0
-1214 -13181 13235 0
-1214 -13182 13236 0
-1214 -13183 13237 0
-1214 -13184 13238 0
-1214 -13185 13239 0
-1214 -13186 13240 0
-1214 -13187 13241 0
-1214 -13188 13242 0
-1214 -13189 13243 0
-1214 -13190 13244 0
-1214 -13191 13245 0
-1214 -13192 13246 0
-1214 -13193 13247 0
-1214 -13194 13248 0
-1214 -13195 13249 0
-1214 -13196 13250 0
-1214 -13197 13251 0
-1214 -13198 13252 0
-1214 -13199 13253 0
-1214 -13200 13254 0
-1214 -13201 13255 0
-1214 -13202 13256 0
-1214 -13203 13257 0
-1214 -13204 13258 0
-1214 -13205 13259 0
-1214 -13206 13260 0
-1214 -13207 13261 0
-1214 -13208 13262 0
-1214 -13209 13263 0
-1214 -13210 13264 0
-1214 -13211 13265 0
-1214 -13212 13266 0
-1214 -13213 13267 0
-1214 -13214 13268 0
-1214 -13215 13269 0
-1214 -13216 0
-13217 13270 0
-13218 13271 0
-13219 13272 0
-13220 13273 0
-13221 13274 0
-13222 13275 0
-13223 13276 0
-13224 13277 0
-13225 13278 0
-13226 13279 0
-13227 13280 0
-13228 13281 0
-13229 13282 0
-13230 13283 0
-13231 13284 0
-13232 13285 0
-13233 13286 0
-13234 13287 0
-13235 13288 0
-13236 13289 0
-13237 13290 0
-13238 13291 0
-13239 13292 0
-13240 13293 0
-13241 13294 0
-13242 13295 0
-13243 13296 0
-13244 13297 0
-13245 13298 0
-13246 13299 0
-13247 13300 0
-13248 13301 0
-13249 13302 0
-13250 13303 0
-13251 13304 0
-13252 13305 0
-13253 13306 0
-13254 13307 0
-13255 13308 0
-13256 13309 0
-13257 13310 0
-13258 13311 0
-13259 13312 0
-13260 13313 0
-13261 13314 0
-13262 13315 0
-13263 13316 0
-13264 13317 0
-13265 13318 0
-13266 13319 0
-13267 13320 0
-13268 13321 0
-13269 13322 0
-1216 -13217 13271 0
-1216 -13218 13272 0
-1216 -13219 13273 0
-1216 -13220 13274 0
-1216 -13221 13275 0
-1216 -13222 13276 0
-1216 -13223 13277 0
-1216 -13224 13278 0
-1216 -13225 13279 0
-1216 -13226 13280 0
-1216 -13227 13281 0
-1216 -13228 13282 0
-1216 -13229 13283 0
-1216 -13230 13284 0
-1216 -13231 13285 0
-1216 -13232 13286 0
-1216 -13233 13287 0
-1216 -13234 13288 0
-1216 -13235 13289 0
-1216 -13236 13290 0
-1216 -13237 13291 0
-1216 -13238 13292 0
-1216 -13239 13293 0
-1216 -13240 13294 0
-1216 -13241 13295 0
-1216 -13242 13296 0
-1216 -13243 13297 0
-1216 -13244 13298 0
-1216 -13245 13299 0
-1216 -13246 13300 0
-1216 -13247 13301 0
-1216 -13248 13302 0
-1216 -13249 13303 0
-1216 -13250 13304 0
-1216 -13251 13305 0
-1216 -13252 13306 0
-1216 -13253 13307 0
-1216 -13254 13308 0
-1216 -13255 13309 0
-1216 -13256 13310 0
-1216 -13257 13311 0
-1216 -13258 13312 0
-1216 -13259 13313 0
-1216 -13260 13314 0
-1216 -13261 13315 0
-1216 -13262 13316 0
-1216 -13263 13317 0
-1216 -13264 13318 0
-1216 -13265 13319 0
-1216 -13266 13320 0
-1216 -13267 13321 0
-1216 -13268 13322 0
-1216 -13269 0
-13270 13323 0
-13271 13324 0
-13272 13325 0
-13273 13326 0
-13274 13327 0
-13275 13328 0
-13276 13329 0
-13277 13330 0
-13278 13331 0
-13279 13332 0
-13280 13333 0
-13281 13334 0
-13282 13335 0
-13283 13336 0
-13284 13337 0
-13285 13338 0
-13286 13339 0
-13287 13340 0
-13288 13341 0
-13289 13342 0
-13290 13343 0
-13291 13344 0
-13292 13345 0
-13293 13346 0
-13294 13347 0
-13295 13348 0
-13296 13349 0
-13297 13350 0
-13298 13351 0
-13299 13352 0
-13300 13353 0
-13301 13354 0
-13302 13355 0
-13303 13356 0
-13304 13357 0
-13305 13358 0
-13306 13359 0
-13307 13360 0
-13308 13361 0
-13309 13362 0
-13310 13363 0
-13311 13364 0
-13312 13365 0
-13313 13366 0
-13314 13367 0
-13315 13368 0
-13316 13369 0
-13317 13370 0
-13318 13371 0
-13319 13372 0
-13320 13373 0
-13321 13374 0
-13322 13375 0
-1218 -13270 13324 0
-1218 -13271 13325 0
-1218 -13272 13326 0
-1218 -13273 13327 0
-1218 -13274 13328 0
-1218 -13275 13329 0
-1218 -13276 13330 0
-1218 -13277 13331 0
-1218 -13278 13332 0
-1218 -13279 13333 0
-1218 -13280 13334 0
-1218 -13281 13335 0
-1218 -13282 13336 0
-1218 -13283 13337 0
-1218 -13284 13338 0
-1218 -13285 13339 0
-1218 -13286 13340 0
-1218 -13287 13341 0
-1218 -13288 13342 0
-1218 -13289 13343 0
-1218 -13290 13344 0
-1218 -13291 13345 0
-1218 -13292 13346 0
-1218 -13293 13347 0
-1218 -13294 13348 0
-1218 -13295 13349 0
-1218 -13296 13350 0
-1218 -13297 13351 0
-1218 -13298 13352 0
-1218 -13299 13353 0
-1218 -13300 13354 0
-1218 -13301 13355 0
-1218 -13302 13356 0
-1218 -13303 13357 0
-1218 -13304 13358 0
-1218 -13305 13359 0
-1218 -13306 13360 0
-1218 -13307 13361 0
-1218 -13308 13362 0
-1218 -13309 13363 0
-1218 -13310 13364 0
-1218 -13311 13365 0
-1218 -13312 13366 0
-1218 -13313 13367 0
-1218 -13314 13368 0
-1218 -13315 13369 0
-1218 -13316 13370 0
-1218 -13317 13371 0
-1218 -13318 13372 0
-1218 -13319 13373 0
-1218 -13320 13374 0
-1218 -13321 13375 0
-1218 -13322 0
-13323 13376 0
-13324 13377 0
-13325 13378 0
-13326 13379 0
-13327 13380 0
-13328 13381 0
-13329 13382 0
-13330 13383 0
-13331 13384 0
-13332 13385 0
-13333 13386 0
-13334 13387 0
-13335 13388 0
-13336 13389 0
-13337 13390 0
-13338 13391 0
-13339 13392 0
-13340 13393 0
-13341 13394 0
-13342 13395 0
-13343 13396 0
-13344 13397 0
-13345 13398 0
-13346 13399 0
-13347 13400 0
-13348 13401 0
-13349 13402 0
-13350 13403 0
-13351 13404 0
-13352 13405 0
-13353 13406 0
-13354 13407 0
-13355 13408 0
-13356 13409 0
-13357 13410 0
-13358 13411 0
-13359 13412 0
-13360 13413 0
-13361 13414 0
-13362 13415 0
-13363 13416 0
-13364 13417 0
-13365 13418 0
-13366 13419 0
-13367 13420 0
-13368 13421 0
-13369 13422 0
-13370 13423 0
-13371 13424 0
-13372 13425 0
-13373 13426 0
-13374 13427 0
-13375 13428 0
-1220 -13323 13377 0
-1220 -13324 13378 0
-1220 -13325 13379 0
-1220 -13326 13380 0
-1220 -13327 13381 0
-1220 -13328 13382 0
-1220 -13329 13383 0
-1220 -13330 13384 0
-1220 -13331 13385 0
-1220 -13332 13386 0
-1220 -13333 13387 0
-1220 -13334 13388 0
-1220 -13335 13389 0
-1220 -13336 13390 0
-1220 -13337 13391 0
-1220 -13338 13392 0
-1220 -13339 13393 0
-1220 -13340 13394 0
-1220 -13341 13395 0
-1220 -13342 13396 0
-1220 -13343 13397 0
-1220 -13344 13398 0
-1220 -13345 13399 0
-1220 -13346 13400 0
-1220 -13347 13401 0
-1220 -13348 13402 0
-1220 -13349 13403 0
-1220 -13350 13404 0
-1220 -13351 13405 0
-1220 -13352 13406 0
-1220 -13353 13407 0
-1220 -13354 13408 0
-1220 -13355 13409 0
-1220 -13356 13410 0
-1220 -13357 13411 0
-1220 -13358 13412 0
-1220 -13359 13413 0
-1220 -13360 13414 0
-1220 -13361 13415 0
-1220 -13362 13416 0
-1220 -13363 13417 0
-1220 -13364 13418 0
-1220 -13365 13419 0
-1220 -13366 13420 0
-1220 -13367 13421 0
-1220 -13368 13422 0
-1220 -13369 13423 0
-1220 -13370 13424 0
-1220 -13371 13425 0
-1220 -13372 13426 0
-1220 -13373 13427 0
-1220 -13374 13428 0
-1220 -13375 0
-13376 13429 0
-13377 13430 0
-13378 13431 0
-13379 13432 0
-13380 13433 0
-13381 13434 0
-13382 13435 0
-13383 13436 0
-13384 13437 0
-13385 13438 0
-13386 13439 0
-13387 13440 0
-13388 13441 0
-13389 13442 0
-13390 13443 0
-13391 13444 0
-13392 13445 0
-13393 13446 0
-13394 13447 0
-13395 13448 0
-13396 13449 0
-13397 13450 0
-13398 13451 0
-13399 13452 0
-13400 13453 0
-13401 13454 0
-13402 13455 0
-13403 13456 0
-13404 13457 0
-13405 13458 0
-13406 13459 0
-13407 13460 0
-13408 13461 0
-13409 13462 0
-13410 13463 0
-13411 13464 0
-13412 13465 0
-13413 13466 0
-13414 13467 0
-13415 13468 0
-13416 13469 0
-13417 13470 0
-13418 13471 0
-13419 13472 0
-13420 13473 0
-13421 13474 0
-13422 13475 0
-13423 13476 0
-13424 13477 0
-13425 13478 0
-13426 13479 0
-13427 13480 0
-13428 13481 0
-1222 -13376 13430 0
-1222 -13377 13431 0
-1222 -13378 13432 0
-1222 -13379 13433 0
-1222 -13380 13434 0
-1222 -13381 13435 0
-1222 -13382 13436 0
-1222 -13383 13437 0
-1222 -13384 13438 0
-1222 -13385 13439 0
-1222 -13386 13440 0
-1222 -13387 13441 0
-1222 -13388 13442 0
-1222 -13389 13443 0
-1222 -13390 13444 0
-1222 -13391 13445 0
-1222 -13392 13446 0
-1222 -13393 13447 0
-1222 -13394 13448 0
-1222 -13395 13449 0
-1222 -13396 13450 0
-1222 -13397 13451 0
-1222 -13398 13452 0
-1222 -13399 13453 0
-1222 -13400 13454 0
-1222 -13401 13455 0
-1222 -13402 13456 0
-1222 -13403 13457 0
-1222 -13404 13458 0
-1222 -13405 13459 0
-1222 -13406 13460 0
-1222 -13407 13461 0
-1222 -13408 13462 0
-1222 -13409 13463 0
-1222 -13410 13464 0
-1222 -13411 13465 0
-1222 -13412 13466 0
-1222 -13413 13467 0
-1222 -13414 13468 0
-1222 -13415 13469 0
-1222 -13416 13470 0
-1222 -13417 13471 0
-1222 -13418 13472 0
-1222 -13419 13473 0
-1222 -13420 13474 0
-1222 -13421 13475 0
-1222 -13422 13476 0
-1222 -13423 13477 0
-1222 -13424 13478 0
-1222 -13425 13479 0
-1222 -13426 13480 0
-1222 -13427 13481 0
-1222 -13428 0
-13429 13482 0
-13430 13483 0
-13431 13484 0
-13432 13485 0
-13433 13486 0
-13434 13487 0
-13435 13488 0
-13436 13489 0
-13437 13490 0
-13438 13491 0
-13439 13492 0
-13440 13493 0
-13441 13494 0
-13442 13495 0
-13443 13496 0
-13444 13497 0
-13445 13498 0
-13446 13499 0
-13447 13500 0
-13448 13501 0
-13449 13502 0
-13450 13503 0
-13451 13504 0
-13452 13505 0
-13453 13506 0
-13454 13507 0
-13455 13508 0
-13456 13509 0
-13457 13510 0
-13458 13511 0
-13459 13512 0
-13460 13513 0
-13461 13514 0
-13462 13515 0
-13463 13516 0
-13464 13517 0
-13465 13518 0
-13466 13519 0
-13467 13520 0
-13468 13521 0
-13469 13522 0
-13470 13523 0
-13471 13524 0
-13472 13525 0
-13473 13526 0
-13474 13527 0
-13475 13528 0
-13476 13529 0
-13477 13530 0
-13478 13531 0
-13479 13532 0
-13480 13533 0
-13481 13534 0
-1224 -13429 13483 0
-1224 -13430 13484 0
-1224 -13431 13485 0
-1224 -13432 13486 0
-1224 -13433 13487 0
-1224 -13434 13488 0
-1224 -13435 13489 0
-1224 -13436 13490 0
-1224 -13437 13491 0
-1224 -13438 13492 0
-1224 -13439 13493 0
-1224 -13440 13494 0
-1224 -13441 13495 0
-1224 -13442 13496 0
-1224 -13443 13497 0
-1224 -13444 13498 0
-1224 -13445 13499 0
-1224 -13446 13500 0
-1224 -13447 13501 0
-1224 -13448 13502 0
-1224 -13449 13503 0
-1224 -13450 13504 0
-1224 -13451 13505 0
-1224 -13452 13506 0
-1224 -13453 13507 0
-1224 -13454 13508 0
-1224 -13455 13509 0
-1224 -13456 13510 0
-1224 -13457 13511 0
-1224 -13458 13512 0
-1224 -13459 13513 0
-1224 -13460 13514 0
-1224 -13461 13515 0
-1224 -13462 13516 0
-1224 -13463 13517 0
-1224 -13464 13518 0
-1224 -13465 13519 0
-1224 -13466 13520 0
-1224 -13467 13521 0
-1224 -13468 13522 0
-1224 -13469 13523 0
-1224 -13470 13524 0
-1224 -13471 13525 0
-1224 -13472 13526 0
-1224 -13473 13527 0
-1224 -13474 13528 0
-1224 -13475 13529 0
-1224 -13476 13530 0
-1224 -13477 13531 0
-1224 -13478 13532 0
-1224 -13479 13533 0
-1224 -13480 13534 0
-1224 -13481 0
-13482 13535 0
-13483 13536 0
-13484 13537 0
-13485 13538 0
-13486 13539 0
-13487 13540 0
-13488 13541 0
-13489 13542 0
-13490 13543 0
-13491 13544 0
-13492 13545 0
-13493 13546 0
-13494 13547 0
-13495 13548 0
-13496 13549 0
-13497 13550 0
-13498 13551 0
-13499 13552 0
-13500 13553 0
-13501 13554 0
-13502 13555 0
-13503 13556 0
-13504 13557 0
-13505 13558 0
-13506 13559 0
-13507 13560 0
-13508 13561 0
-13509 13562 0
-13510 13563 0
-13511 13564 0
-13512 13565 0
-13513 13566 0
-13514 13567 0
-13515 13568 0
-13516 13569 0
-13517 13570 0
-13518 13571 0
-13519 13572 0
-13520 13573 0
-13521 13574 0
-13522 13575 0
-13523 13576 0
-13524 13577 0
-13525 13578 0
-13526 13579 0
-13527 13580 0
-13528 13581 0
-13529 13582 0
-13530 13583 0
-13531 13584 0
-13532 13585 0
-13533 13586 0
-13534 13587 0
-1226 -13482 13536 0
-1226 -13483 13537 0
-1226 -13484 13538 0
-1226 -13485 13539 0
-1226 -13486 13540 0
-1226 -13487 13541 0
-1226 -13488 13542 0
-1226 -13489 13543 0
-1226 -13490 13544 0
-1226 -13491 13545 0
-1226 -13492 13546 0
-1226 -13493 13547 0
-1226 -13494 13548 0
-1226 -13495 13549 0
-1226 -13496 13550 0
-1226 -13497 13551 0
-1226 -13498 13552 0
-1226 -13499 13553 0
-1226 -13500 13554 0
-1226 -13501 13555 0
-1226 -13502 13556 0
-1226 -13503 13557 0
-1226 -13504 13558 0
-1226 -13505 13559 0
-1226 -13506 13560 0
-1226 -13507 13561 0
-1226 -13508 13562 0
-1226 -13509 13563 0
-1226 -13510 13564 0
-1226 -13511 13565 0
-1226 -13512 13566 0
-1226 -13513 13567 0
-1226 -13514 13568 0
-1226 -13515 13569 0
-1226 -13516 13570 0
-1226 -13517 13571 0
-1226 -13518 13572 0
-1226 -13519 13573 0
-1226 -13520 13574 0
-1226 -13521 13575 0
-1226 -13522 13576 0
-1226 -13523 13577 0
-1226 -13524 13578 0
-1226 -13525 13579 0
-1226 -13526 13580 0
-1226 -13527 13581 0
-1226 -13528 13582 0
-1226 -13529 13583 0
-1226 -13530 13584 0
-1226 -13531 13585 0
-1226 -13532 13586 0
-1226 -13533 13587 0
-1226 -13534 0
-13535 13588 0
-13536 13589 0
-13537 13590 0
-13538 13591 0
-13539 13592 0
-13540 13593 0
-13541 13594 0
-13542 13595 0
-13543 13596 0
-13544 13597 0
-13545 13598 0
-13546 13599 0
-13547 13600 0
-13548 13601 0
-13549 13602 0
-13550 13603 0
-13551 13604 0
-13552 13605 0
-13553 13606 0
-13554 13607 0
-13555 13608 0
-13556 13609 0
-13557 13610 0
-13558 13611 0
-13559 13612 0
-13560 13613 0
-13561 13614 0
-13562 13615 0
-13563 13616 0
-13564 13617 0
-13565 13618 0
-13566 13619 0
-13567 13620 0
-13568 13621 0
-13569 13622 0
-13570 13623 0
-13571 13624 0
-13572 13625 0
-13573 13626 0
-13574 13627 0
-13575 13628 0
-13576 13629 0
-13577 13630 0
-13578 13631 0
-13579 13632 0
-13580 13633 0
-13581 13634 0
-13582 13635 0
-13583 13636 0
-13584 13637 0
-13585 13638 0
-13586 13639 0
-13587 13640 0
-1228 -13535 13589 0
-1228 -13536 13590 0
-1228 -13537 13591 0
-1228 -13538 13592 0
-1228 -13539 13593 0
-1228 -13540 13594 0
-1228 -13541 13595 0
-1228 -13542 13596 0
-1228 -13543 13597 0
-1228 -13544 13598 0
-1228 -13545 13599 0
-1228 -13546 13600 0
-1228 -13547 13601 0
-1228 -13548 13602 0
-1228 -13549 13603 0
-1228 -13550 13604 0
-1228 -13551 13605 0
-1228 -13552 13606 0
-1228 -13553 13607 0
-1228 -13554 13608 0
-1228 -13555 13609 0
-1228 -13556 13610 0
-1228 -13557 13611 0
-1228 -13558 13612 0
-1228 -13559 13613 0
-1228 -13560 13614 0
-1228 -13561 13615 0
-1228 -13562 13616 0
-1228 -13563 13617 0
-1228 -13564 13618 0
-1228 -13565 13619 0
-1228 -13566 13620 0
-1228 -13567 13621 0
-1228 -13568 13622 0
-1228 -13569 13623 0
-1228 -13570 13624 0
-1228 -13571 13625 0
-1228 -13572 13626 0
-1228 -13573 13627 0
-1228 -13574 13628 0
-1228 -13575 13629 0
-1228 -13576 13630 0
-1228 -13577 13631 0
-1228 -13578 13632 0
-1228 -13579 13633 0
-1228 -13580 13634 0
-1228 -13581 13635 0
-1228 -13582 13636 0
-1228 -13583 13637 0
-1228 -13584 13638 0
-1228 -13585 13639 0
-1228 -13586 13640 0
-1228 -13587 0
-13588 13641 0
-13589 13642 0
-13590 13643 0
-13591 13644 0
-13592 13645 0
-13593 13646 0
-13594 13647 0
-13595 13648 0
-13596 13649 0
-13597 13650 0
-13598 13651 0
-13599 13652 0
-13600 13653 0
-13601 13654 0
-13602 13655 0
-13603 13656 0
-13604 13657 0
-13605 13658 0
-13606 13659 0
-13607 13660 0
-13608 13661 0
-13609 13662 0
-13610 13663 0
-13611 13664 0
-13612 13665 0
-13613 13666 0
-13614 13667 0
-13615 13668 0
-13616 13669 0
-13617 13670 0
-13618 13671 0
-13619 13672 0
-13620 13673 0
-13621 13674 0
-13622 13675 0
-13623 13676 0
-13624 13677 0
-13625 13678 0
-13626 13679 0
-13627 13680 0
-13628 13681 0
-13629 13682 0
-13630 13683 0
-13631 13684 0
-13632 13685 0
-13633 13686 0
-13634 13687 0
-13635 13688 0
-13636 13689 0
-13637 13690 0
-13638 13691 0
-13639 13692 0
-13640 13693 0
-1230 -13588 13642 0
-1230 -13589 13643 0
-1230 -13590 13644 0
-1230 -13591 13645 0
-1230 -13592 13646 0
-1230 -13593 13647 0
-1230 -13594 13648 0
-1230 -13595 13649 0
-1230 -13596 13650 0
-1230 -13597 13651 0
-1230 -13598 13652 0
-1230 -13599 13653 0
-1230 -13600 13654 0
-1230 -13601 13655 0
-1230 -13602 13656 0
-1230 -13603 13657 0
-1230 -13604 13658 0
-1230 -13605 13659 0
-1230 -13606 13660 0
-1230 -13607 13661 0
-1230 -13608 13662 0
-1230 -13609 13663 0
-1230 -13610 13664 0
-1230 -13611 13665 0
-1230 -13612 13666 0
-1230 -13613 13667 0
-1230 -13614 13668 0
-1230 -13615 13669 0
-1230 -13616 13670 0
-1230 -13617 13671 0
-1230 -13618 13672 0
-1230 -13619 13673 0
-1230 -13620 13674 0
-1230 -13621 13675 0
-1230 -13622 13676 0
-1230 -13623 13677 0
-1230 -13624 13678 0
-1230 -13625 13679 0
-1230 -13626 13680 0
-1230 -13627 13681 0
-1230 -13628 13682 0
-1230 -13629 13683 0
-1230 -13630 13684 0
-1230 -13631 13685 0
-1230 -13632 13686 0
-1230 -13633 13687 0
-1230 -13634 13688 0
-1230 -13635 13689 0
-1230 -13636 13690 0
-1230 -13637 13691 0
-1230 -13638 13692 0
-1230 -13639 13693 0
-1230 -13640 0
-13641 13694 0
-13642 13695 0
-13643 13696 0
-13644 13697 0
-13645 13698 0
-13646 13699 0
-13647 13700 0
-13648 13701 0
-13649 13702 0
-13650 13703 0
-13651 13704 0
-13652 13705 0
-13653 13706 0
-13654 13707 0
-13655 13708 0
-13656 13709 0
-13657 13710 0
-13658 13711 0
-13659 13712 0
-13660 13713 0
-13661 13714 0
-13662 13715 0
-13663 13716 0
-13664 13717 0
-13665 13718 0
-13666 13719 0
-13667 13720 0
-13668 13721 0
-13669 13722 0
-13670 13723 0
-13671 13724 0
-13672 13725 0
-13673 13726 0
-13674 13727 0
-13675 13728 0
-13676 13729 0
-13677 13730 0
-13678 13731 0
-13679 13732 0
-13680 13733 0
-13681 13734 0
-13682 13735 0
-13683 13736 0
-13684 13737 0
-13685 13738 0
-13686 13739 0
-13687 13740 0
-13688 13741 0
-13689 13742 0
-13690 13743 0
-13691 13744 0
-13692 13745 0
-13693 13746 0
-1232 -13641 13695 0
-1232 -13642 13696 0
-1232 -13643 13697 0
-1232 -13644 13698 0
-1232 -13645 13699 0
-1232 -13646 13700 0
-1232 -13647 13701 0
-1232 -13648 13702 0
-1232 -13649 13703 0
-1232 -13650 13704 0
-1232 -13651 13705 0
-1232 -13652 13706 0
-1232 -13653 13707 0
-1232 -13654 13708 0
-1232 -13655 13709 0
-1232 -13656 13710 0
-1232 -13657 13711 0
-1232 -13658 13712 0
-1232 -13659 13713 0
-1232 -13660 13714 0
-1232 -13661 13715 0
-1232 -13662 13716 0
-1232 -13663 13717 0
-1232 -13664 13718 0
-1232 -13665 13719 0
-1232 -13666 13720 0
-1232 -13667 13721 0
-1232 -13668 13722 0
-1232 -13669 13723 0
-1232 -13670 13724 0
-1232 -13671 13725 0
-1232 -13672 13726 0
-1232 -13673 13727 0
-1232 -13674 13728 0
-1232 -13675 13729 0
-1232 -13676 13730 0
-1232 -13677 13731 0
-1232 -13678 13732 0
-1232 -13679 13733 0
-1232 -13680 13734 0
-1232 -13681 13735 0
-1232 -13682 13736 0
-1232 -13683 13737 0
-1232 -13684 13738 0
-1232 -13685 13739 0
-1232 -13686 13740 0
-1232 -13687 13741 0
-1232 -13688 13742 0
-1232 -13689 13743 0
-1232 -13690 13744 0
-1232 -13691 13745 0
-1232 -13692 13746 0
-1232 -13693 0
-13694 13747 0
-13695 13748 0
-13696 13749 0
-13697 13750 0
-13698 13751 0
-13699 13752 0
-13700 13753 0
-13701 13754 0
-13702 13755 0
-13703 13756 0
-13704 13757 0
-13705 13758 0
-13706 13759 0
-13707 13760 0
-13708 13761 0
-13709 13762 0
-13710 13763 0
-13711 13764 0
-13712 13765 0
-13713 13766 0
-13714 13767 0
-13715 13768 0
-13716 13769 0
-13717 13770 0
-13718 13771 0
-13719 13772 0
-13720 13773 0
-13721 13774 0
-13722 13775 0
-13723 13776 0
-13724 13777 0
-13725 13778 0
-13726 13779 0
-13727 13780 0
-13728 13781 0
-13729 13782 0
-13730 13783 0
-13731 13784 0
-13732 13785 0
-13733 13786 0
-13734 13787 0
-13735 13788 0
-13736 13789 0
-13737 13790 0
-13738 13791 0
-13739 13792 0
-13740 13793 0
-13741 13794 0
-13742 13795 0
-13743 13796 0
-13744 13797 0
-13745 13798 0
-13746 13799 0
-1234 -13694 13748 0
-1234 -13695 13749 0
-1234 -13696 13750 0
-1234 -13697 13751 0
-1234 -13698 13752 0
-1234 -13699 13753 0
-1234 -13700 13754 0
-1234 -13701 13755 0
-1234 -13702 13756 0
-1234 -13703 13757 0
-1234 -13704 13758 0
-1234 -13705 13759 0
-1234 -13706 13760 0
-1234 -13707 13761 0
-1234 -13708 13762 0
-1234 -13709 13763 0
-1234 -13710 13764 0
-1234 -13711 13765 0
-1234 -13712 13766 0
-1234 -13713 13767 0
-1234 -13714 13768 0
-1234 -13715 13769 0
-1234 -13716 13770 0
-1234 -13717 13771 0
-1234 -13718 13772 0
-1234 -13719 13773 0
-1234 -13720 13774 0
-1234 -13721 13775 0
-1234 -13722 13776 0
-1234 -13723 13777 0
-1234 -13724 13778 0
-1234 -13725 13779 0
-1234 -13726 13780 0
-1234 -13727 13781 0
-1234 -13728 13782 0
-1234 -13729 13783 0
-1234 -13730 13784 0
-1234 -13731 13785 0
-1234 -13732 13786 0
-1234 -13733 13787 0
-1234 -13734 13788 0
-1234 -13735 13789 0
-1234 -13736 13790 0
-1234 -13737 13791 0
-1234 -13738 13792 0
-1234 -13739 13793 0
-1234 -13740 13794 0
-1234 -13741 13795 0
-1234 -13742 13796 0
-1234 -13743 13797 0
-1234 -13744 13798 0
-1234 -13745 13799 0
-1234 -13746 0
-13747 13800 0
-13748 13801 0
-13749 13802 0
-13750 13803 0
-13751 13804 0
-13752 13805 0
-13753 13806 0
-13754 13807 0
-13755 13808 0
-13756 13809 0
-13757 13810 0
-13758 13811 0
-13759 13812 0
-13760 13813 0
-13761 13814 0
-13762 13815 0
-13763 13816 0
-13764 13817 0
-13765 13818 0
-13766 13819 0
-13767 13820 0
-13768 13821 0
-13769 13822 0
-13770 13823 0
-13771 13824 0
-13772 13825 0
-13773 13826 0
-13774 13827 0
-13775 13828 0
-13776 13829 0
-13777 13830 0
-13778 13831 0
-13779 13832 0
-13780 13833 0
-13781 13834 0
-13782 13835 0
-13783 13836 0
-13784 13837 0
-13785 13838 0
-13786 13839 0
-13787 13840 0
-13788 13841 0
-13789 13842 0
-13790 13843 0
-13791 13844 0
-13792 13845 0
-13793 13846 0
-13794 13847 0
-13795 13848 0
-13796 13849 0
-13797 13850 0
-13798 13851 0
-13799 13852 0
-1236 -13747 13801 0
-1236 -13748 13802 0
-1236 -13749 13803 0
-1236 -13750 13804 0
-1236 -13751 13805 0
-1236 -13752 13806 0
-1236 -13753 13807 0
-1236 -13754 13808 0
-1236 -13755 13809 0
-1236 -13756 13810 0
-1236 -13757 13811 0
-1236 -13758 13812 0
-1236 -13759 13813 0
-1236 -13760 13814 0
-1236 -13761 13815 0
-1236 -13762 13816 0
-1236 -13763 13817 0
-1236 -13764 13818 0
-1236 -13765 13819 0
-1236 -13766 13820 0
-1236 -13767 13821 0
-1236 -13768 13822 0
-1236 -13769 13823 0
-1236 -13770 13824 0
-1236 -13771 13825 0
-1236 -13772 13826 0
-1236 -13773 13827 0
-1236 -13774 13828 0
-1236 -13775 13829 0
-1236 -13776 13830 0
-1236 -13777 13831 0
-1236 -13778 13832 0
-1236 -13779 13833 0
-1236 -13780 13834 0
-1236 -13781 13835 0
-1236 -13782 13836 0
-1236 -13783 13837 0
-1236 -13784 13838 0
-1236 -13785 13839 0
-1236 -13786 13840 0
-1236 -13787 13841 0
-1236 -13788 13842 0
-1236 -13789 13843 0
-1236 -13790 13844 0
-1236 -13791 13845 0
-1236 -13792 13846 0
-1236 -13793 13847 0
-1236 -13794 13848 0
-1236 -13795 13849 0
-1236 -13796 13850 0
-1236 -13797 13851 0
-1236 -13798 13852 0
-1236 -13799 0
-13800 13853 0
-13801 13854 0
-13802 13855 0
-13803 13856 0
-13804 13857 0
-13805 13858 0
-13806 13859 0
-13807 13860 0
-13808 13861 0
-13809 13862 0
-13810 13863 0
-13811 13864 0
-13812 13865 0
-13813 13866 0
-13814 13867 0
-13815 13868 0
-13816 13869 0
-13817 13870 0
-13818 13871 0
-13819 13872 0
-13820 13873 0
-13821 13874 0
-13822 13875 0
-13823 13876 0
-13824 13877 0
-13825 13878 0
-13826 13879 0
-13827 13880 0
-13828 13881 0
-13829 13882 0
-13830 13883 0
-13831 13884 0
-13832 13885 0
-13833 13886 0
-13834 13887 0
-13835 13888 0
-13836 13889 0
-13837 13890 0
-13838 13891 0
-13839 13892 0
-13840 13893 0
-13841 13894 0
-13842 13895 0
-13843 13896 0
-13844 13897 0
-13845 13898 0
-13846 13899 0
-13847 13900 0
-13848 13901 0
-13849 13902 0
-13850 13903 0
-13851 13904 0
-13852 13905 0
-1238 -13800 13854 0
-1238 -13801 13855 0
-1238 -13802 13856 0
-1238 -13803 13857 0
-1238 -13804 13858 0
-1238 -13805 13859 0
-1238 -13806 13860 0
-1238 -13807 13861 0
-1238 -13808 13862 0
-1238 -13809 13863 0
-1238 -13810 13864 0
-1238 -13811 13865 0
-1238 -13812 13866 0
-1238 -13813 13867 0
-1238 -13814 13868 0
-1238 -13815 13869 0
-1238 -13816 13870 0
-1238 -13817 13871 0
-1238 -13818 13872 0
-1238 -13819 13873 0
-1238 -13820 13874 0
-1238 -13821 13875 0
-1238 -13822 13876 0
-1238 -13823 13877 0
-1238 -13824 13878 0
-1238 -13825 13879 0
-1238 -13826 13880 0
-1238 -13827 13881 0
-1238 -13828 13882 0
-1238 -13829 13883 0
-1238 -13830 13884 0
-1238 -13831 13885 0
-1238 -13832 13886 0
-1238 -13833 13887 0
-1238 -13834 13888 0
-1238 -13835 13889 0
-1238 -13836 13890 0
-1238 -13837 13891 0
-1238 -13838 13892 0
-1238 -13839 13893 0
-1238 -13840 13894 0
-1238 -13841 13895 0
-1238 -13842 13896 0
-1238 -13843 13897 0
-1238 -13844 13898 0
-1238 -13845 13899 0
-1238 -13846 13900 0
-1238 -13847 13901 0
-1238 -13848 13902 0
-1238 -13849 13903 0
-1238 -13850 13904 0
-1238 -13851 13905 0
-1238 -13852 0
-13853 13906 0
-13854 13907 0
-13855 13908 0
-13856 13909 0
-13857 13910 0
-13858 13911 0
-13859 13912 0
-13860 13913 0
-13861 13914 0
-13862 13915 0
-13863 13916 0
-13864 13917 0
-13865 13918 0
-13866 13919 0
-13867 13920 0
-13868 13921 0
-13869 13922 0
-13870 13923 0
-13871 13924 0
-13872 13925 0
-13873 13926 0
-13874 13927 0
-13875 13928 0
-13876 13929 0
-13877 13930 0
-13878 13931 0
-13879 13932 0
-13880 13933 0
-13881 13934 0
-13882 13935 0
-13883 13936 0
-13884 13937 0
-13885 13938 0
-13886 13939 0
-13887 13940 0
-13888 13941 0
-13889 13942 0
-13890 13943 0
-13891 13944 0
-13892 13945 0
-13893 13946 0
-13894 13947 0
-13895 13948 0
-13896 13949 0
-13897 13950 0
-13898 13951 0
-13899 13952 0
-13900 13953 0
-13901 13954 0
-13902 13955 0
-13903 13956 0
-13904 13957 0
-13905 13958 0
-1240 -13853 13907 0
-1240 -13854 13908 0
-1240 -13855 13909 0
-1240 -13856 13910 0
-1240 -13857 13911 0
-1240 -13858 13912 0
-1240 -13859 13913 0
-1240 -13860 13914 0
-1240 -13861 13915 0
-1240 -13862 13916 0
-1240 -13863 13917 0
-1240 -13864 13918 0
-1240 -13865 13919 0
-1240 -13866 13920 0
-1240 -13867 13921 0
-1240 -13868 13922 0
-1240 -13869 13923 0
-1240 -13870 13924 0
-1240 -13871 13925 0
-1240 -13872 13926 0
-1240 -13873 13927 0
-1240 -13874 13928 0
-1240 -13875 13929 0
-1240 -13876 13930 0
-1240 -13877 13931 0
-1240 -13878 13932 0
-1240 -13879 13933 0
-1240 -13880 13934 0
-1240 -13881 13935 0
-1240 -13882 13936 0
-1240 -13883 13937 0
-1240 -13884 13938 0
-1240 -13885 13939 0
-1240 -13886 13940 0
-1240 -13887 13941 0
-1240 -13888 13942 0
-1240 -13889 13943 0
-1240 -13890 13944 0
-1240 -13891 13945 0
-1240 -13892 13946 0
-1240 -13893 13947 0
-1240 -13894 13948 0
-1240 -13895 13949 0
-1240 -13896 13950 0
-1240 -13897 13951 0
-1240 -13898 13952 0
-1240 -13899 13953 0
-1240 -13900 13954 0
-1240 -13901 13955 0
-1240 -13902 13956 0
-1240 -13903 13957 0
-1240 -13904 13958 0
-1240 -13905 0
-13906 13959 0
-13907 13960 0
-13908 13961 0
-13909 13962 0
-13910 13963 0
-13911 13964 0
-13912 13965 0
-13913 13966 0
-13914 13967 0
-13915 13968 0
-13916 13969 0
-13917 13970 0
-13918 13971 0
-13919 13972 0
-13920 13973 0
-13921 13974 0
-13922 13975 0
-13923 13976 0
-13924 13977 0
-13925 13978 0
-13926 13979 0
-13927 13980 0
-13928 13981 0
-13929 13982 0
-13930 13983 0
-13931 13984 0
-13932 13985 0
-13933 13986 0
-13934 13987 0
-13935 13988 0
-13936 13989 0
-13937 13990 0
-13938 13991 0
-13939 13992 0
-13940 13993 0
-13941 13994 0
-13942 13995 0
-13943 13996 0
-13944 13997 0
-13945 13998 0
-13946 13999 0
-13947 14000 0
-13948 14001 0
-13949 14002 0
-13950 14003 0
-13951 14004 0
-13952 14005 0
-13953 14006 0
-13954 14007 0
-13955 14008 0
-13956 14009 0
-13957 14010 0
-13958 14011 0
-1242 -13906 13960 0
-1242 -13907 13961 0
-1242 -13908 13962 0
-1242 -13909 13963 0
-1242 -13910 13964 0
-1242 -13911 13965 0
-1242 -13912 13966 0
-1242 -13913 13967 0
-1242 -13914 13968 0
-1242 -13915 13969 0
-1242 -13916 13970 0
-1242 -13917 13971 0
-1242 -13918 13972 0
-1242 -13919 13973 0
-1242 -13920 13974 0
-1242 -13921 13975 0
-1242 -13922 13976 0
-1242 -13923 13977 0
-1242 -13924 13978 0
-1242 -13925 13979 0
-1242 -13926 13980 0
-1242 -13927 13981 0
-1242 -13928 13982 0
-1242 -13929 13983 0
-1242 -13930 13984 0
-1242 -13931 13985 0
-1242 -13932 13986 0
-1242 -13933 13987 0
-1242 -13934 13988 0
-1242 -13935 13989 0
-1242 -13936 13990 0
-1242 -13937 13991 0
-1242 -13938 13992 0
-1242 -13939 13993 0
-1242 -13940 13994 0
-1242 -13941 13995 0
-1242 -13942 13996 0
-1242 -13943 13997 0
-1242 -13944 13998 0
-1242 -13945 13999 0
-1242 -13946 14000 0
-1242 -13947 14001 0
-1242 -13948 14002 0
-1242 -13949 14003 0
-1242 -13950 14004 0
-1242 -13951 14005 0
-1242 -13952 14006 0
-1242 -13953 14007 0
-1242 -13954 14008 0
-1242 -13955 14009 0
-1242 -13956 14010 0
-1242 -13957 14011 0
-1242 -13958 0
-13959 14012 0
-13960 14013 0
-13961 14014 0
-13962 14015 0
-13963 14016 0
-13964 14017 0
-13965 14018 0
-13966 14019 0
-13967 14020 0
-13968 14021 0
-13969 14022 0
-13970 14023 0
-13971 14024 0
-13972 14025 0
-13973 14026 0
-13974 14027 0
-13975 14028 0
-13976 14029 0
-13977 14030 0
-13978 14031 0
-13979 14032 0
-13980 14033 0
-13981 14034 0
-13982 14035 0
-13983 14036 0
-13984 14037 0
-13985 14038 0
-13986 14039 0
-13987 14040 0
-13988 14041 0
-13989 14042 0
-13990 14043 0
-13991 14044 0
-13992 14045 0
-13993 14046 0
-13994 14047 0
-13995 14048 0
-13996 14049 0
-13997 14050 0
-13998 14051 0
-13999 14052 0
-14000 14053 0
-14001 14054 0
-14002 14055 0
-14003 14056 0
-14004 14057 0
-14005 14058 0
-14006 14059 0
-14007 14060 0
-14008 14061 0
-14009 14062 0
-14010 14063 0
-14011 14064 0
-1244 -13959 14013 0
-1244 -13960 14014 0
-1244 -13961 14015 0
-1244 -13962 14016 0
-1244 -13963 14017 0
-1244 -13964 14018 0
-1244 -13965 14019 0
-1244 -13966 14020 0
-1244 -13967 14021 0
-1244 -13968 14022 0
-1244 -13969 14023 0
-1244 -13970 14024 0
-1244 -13971 14025 0
-1244 -13972 14026 0
-1244 -13973 14027 0
-1244 -13974 14028 0
-1244 -13975 14029 0
-1244 -13976 14030 0
-1244 -13977 14031 0
-1244 -13978 14032 0
-1244 -13979 14033 0
-1244 -13980 14034 0
-1244 -13981 14035 0
-1244 -13982 14036 0
-1244 -13983 14037 0
-1244 -13984 14038 0
-1244 -13985 14039 0
-1244 -13986 14040 0
-1244 -13987 14041 0
-1244 -13988 14042 0
-1244 -13989 14043 0
-1244 -13990 14044 0
-1244 -13991 14045 0
-1244 -13992 14046 0
-1244 -13993 14047 0
-1244 -13994 14048 0
-1244 -13995 14049 0
-1244 -13996 14050 0
-1244 -13997 14051 0
-1244 -13998 14052 0
-1244 -13999 14053 0
-1244 -14000 14054 0
-1244 -14001 14055 0
-1244 -14002 14056 0
-1244 -14003 14057 0
-1244 -14004 14058 0
-1244 -14005 14059 0
-1244 -14006 14060 0
-1244 -14007 14061 0
-1244 -14008 14062 0
-1244 -14009 14063 0
-1244 -14010 14064 0
-1244 -14011 0
-14012 14065 0
-14013 14066 0
-14014 14067 0
-14015 14068 0
-14016 14069 0
-14017 14070 0
-14018 14071 0
-14019 14072 0
-14020 14073 0
-14021 14074 0
-14022 14075 0
-14023 14076 0
-14024 14077 0
-14025 14078 0
-14026 14079 0
-14027 14080 0
-14028 14081 0
-14029 14082 0
-14030 14083 0
-14031 14084 0
-14032 14085 0
-14033 14086 0
-14034 14087 0
-14035 14088 0
-14036 14089 0
-14037 14090 0
-14038 14091 0
-14039 14092 0
-14040 14093 0
-14041 14094 0
-14042 14095 0
-14043 14096 0
-14044 14097 0
-14045 14098 0
-14046 14099 0
-14047 14100 0
-14048 14101 0
-14049 14102 0
-14050 14103 0
-14051 14104 0
-14052 14105 0
-14053 14106 0
-14054 14107 0
-14055 14108 0
-14056 14109 0
-14057 14110 0
-14058 14111 0
-14059 14112 0
-14060 14113 0
-14061 14114 0
-14062 14115 0
-14063 14116 0
-14064 14117 0
-1246 -14012 14066 0
-1246 -14013 14067 0
-1246 -14014 14068 0
-1246 -14015 14069 0
-1246 -14016 14070 0
-1246 -14017 14071 0
-1246 -14018 14072 0
-1246 -14019 14073 0
-1246 -14020 14074 0
-1246 -14021 14075 0
-1246 -14022 14076 0
-1246 -14023 14077 0
-1246 -14024 14078 0
-1246 -14025 14079 0
-1246 -14026 14080 0
-1246 -14027 14081 0
-1246 -14028 14082 0
-1246 -14029 14083 0
-1246 -14030 14084 0
-1246 -14031 14085 0
-1246 -14032 14086 0
-1246 -14033 14087 0
-1246 -14034 14088 0
-1246 -14035 14089 0
-1246 -14036 14090 0
-1246 -14037 14091 0
-1246 -14038 14092 0
-1246 -14039 14093 0
-1246 -14040 14094 0
-1246 -14041 14095 0
-1246 -14042 14096 0
-1246 -14043 14097 0
-1246 -14044 14098 0
-1246 -14045 14099 0
-1246 -14046 14100 0
-1246 -14047 14101 0
-1246 -14048 14102 0
-1246 -14049 14103 0
-1246 -14050 14104 0
-1246 -14051 14105 0
-1246 -14052 14106 0
-1246 -14053 14107 0
-1246 -14054 14108 0
-1246 -14055 14109 0
-1246 -14056 14110 0
-1246 -14057 14111 0
-1246 -14058 14112 0
-1246 -14059 14113 0
-1246 -14060 14114 0
-1246 -14061 14115 0
-1246 -14062 14116 0
-1246 -14063 14117 0
-1246 -14064 0
-14065 14118 0
-14066 14119 0
-14067 14120 0
-14068 14121 0
-14069 14122 0
-14070 14123 0
-14071 14124 0
-14072 14125 0
-14073 14126 0
-14074 14127 0
-14075 14128 0
-14076 14129 0
-14077 14130 0
-14078 14131 0
-14079 14132 0
-14080 14133 0
-14081 14134 0
-14082 14135 0
-14083 14136 0
-14084 14137 0
-14085 14138 0
-14086 14139 0
-14087 14140 0
-14088 14141 0
-14089 14142 0
-14090 14143 0
-14091 14144 0
-14092 14145 0
-14093 14146 0
-14094 14147 0
-14095 14148 0
-14096 14149 0
-14097 14150 0
-14098 14151 0
-14099 14152 0
-14100 14153 0
-14101 14154 0
-14102 14155 0
-14103 14156 0
-14104 14157 0
-14105 14158 0
-14106 14159 0
-14107 14160 0
-14108 14161 0
-14109 14162 0
-14110 14163 0
-14111 14164 0
-14112 14165 0
-14113 14166 0
-14114 14167 0
-14115 14168 0
-14116 14169 0
-14117 14170 0
-1248 -14065 14119 0
-1248 -14066 14120 0
-1248 -14067 14121 0
-1248 -14068 14122 0
-1248 -14069 14123 0
-1248 -14070 14124 0
-1248 -14071 14125 0
-1248 -14072 14126 0
-1248 -14073 14127 0
-1248 -14074 14128 0
-1248 -14075 14129 0
-1248 -14076 14130 0
-1248 -14077 14131 0
-1248 -14078 14132 0
-1248 -14079 14133 0
-1248 -14080 14134 0
-1248 -14081 14135 0
-1248 -14082 14136 0
-1248 -14083 14137 0
-1248 -14084 14138 0
-1248 -14085 14139 0
-1248 -14086 14140 0
-1248 -14087 14141 0
-1248 -14088 14142 0
-1248 -14089 14143 0
-1248 -14090 14144 0
-1248 -14091 14145 0
-1248 -14092 14146 0
-1248 -14093 14147 0
-1248 -14094 14148 0
-1248 -14095 14149 0
-1248 -14096 14150 0
-1248 -14097 14151 0
-1248 -14098 14152 0
-1248 -14099 14153 0
-1248 -14100 14154 0
-1248 -14101 14155 0
-1248 -14102 14156 0
-1248 -14103 14157 0
-1248 -14104 14158 0
-1248 -14105 14159 0
-1248 -14106 14160 0
-1248 -14107 14161 0
-1248 -14108 14162 0
-1248 -14109 14163 0
-1248 -14110 14164 0
-1248 -14111 14165 0
-1248 -14112 14166 0
-1248 -14113 14167 0
-1248 -14114 14168 0
-1248 -14115 14169 0
-1248 -14116 14170 0
-1248 -14117 0
-14118 14171 0
-14119 14172 0
-14120 14173 0
-14121 14174 0
-14122 14175 0
-14123 14176 0
-14124 14177 0
-14125 14178 0
-14126 14179 0
-14127 14180 0
-14128 14181 0
-14129 14182 0
-14130 14183 0
-14131 14184 0
-14132 14185 0
-14133 14186 0
-14134 14187 0
-14135 14188 0
-14136 14189 0
-14137 14190 0
-14138 14191 0
-14139 14192 0
-14140 14193 0
-14141 14194 0
-14142 14195 0
-14143 14196 0
-14144 14197 0
-14145 14198 0
-14146 14199 0
-14147 14200 0
-14148 14201 0
-14149 14202 0
-14150 14203 0
-14151 14204 0
-14152 14205 0
-14153 14206 0
-14154 14207 0
-14155 14208 0
-14156 14209 0
-14157 14210 0
-14158 14211 0
-14159 14212 0
-14160 14213 0
-14161 14214 0
-14162 14215 0
-14163 14216 0
-14164 14217 0
-14165 14218 0
-14166 14219 0
-14167 14220 0
-14168 14221 0
-14169 14222 0
-14170 14223 0
-1250 -14118 14172 0
-1250 -14119 14173 0
-1250 -14120 14174 0
-1250 -14121 14175 0
-1250 -14122 14176 0
-1250 -14123 14177 0
-1250 -14124 14178 0
-1250 -14125 14179 0
-1250 -14126 14180 0
-1250 -14127 14181 0
-1250 -14128 14182 0
-1250 -14129 14183 0
-1250 -14130 14184 0
-1250 -14131 14185 0
-1250 -14132 14186 0
-1250 -14133 14187 0
-1250 -14134 14188 0
-1250 -14135 14189 0
-1250 -14136 14190 0
-1250 -14137 14191 0
-1250 -14138 14192 0
-1250 -14139 14193 0
-1250 -14140 14194 0
-1250 -14141 14195 0
-1250 -14142 14196 0
-1250 -14143 14197 0
-1250 -14144 14198 0
-1250 -14145 14199 0
-1250 -14146 14200 0
-1250 -14147 14201 0
-1250 -14148 14202 0
-1250 -14149 14203 0
-1250 -14150 14204 0
-1250 -14151 14205 0
-1250 -14152 14206 0
-1250 -14153 14207 0
-1250 -14154 14208 0
-1250 -14155 14209 0
-1250 -14156 14210 0
-1250 -14157 14211 0
-1250 -14158 14212 0
-1250 -14159 14213 0
-1250 -14160 14214 0
-1250 -14161 14215 0
-1250 -14162 14216 0
-1250 -14163 14217 0
-1250 -14164 14218 0
-1250 -14165 14219 0
-1250 -14166 14220 0
-1250 -14167 14221 0
-1250 -14168 14222 0
-1250 -14169 14223 0
-1250 -14170 0
-14171 14224 0
-14172 14225 0
-14173 14226 0
-14174 14227 0
-14175 14228 0
-14176 14229 0
-14177 14230 0
-14178 14231 0
-14179 14232 0
-14180 14233 0
-14181 14234 0
-14182 14235 0
-14183 14236 0
-14184 14237 0
-14185 14238 0
-14186 14239 0
-14187 14240 0
-14188 14241 0
-14189 14242 0
-14190 14243 0
-14191 14244 0
-14192 14245 0
-14193 14246 0
-14194 14247 0
-14195 14248 0
-14196 14249 0
-14197 14250 0
-14198 14251 0
-14199 14252 0
-14200 14253 0
-14201 14254 0
-14202 14255 0
-14203 14256 0
-14204 14257 0
-14205 14258 0
-14206 14259 0
-14207 14260 0
-14208 14261 0
-14209 14262 0
-14210 14263 0
-14211 14264 0
-14212 14265 0
-14213 14266 0
-14214 14267 0
-14215 14268 0
-14216 14269 0
-14217 14270 0
-14218 14271 0
-14219 14272 0
-14220 14273 0
-14221 14274 0
-14222 14275 0
-14223 14276 0
-1252 -14171 14225 0
-1252 -14172 14226 0
-1252 -14173 14227 0
-1252 -14174 14228 0
-1252 -14175 14229 0
-1252 -14176 14230 0
-1252 -14177 14231 0
-1252 -14178 14232 0
-1252 -14179 14233 0
-1252 -14180 14234 0
-1252 -14181 14235 0
-1252 -14182 14236 0
-1252 -14183 14237 0
-1252 -14184 14238 0
-1252 -14185 14239 0
-1252 -14186 14240 0
-1252 -14187 14241 0
-1252 -14188 14242 0
-1252 -14189 14243 0
-1252 -14190 14244 0
-1252 -14191 14245 0
-1252 -14192 14246 0
-1252 -14193 14247 0
-1252 -14194 14248 0
-1252 -14195 14249 0
-1252 -14196 14250 0
-1252 -14197 14251 0
-1252 -14198 14252 0
-1252 -14199 14253 0
-1252 -14200 14254 0
-1252 -14201 14255 0
-1252 -14202 14256 0
-1252 -14203 14257 0
-1252 -14204 14258 0
-1252 -14205 14259 0
-1252 -14206 14260 0
-1252 -14207 14261 0
-1252 -14208 14262 0
-1252 -14209 14263 0
-1252 -14210 14264 0
-1252 -14211 14265 0
-1252 -14212 14266 0
-1252 -14213 14267 0
-1252 -14214 14268 0
-1252 -14215 14269 0
-1252 -14216 14270 0
-1252 -14217 14271 0
-1252 -14218 14272 0
-1252 -14219 14273 0
-1252 -14220 14274 0
-1252 -14221 14275 0
-1252 -14222 14276 0
-1252 -14223 0
-14224 14277 0
-14225 14278 0
-14226 14279 0
-14227 14280 0
-14228 14281 0
-14229 14282 0
-14230 14283 0
-14231 14284 0
-14232 14285 0
-14233 14286 0
-14234 14287 0
-14235 14288 0
-14236 14289 0
-14237 14290 0
-14238 14291 0
-14239 14292 0
-14240 14293 0
-14241 14294 0
-14242 14295 0
-14243 14296 0
-14244 14297 0
-14245 14298 0
-14246 14299 0
-14247 14300 0
-14248 14301 0
-14249 14302 0
-14250 14303 0
-14251 14304 0
-14252 14305 0
-14253 14306 0
-14254 14307 0
-14255 14308 0
-14256 14309 0
-14257 14310 0
-14258 14311 0
-14259 14312 0
-14260 14313 0
-14261 14314 0
-14262 14315 0
-14263 14316 0
-14264 14317 0
-14265 14318 0
-14266 14319 0
-14267 14320 0
-14268 14321 0
-14269 14322 0
-14270 14323 0
-14271 14324 0
-14272 14325 0
-14273 14326 0
-14274 14327 0
-14275 14328 0
-14276 14329 0
-1254 -14224 14278 0
-1254 -14225 14279 0
-1254 -14226 14280 0
-1254 -14227 14281 0
-1254 -14228 14282 0
-1254 -14229 14283 0
-1254 -14230 14284 0
-1254 -14231 14285 0
-1254 -14232 14286 0
-1254 -14233 14287 0
-1254 -14234 14288 0
-1254 -14235 14289 0
-1254 -14236 14290 0
-1254 -14237 14291 0
-1254 -14238 14292 0
-1254 -14239 14293 0
-1254 -14240 14294 0
-1254 -14241 14295 0
-1254 -14242 14296 0
-1254 -14243 14297 0
-1254 -14244 14298 0
-1254 -14245 14299 0
-1254 -14246 14300 0
-1254 -14247 14301 0
-1254 -14248 14302 0
-1254 -14249 14303 0
-1254 -14250 14304 0
-1254 -14251 14305 0
-1254 -14252 14306 0
-1254 -14253 14307 0
-1254 -14254 14308 0
-1254 -14255 14309 0
-1254 -14256 14310 0
-1254 -14257 14311 0
-1254 -14258 14312 0
-1254 -14259 14313 0
-1254 -14260 14314 0
-1254 -14261 14315 0
-1254 -14262 14316 0
-1254 -14263 14317 0
-1254 -14264 14318 0
-1254 -14265 14319 0
-1254 -14266 14320 0
-1254 -14267 14321 0
-1254 -14268 14322 0
-1254 -14269 14323 0
-1254 -14270 14324 0
-1254 -14271 14325 0
-1254 -14272 14326 0
-1254 -14273 14327 0
-1254 -14274 14328 0
-1254 -14275 14329 0
-1254 -14276 0
-14277 14330 0
-14278 14331 0
-14279 14332 0
-14280 14333 0
-14281 14334 0
-14282 14335 0
-14283 14336 0
-14284 14337 0
-14285 14338 0
-14286 14339 0
-14287 14340 0
-14288 14341 0
-14289 14342 0
-14290 14343 0
-14291 14344 0
-14292 14345 0
-14293 14346 0
-14294 14347 0
-14295 14348 0
-14296 14349 0
-14297 14350 0
-14298 14351 0
-14299 14352 0
-14300 14353 0
-14301 14354 0
-14302 14355 0
-14303 14356 0
-14304 14357 0
-14305 14358 0
-14306 14359 0
-14307 14360 0
-14308 14361 0
-14309 14362 0
-14310 14363 0
-14311 14364 0
-14312 14365 0
-14313 14366 0
-14314 14367 0
-14315 14368 0
-14316 14369 0
-14317 14370 0
-14318 14371 0
-14319 14372 0
-14320 14373 0
-14321 14374 0
-14322 14375 0
-14323 14376 0
-14324 14377 0
-14325 14378 0
-14326 14379 0
-14327 14380 0
-14328 14381 0
-14329 14382 0
-1256 -14277 14331 0
-1256 -14278 14332 0
-1256 -14279 14333 0
-1256 -14280 14334 0
-1256 -14281 14335 0
-1256 -14282 14336 0
-1256 -14283 14337 0
-1256 -14284 14338 0
-1256 -14285 14339 0
-1256 -14286 14340 0
-1256 -14287 14341 0
-1256 -14288 14342 0
-1256 -14289 14343 0
-1256 -14290 14344 0
-1256 -14291 14345 0
-1256 -14292 14346 0
-1256 -14293 14347 0
-1256 -14294 14348 0
-1256 -14295 14349 0
-1256 -14296 14350 0
-1256 -14297 14351 0
-1256 -14298 14352 0
-1256 -14299 14353 0
-1256 -14300 14354 0
-1256 -14301 14355 0
-1256 -14302 14356 0
-1256 -14303 14357 0
-1256 -14304 14358 0
-1256 -14305 14359 0
-1256 -14306 14360 0
-1256 -14307 14361 0
-1256 -14308 14362 0
-1256 -14309 14363 0
-1256 -14310 14364 0
-1256 -14311 14365 0
-1256 -14312 14366 0
-1256 -14313 14367 0
-1256 -14314 14368 0
-1256 -14315 14369 0
-1256 -14316 14370 0
-1256 -14317 14371 0
-1256 -14318 14372 0
-1256 -14319 14373 0
-1256 -14320 14374 0
-1256 -14321 14375 0
-1256 -14322 14376 0
-1256 -14323 14377 0
-1256 -14324 14378 0
-1256 -14325 14379 0
-1256 -14326 14380 0
-1256 -14327 14381 0
-1256 -14328 14382 0
-1256 -14329 0
-14330 14383 0
-14331 14384 0
-14332 14385 0
-14333 14386 0
-14334 14387 0
-14335 14388 0
-14336 14389 0
-14337 14390 0
-14338 14391 0
-14339 14392 0
-14340 14393 0
-14341 14394 0
-14342 14395 0
-14343 14396 0
-14344 14397 0
-14345 14398 0
-14346 14399 0
-14347 14400 0
-14348 14401 0
-14349 14402 0
-14350 14403 0
-14351 14404 0
-14352 14405 0
-14353 14406 0
-14354 14407 0
-14355 14408 0
-14356 14409 0
-14357 14410 0
-14358 14411 0
-14359 14412 0
-14360 14413 0
-14361 14414 0
-14362 14415 0
-14363 14416 0
-14364 14417 0
-14365 14418 0
-14366 14419 0
-14367 14420 0
-14368 14421 0
-14369 14422 0
-14370 14423 0
-14371 14424 0
-14372 14425 0
-14373 14426 0
-14374 14427 0
-14375 14428 0
-14376 14429 0
-14377 14430 0
-14378 14431 0
-14379 14432 0
-14380 14433 0
-14381 14434 0
-14382 14435 0
-1258 -14330 14384 0
-1258 -14331 14385 0
-1258 -14332 14386 0
-1258 -14333 14387 0
-1258 -14334 14388 0
-1258 -14335 14389 0
-1258 -14336 14390 0
-1258 -14337 14391 0
-1258 -14338 14392 0
-1258 -14339 14393 0
-1258 -14340 14394 0
-1258 -14341 14395 0
-1258 -14342 14396 0
-1258 -14343 14397 0
-1258 -14344 14398 0
-1258 -14345 14399 0
-1258 -14346 14400 0
-1258 -14347 14401 0
-1258 -14348 14402 0
-1258 -14349 14403 0
-1258 -14350 14404 0
-1258 -14351 14405 0
-1258 -14352 14406 0
-1258 -14353 14407 0
-1258 -14354 14408 0
-1258 -14355 14409 0
-1258 -14356 14410 0
-1258 -14357 14411 0
-1258 -14358 14412 0
-1258 -14359 14413 0
-1258 -14360 14414 0
-1258 -14361 14415 0
-1258 -14362 14416 0
-1258 -14363 14417 0
-1258 -14364 14418 0
-1258 -14365 14419 0
-1258 -14366 14420 0
-1258 -14367 14421 0
-1258 -14368 14422 0
-1258 -14369 14423 0
-1258 -14370 14424 0
-1258 -14371 14425 0
-1258 -14372 14426 0
-1258 -14373 14427 0
-1258 -14374 14428 0
-1258 -14375 14429 0
-1258 -14376 14430 0
-1258 -14377 14431 0
-1258 -14378 14432 0
-1258 -14379 14433 0
-1258 -14380 14434 0
-1258 -14381 14435 0
-1258 -14382 0
-14383 14436 0
-14384 14437 0
-14385 14438 0
-14386 14439 0
-14387 14440 0
-14388 14441 0
-14389 14442 0
-14390 14443 0
-14391 14444 0
-14392 14445 0
-14393 14446 0
-14394 14447 0
-14395 14448 0
-14396 14449 0
-14397 14450 0
-14398 14451 0
-14399 14452 0
-14400 14453 0
-14401 14454 0
-14402 14455 0
-14403 14456 0
-14404 14457 0
-14405 14458 0
-14406 14459 0
-14407 14460 0
-14408 14461 0
-14409 14462 0
-14410 14463 0
-14411 14464 0
-14412 14465 0
-14413 14466 0
-14414 14467 0
-14415 14468 0
-14416 14469 0
-14417 14470 0
-14418 14471 0
-14419 14472 0
-14420 14473 0
-14421 14474 0
-14422 14475 0
-14423 14476 0
-14424 14477 0
-14425 14478 0
-14426 14479 0
-14427 14480 0
-14428 14481 0
-14429 14482 0
-14430 14483 0
-14431 14484 0
-14432 14485 0
-14433 14486 0
-14434 14487 0
-14435 14488 0
-1260 -14383 14437 0
-1260 -14384 14438 0
-1260 -14385 14439 0
-1260 -14386 14440 0
-1260 -14387 14441 0
-1260 -14388 14442 0
-1260 -14389 14443 0
-1260 -14390 14444 0
-1260 -14391 14445 0
-1260 -14392 14446 0
-1260 -14393 14447 0
-1260 -14394 14448 0
-1260 -14395 14449 0
-1260 -14396 14450 0
-1260 -14397 14451 0
-1260 -14398 14452 0
-1260 -14399 14453 0
-1260 -14400 14454 0
-1260 -14401 14455 0
-1260 -14402 14456 0
-1260 -14403 14457 0
-1260 -14404 14458 0
-1260 -14405 14459 0
-1260 -14406 14460 0
-1260 -14407 14461 0
-1260 -14408 14462 0
-1260 -14409 14463 0
-1260 -14410 14464 0
-1260 -14411 14465 0
-1260 -14412 14466 0
-1260 -14413 14467 0
-1260 -14414 14468 0
-1260 -14415 14469 0
-1260 -14416 14470 0
-1260 -14417 14471 0
-1260 -14418 14472 0
-1260 -14419 14473 0
-1260 -14420 14474 0
-1260 -14421 14475 0
-1260 -14422 14476 0
-1260 -14423 14477 0
-1260 -14424 14478 0
-1260 -14425 14479 0
-1260 -14426 14480 0
-1260 -14427 14481 0
-1260 -14428 14482 0
-1260 -14429 14483 0
-1260 -14430 14484 0
-1260 -14431 14485 0
-1260 -14432 14486 0
-1260 -14433 14487 0
-1260 -14434 14488 0
-1260 -14435 0
-14436 14489 0
-14437 14490 0
-14438 14491 0
-14439 14492 0
-14440 14493 0
-14441 14494 0
-14442 14495 0
-14443 14496 0
-14444 14497 0
-14445 14498 0
-14446 14499 0
-14447 14500 0
-14448 14501 0
-14449 14502 0
-14450 14503 0
-14451 14504 0
-14452 14505 0
-14453 14506 0
-14454 14507 0
-14455 14508 0
-14456 14509 0
-14457 14510 0
-14458 14511 0
-14459 14512 0
-14460 14513 0
-14461 14514 0
-14462 14515 0
-14463 14516 0
-14464 14517 0
-14465 14518 0
-14466 14519 0
-14467 14520 0
-14468 14521 0
-14469 14522 0
-14470 14523 0
-14471 14524 0
-14472 14525 0
-14473 14526 0
-14474 14527 0
-14475 14528 0
-14476 14529 0
-14477 14530 0
-14478 14531 0
-14479 14532 0
-14480 14533 0
-14481 14534 0
-14482 14535 0
-14483 14536 0
-14484 14537 0
-14485 14538 0
-14486 14539 0
-14487 14540 0
-14488 14541 0
-1262 -14436 14490 0
-1262 -14437 14491 0
-1262 -14438 14492 0
-1262 -14439 14493 0
-1262 -14440 14494 0
-1262 -14441 14495 0
-1262 -14442 14496 0
-1262 -14443 14497 0
-1262 -14444 14498 0
-1262 -14445 14499 0
-1262 -14446 14500 0
-1262 -14447 14501 0
-1262 -14448 14502 0
-1262 -14449 14503 0
-1262 -14450 14504 0
-1262 -14451 14505 0
-1262 -14452 14506 0
-1262 -14453 14507 0
-1262 -14454 14508 0
-1262 -14455 14509 0
-1262 -14456 14510 0
-1262 -14457 14511 0
-1262 -14458 14512 0
-1262 -14459 14513 0
-1262 -14460 14514 0
-1262 -14461 14515 0
-1262 -14462 14516 0
-1262 -14463 14517 0
-1262 -14464 14518 0
-1262 -14465 14519 0
-1262 -14466 14520 0
-1262 -14467 14521 0
-1262 -14468 14522 0
-1262 -14469 14523 0
-1262 -14470 14524 0
-1262 -14471 14525 0
-1262 -14472 14526 0
-1262 -14473 14527 0
-1262 -14474 14528 0
-1262 -14475 14529 0
-1262 -14476 14530 0
-1262 -14477 14531 0
-1262 -14478 14532 0
-1262 -14479 14533 0
-1262 -14480 14534 0
-1262 -14481 14535 0
-1262 -14482 14536 0
-1262 -14483 14537 0
-1262 -14484 14538 0
-1262 -14485 14539 0
-1262 -14486 14540 0
-1262 -14487 14541 0
-1262 -14488 0
-14489 14542 0
-14490 14543 0
-14491 14544 0
-14492 14545 0
-14493 14546 0
-14494 14547 0
-14495 14548 0
-14496 14549 0
-14497 14550 0
-14498 14551 0
-14499 14552 0
-14500 14553 0
-14501 14554 0
-14502 14555 0
-14503 14556 0
-14504 14557 0
-14505 14558 0
-14506 14559 0
-14507 14560 0
-14508 14561 0
-14509 14562 0
-14510 14563 0
-14511 14564 0
-14512 14565 0
-14513 14566 0
-14514 14567 0
-14515 14568 0
-14516 14569 0
-14517 14570 0
-14518 14571 0
-14519 14572 0
-14520 14573 0
-14521 14574 0
-14522 14575 0
-14523 14576 0
-14524 14577 0
-14525 14578 0
-14526 14579 0
-14527 14580 0
-14528 14581 0
-14529 14582 0
-14530 14583 0
-14531 14584 0
-14532 14585 0
-14533 14586 0
-14534 14587 0
-14535 14588 0
-14536 14589 0
-14537 14590 0
-14538 14591 0
-14539 14592 0
-14540 14593 0
-14541 14594 0
-1264 -14489 14543 0
-1264 -14490 14544 0
-1264 -14491 14545 0
-1264 -14492 14546 0
-1264 -14493 14547 0
-1264 -14494 14548 0
-1264 -14495 14549 0
-1264 -14496 14550 0
-1264 -14497 14551 0
-1264 -14498 14552 0
-1264 -14499 14553 0
-1264 -14500 14554 0
-1264 -14501 14555 0
-1264 -14502 14556 0
-1264 -14503 14557 0
-1264 -14504 14558 0
-1264 -14505 14559 0
-1264 -14506 14560 0
-1264 -14507 14561 0
-1264 -14508 14562 0
-1264 -14509 14563 0
-1264 -14510 14564 0
-1264 -14511 14565 0
-1264 -14512 14566 0
-1264 -14513 14567 0
-1264 -14514 14568 0
-1264 -14515 14569 0
-1264 -14516 14570 0
-1264 -14517 14571 0
-1264 -14518 14572 0
-1264 -14519 14573 0
-1264 -14520 14574 0
-1264 -14521 14575 0
-1264 -14522 14576 0
-1264 -14523 14577 0
-1264 -14524 14578 0
-1264 -14525 14579 0
-1264 -14526 14580 0
-1264 -14527 14581 0
-1264 -14528 14582 0
-1264 -14529 14583 0
-1264 -14530 14584 0
-1264 -14531 14585 0
-1264 -14532 14586 0
-1264 -14533 14587 0
-1264 -14534 14588 0
-1264 -14535 14589 0
-1264 -14536 14590 0
-1264 -14537 14591 0
-1264 -14538 14592 0
-1264 -14539 14593 0
-1264 -14540 14594 0
-1264 -14541 0
-14542 14595 0
-14543 14596 0
-14544 14597 0
-14545 14598 0
-14546 14599 0
-14547 14600 0
-14548 14601 0
-14549 14602 0
-14550 14603 0
-14551 14604 0
-14552 14605 0
-14553 14606 0
-14554 14607 0
-14555 14608 0
-14556 14609 0
-14557 14610 0
-14558 14611 0
-14559 14612 0
-14560 14613 0
-14561 14614 0
-14562 14615 0
-14563 14616 0
-14564 14617 0
-14565 14618 0
-14566 14619 0
-14567 14620 0
-14568 14621 0
-14569 14622 0
-14570 14623 0
-14571 14624 0
-14572 14625 0
-14573 14626 0
-14574 14627 0
-14575 14628 0
-14576 14629 0
-14577 14630 0
-14578 14631 0
-14579 14632 0
-14580 14633 0
-14581 14634 0
-14582 14635 0
-14583 14636 0
-14584 14637 0
-14585 14638 0
-14586 14639 0
-14587 14640 0
-14588 14641 0
-14589 14642 0
-14590 14643 0
-14591 14644 0
-14592 14645 0
-14593 14646 0
-14594 14647 0
-1266 -14542 14596 0
-1266 -14543 14597 0
-1266 -14544 14598 0
-1266 -14545 14599 0
-1266 -14546 14600 0
-1266 -14547 14601 0
-1266 -14548 14602 0
-1266 -14549 14603 0
-1266 -14550 14604 0
-1266 -14551 14605 0
-1266 -14552 14606 0
-1266 -14553 14607 0
-1266 -14554 14608 0
-1266 -14555 14609 0
-1266 -14556 14610 0
-1266 -14557 14611 0
-1266 -14558 14612 0
-1266 -14559 14613 0
-1266 -14560 14614 0
-1266 -14561 14615 0
-1266 -14562 14616 0
-1266 -14563 14617 0
-1266 -14564 14618 0
-1266 -14565 14619 0
-1266 -14566 14620 0
-1266 -14567 14621 0
-1266 -14568 14622 0
-1266 -14569 14623 0
-1266 -14570 14624 0
-1266 -14571 14625 0
-1266 -14572 14626 0
-1266 -14573 14627 0
-1266 -14574 14628 0
-1266 -14575 14629 0
-1266 -14576 14630 0
-1266 -14577 14631 0
-1266 -14578 14632 0
-1266 -14579 14633 0
-1266 -14580 14634 0
-1266 -14581 14635 0
-1266 -14582 14636 0
-1266 -14583 14637 0
-1266 -14584 14638 0
-1266 -14585 14639 0
-1266 -14586 14640 0
-1266 -14587 14641 0
-1266 -14588 14642 0
-1266 -14589 14643 0
-1266 -14590 14644 0
-1266 -14591 14645 0
-1266 -14592 14646 0
-1266 -14593 14647 0
-1266 -14594 0
-14595 14648 0
-14596 14649 0
-14597 14650 0
-14598 14651 0
-14599 14652 0
-14600 14653 0
-14601 14654 0
-14602 14655 0
-14603 14656 0
-14604 14657 0
-14605 14658 0
-14606 14659 0
-14607 14660 0
-14608 14661 0
-14609 14662 0
-14610 14663 0
-14611 14664 0
-14612 14665 0
-14613 14666 0
-14614 14667 0
-14615 14668 0
-14616 14669 0
-14617 14670 0
-14618 14671 0
-14619 14672 0
-14620 14673 0
-14621 14674 0
-14622 14675 0
-14623 14676 0
-14624 14677 0
-14625 14678 0
-14626 14679 0
-14627 14680 0
-14628 14681 0
-14629 14682 0
-14630 14683 0
-14631 14684 0
-14632 14685 0
-14633 14686 0
-14634 14687 0
-14635 14688 0
-14636 14689 0
-14637 14690 0
-14638 14691 0
-14639 14692 0
-14640 14693 0
-14641 14694 0
-14642 14695 0
-14643 14696 0
-14644 14697 0
-14645 14698 0
-14646 14699 0
-14647 14700 0
-1268 -14595 14649 0
-1268 -14596 14650 0
-1268 -14597 14651 0
-1268 -14598 14652 0
-1268 -14599 14653 0
-1268 -14600 14654 0
-1268 -14601 14655 0
-1268 -14602 14656 0
-1268 -14603 14657 0
-1268 -14604 14658 0
-1268 -14605 14659 0
-1268 -14606 14660 0
-1268 -14607 14661 0
-1268 -14608 14662 0
-1268 -14609 14663 0
-1268 -14610 14664 0
-1268 -14611 14665 0
-1268 -14612 14666 0
-1268 -14613 14667 0
-1268 -14614 14668 0
-1268 -14615 14669 0
-1268 -14616 14670 0
-1268 -14617 14671 0
-1268 -14618 14672 0
-1268 -14619 14673 0
-1268 -14620 14674 0
-1268 -14621 14675 0
-1268 -14622 14676 0
-1268 -14623 14677 0
-1268 -14624 14678 0
-1268 -14625 14679 0
-1268 -14626 14680 0
-1268 -14627 14681 0
-1268 -14628 14682 0
-1268 -14629 14683 0
-1268 -14630 14684 0
-1268 -14631 14685 0
-1268 -14632 14686 0
-1268 -14633 14687 0
-1268 -14634 14688 0
-1268 -14635 14689 0
-1268 -14636 14690 0
-1268 -14637 14691 0
-1268 -14638 14692 0
-1268 -14639 14693 0
-1268 -14640 14694 0
-1268 -14641 14695 0
-1268 -14642 14696 0
-1268 -14643 14697 0
-1268 -14644 14698 0
-1268 -14645 14699 0
-1268 -14646 14700 0
-1268 -14647 0
-14648 14701 0
-14649 14702 0
-14650 14703 0
-14651 14704 0
-14652 14705 0
-14653 14706 0
-14654 14707 0
-14655 14708 0
-14656 14709 0
-14657 14710 0
-14658 14711 0
-14659 14712 0
-14660 14713 0
-14661 14714 0
-14662 14715 0
-14663 14716 0
-14664 14717 0
-14665 14718 0
-14666 14719 0
-14667 14720 0
-14668 14721 0
-14669 14722 0
-14670 14723 0
-14671 14724 0
-14672 14725 0
-14673 14726 0
-14674 14727 0
-14675 14728 0
-14676 14729 0
-14677 14730 0
-14678 14731 0
-14679 14732 0
-14680 14733 0
-14681 14734 0
-14682 14735 0
-14683 14736 0
-14684 14737 0
-14685 14738 0
-14686 14739 0
-14687 14740 0
-14688 14741 0
-14689 14742 0
-14690 14743 0
-14691 14744 0
-14692 14745 0
-14693 14746 0
-14694 14747 0
-14695 14748 0
-14696 14749 0
-14697 14750 0
-14698 14751 0
-14699 14752 0
-14700 14753 0
-1270 -14648 14702 0
-1270 -14649 14703 0
-1270 -14650 14704 0
-1270 -14651 14705 0
-1270 -14652 14706 0
-1270 -14653 14707 0
-1270 -14654 14708 0
-1270 -14655 14709 0
-1270 -14656 14710 0
-1270 -14657 14711 0
-1270 -14658 14712 0
-1270 -14659 14713 0
-1270 -14660 14714 0
-1270 -14661 14715 0
-1270 -14662 14716 0
-1270 -14663 14717 0
-1270 -14664 14718 0
-1270 -14665 14719 0
-1270 -14666 14720 0
-1270 -14667 14721 0
-1270 -14668 14722 0
-1270 -14669 14723 0
-1270 -14670 14724 0
-1270 -14671 14725 0
-1270 -14672 14726 0
-1270 -14673 14727 0
-1270 -14674 14728 0
-1270 -14675 14729 0
-1270 -14676 14730 0
-1270 -14677 14731 0
-1270 -14678 14732 0
-1270 -14679 14733 0
-1270 -14680 14734 0
-1270 -14681 14735 0
-1270 -14682 14736 0
-1270 -14683 14737 0
-1270 -14684 14738 0
-1270 -14685 14739 0
-1270 -14686 14740 0
-1270 -14687 14741 0
-1270 -14688 14742 0
-1270 -14689 14743 0
-1270 -14690 14744 0
-1270 -14691 14745 0
-1270 -14692 14746 0
-1270 -14693 14747 0
-1270 -14694 14748 0
-1270 -14695 14749 0
-1270 -14696 14750 0
-1270 -14697 14751 0
-1270 -14698 14752 0
-1270 -14699 14753 0
-1270 -14700 0
-14701 14754 0
-14702 14755 0
-14703 14756 0
-14704 14757 0
-14705 14758 0
-14706 14759 0
-14707 14760 0
-14708 14761 0
-14709 14762 0
-14710 14763 0
-14711 14764 0
-14712 14765 0
-14713 14766 0
-14714 14767 0
-14715 14768 0
-14716 14769 0
-14717 14770 0
-14718 14771 0
-14719 14772 0
-14720 14773 0
-14721 14774 0
-14722 14775 0
-14723 14776 0
-14724 14777 0
-14725 14778 0
-14726 14779 0
-14727 14780 0
-14728 14781 0
-14729 14782 0
-14730 14783 0
-14731 14784 0
-14732 14785 0
-14733 14786 0
-14734 14787 0
-14735 14788 0
-14736 14789 0
-14737 14790 0
-14738 14791 0
-14739 14792 0
-14740 14793 0
-14741 14794 0
-14742 14795 0
-14743 14796 0
-14744 14797 0
-14745 14798 0
-14746 14799 0
-14747 14800 0
-14748 14801 0
-14749 14802 0
-14750 14803 0
-14751 14804 0
-14752 14805 0
-14753 14806 0
-1272 -14701 14755 0
-1272 -14702 14756 0
-1272 -14703 14757 0
-1272 -14704 14758 0
-1272 -14705 14759 0
-1272 -14706 14760 0
-1272 -14707 14761 0
-1272 -14708 14762 0
-1272 -14709 14763 0
-1272 -14710 14764 0
-1272 -14711 14765 0
-1272 -14712 14766 0
-1272 -14713 14767 0
-1272 -14714 14768 0
-1272 -14715 14769 0
-1272 -14716 14770 0
-1272 -14717 14771 0
-1272 -14718 14772 0
-1272 -14719 14773 0
-1272 -14720 14774 0
-1272 -14721 14775 0
-1272 -14722 14776 0
-1272 -14723 14777 0
-1272 -14724 14778 0
-1272 -14725 14779 0
-1272 -14726 14780 0
-1272 -14727 14781 0
-1272 -14728 14782 0
-1272 -14729 14783 0
-1272 -14730 14784 0
-1272 -14731 14785 0
-1272 -14732 14786 0
-1272 -14733 14787 0
-1272 -14734 14788 0
-1272 -14735 14789 0
-1272 -14736 14790 0
-1272 -14737 14791 0
-1272 -14738 14792 0
-1272 -14739 14793 0
-1272 -14740 14794 0
-1272 -14741 14795 0
-1272 -14742 14796 0
-1272 -14743 14797 0
-1272 -14744 14798 0
-1272 -14745 14799 0
-1272 -14746 14800 0
-1272 -14747 14801 0
-1272 -14748 14802 0
-1272 -14749 14803 0
-1272 -14750 14804 0
-1272 -14751 14805 0
-1272 -14752 14806 0
-1272 -14753 0
-14754 14807 0
-14755 14808 0
-14756 14809 0
-14757 14810 0
-14758 14811 0
-14759 14812 0
-14760 14813 0
-14761 14814 0
-14762 14815 0
-14763 14816 0
-14764 14817 0
-14765 14818 0
-14766 14819 0
-14767 14820 0
-14768 14821 0
-14769 14822 0
-14770 14823 0
-14771 14824 0
-14772 14825 0
-14773 14826 0
-14774 14827 0
-14775 14828 0
-14776 14829 0
-14777 14830 0
-14778 14831 0
-14779 14832 0
-14780 14833 0
-14781 14834 0
-14782 14835 0
-14783 14836 0
-14784 14837 0
-14785 14838 0
-14786 14839 0
-14787 14840 0
-14788 14841 0
-14789 14842 0
-14790 14843 0
-14791 14844 0
-14792 14845 0
-14793 14846 0
-14794 14847 0
-14795 14848 0
-14796 14849 0
-14797 14850 0
-14798 14851 0
-14799 14852 0
-14800 14853 0
-14801 14854 0
-14802 14855 0
-14803 14856 0
-14804 14857 0
-14805 14858 0
-14806 14859 0
-1274 -14754 14808 0
-1274 -14755 14809 0
-1274 -14756 14810 0
-1274 -14757 14811 0
-1274 -14758 14812 0
-1274 -14759 14813 0
-1274 -14760 14814 0
-1274 -14761 14815 0
-1274 -14762 14816 0
-1274 -14763 14817 0
-1274 -14764 14818 0
-1274 -14765 14819 0
-1274 -14766 14820 0
-1274 -14767 14821 0
-1274 -14768 14822 0
-1274 -14769 14823 0
-1274 -14770 14824 0
-1274 -14771 14825 0
-1274 -14772 14826 0
-1274 -14773 14827 0
-1274 -14774 14828 0
-1274 -14775 14829 0
-1274 -14776 14830 0
-1274 -14777 14831 0
-1274 -14778 14832 0
-1274 -14779 14833 0
-1274 -14780 14834 0
-1274 -14781 14835 0
-1274 -14782 14836 0
-1274 -14783 14837 0
-1274 -14784 14838 0
-1274 -14785 14839 0
-1274 -14786 14840 0
-1274 -14787 14841 0
-1274 -14788 14842 0
-1274 -14789 14843 0
-1274 -14790 14844 0
-1274 -14791 14845 0
-1274 -14792 14846 0
-1274 -14793 14847 0
-1274 -14794 14848 0
-1274 -14795 14849 0
-1274 -14796 14850 0
-1274 -14797 14851 0
-1274 -14798 14852 0
-1274 -14799 14853 0
-1274 -14800 14854 0
-1274 -14801 14855 0
-1274 -14802 14856 0
-1274 -14803 14857 0
-1274 -14804 14858 0
-1274 -14805 14859 0
-1274 -14806 0
-14807 14860 0
-14808 14861 0
-14809 14862 0
-14810 14863 0
-14811 14864 0
-14812 14865 0
-14813 14866 0
-14814 14867 0
-14815 14868 0
-14816 14869 0
-14817 14870 0
-14818 14871 0
-14819 14872 0
-14820 14873 0
-14821 14874 0
-14822 14875 0
-14823 14876 0
-14824 14877 0
-14825 14878 0
-14826 14879 0
-14827 14880 0
-14828 14881 0
-14829 14882 0
-14830 14883 0
-14831 14884 0
-14832 14885 0
-14833 14886 0
-14834 14887 0
-14835 14888 0
-14836 14889 0
-14837 14890 0
-14838 14891 0
-14839 14892 0
-14840 14893 0
-14841 14894 0
-14842 14895 0
-14843 14896 0
-14844 14897 0
-14845 14898 0
-14846 14899 0
-14847 14900 0
-14848 14901 0
-14849 14902 0
-14850 14903 0
-14851 14904 0
-14852 14905 0
-14853 14906 0
-14854 14907 0
-14855 14908 0
-14856 14909 0
-14857 14910 0
-14858 14911 0
-14859 14912 0
-1276 -14807 14861 0
-1276 -14808 14862 0
-1276 -14809 14863 0
-1276 -14810 14864 0
-1276 -14811 14865 0
-1276 -14812 14866 0
-1276 -14813 14867 0
-1276 -14814 14868 0
-1276 -14815 14869 0
-1276 -14816 14870 0
-1276 -14817 14871 0
-1276 -14818 14872 0
-1276 -14819 14873 0
-1276 -14820 14874 0
-1276 -14821 14875 0
-1276 -14822 14876 0
-1276 -14823 14877 0
-1276 -14824 14878 0
-1276 -14825 14879 0
-1276 -14826 14880 0
-1276 -14827 14881 0
-1276 -14828 14882 0
-1276 -14829 14883 0
-1276 -14830 14884 0
-1276 -14831 14885 0
-1276 -14832 14886 0
-1276 -14833 14887 0
-1276 -14834 14888 0
-1276 -14835 14889 0
-1276 -14836 14890 0
-1276 -14837 14891 0
-1276 -14838 14892 0
-1276 -14839 14893 0
-1276 -14840 14894 0
-1276 -14841 14895 0
-1276 -14842 14896 0
-1276 -14843 14897 0
-1276 -14844 14898 0
-1276 -14845 14899 0
-1276 -14846 14900 0
-1276 -14847 14901 0
-1276 -14848 14902 0
-1276 -14849 14903 0
-1276 -14850 14904 0
-1276 -14851 14905 0
-1276 -14852 14906 0
-1276 -14853 14907 0
-1276 -14854 14908 0
-1276 -14855 14909 0
-1276 -14856 14910 0
-1276 -14857 14911 0
-1276 -14858 14912 0
-1276 -14859 0
-14860 14913 0
-14861 14914 0
-14862 14915 0
-14863 14916 0
-14864 14917 0
-14865 14918 0
-14866 14919 0
-14867 14920 0
-14868 14921 0
-14869 14922 0
-14870 14923 0
-14871 14924 0
-14872 14925 0
-14873 14926 0
-14874 14927 0
-14875 14928 0
-14876 14929 0
-14877 14930 0
-14878 14931 0
-14879 14932 0
-14880 14933 0
-14881 14934 0
-14882 14935 0
-14883 14936 0
-14884 14937 0
-14885 14938 0
-14886 14939 0
-14887 14940 0
-14888 14941 0
-14889 14942 0
-14890 14943 0
-14891 14944 0
-14892 14945 0
-14893 14946 0
-14894 14947 0
-14895 14948 0
-14896 14949 0
-14897 14950 0
-14898 14951 0
-14899 14952 0
-14900 14953 0
-14901 14954 0
-14902 14955 0
-14903 14956 0
-14904 14957 0
-14905 14958 0
-14906 14959 0
-14907 14960 0
-14908 14961 0
-14909 14962 0
-14910 14963 0
-14911 14964 0
-14912 14965 0
-1278 -14860 14914 0
-1278 -14861 14915 0
-1278 -14862 14916 0
-1278 -14863 14917 0
-1278 -14864 14918 0
-1278 -14865 14919 0
-1278 -14866 14920 0
-1278 -14867 14921 0
-1278 -14868 14922 0
-1278 -14869 14923 0
-1278 -14870 14924 0
-1278 -14871 14925 0
-1278 -14872 14926 0
-1278 -14873 14927 0
-1278 -14874 14928 0
-1278 -14875 14929 0
-1278 -14876 14930 0
-1278 -14877 14931 0
-1278 -14878 14932 0
-1278 -14879 14933 0
-1278 -14880 14934 0
-1278 -14881 14935 0
-1278 -14882 14936 0
-1278 -14883 14937 0
-1278 -14884 14938 0
-1278 -14885 14939 0
-1278 -14886 14940 0
-1278 -14887 14941 0
-1278 -14888 14942 0
-1278 -14889 14943 0
-1278 -14890 14944 0
-1278 -14891 14945 0
-1278 -14892 14946 0
-1278 -14893 14947 0
-1278 -14894 14948 0
-1278 -14895 14949 0
-1278 -14896 14950 0
-1278 -14897 14951 0
-1278 -14898 14952 0
-1278 -14899 14953 0
-1278 -14900 14954 0
-1278 -14901 14955 0
-1278 -14902 14956 0
-1278 -14903 14957 0
-1278 -14904 14958 0
-1278 -14905 14959 0
-1278 -14906 14960 0
-1278 -14907 14961 0
-1278 -14908 14962 0
-1278 -14909 14963 0
-1278 -14910 14964 0
-1278 -14911 14965 0
-1278 -14912 0
-14913 14966 0
-14914 14967 0
-14915 14968 0
-14916 14969 0
-14917 14970 0
-14918 14971 0
-14919 14972 0
-14920 14973 0
-14921 14974 0
-14922 14975 0
-14923 14976 0
-14924 14977 0
-14925 14978 0
-14926 14979 0
-14927 14980 0
-14928 14981 0
-14929 14982 0
-14930 14983 0
-14931 14984 0
-14932 14985 0
-14933 14986 0
-14934 14987 0
-14935 14988 0
-14936 14989 0
-14937 14990 0
-14938 14991 0
-14939 14992 0
-14940 14993 0
-14941 14994 0
-14942 14995 0
-14943 14996 0
-14944 14997 0
-14945 14998 0
-14946 14999 0
-14947 15000 0
-14948 15001 0
-14949 15002 0
-14950 15003 0
-14951 15004 0
-14952 15005 0
-14953 15006 0
-14954 15007 0
-14955 15008 0
-14956 15009 0
-14957 15010 0
-14958 15011 0
-14959 15012 0
-14960 15013 0
-14961 15014 0
-14962 15015 0
-14963 15016 0
-14964 15017 0
-14965 15018 0
-1280 -14913 14967 0
-1280 -14914 14968 0
-1280 -14915 14969 0
-1280 -14916 14970 0
-1280 -14917 14971 0
-1280 -14918 14972 0
-1280 -14919 14973 0
-1280 -14920 14974 0
-1280 -14921 14975 0
-1280 -14922 14976 0
-1280 -14923 14977 0
-1280 -14924 14978 0
-1280 -14925 14979 0
-1280 -14926 14980 0
-1280 -14927 14981 0
-1280 -14928 14982 0
-1280 -14929 14983 0
-1280 -14930 14984 0
-1280 -14931 14985 0
-1280 -14932 14986 0
-1280 -14933 14987 0
-1280 -14934 14988 0
-1280 -14935 14989 0
-1280 -14936 14990 0
-1280 -14937 14991 0
-1280 -14938 14992 0
-1280 -14939 14993 0
-1280 -14940 14994 0
-1280 -14941 14995 0
-1280 -14942 14996 0
-1280 -14943 14997 0
-1280 -14944 14998 0
-1280 -14945 14999 0
-1280 -14946 15000 0
-1280 -14947 15001 0
-1280 -14948 15002 0
-1280 -14949 15003 0
-1280 -14950 15004 0
-1280 -14951 15005 0
-1280 -14952 15006 0
-1280 -14953 15007 0
-1280 -14954 15008 0
-1280 -14955 15009 0
-1280 -14956 15010 0
-1280 -14957 15011 0
-1280 -14958 15012 0
-1280 -14959 15013 0
-1280 -14960 15014 0
-1280 -14961 15015 0
-1280 -14962 15016 0
-1280 -14963 15017 0
-1280 -14964 15018 0
-1280 -14965 0
-14966 15019 0
-14967 15020 0
-14968 15021 0
-14969 15022 0
-14970 15023 0
-14971 15024 0
-14972 15025 0
-14973 15026 0
-14974 15027 0
-14975 15028 0
-14976 15029 0
-14977 15030 0
-14978 15031 0
-14979 15032 0
-14980 15033 0
-14981 15034 0
-14982 15035 0
-14983 15036 0
-14984 15037 0
-14985 15038 0
-14986 15039 0
-14987 15040 0
-14988 15041 0
-14989 15042 0
-14990 15043 0
-14991 15044 0
-14992 15045 0
-14993 15046 0
-14994 15047 0
-14995 15048 0
-14996 15049 0
-14997 15050 0
-14998 15051 0
-14999 15052 0
-15000 15053 0
-15001 15054 0
-15002 15055 0
-15003 15056 0
-15004 15057 0
-15005 15058 0
-15006 15059 0
-15007 15060 0
-15008 15061 0
-15009 15062 0
-15010 15063 0
-15011 15064 0
-15012 15065 0
-15013 15066 0
-15014 15067 0
-15015 15068 0
-15016 15069 0
-15017 15070 0
-15018 15071 0
-1282 -14966 15020 0
-1282 -14967 15021 0
-1282 -14968 15022 0
-1282 -14969 15023 0
-1282 -14970 15024 0
-1282 -14971 15025 0
-1282 -14972 15026 0
-1282 -14973 15027 0
-1282 -14974 15028 0
-1282 -14975 15029 0
-1282 -14976 15030 0
-1282 -14977 15031 0
-1282 -14978 15032 0
-1282 -14979 15033 0
-1282 -14980 15034 0
-1282 -14981 15035 0
-1282 -14982 15036 0
-1282 -14983 15037 0
-1282 -14984 15038 0
-1282 -14985 15039 0
-1282 -14986 15040 0
-1282 -14987 15041 0
-1282 -14988 15042 0
-1282 -14989 15043 0
-1282 -14990 15044 0
-1282 -14991 15045 0
-1282 -14992 15046 0
-1282 -14993 15047 0
-1282 -14994 15048 0
-1282 -14995 15049 0
-1282 -14996 15050 0
-1282 -14997 15051 0
-1282 -14998 15052 0
-1282 -14999 15053 0
-1282 -15000 15054 0
-1282 -15001 15055 0
-1282 -15002 15056 0
-1282 -15003 15057 0
-1282 -15004 15058 0
-1282 -15005 15059 0
-1282 -15006 15060 0
-1282 -15007 15061 0
-1282 -15008 15062 0
-1282 -15009 15063 0
-1282 -15010 15064 0
-1282 -15011 15065 0
-1282 -15012 15066 0
-1282 -15013 15067 0
-1282 -15014 15068 0
-1282 -15015 15069 0
-1282 -15016 15070 0
-1282 -15017 15071 0
-1282 -15018 0
-15019 15072 0
-15020 15073 0
-15021 15074 0
-15022 15075 0
-15023 15076 0
-15024 15077 0
-15025 15078 0
-15026 15079 0
-15027 15080 0
-15028 15081 0
-15029 15082 0
-15030 15083 0
-15031 15084 0
-15032 15085 0
-15033 15086 0
-15034 15087 0
-15035 15088 0
-15036 15089 0
-15037 15090 0
-15038 15091 0
-15039 15092 0
-15040 15093 0
-15041 15094 0
-15042 15095 0
-15043 15096 0
-15044 15097 0
-15045 15098 0
-15046 15099 0
-15047 15100 0
-15048 15101 0
-15049 15102 0
-15050 15103 0
-15051 15104 0
-15052 15105 0
-15053 15106 0
-15054 15107 0
-15055 15108 0
-15056 15109 0
-15057 15110 0
-15058 15111 0
-15059 15112 0
-15060 15113 0
-15061 15114 0
-15062 15115 0
-15063 15116 0
-15064 15117 0
-15065 15118 0
-15066 15119 0
-15067 15120 0
-15068 15121 0
-15069 15122 0
-15070 15123 0
-15071 15124 0
-1284 -15019 15073 0
-1284 -15020 15074 0
-1284 -15021 15075 0
-1284 -15022 15076 0
-1284 -15023 15077 0
-1284 -15024 15078 0
-1284 -15025 15079 0
-1284 -15026 15080 0
-1284 -15027 15081 0
-1284 -15028 15082 0
-1284 -15029 15083 0
-1284 -15030 15084 0
-1284 -15031 15085 0
-1284 -15032 15086 0
-1284 -15033 15087 0
-1284 -15034 15088 0
-1284 -15035 15089 0
-1284 -15036 15090 0
-1284 -15037 15091 0
-1284 -15038 15092 0
-1284 -15039 15093 0
-1284 -15040 15094 0
-1284 -15041 15095 0
-1284 -15042 15096 0
-1284 -15043 15097 0
-1284 -15044 15098 0
-1284 -15045 15099 0
-1284 -15046 15100 0
-1284 -15047 15101 0
-1284 -15048 15102 0
-1284 -15049 15103 0
-1284 -15050 15104 0
-1284 -15051 15105 0
-1284 -15052 15106 0
-1284 -15053 15107 0
-1284 -15054 15108 0
-1284 -15055 15109 0
-1284 -15056 15110 0
-1284 -15057 15111 0
-1284 -15058 15112 0
-1284 -15059 15113 0
-1284 -15060 15114 0
-1284 -15061 15115 0
-1284 -15062 15116 0
-1284 -15063 15117 0
-1284 -15064 15118 0
-1284 -15065 15119 0
-1284 -15066 15120 0
-1284 -15067 15121 0
-1284 -15068 15122 0
-1284 -15069 15123 0
-1284 -15070 15124 0
-1284 -15071 0
-15072 15125 0
-15073 15126 0
-15074 15127 0
-15075 15128 0
-15076 15129 0
-15077 15130 0
-15078 15131 0
-15079 15132 0
-15080 15133 0
-15081 15134 0
-15082 15135 0
-15083 15136 0
-15084 15137 0
-15085 15138 0
-15086 15139 0
-15087 15140 0
-15088 15141 0
-15089 15142 0
-15090 15143 0
-15091 15144 0
-15092 15145 0
-15093 15146 0
-15094 15147 0
-15095 15148 0
-15096 15149 0
-15097 15150 0
-15098 15151 0
-15099 15152 0
-15100 15153 0
-15101 15154 0
-15102 15155 0
-15103 15156 0
-15104 15157 0
-15105 15158 0
-15106 15159 0
-15107 15160 0
-15108 15161 0
-15109 15162 0
-15110 15163 0
-15111 15164 0
-15112 15165 0
-15113 15166 0
-15114 15167 0
-15115 15168 0
-15116 15169 0
-15117 15170 0
-15118 15171 0
-15119 15172 0
-15120 15173 0
-15121 15174 0
-15122 15175 0
-15123 15176 0
-15124 15177 0
-1286 -15072 15126 0
-1286 -15073 15127 0
-1286 -15074 15128 0
-1286 -15075 15129 0
-1286 -15076 15130 0
-1286 -15077 15131 0
-1286 -15078 15132 0
-1286 -15079 15133 0
-1286 -15080 15134 0
-1286 -15081 15135 0
-1286 -15082 15136 0
-1286 -15083 15137 0
-1286 -15084 15138 0
-1286 -15085 15139 0
-1286 -15086 15140 0
-1286 -15087 15141 0
-1286 -15088 15142 0
-1286 -15089 15143 0
-1286 -15090 15144 0
-1286 -15091 15145 0
-1286 -15092 15146 0
-1286 -15093 15147 0
-1286 -15094 15148 0
-1286 -15095 15149 0
-1286 -15096 15150 0
-1286 -15097 15151 0
-1286 -15098 15152 0
-1286 -15099 15153 0
-1286 -15100 15154 0
-1286 -15101 15155 0
-1286 -15102 15156 0
-1286 -15103 15157 0
-1286 -15104 15158 0
-1286 -15105 15159 0
-1286 -15106 15160 0
-1286 -15107 15161 0
-1286 -15108 15162 0
-1286 -15109 15163 0
-1286 -15110 15164 0
-1286 -15111 15165 0
-1286 -15112 15166 0
-1286 -15113 15167 0
-1286 -15114 15168 0
-1286 -15115 15169 0
-1286 -15116 15170 0
-1286 -15117 15171 0
-1286 -15118 15172 0
-1286 -15119 15173 0
-1286 -15120 15174 0
-1286 -15121 15175 0
-1286 -15122 15176 0
-1286 -15123 15177 0
-1286 -15124 0
-15125 15178 0
-15126 15179 0
-15127 15180 0
-15128 15181 0
-15129 15182 0
-15130 15183 0
-15131 15184 0
-15132 15185 0
-15133 15186 0
-15134 15187 0
-15135 15188 0
-15136 15189 0
-15137 15190 0
-15138 15191 0
-15139 15192 0
-15140 15193 0
-15141 15194 0
-15142 15195 0
-15143 15196 0
-15144 15197 0
-15145 15198 0
-15146 15199 0
-15147 15200 0
-15148 15201 0
-15149 15202 0
-15150 15203 0
-15151 15204 0
-15152 15205 0
-15153 15206 0
-15154 15207 0
-15155 15208 0
-15156 15209 0
-15157 15210 0
-15158 15211 0
-15159 15212 0
-15160 15213 0
-15161 15214 0
-15162 15215 0
-15163 15216 0
-15164 15217 0
-15165 15218 0
-15166 15219 0
-15167 15220 0
-15168 15221 0
-15169 15222 0
-15170 15223 0
-15171 15224 0
-15172 15225 0
-15173 15226 0
-15174 15227 0
-15175 15228 0
-15176 15229 0
-15177 15230 0
-1288 -15125 15179 0
-1288 -15126 15180 0
-1288 -15127 15181 0
-1288 -15128 15182 0
-1288 -15129 15183 0
-1288 -15130 15184 0
-1288 -15131 15185 0
-1288 -15132 15186 0
-1288 -15133 15187 0
-1288 -15134 15188 0
-1288 -15135 15189 0
-1288 -15136 15190 0
-1288 -15137 15191 0
-1288 -15138 15192 0
-1288 -15139 15193 0
-1288 -15140 15194 0
-1288 -15141 15195 0
-1288 -15142 15196 0
-1288 -15143 15197 0
-1288 -15144 15198 0
-1288 -15145 15199 0
-1288 -15146 15200 0
-1288 -15147 15201 0
-1288 -15148 15202 0
-1288 -15149 15203 0
-1288 -15150 15204 0
-1288 -15151 15205 0
-1288 -15152 15206 0
-1288 -15153 15207 0
-1288 -15154 15208 0
-1288 -15155 15209 0
-1288 -15156 15210 0
-1288 -15157 15211 0
-1288 -15158 15212 0
-1288 -15159 15213 0
-1288 -15160 15214 0
-1288 -15161 15215 0
-1288 -15162 15216 0
-1288 -15163 15217 0
-1288 -15164 15218 0
-1288 -15165 15219 0
-1288 -15166 15220 0
-1288 -15167 15221 0
-1288 -15168 15222 0
-1288 -15169 15223 0
-1288 -15170 15224 0
-1288 -15171 15225 0
-1288 -15172 15226 0
-1288 -15173 15227 0
-1288 -15174 15228 0
-1288 -15175 15229 0
-1288 -15176 15230 0
-1288 -15177 0
-15178 15231 0
-15179 15232 0
-15180 15233 0
-15181 15234 0
-15182 15235 0
-15183 15236 0
-15184 15237 0
-15185 15238 0
-15186 15239 0
-15187 15240 0
-15188 15241 0
-15189 15242 0
-15190 15243 0
-15191 15244 0
-15192 15245 0
-15193 15246 0
-15194 15247 0
-15195 15248 0
-15196 15249 0
-15197 15250 0
-15198 15251 0
-15199 15252 0
-15200 15253 0
-15201 15254 0
-15202 15255 0
-15203 15256 0
-15204 15257 0
-15205 15258 0
-15206 15259 0
-15207 15260 0
-15208 15261 0
-15209 15262 0
-15210 15263 0
-15211 15264 0
-15212 15265 0
-15213 15266 0
-15214 15267 0
-15215 15268 0
-15216 15269 0
-15217 15270 0
-15218 15271 0
-15219 15272 0
-15220 15273 0
-15221 15274 0
-15222 15275 0
-15223 15276 0
-15224 15277 0
-15225 15278 0
-15226 15279 0
-15227 15280 0
-15228 15281 0
-15229 15282 0
-15230 15283 0
-1290 -15178 15232 0
-1290 -15179 15233 0
-1290 -15180 15234 0
-1290 -15181 15235 0
-1290 -15182 15236 0
-1290 -15183 15237 0
-1290 -15184 15238 0
-1290 -15185 15239 0
-1290 -15186 15240 0
-1290 -15187 15241 0
-1290 -15188 15242 0
-1290 -15189 15243 0
-1290 -15190 15244 0
-1290 -15191 15245 0
-1290 -15192 15246 0
-1290 -15193 15247 0
-1290 -15194 15248 0
-1290 -15195 15249 0
-1290 -15196 15250 0
-1290 -15197 15251 0
-1290 -15198 15252 0
-1290 -15199 15253 0
-1290 -15200 15254 0
-1290 -15201 15255 0
-1290 -15202 15256 0
-1290 -15203 15257 0
-1290 -15204 15258 0
-1290 -15205 15259 0
-1290 -15206 15260 0
-1290 -15207 15261 0
-1290 -15208 15262 0
-1290 -15209 15263 0
-1290 -15210 15264 0
-1290 -15211 15265 0
-1290 -15212 15266 0
-1290 -15213 15267 0
-1290 -15214 15268 0
-1290 -15215 15269 0
-1290 -15216 15270 0
-1290 -15217 15271 0
-1290 -15218 15272 0
-1290 -15219 15273 0
-1290 -15220 15274 0
-1290 -15221 15275 0
-1290 -15222 15276 0
-1290 -15223 15277 0
-1290 -15224 15278 0
-1290 -15225 15279 0
-1290 -15226 15280 0
-1290 -15227 15281 0
-1290 -15228 15282 0
-1290 -15229 15283 0
-1290 -15230 0
-15231 15284 0
-15232 15285 0
-15233 15286 0
-15234 15287 0
-15235 15288 0
-15236 15289 0
-15237 15290 0
-15238 15291 0
-15239 15292 0
-15240 15293 0
-15241 15294 0
-15242 15295 0
-15243 15296 0
-15244 15297 0
-15245 15298 0
-15246 15299 0
-15247 15300 0
-15248 15301 0
-15249 15302 0
-15250 15303 0
-15251 15304 0
-15252 15305 0
-15253 15306 0
-15254 15307 0
-15255 15308 0
-15256 15309 0
-15257 15310 0
-15258 15311 0
-15259 15312 0
-15260 15313 0
-15261 15314 0
-15262 15315 0
-15263 15316 0
-15264 15317 0
-15265 15318 0
-15266 15319 0
-15267 15320 0
-15268 15321 0
-15269 15322 0
-15270 15323 0
-15271 15324 0
-15272 15325 0
-15273 15326 0
-15274 15327 0
-15275 15328 0
-15276 15329 0
-15277 15330 0
-15278 15331 0
-15279 15332 0
-15280 15333 0
-15281 15334 0
-15282 15335 0
-15283 15336 0
-1292 -15231 15285 0
-1292 -15232 15286 0
-1292 -15233 15287 0
-1292 -15234 15288 0
-1292 -15235 15289 0
-1292 -15236 15290 0
-1292 -15237 15291 0
-1292 -15238 15292 0
-1292 -15239 15293 0
-1292 -15240 15294 0
-1292 -15241 15295 0
-1292 -15242 15296 0
-1292 -15243 15297 0
-1292 -15244 15298 0
-1292 -15245 15299 0
-1292 -15246 15300 0
-1292 -15247 15301 0
-1292 -15248 15302 0
-1292 -15249 15303 0
-1292 -15250 15304 0
-1292 -15251 15305 0
-1292 -15252 15306 0
-1292 -15253 15307 0
-1292 -15254 15308 0
-1292 -15255 15309 0
-1292 -15256 15310 0
-1292 -15257 15311 0
-1292 -15258 15312 0
-1292 -15259 15313 0
-1292 -15260 15314 0
-1292 -15261 15315 0
-1292 -15262 15316 0
-1292 -15263 15317 0
-1292 -15264 15318 0
-1292 -15265 15319 0
-1292 -15266 15320 0
-1292 -15267 15321 0
-1292 -15268 15322 0
-1292 -15269 15323 0
-1292 -15270 15324 0
-1292 -15271 15325 0
-1292 -15272 15326 0
-1292 -15273 15327 0
-1292 -15274 15328 0
-1292 -15275 15329 0
-1292 -15276 15330 0
-1292 -15277 15331 0
-1292 -15278 15332 0
-1292 -15279 15333 0
-1292 -15280 15334 0
-1292 -15281 15335 0
-1292 -15282 15336 0
-1292 -15283 0
-15284 15337 0
-15285 15338 0
-15286 15339 0
-15287 15340 0
-15288 15341 0
-15289 15342 0
-15290 15343 0
-15291 15344 0
-15292 15345 0
-15293 15346 0
-15294 15347 0
-15295 15348 0
-15296 15349 0
-15297 15350 0
-15298 15351 0
-15299 15352 0
-15300 15353 0
-15301 15354 0
-15302 15355 0
-15303 15356 0
-15304 15357 0
-15305 15358 0
-15306 15359 0
-15307 15360 0
-15308 15361 0
-15309 15362 0
-15310 15363 0
-15311 15364 0
-15312 15365 0
-15313 15366 0
-15314 15367 0
-15315 15368 0
-15316 15369 0
-15317 15370 0
-15318 15371 0
-15319 15372 0
-15320 15373 0
-15321 15374 0
-15322 15375 0
-15323 15376 0
-15324 15377 0
-15325 15378 0
-15326 15379 0
-15327 15380 0
-15328 15381 0
-15329 15382 0
-15330 15383 0
-15331 15384 0
-15332 15385 0
-15333 15386 0
-15334 15387 0
-15335 15388 0
-15336 15389 0
-1294 -15284 15338 0
-1294 -15285 15339 0
-1294 -15286 15340 0
-1294 -15287 15341 0
-1294 -15288 15342 0
-1294 -15289 15343 0
-1294 -15290 15344 0
-1294 -15291 15345 0
-1294 -15292 15346 0
-1294 -15293 15347 0
-1294 -15294 15348 0
-1294 -15295 15349 0
-1294 -15296 15350 0
-1294 -15297 15351 0
-1294 -15298 15352 0
-1294 -15299 15353 0
-1294 -15300 15354 0
-1294 -15301 15355 0
-1294 -15302 15356 0
-1294 -15303 15357 0
-1294 -15304 15358 0
-1294 -15305 15359 0
-1294 -15306 15360 0
-1294 -15307 15361 0
-1294 -15308 15362 0
-1294 -15309 15363 0
-1294 -15310 15364 0
-1294 -15311 15365 0
-1294 -15312 15366 0
-1294 -15313 15367 0
-1294 -15314 15368 0
-1294 -15315 15369 0
-1294 -15316 15370 0
-1294 -15317 15371 0
-1294 -15318 15372 0
-1294 -15319 15373 0
-1294 -15320 15374 0
-1294 -15321 15375 0
-1294 -15322 15376 0
-1294 -15323 15377 0
-1294 -15324 15378 0
-1294 -15325 15379 0
-1294 -15326 15380 0
-1294 -15327 15381 0
-1294 -15328 15382 0
-1294 -15329 15383 0
-1294 -15330 15384 0
-1294 -15331 15385 0
-1294 -15332 15386 0
-1294 -15333 15387 0
-1294 -15334 15388 0
-1294 -15335 15389 0
-1294 -15336 0
-15337 15390 0
-15338 15391 0
-15339 15392 0
-15340 15393 0
-15341 15394 0
-15342 15395 0
-15343 15396 0
-15344 15397 0
-15345 15398 0
-15346 15399 0
-15347 15400 0
-15348 15401 0
-15349 15402 0
-15350 15403 0
-15351 15404 0
-15352 15405 0
-15353 15406 0
-15354 15407 0
-15355 15408 0
-15356 15409 0
-15357 15410 0
-15358 15411 0
-15359 15412 0
-15360 15413 0
-15361 15414 0
-15362 15415 0
-15363 15416 0
-15364 15417 0
-15365 15418 0
-15366 15419 0
-15367 15420 0
-15368 15421 0
-15369 15422 0
-15370 15423 0
-15371 15424 0
-15372 15425 0
-15373 15426 0
-15374 15427 0
-15375 15428 0
-15376 15429 0
-15377 15430 0
-15378 15431 0
-15379 15432 0
-15380 15433 0
-15381 15434 0
-15382 15435 0
-15383 15436 0
-15384 15437 0
-15385 15438 0
-15386 15439 0
-15387 15440 0
-15388 15441 0
-15389 15442 0
-1296 -15337 15391 0
-1296 -15338 15392 0
-1296 -15339 15393 0
-1296 -15340 15394 0
-1296 -15341 15395 0
-1296 -15342 15396 0
-1296 -15343 15397 0
-1296 -15344 15398 0
-1296 -15345 15399 0
-1296 -15346 15400 0
-1296 -15347 15401 0
-1296 -15348 15402 0
-1296 -15349 15403 0
-1296 -15350 15404 0
-1296 -15351 15405 0
-1296 -15352 15406 0
-1296 -15353 15407 0
-1296 -15354 15408 0
-1296 -15355 15409 0
-1296 -15356 15410 0
-1296 -15357 15411 0
-1296 -15358 15412 0
-1296 -15359 15413 0
-1296 -15360 15414 0
-1296 -15361 15415 0
-1296 -15362 15416 0
-1296 -15363 15417 0
-1296 -15364 15418 0
-1296 -15365 15419 0
-1296 -15366 15420 0
-1296 -15367 15421 0
-1296 -15368 15422 0
-1296 -15369 15423 0
-1296 -15370 15424 0
-1296 -15371 15425 0
-1296 -15372 15426 0
-1296 -15373 15427 0
-1296 -15374 15428 0
-1296 -15375 15429 0
-1296 -15376 15430 0
-1296 -15377 15431 0
-1296 -15378 15432 0
-1296 -15379 15433 0
-1296 -15380 15434 0
-1296 -15381 15435 0
-1296 -15382 15436 0
-1296 -15383 15437 0
-1296 -15384 15438 0
-1296 -15385 15439 0
-1296 -15386 15440 0
-1296 -15387 15441 0
-1296 -15388 15442 0
-1296 -15389 0
-15390 15443 0
-15391 15444 0
-15392 15445 0
-15393 15446 0
-15394 15447 0
-15395 15448 0
-15396 15449 0
-15397 15450 0
-15398 15451 0
-15399 15452 0
-15400 15453 0
-15401 15454 0
-15402 15455 0
-15403 15456 0
-15404 15457 0
-15405 15458 0
-15406 15459 0
-15407 15460 0
-15408 15461 0
-15409 15462 0
-15410 15463 0
-15411 15464 0
-15412 15465 0
-15413 15466 0
-15414 15467 0
-15415 15468 0
-15416 15469 0
-15417 15470 0
-15418 15471 0
-15419 15472 0
-15420 15473 0
-15421 15474 0
-15422 15475 0
-15423 15476 0
-15424 15477 0
-15425 15478 0
-15426 15479 0
-15427 15480 0
-15428 15481 0
-15429 15482 0
-15430 15483 0
-15431 15484 0
-15432 15485 0
-15433 15486 0
-15434 15487 0
-15435 15488 0
-15436 15489 0
-15437 15490 0
-15438 15491 0
-15439 15492 0
-15440 15493 0
-15441 15494 0
-15442 15495 0
-1298 -15390 15444 0
-1298 -15391 15445 0
-1298 -15392 15446 0
-1298 -15393 15447 0
-1298 -15394 15448 0
-1298 -15395 15449 0
-1298 -15396 15450 0
-1298 -15397 15451 0
-1298 -15398 15452 0
-1298 -15399 15453 0
-1298 -15400 15454 0
-1298 -15401 15455 0
-1298 -15402 15456 0
-1298 -15403 15457 0
-1298 -15404 15458 0
-1298 -15405 15459 0
-1298 -15406 15460 0
-1298 -15407 15461 0
-1298 -15408 15462 0
-1298 -15409 15463 0
-1298 -15410 15464 0
-1298 -15411 15465 0
-1298 -15412 15466 0
-1298 -15413 15467 0
-1298 -15414 15468 0
-1298 -15415 15469 0
-1298 -15416 15470 0
-1298 -15417 15471 0
-1298 -15418 15472 0
-1298 -15419 15473 0
-1298 -15420 15474 0
-1298 -15421 15475 0
-1298 -15422 15476 0
-1298 -15423 15477 0
-1298 -15424 15478 0
-1298 -15425 15479 0
-1298 -15426 15480 0
-1298 -15427 15481 0
-1298 -15428 15482 0
-1298 -15429 15483 0
-1298 -15430 15484 0
-1298 -15431 15485 0
-1298 -15432 15486 0
-1298 -15433 15487 0
-1298 -15434 15488 0
-1298 -15435 15489 0
-1298 -15436 15490 0
-1298 -15437 15491 0
-1298 -15438 15492 0
-1298 -15439 15493 0
-1298 -15440 15494 0
-1298 -15441 15495 0
-1298 -15442 0
-15443 15496 0
-15444 15497 0
-15445 15498 0
-15446 15499 0
-15447 15500 0
-15448 15501 0
-15449 15502 0
-15450 15503 0
-15451 15504 0
-15452 15505 0
-15453 15506 0
-15454 15507 0
-15455 15508 0
-15456 15509 0
-15457 15510 0
-15458 15511 0
-15459 15512 0
-15460 15513 0
-15461 15514 0
-15462 15515 0
-15463 15516 0
-15464 15517 0
-15465 15518 0
-15466 15519 0
-15467 15520 0
-15468 15521 0
-15469 15522 0
-15470 15523 0
-15471 15524 0
-15472 15525 0
-15473 15526 0
-15474 15527 0
-15475 15528 0
-15476 15529 0
-15477 15530 0
-15478 15531 0
-15479 15532 0
-15480 15533 0
-15481 15534 0
-15482 15535 0
-15483 15536 0
-15484 15537 0
-15485 15538 0
-15486 15539 0
-15487 15540 0
-15488 15541 0
-15489 15542 0
-15490 15543 0
-15491 15544 0
-15492 15545 0
-15493 15546 0
-15494 15547 0
-15495 15548 0
-1300 -15443 15497 0
-1300 -15444 15498 0
-1300 -15445 15499 0
-1300 -15446 15500 0
-1300 -15447 15501 0
-1300 -15448 15502 0
-1300 -15449 15503 0
-1300 -15450 15504 0
-1300 -15451 15505 0
-1300 -15452 15506 0
-1300 -15453 15507 0
-1300 -15454 15508 0
-1300 -15455 15509 0
-1300 -15456 15510 0
-1300 -15457 15511 0
-1300 -15458 15512 0
-1300 -15459 15513 0
-1300 -15460 15514 0
-1300 -15461 15515 0
-1300 -15462 15516 0
-1300 -15463 15517 0
-1300 -15464 15518 0
-1300 -15465 15519 0
-1300 -15466 15520 0
-1300 -15467 15521 0
-1300 -15468 15522 0
-1300 -15469 15523 0
-1300 -15470 15524 0
-1300 -15471 15525 0
-1300 -15472 15526 0
-1300 -15473 15527 0
-1300 -15474 15528 0
-1300 -15475 15529 0
-1300 -15476 15530 0
-1300 -15477 15531 0
-1300 -15478 15532 0
-1300 -15479 15533 0
-1300 -15480 15534 0
-1300 -15481 15535 0
-1300 -15482 15536 0
-1300 -15483 15537 0
-1300 -15484 15538 0
-1300 -15485 15539 0
-1300 -15486 15540 0
-1300 -15487 15541 0
-1300 -15488 15542 0
-1300 -15489 15543 0
-1300 -15490 15544 0
-1300 -15491 15545 0
-1300 -15492 15546 0
-1300 -15493 15547 0
-1300 -15494 15548 0
-1300 -15495 0
-15496 15549 0
-15497 15550 0
-15498 15551 0
-15499 15552 0
-15500 15553 0
-15501 15554 0
-15502 15555 0
-15503 15556 0
-15504 15557 0
-15505 15558 0
-15506 15559 0
-15507 15560 0
-15508 15561 0
-15509 15562 0
-15510 15563 0
-15511 15564 0
-15512 15565 0
-15513 15566 0
-15514 15567 0
-15515 15568 0
-15516 15569 0
-15517 15570 0
-15518 15571 0
-15519 15572 0
-15520 15573 0
-15521 15574 0
-15522 15575 0
-15523 15576 0
-15524 15577 0
-15525 15578 0
-15526 15579 0
-15527 15580 0
-15528 15581 0
-15529 15582 0
-15530 15583 0
-15531 15584 0
-15532 15585 0
-15533 15586 0
-15534 15587 0
-15535 15588 0
-15536 15589 0
-15537 15590 0
-15538 15591 0
-15539 15592 0
-15540 15593 0
-15541 15594 0
-15542 15595 0
-15543 15596 0
-15544 15597 0
-15545 15598 0
-15546 15599 0
-15547 15600 0
-15548 15601 0
-1302 -15496 15550 0
-1302 -15497 15551 0
-1302 -15498 15552 0
-1302 -15499 15553 0
-1302 -15500 15554 0
-1302 -15501 15555 0
-1302 -15502 15556 0
-1302 -15503 15557 0
-1302 -15504 15558 0
-1302 -15505 15559 0
-1302 -15506 15560 0
-1302 -15507 15561 0
-1302 -15508 15562 0
-1302 -15509 15563 0
-1302 -15510 15564 0
-1302 -15511 15565 0
-1302 -15512 15566 0
-1302 -15513 15567 0
-1302 -15514 15568 0
-1302 -15515 15569 0
-1302 -15516 15570 0
-1302 -15517 15571 0
-1302 -15518 15572 0
-1302 -15519 15573 0
-1302 -15520 15574 0
-1302 -15521 15575 0
-1302 -15522 15576 0
-1302 -15523 15577 0
-1302 -15524 15578 0
-1302 -15525 15579 0
-1302 -15526 15580 0
-1302 -15527 15581 0
-1302 -15528 15582 0
-1302 -15529 15583 0
-1302 -15530 15584 0
-1302 -15531 15585 0
-1302 -15532 15586 0
-1302 -15533 15587 0
-1302 -15534 15588 0
-1302 -15535 15589 0
-1302 -15536 15590 0
-1302 -15537 15591 0
-1302 -15538 15592 0
-1302 -15539 15593 0
-1302 -15540 15594 0
-1302 -15541 15595 0
-1302 -15542 15596 0
-1302 -15543 15597 0
-1302 -15544 15598 0
-1302 -15545 15599 0
-1302 -15546 15600 0
-1302 -15547 15601 0
-1302 -15548 0
-15549 15602 0
-15550 15603 0
-15551 15604 0
-15552 15605 0
-15553 15606 0
-15554 15607 0
-15555 15608 0
-15556 15609 0
-15557 15610 0
-15558 15611 0
-15559 15612 0
-15560 15613 0
-15561 15614 0
-15562 15615 0
-15563 15616 0
-15564 15617 0
-15565 15618 0
-15566 15619 0
-15567 15620 0
-15568 15621 0
-15569 15622 0
-15570 15623 0
-15571 15624 0
-15572 15625 0
-15573 15626 0
-15574 15627 0
-15575 15628 0
-15576 15629 0
-15577 15630 0
-15578 15631 0
-15579 15632 0
-15580 15633 0
-15581 15634 0
-15582 15635 0
-15583 15636 0
-15584 15637 0
-15585 15638 0
-15586 15639 0
-15587 15640 0
-15588 15641 0
-15589 15642 0
-15590 15643 0
-15591 15644 0
-15592 15645 0
-15593 15646 0
-15594 15647 0
-15595 15648 0
-15596 15649 0
-15597 15650 0
-15598 15651 0
-15599 15652 0
-15600 15653 0
-15601 15654 0
-1304 -15549 15603 0
-1304 -15550 15604 0
-1304 -15551 15605 0
-1304 -15552 15606 0
-1304 -15553 15607 0
-1304 -15554 15608 0
-1304 -15555 15609 0
-1304 -15556 15610 0
-1304 -15557 15611 0
-1304 -15558 15612 0
-1304 -15559 15613 0
-1304 -15560 15614 0
-1304 -15561 15615 0
-1304 -15562 15616 0
-1304 -15563 15617 0
-1304 -15564 15618 0
-1304 -15565 15619 0
-1304 -15566 15620 0
-1304 -15567 15621 0
-1304 -15568 15622 0
-1304 -15569 15623 0
-1304 -15570 15624 0
-1304 -15571 15625 0
-1304 -15572 15626 0
-1304 -15573 15627 0
-1304 -15574 15628 0
-1304 -15575 15629 0
-1304 -15576 15630 0
-1304 -15577 15631 0
-1304 -15578 15632 0
-1304 -15579 15633 0
-1304 -15580 15634 0
-1304 -15581 15635 0
-1304 -15582 15636 0
-1304 -15583 15637 0
-1304 -15584 15638 0
-1304 -15585 15639 0
-1304 -15586 15640 0
-1304 -15587 15641 0
-1304 -15588 15642 0
-1304 -15589 15643 0
-1304 -15590 15644 0
-1304 -15591 15645 0
-1304 -15592 15646 0
-1304 -15593 15647 0
-1304 -15594 15648 0
-1304 -15595 15649 0
-1304 -15596 15650 0
-1304 -15597 15651 0
-1304 -15598 15652 0
-1304 -15599 15653 0
-1304 -15600 15654 0
-1304 -15601 0
-15602 15655 0
-15603 15656 0
-15604 15657 0
-15605 15658 0
-15606 15659 0
-15607 15660 0
-15608 15661 0
-15609 15662 0
-15610 15663 0
-15611 15664 0
-15612 15665 0
-15613 15666 0
-15614 15667 0
-15615 15668 0
-15616 15669 0
-15617 15670 0
-15618 15671 0
-15619 15672 0
-15620 15673 0
-15621 15674 0
-15622 15675 0
-15623 15676 0
-15624 15677 0
-15625 15678 0
-15626 15679 0
-15627 15680 0
-15628 15681 0
-15629 15682 0
-15630 15683 0
-15631 15684 0
-15632 15685 0
-15633 15686 0
-15634 15687 0
-15635 15688 0
-15636 15689 0
-15637 15690 0
-15638 15691 0
-15639 15692 0
-15640 15693 0
-15641 15694 0
-15642 15695 0
-15643 15696 0
-15644 15697 0
-15645 15698 0
-15646 15699 0
-15647 15700 0
-15648 15701 0
-15649 15702 0
-15650 15703 0
-15651 15704 0
-15652 15705 0
-15653 15706 0
-15654 15707 0
-1306 -15602 15656 0
-1306 -15603 15657 0
-1306 -15604 15658 0
-1306 -15605 15659 0
-1306 -15606 15660 0
-1306 -15607 15661 0
-1306 -15608 15662 0
-1306 -15609 15663 0
-1306 -15610 15664 0
-1306 -15611 15665 0
-1306 -15612 15666 0
-1306 -15613 15667 0
-1306 -15614 15668 0
-1306 -15615 15669 0
-1306 -15616 15670 0
-1306 -15617 15671 0
-1306 -15618 15672 0
-1306 -15619 15673 0
-1306 -15620 15674 0
-1306 -15621 15675 0
-1306 -15622 15676 0
-1306 -15623 15677 0
-1306 -15624 15678 0
-1306 -15625 15679 0
-1306 -15626 15680 0
-1306 -15627 15681 0
-1306 -15628 15682 0
-1306 -15629 15683 0
-1306 -15630 15684 0
-1306 -15631 15685 0
-1306 -15632 15686 0
-1306 -15633 15687 0
-1306 -15634 15688 0
-1306 -15635 15689 0
-1306 -15636 15690 0
-1306 -15637 15691 0
-1306 -15638 15692 0
-1306 -15639 15693 0
-1306 -15640 15694 0
-1306 -15641 15695 0
-1306 -15642 15696 0
-1306 -15643 15697 0
-1306 -15644 15698 0
-1306 -15645 15699 0
-1306 -15646 15700 0
-1306 -15647 15701 0
-1306 -15648 15702 0
-1306 -15649 15703 0
-1306 -15650 15704 0
-1306 -15651 15705 0
-1306 -15652 15706 0
-1306 -15653 15707 0
-1306 -15654 0
-15655 15708 0
-15656 15709 0
-15657 15710 0
-15658 15711 0
-15659 15712 0
-15660 15713 0
-15661 15714 0
-15662 15715 0
-15663 15716 0
-15664 15717 0
-15665 15718 0
-15666 15719 0
-15667 15720 0
-15668 15721 0
-15669 15722 0
-15670 15723 0
-15671 15724 0
-15672 15725 0
-15673 15726 0
-15674 15727 0
-15675 15728 0
-15676 15729 0
-15677 15730 0
-15678 15731 0
-15679 15732 0
-15680 15733 0
-15681 15734 0
-15682 15735 0
-15683 15736 0
-15684 15737 0
-15685 15738 0
-15686 15739 0
-15687 15740 0
-15688 15741 0
-15689 15742 0
-15690 15743 0
-15691 15744 0
-15692 15745 0
-15693 15746 0
-15694 15747 0
-15695 15748 0
-15696 15749 0
-15697 15750 0
-15698 15751 0
-15699 15752 0
-15700 15753 0
-15701 15754 0
-15702 15755 0
-15703 15756 0
-15704 15757 0
-15705 15758 0
-15706 15759 0
-15707 15760 0
-1308 -15655 15709 0
-1308 -15656 15710 0
-1308 -15657 15711 0
-1308 -15658 15712 0
-1308 -15659 15713 0
-1308 -15660 15714 0
-1308 -15661 15715 0
-1308 -15662 15716 0
-1308 -15663 15717 0
-1308 -15664 15718 0
-1308 -15665 15719 0
-1308 -15666 15720 0
-1308 -15667 15721 0
-1308 -15668 15722 0
-1308 -15669 15723 0
-1308 -15670 15724 0
-1308 -15671 15725 0
-1308 -15672 15726 0
-1308 -15673 15727 0
-1308 -15674 15728 0
-1308 -15675 15729 0
-1308 -15676 15730 0
-1308 -15677 15731 0
-1308 -15678 15732 0
-1308 -15679 15733 0
-1308 -15680 15734 0
-1308 -15681 15735 0
-1308 -15682 15736 0
-1308 -15683 15737 0
-1308 -15684 15738 0
-1308 -15685 15739 0
-1308 -15686 15740 0
-1308 -15687 15741 0
-1308 -15688 15742 0
-1308 -15689 15743 0
-1308 -15690 15744 0
-1308 -15691 15745 0
-1308 -15692 15746 0
-1308 -15693 15747 0
-1308 -15694 15748 0
-1308 -15695 15749 0
-1308 -15696 15750 0
-1308 -15697 15751 0
-1308 -15698 15752 0
-1308 -15699 15753 0
-1308 -15700 15754 0
-1308 -15701 15755 0
-1308 -15702 15756 0
-1308 -15703 15757 0
-1308 -15704 15758 0
-1308 -15705 15759 0
-1308 -15706 15760 0
-1308 -15707 0
-15708 15761 0
-15709 15762 0
-15710 15763 0
-15711 15764 0
-15712 15765 0
-15713 15766 0
-15714 15767 0
-15715 15768 0
-15716 15769 0
-15717 15770 0
-15718 15771 0
-15719 15772 0
-15720 15773 0
-15721 15774 0
-15722 15775 0
-15723 15776 0
-15724 15777 0
-15725 15778 0
-15726 15779 0
-15727 15780 0
-15728 15781 0
-15729 15782 0
-15730 15783 0
-15731 15784 0
-15732 15785 0
-15733 15786 0
-15734 15787 0
-15735 15788 0
-15736 15789 0
-15737 15790 0
-15738 15791 0
-15739 15792 0
-15740 15793 0
-15741 15794 0
-15742 15795 0
-15743 15796 0
-15744 15797 0
-15745 15798 0
-15746 15799 0
-15747 15800 0
-15748 15801 0
-15749 15802 0
-15750 15803 0
-15751 15804 0
-15752 15805 0
-15753 15806 0
-15754 15807 0
-15755 15808 0
-15756 15809 0
-15757 15810 0
-15758 15811 0
-15759 15812 0
-15760 15813 0
-1310 -15708 15762 0
-1310 -15709 15763 0
-1310 -15710 15764 0
-1310 -15711 15765 0
-1310 -15712 15766 0
-1310 -15713 15767 0
-1310 -15714 15768 0
-1310 -15715 15769 0
-1310 -15716 15770 0
-1310 -15717 15771 0
-1310 -15718 15772 0
-1310 -15719 15773 0
-1310 -15720 15774 0
-1310 -15721 15775 0
-1310 -15722 15776 0
-1310 -15723 15777 0
-1310 -15724 15778 0
-1310 -15725 15779 0
-1310 -15726 15780 0
-1310 -15727 15781 0
-1310 -15728 15782 0
-1310 -15729 15783 0
-1310 -15730 15784 0
-1310 -15731 15785 0
-1310 -15732 15786 0
-1310 -15733 15787 0
-1310 -15734 15788 0
-1310 -15735 15789 0
-1310 -15736 15790 0
-1310 -15737 15791 0
-1310 -15738 15792 0
-1310 -15739 15793 0
-1310 -15740 15794 0
-1310 -15741 15795 0
-1310 -15742 15796 0
-1310 -15743 15797 0
-1310 -15744 15798 0
-1310 -15745 15799 0
-1310 -15746 15800 0
-1310 -15747 15801 0
-1310 -15748 15802 0
-1310 -15749 15803 0
-1310 -15750 15804 0
-1310 -15751 15805 0
-1310 -15752 15806 0
-1310 -15753 15807 0
-1310 -15754 15808 0
-1310 -15755 15809 0
-1310 -15756 15810 0
-1310 -15757 15811 0
-1310 -15758 15812 0
-1310 -15759 15813 0
-1310 -15760 0
-15761 15814 0
-15762 15815 0
-15763 15816 0
-15764 15817 0
-15765 15818 0
-15766 15819 0
-15767 15820 0
-15768 15821 0
-15769 15822 0
-15770 15823 0
-15771 15824 0
-15772 15825 0
-15773 15826 0
-15774 15827 0
-15775 15828 0
-15776 15829 0
-15777 15830 0
-15778 15831 0
-15779 15832 0
-15780 15833 0
-15781 15834 0
-15782 15835 0
-15783 15836 0
-15784 15837 0
-15785 15838 0
-15786 15839 0
-15787 15840 0
-15788 15841 0
-15789 15842 0
-15790 15843 0
-15791 15844 0
-15792 15845 0
-15793 15846 0
-15794 15847 0
-15795 15848 0
-15796 15849 0
-15797 15850 0
-15798 15851 0
-15799 15852 0
-15800 15853 0
-15801 15854 0
-15802 15855 0
-15803 15856 0
-15804 15857 0
-15805 15858 0
-15806 15859 0
-15807 15860 0
-15808 15861 0
-15809 15862 0
-15810 15863 0
-15811 15864 0
-15812 15865 0
-15813 15866 0
-1312 -15761 15815 0
-1312 -15762 15816 0
-1312 -15763 15817 0
-1312 -15764 15818 0
-1312 -15765 15819 0
-1312 -15766 15820 0
-1312 -15767 15821 0
-1312 -15768 15822 0
-1312 -15769 15823 0
-1312 -15770 15824 0
-1312 -15771 15825 0
-1312 -15772 15826 0
-1312 -15773 15827 0
-1312 -15774 15828 0
-1312 -15775 15829 0
-1312 -15776 15830 0
-1312 -15777 15831 0
-1312 -15778 15832 0
-1312 -15779 15833 0
-1312 -15780 15834 0
-1312 -15781 15835 0
-1312 -15782 15836 0
-1312 -15783 15837 0
-1312 -15784 15838 0
-1312 -15785 15839 0
-1312 -15786 15840 0
-1312 -15787 15841 0
-1312 -15788 15842 0
-1312 -15789 15843 0
-1312 -15790 15844 0
-1312 -15791 15845 0
-1312 -15792 15846 0
-1312 -15793 15847 0
-1312 -15794 15848 0
-1312 -15795 15849 0
-1312 -15796 15850 0
-1312 -15797 15851 0
-1312 -15798 15852 0
-1312 -15799 15853 0
-1312 -15800 15854 0
-1312 -15801 15855 0
-1312 -15802 15856 0
-1312 -15803 15857 0
-1312 -15804 15858 0
-1312 -15805 15859 0
-1312 -15806 15860 0
-1312 -15807 15861 0
-1312 -15808 15862 0
-1312 -15809 15863 0
-1312 -15810 15864 0
-1312 -15811 15865 0
-1312 -15812 15866 0
-1312 -15813 0
-15814 15867 0
-15815 15868 0
-15816 15869 0
-15817 15870 0
-15818 15871 0
-15819 15872 0
-15820 15873 0
-15821 15874 0
-15822 15875 0
-15823 15876 0
-15824 15877 0
-15825 15878 0
-15826 15879 0
-15827 15880 0
-15828 15881 0
-15829 15882 0
-15830 15883 0
-15831 15884 0
-15832 15885 0
-15833 15886 0
-15834 15887 0
-15835 15888 0
-15836 15889 0
-15837 15890 0
-15838 15891 0
-15839 15892 0
-15840 15893 0
-15841 15894 0
-15842 15895 0
-15843 15896 0
-15844 15897 0
-15845 15898 0
-15846 15899 0
-15847 15900 0
-15848 15901 0
-15849 15902 0
-15850 15903 0
-15851 15904 0
-15852 15905 0
-15853 15906 0
-15854 15907 0
-15855 15908 0
-15856 15909 0
-15857 15910 0
-15858 15911 0
-15859 15912 0
-15860 15913 0
-15861 15914 0
-15862 15915 0
-15863 15916 0
-15864 15917 0
-15865 15918 0
-15866 15919 0
-1314 -15814 15868 0
-1314 -15815 15869 0
-1314 -15816 15870 0
-1314 -15817 15871 0
-1314 -15818 15872 0
-1314 -15819 15873 0
-1314 -15820 15874 0
-1314 -15821 15875 0
-1314 -15822 15876 0
-1314 -15823 15877 0
-1314 -15824 15878 0
-1314 -15825 15879 0
-1314 -15826 15880 0
-1314 -15827 15881 0
-1314 -15828 15882 0
-1314 -15829 15883 0
-1314 -15830 15884 0
-1314 -15831 15885 0
-1314 -15832 15886 0
-1314 -15833 15887 0
-1314 -15834 15888 0
-1314 -15835 15889 0
-1314 -15836 15890 0
-1314 -15837 15891 0
-1314 -15838 15892 0
-1314 -15839 15893 0
-1314 -15840 15894 0
-1314 -15841 15895 0
-1314 -15842 15896 0
-1314 -15843 15897 0
-1314 -15844 15898 0
-1314 -15845 15899 0
-1314 -15846 15900 0
-1314 -15847 15901 0
-1314 -15848 15902 0
-1314 -15849 15903 0
-1314 -15850 15904 0
-1314 -15851 15905 0
-1314 -15852 15906 0
-1314 -15853 15907 0
-1314 -15854 15908 0
-1314 -15855 15909 0
-1314 -15856 15910 0
-1314 -15857 15911 0
-1314 -15858 15912 0
-1314 -15859 15913 0
-1314 -15860 15914 0
-1314 -15861 15915 0
-1314 -15862 15916 0
-1314 -15863 15917 0
-1314 -15864 15918 0
-1314 -15865 15919 0
-1314 -15866 0
-15867 15920 0
-15868 15921 0
-15869 15922 0
-15870 15923 0
-15871 15924 0
-15872 15925 0
-15873 15926 0
-15874 15927 0
-15875 15928 0
-15876 15929 0
-15877 15930 0
-15878 15931 0
-15879 15932 0
-15880 15933 0
-15881 15934 0
-15882 15935 0
-15883 15936 0
-15884 15937 0
-15885 15938 0
-15886 15939 0
-15887 15940 0
-15888 15941 0
-15889 15942 0
-15890 15943 0
-15891 15944 0
-15892 15945 0
-15893 15946 0
-15894 15947 0
-15895 15948 0
-15896 15949 0
-15897 15950 0
-15898 15951 0
-15899 15952 0
-15900 15953 0
-15901 15954 0
-15902 15955 0
-15903 15956 0
-15904 15957 0
-15905 15958 0
-15906 15959 0
-15907 15960 0
-15908 15961 0
-15909 15962 0
-15910 15963 0
-15911 15964 0
-15912 15965 0
-15913 15966 0
-15914 15967 0
-15915 15968 0
-15916 15969 0
-15917 15970 0
-15918 15971 0
-15919 15972 0
-1316 -15867 15921 0
-1316 -15868 15922 0
-1316 -15869 15923 0
-1316 -15870 15924 0
-1316 -15871 15925 0
-1316 -15872 15926 0
-1316 -15873 15927 0
-1316 -15874 15928 0
-1316 -15875 15929 0
-1316 -15876 15930 0
-1316 -15877 15931 0
-1316 -15878 15932 0
-1316 -15879 15933 0
-1316 -15880 15934 0
-1316 -15881 15935 0
-1316 -15882 15936 0
-1316 -15883 15937 0
-1316 -15884 15938 0
-1316 -15885 15939 0
-1316 -15886 15940 0
-1316 -15887 15941 0
-1316 -15888 15942 0
-1316 -15889 15943 0
-1316 -15890 15944 0
-1316 -15891 15945 0
-1316 -15892 15946 0
-1316 -15893 15947 0
-1316 -15894 15948 0
-1316 -15895 15949 0
-1316 -15896 15950 0
-1316 -15897 15951 0
-1316 -15898 15952 0
-1316 -15899 15953 0
-1316 -15900 15954 0
-1316 -15901 15955 0
-1316 -15902 15956 0
-1316 -15903 15957 0
-1316 -15904 15958 0
-1316 -15905 15959 0
-1316 -15906 15960 0
-1316 -15907 15961 0
-1316 -15908 15962 0
-1316 -15909 15963 0
-1316 -15910 15964 0
-1316 -15911 15965 0
-1316 -15912 15966 0
-1316 -15913 15967 0
-1316 -15914 15968 0
-1316 -15915 15969 0
-1316 -15916 15970 0
-1316 -15917 15971 0
-1316 -15918 15972 0
-1316 -15919 0
-15920 15973 0
-15921 15974 0
-15922 15975 0
-15923 15976 0
-15924 15977 0
-15925 15978 0
-15926 15979 0
-15927 15980 0
-15928 15981 0
-15929 15982 0
-15930 15983 0
-15931 15984 0
-15932 15985 0
-15933 15986 0
-15934 15987 0
-15935 15988 0
-15936 15989 0
-15937 15990 0
-15938 15991 0
-15939 15992 0
-15940 15993 0
-15941 15994 0
-15942 15995 0
-15943 15996 0
-15944 15997 0
-15945 15998 0
-15946 15999 0
-15947 16000 0
-15948 16001 0
-15949 16002 0
-15950 16003 0
-15951 16004 0
-15952 16005 0
-15953 16006 0
-15954 16007 0
-15955 16008 0
-15956 16009 0
-15957 16010 0
-15958 16011 0
-15959 16012 0
-15960 16013 0
-15961 16014 0
-15962 16015 0
-15963 16016 0
-15964 16017 0
-15965 16018 0
-15966 16019 0
-15967 16020 0
-15968 16021 0
-15969 16022 0
-15970 16023 0
-15971 16024 0
-15972 16025 0
-1318 -15920 15974 0
-1318 -15921 15975 0
-1318 -15922 15976 0
-1318 -15923 15977 0
-1318 -15924 15978 0
-1318 -15925 15979 0
-1318 -15926 15980 0
-1318 -15927 15981 0
-1318 -15928 15982 0
-1318 -15929 15983 0
-1318 -15930 15984 0
-1318 -15931 15985 0
-1318 -15932 15986 0
-1318 -15933 15987 0
-1318 -15934 15988 0
-1318 -15935 15989 0
-1318 -15936 15990 0
-1318 -15937 15991 0
-1318 -15938 15992 0
-1318 -15939 15993 0
-1318 -15940 15994 0
-1318 -15941 15995 0
-1318 -15942 15996 0
-1318 -15943 15997 0
-1318 -15944 15998 0
-1318 -15945 15999 0
-1318 -15946 16000 0
-1318 -15947 16001 0
-1318 -15948 16002 0
-1318 -15949 16003 0
-1318 -15950 16004 0
-1318 -15951 16005 0
-1318 -15952 16006 0
-1318 -15953 16007 0
-1318 -15954 16008 0
-1318 -15955 16009 0
-1318 -15956 16010 0
-1318 -15957 16011 0
-1318 -15958 16012 0
-1318 -15959 16013 0
-1318 -15960 16014 0
-1318 -15961 16015 0
-1318 -15962 16016 0
-1318 -15963 16017 0
-1318 -15964 16018 0
-1318 -15965 16019 0
-1318 -15966 16020 0
-1318 -15967 16021 0
-1318 -15968 16022 0
-1318 -15969 16023 0
-1318 -15970 16024 0
-1318 -15971 16025 0
-1318 -15972 0
-15973 16026 0
-15974 16027 0
-15975 16028 0
-15976 16029 0
-15977 16030 0
-15978 16031 0
-15979 16032 0
-15980 16033 0
-15981 16034 0
-15982 16035 0
-15983 16036 0
-15984 16037 0
-15985 16038 0
-15986 16039 0
-15987 16040 0
-15988 16041 0
-15989 16042 0
-15990 16043 0
-15991 16044 0
-15992 16045 0
-15993 16046 0
-15994 16047 0
-15995 16048 0
-15996 16049 0
-15997 16050 0
-15998 16051 0
-15999 16052 0
-16000 16053 0
-16001 16054 0
-16002 16055 0
-16003 16056 0
-16004 16057 0
-16005 16058 0
-16006 16059 0
-16007 16060 0
-16008 16061 0
-16009 16062 0
-16010 16063 0
-16011 16064 0
-16012 16065 0
-16013 16066 0
-16014 16067 0
-16015 16068 0
-16016 16069 0
-16017 16070 0
-16018 16071 0
-16019 16072 0
-16020 16073 0
-16021 16074 0
-16022 16075 0
-16023 16076 0
-16024 16077 0
-16025 16078 0
-1320 -15973 16027 0
-1320 -15974 16028 0
-1320 -15975 16029 0
-1320 -15976 16030 0
-1320 -15977 16031 0
-1320 -15978 16032 0
-1320 -15979 16033 0
-1320 -15980 16034 0
-1320 -15981 16035 0
-1320 -15982 16036 0
-1320 -15983 16037 0
-1320 -15984 16038 0
-1320 -15985 16039 0
-1320 -15986 16040 0
-1320 -15987 16041 0
-1320 -15988 16042 0
-1320 -15989 16043 0
-1320 -15990 16044 0
-1320 -15991 16045 0
-1320 -15992 16046 0
-1320 -15993 16047 0
-1320 -15994 16048 0
-1320 -15995 16049 0
-1320 -15996 16050 0
-1320 -15997 16051 0
-1320 -15998 16052 0
-1320 -15999 16053 0
-1320 -16000 16054 0
-1320 -16001 16055 0
-1320 -16002 16056 0
-1320 -16003 16057 0
-1320 -16004 16058 0
-1320 -16005 16059 0
-1320 -16006 16060 0
-1320 -16007 16061 0
-1320 -16008 16062 0
-1320 -16009 16063 0
-1320 -16010 16064 0
-1320 -16011 16065 0
-1320 -16012 16066 0
-1320 -16013 16067 0
-1320 -16014 16068 0
-1320 -16015 16069 0
-1320 -16016 16070 0
-1320 -16017 16071 0
-1320 -16018 16072 0
-1320 -16019 16073 0
-1320 -16020 16074 0
-1320 -16021 16075 0
-1320 -16022 16076 0
-1320 -16023 16077 0
-1320 -16024 16078 0
-1320 -16025 0
-16026 16079 0
-16027 16080 0
-16028 16081 0
-16029 16082 0
-16030 16083 0
-16031 16084 0
-16032 16085 0
-16033 16086 0
-16034 16087 0
-16035 16088 0
-16036 16089 0
-16037 16090 0
-16038 16091 0
-16039 16092 0
-16040 16093 0
-16041 16094 0
-16042 16095 0
-16043 16096 0
-16044 16097 0
-16045 16098 0
-16046 16099 0
-16047 16100 0
-16048 16101 0
-16049 16102 0
-16050 16103 0
-16051 16104 0
-16052 16105 0
-16053 16106 0
-16054 16107 0
-16055 16108 0
-16056 16109 0
-16057 16110 0
-16058 16111 0
-16059 16112 0
-16060 16113 0
-16061 16114 0
-16062 16115 0
-16063 16116 0
-16064 16117 0
-16065 16118 0
-16066 16119 0
-16067 16120 0
-16068 16121 0
-16069 16122 0
-16070 16123 0
-16071 16124 0
-16072 16125 0
-16073 16126 0
-16074 16127 0
-16075 16128 0
-16076 16129 0
-16077 16130 0
-16078 16131 0
-1322 -16026 16080 0
-1322 -16027 16081 0
-1322 -16028 16082 0
-1322 -16029 16083 0
-1322 -16030 16084 0
-1322 -16031 16085 0
-1322 -16032 16086 0
-1322 -16033 16087 0
-1322 -16034 16088 0
-1322 -16035 16089 0
-1322 -16036 16090 0
-1322 -16037 16091 0
-1322 -16038 16092 0
-1322 -16039 16093 0
-1322 -16040 16094 0
-1322 -16041 16095 0
-1322 -16042 16096 0
-1322 -16043 16097 0
-1322 -16044 16098 0
-1322 -16045 16099 0
-1322 -16046 16100 0
-1322 -16047 16101 0
-1322 -16048 16102 0
-1322 -16049 16103 0
-1322 -16050 16104 0
-1322 -16051 16105 0
-1322 -16052 16106 0
-1322 -16053 16107 0
-1322 -16054 16108 0
-1322 -16055 16109 0
-1322 -16056 16110 0
-1322 -16057 16111 0
-1322 -16058 16112 0
-1322 -16059 16113 0
-1322 -16060 16114 0
-1322 -16061 16115 0
-1322 -16062 16116 0
-1322 -16063 16117 0
-1322 -16064 16118 0
-1322 -16065 16119 0
-1322 -16066 16120 0
-1322 -16067 16121 0
-1322 -16068 16122 0
-1322 -16069 16123 0
-1322 -16070 16124 0
-1322 -16071 16125 0
-1322 -16072 16126 0
-1322 -16073 16127 0
-1322 -16074 16128 0
-1322 -16075 16129 0
-1322 -16076 16130 0
-1322 -16077 16131 0
-1322 -16078 0
-16079 16132 0
-16080 16133 0
-16081 16134 0
-16082 16135 0
-16083 16136 0
-16084 16137 0
-16085 16138 0
-16086 16139 0
-16087 16140 0
-16088 16141 0
-16089 16142 0
-16090 16143 0
-16091 16144 0
-16092 16145 0
-16093 16146 0
-16094 16147 0
-16095 16148 0
-16096 16149 0
-16097 16150 0
-16098 16151 0
-16099 16152 0
-16100 16153 0
-16101 16154 0
-16102 16155 0
-16103 16156 0
-16104 16157 0
-16105 16158 0
-16106 16159 0
-16107 16160 0
-16108 16161 0
-16109 16162 0
-16110 16163 0
-16111 16164 0
-16112 16165 0
-16113 16166 0
-16114 16167 0
-16115 16168 0
-16116 16169 0
-16117 16170 0
-16118 16171 0
-16119 16172 0
-16120 16173 0
-16121 16174 0
-16122 16175 0
-16123 16176 0
-16124 16177 0
-16125 16178 0
-16126 16179 0
-16127 16180 0
-16128 16181 0
-16129 16182 0
-16130 16183 0
-16131 16184 0
-1324 -16079 16133 0
-1324 -16080 16134 0
-1324 -16081 16135 0
-1324 -16082 16136 0
-1324 -16083 16137 0
-1324 -16084 16138 0
-1324 -16085 16139 0
-1324 -16086 16140 0
-1324 -16087 16141 0
-1324 -16088 16142 0
-1324 -16089 16143 0
-1324 -16090 16144 0
-1324 -16091 16145 0
-1324 -16092 16146 0
-1324 -16093 16147 0
-1324 -16094 16148 0
-1324 -16095 16149 0
-1324 -16096 16150 0
-1324 -16097 16151 0
-1324 -16098 16152 0
-1324 -16099 16153 0
-1324 -16100 16154 0
-1324 -16101 16155 0
-1324 -16102 16156 0
-1324 -16103 16157 0
-1324 -16104 16158 0
-1324 -16105 16159 0
-1324 -16106 16160 0
-1324 -16107 16161 0
-1324 -16108 16162 0
-1324 -16109 16163 0
-1324 -16110 16164 0
-1324 -16111 16165 0
-1324 -16112 16166 0
-1324 -16113 16167 0
-1324 -16114 16168 0
-1324 -16115 16169 0
-1324 -16116 16170 0
-1324 -16117 16171 0
-1324 -16118 16172 0
-1324 -16119 16173 0
-1324 -16120 16174 0
-1324 -16121 16175 0
-1324 -16122 16176 0
-1324 -16123 16177 0
-1324 -16124 16178 0
-1324 -16125 16179 0
-1324 -16126 16180 0
-1324 -16127 16181 0
-1324 -16128 16182 0
-1324 -16129 16183 0
-1324 -16130 16184 0
-1324 -16131 0
-16132 16185 0
-16133 16186 0
-16134 16187 0
-16135 16188 0
-16136 16189 0
-16137 16190 0
-16138 16191 0
-16139 16192 0
-16140 16193 0
-16141 16194 0
-16142 16195 0
-16143 16196 0
-16144 16197 0
-16145 16198 0
-16146 16199 0
-16147 16200 0
-16148 16201 0
-16149 16202 0
-16150 16203 0
-16151 16204 0
-16152 16205 0
-16153 16206 0
-16154 16207 0
-16155 16208 0
-16156 16209 0
-16157 16210 0
-16158 16211 0
-16159 16212 0
-16160 16213 0
-16161 16214 0
-16162 16215 0
-16163 16216 0
-16164 16217 0
-16165 16218 0
-16166 16219 0
-16167 16220 0
-16168 16221 0
-16169 16222 0
-16170 16223 0
-16171 16224 0
-16172 16225 0
-16173 16226 0
-16174 16227 0
-16175 16228 0
-16176 16229 0
-16177 16230 0
-16178 16231 0
-16179 16232 0
-16180 16233 0
-16181 16234 0
-16182 16235 0
-16183 16236 0
-16184 16237 0
-1326 -16132 16186 0
-1326 -16133 16187 0
-1326 -16134 16188 0
-1326 -16135 16189 0
-1326 -16136 16190 0
-1326 -16137 16191 0
-1326 -16138 16192 0
-1326 -16139 16193 0
-1326 -16140 16194 0
-1326 -16141 16195 0
-1326 -16142 16196 0
-1326 -16143 16197 0
-1326 -16144 16198 0
-1326 -16145 16199 0
-1326 -16146 16200 0
-1326 -16147 16201 0
-1326 -16148 16202 0
-1326 -16149 16203 0
-1326 -16150 16204 0
-1326 -16151 16205 0
-1326 -16152 16206 0
-1326 -16153 16207 0
-1326 -16154 16208 0
-1326 -16155 16209 0
-1326 -16156 16210 0
-1326 -16157 16211 0
-1326 -16158 16212 0
-1326 -16159 16213 0
-1326 -16160 16214 0
-1326 -16161 16215 0
-1326 -16162 16216 0
-1326 -16163 16217 0
-1326 -16164 16218 0
-1326 -16165 16219 0
-1326 -16166 16220 0
-1326 -16167 16221 0
-1326 -16168 16222 0
-1326 -16169 16223 0
-1326 -16170 16224 0
-1326 -16171 16225 0
-1326 -16172 16226 0
-1326 -16173 16227 0
-1326 -16174 16228 0
-1326 -16175 16229 0
-1326 -16176 16230 0
-1326 -16177 16231 0
-1326 -16178 16232 0
-1326 -16179 16233 0
-1326 -16180 16234 0
-1326 -16181 16235 0
-1326 -16182 16236 0
-1326 -16183 16237 0
-1326 -16184 0
-16185 16238 0
-16186 16239 0
-16187 16240 0
-16188 16241 0
-16189 16242 0
-16190 16243 0
-16191 16244 0
-16192 16245 0
-16193 16246 0
-16194 16247 0
-16195 16248 0
-16196 16249 0
-16197 16250 0
-16198 16251 0
-16199 16252 0
-16200 16253 0
-16201 16254 0
-16202 16255 0
-16203 16256 0
-16204 16257 0
-16205 16258 0
-16206 16259 0
-16207 16260 0
-16208 16261 0
-16209 16262 0
-16210 16263 0
-16211 16264 0
-16212 16265 0
-16213 16266 0
-16214 16267 0
-16215 16268 0
-16216 16269 0
-16217 16270 0
-16218 16271 0
-16219 16272 0
-16220 16273 0
-16221 16274 0
-16222 16275 0
-16223 16276 0
-16224 16277 0
-16225 16278 0
-16226 16279 0
-16227 16280 0
-16228 16281 0
-16229 16282 0
-16230 16283 0
-16231 16284 0
-16232 16285 0
-16233 16286 0
-16234 16287 0
-16235 16288 0
-16236 16289 0
-16237 16290 0
-1328 -16185 16239 0
-1328 -16186 16240 0
-1328 -16187 16241 0
-1328 -16188 16242 0
-1328 -16189 16243 0
-1328 -16190 16244 0
-1328 -16191 16245 0
-1328 -16192 16246 0
-1328 -16193 16247 0
-1328 -16194 16248 0
-1328 -16195 16249 0
-1328 -16196 16250 0
-1328 -16197 16251 0
-1328 -16198 16252 0
-1328 -16199 16253 0
-1328 -16200 16254 0
-1328 -16201 16255 0
-1328 -16202 16256 0
-1328 -16203 16257 0
-1328 -16204 16258 0
-1328 -16205 16259 0
-1328 -16206 16260 0
-1328 -16207 16261 0
-1328 -16208 16262 0
-1328 -16209 16263 0
-1328 -16210 16264 0
-1328 -16211 16265 0
-1328 -16212 16266 0
-1328 -16213 16267 0
-1328 -16214 16268 0
-1328 -16215 16269 0
-1328 -16216 16270 0
-1328 -16217 16271 0
-1328 -16218 16272 0
-1328 -16219 16273 0
-1328 -16220 16274 0
-1328 -16221 16275 0
-1328 -16222 16276 0
-1328 -16223 16277 0
-1328 -16224 16278 0
-1328 -16225 16279 0
-1328 -16226 16280 0
-1328 -16227 16281 0
-1328 -16228 16282 0
-1328 -16229 16283 0
-1328 -16230 16284 0
-1328 -16231 16285 0
-1328 -16232 16286 0
-1328 -16233 16287 0
-1328 -16234 16288 0
-1328 -16235 16289 0
-1328 -16236 16290 0
-1328 -16237 0
-16238 16291 0
-16239 16292 0
-16240 16293 0
-16241 16294 0
-16242 16295 0
-16243 16296 0
-16244 16297 0
-16245 16298 0
-16246 16299 0
-16247 16300 0
-16248 16301 0
-16249 16302 0
-16250 16303 0
-16251 16304 0
-16252 16305 0
-16253 16306 0
-16254 16307 0
-16255 16308 0
-16256 16309 0
-16257 16310 0
-16258 16311 0
-16259 16312 0
-16260 16313 0
-16261 16314 0
-16262 16315 0
-16263 16316 0
-16264 16317 0
-16265 16318 0
-16266 16319 0
-16267 16320 0
-16268 16321 0
-16269 16322 0
-16270 16323 0
-16271 16324 0
-16272 16325 0
-16273 16326 0
-16274 16327 0
-16275 16328 0
-16276 16329 0
-16277 16330 0
-16278 16331 0
-16279 16332 0
-16280 16333 0
-16281 16334 0
-16282 16335 0
-16283 16336 0
-16284 16337 0
-16285 16338 0
-16286 16339 0
-16287 16340 0
-16288 16341 0
-16289 16342 0
-16290 16343 0
-1330 -16238 16292 0
-1330 -16239 16293 0
-1330 -16240 16294 0
-1330 -16241 16295 0
-1330 -16242 16296 0
-1330 -16243 16297 0
-1330 -16244 16298 0
-1330 -16245 16299 0
-1330 -16246 16300 0
-1330 -16247 16301 0
-1330 -16248 16302 0
-1330 -16249 16303 0
-1330 -16250 16304 0
-1330 -16251 16305 0
-1330 -16252 16306 0
-1330 -16253 16307 0
-1330 -16254 16308 0
-1330 -16255 16309 0
-1330 -16256 16310 0
-1330 -16257 16311 0
-1330 -16258 16312 0
-1330 -16259 16313 0
-1330 -16260 16314 0
-1330 -16261 16315 0
-1330 -16262 16316 0
-1330 -16263 16317 0
-1330 -16264 16318 0
-1330 -16265 16319 0
-1330 -16266 16320 0
-1330 -16267 16321 0
-1330 -16268 16322 0
-1330 -16269 16323 0
-1330 -16270 16324 0
-1330 -16271 16325 0
-1330 -16272 16326 0
-1330 -16273 16327 0
-1330 -16274 16328 0
-1330 -16275 16329 0
-1330 -16276 16330 0
-1330 -16277 16331 0
-1330 -16278 16332 0
-1330 -16279 16333 0
-1330 -16280 16334 0
-1330 -16281 16335 0
-1330 -16282 16336 0
-1330 -16283 16337 0
-1330 -16284 16338 0
-1330 -16285 16339 0
-1330 -16286 16340 0
-1330 -16287 16341 0
-1330 -16288 16342 0
-1330 -16289 16343 0
-1330 -16290 0
-16291 16344 0
-16292 16345 0
-16293 16346 0
-16294 16347 0
-16295 16348 0
-16296 16349 0
-16297 16350 0
-16298 16351 0
-16299 16352 0
-16300 16353 0
-16301 16354 0
-16302 16355 0
-16303 16356 0
-16304 16357 0
-16305 16358 0
-16306 16359 0
-16307 16360 0
-16308 16361 0
-16309 16362 0
-16310 16363 0
-16311 16364 0
-16312 16365 0
-16313 16366 0
-16314 16367 0
-16315 16368 0
-16316 16369 0
-16317 16370 0
-16318 16371 0
-16319 16372 0
-16320 16373 0
-16321 16374 0
-16322 16375 0
-16323 16376 0
-16324 16377 0
-16325 16378 0
-16326 16379 0
-16327 16380 0
-16328 16381 0
-16329 16382 0
-16330 16383 0
-16331 16384 0
-16332 16385 0
-16333 16386 0
-16334 16387 0
-16335 16388 0
-16336 16389 0
-16337 16390 0
-16338 16391 0
-16339 16392 0
-16340 16393 0
-16341 16394 0
-16342 16395 0
-16343 16396 0
-1332 -16291 16345 0
-1332 -16292 16346 0
-1332 -16293 16347 0
-1332 -16294 16348 0
-1332 -16295 16349 0
-1332 -16296 16350 0
-1332 -16297 16351 0
-1332 -16298 16352 0
-1332 -16299 16353 0
-1332 -16300 16354 0
-1332 -16301 16355 0
-1332 -16302 16356 0
-1332 -16303 16357 0
-1332 -16304 16358 0
-1332 -16305 16359 0
-1332 -16306 16360 0
-1332 -16307 16361 0
-1332 -16308 16362 0
-1332 -16309 16363 0
-1332 -16310 16364 0
-1332 -16311 16365 0
-1332 -16312 16366 0
-1332 -16313 16367 0
-1332 -16314 16368 0
-1332 -16315 16369 0
-1332 -16316 16370 0
-1332 -16317 16371 0
-1332 -16318 16372 0
-1332 -16319 16373 0
-1332 -16320 16374 0
-1332 -16321 16375 0
-1332 -16322 16376 0
-1332 -16323 16377 0
-1332 -16324 16378 0
-1332 -16325 16379 0
-1332 -16326 16380 0
-1332 -16327 16381 0
-1332 -16328 16382 0
-1332 -16329 16383 0
-1332 -16330 16384 0
-1332 -16331 16385 0
-1332 -16332 16386 0
-1332 -16333 16387 0
-1332 -16334 16388 0
-1332 -16335 16389 0
-1332 -16336 16390 0
-1332 -16337 16391 0
-1332 -16338 16392 0
-1332 -16339 16393 0
-1332 -16340 16394 0
-1332 -16341 16395 0
-1332 -16342 16396 0
-1332 -16343 0
-16344 16397 0
-16345 16398 0
-16346 16399 0
-16347 16400 0
-16348 16401 0
-16349 16402 0
-16350 16403 0
-16351 16404 0
-16352 16405 0
-16353 16406 0
-16354 16407 0
-16355 16408 0
-16356 16409 0
-16357 16410 0
-16358 16411 0
-16359 16412 0
-16360 16413 0
-16361 16414 0
-16362 16415 0
-16363 16416 0
-16364 16417 0
-16365 16418 0
-16366 16419 0
-16367 16420 0
-16368 16421 0
-16369 16422 0
-16370 16423 0
-16371 16424 0
-16372 16425 0
-16373 16426 0
-16374 16427 0
-16375 16428 0
-16376 16429 0
-16377 16430 0
-16378 16431 0
-16379 16432 0
-16380 16433 0
-16381 16434 0
-16382 16435 0
-16383 16436 0
-16384 16437 0
-16385 16438 0
-16386 16439 0
-16387 16440 0
-16388 16441 0
-16389 16442 0
-16390 16443 0
-16391 16444 0
-16392 16445 0
-16393 16446 0
-16394 16447 0
-16395 16448 0
-16396 16449 0
-1334 -16344 16398 0
-1334 -16345 16399 0
-1334 -16346 16400 0
-1334 -16347 16401 0
-1334 -16348 16402 0
-1334 -16349 16403 0
-1334 -16350 16404 0
-1334 -16351 16405 0
-1334 -16352 16406 0
-1334 -16353 16407 0
-1334 -16354 16408 0
-1334 -16355 16409 0
-1334 -16356 16410 0
-1334 -16357 16411 0
-1334 -16358 16412 0
-1334 -16359 16413 0
-1334 -16360 16414 0
-1334 -16361 16415 0
-1334 -16362 16416 0
-1334 -16363 16417 0
-1334 -16364 16418 0
-1334 -16365 16419 0
-1334 -16366 16420 0
-1334 -16367 16421 0
-1334 -16368 16422 0
-1334 -16369 16423 0
-1334 -16370 16424 0
-1334 -16371 16425 0
-1334 -16372 16426 0
-1334 -16373 16427 0
-1334 -16374 16428 0
-1334 -16375 16429 0
-1334 -16376 16430 0
-1334 -16377 16431 0
-1334 -16378 16432 0
-1334 -16379 16433 0
-1334 -16380 16434 0
-1334 -16381 16435 0
-1334 -16382 16436 0
-1334 -16383 16437 0
-1334 -16384 16438 0
-1334 -16385 16439 0
-1334 -16386 16440 0
-1334 -16387 16441 0
-1334 -16388 16442 0
-1334 -16389 16443 0
-1334 -16390 16444 0
-1334 -16391 16445 0
-1334 -16392 16446 0
-1334 -16393 16447 0
-1334 -16394 16448 0
-1334 -16395 16449 0
-1334 -16396 0
-16397 16450 0
-16398 16451 0
-16399 16452 0
-16400 16453 0
-16401 16454 0
-16402 16455 0
-16403 16456 0
-16404 16457 0
-16405 16458 0
-16406 16459 0
-16407 16460 0
-16408 16461 0
-16409 16462 0
-16410 16463 0
-16411 16464 0
-16412 16465 0
-16413 16466 0
-16414 16467 0
-16415 16468 0
-16416 16469 0
-16417 16470 0
-16418 16471 0
-16419 16472 0
-16420 16473 0
-16421 16474 0
-16422 16475 0
-16423 16476 0
-16424 16477 0
-16425 16478 0
-16426 16479 0
-16427 16480 0
-16428 16481 0
-16429 16482 0
-16430 16483 0
-16431 16484 0
-16432 16485 0
-16433 16486 0
-16434 16487 0
-16435 16488 0
-16436 16489 0
-16437 16490 0
-16438 16491 0
-16439 16492 0
-16440 16493 0
-16441 16494 0
-16442 16495 0
-16443 16496 0
-16444 16497 0
-16445 16498 0
-16446 16499 0
-16447 16500 0
-16448 16501 0
-16449 16502 0
-1336 -16397 16451 0
-1336 -16398 16452 0
-1336 -16399 16453 0
-1336 -16400 16454 0
-1336 -16401 16455 0
-1336 -16402 16456 0
-1336 -16403 16457 0
-1336 -16404 16458 0
-1336 -16405 16459 0
-1336 -16406 16460 0
-1336 -16407 16461 0
-1336 -16408 16462 0
-1336 -16409 16463 0
-1336 -16410 16464 0
-1336 -16411 16465 0
-1336 -16412 16466 0
-1336 -16413 16467 0
-1336 -16414 16468 0
-1336 -16415 16469 0
-1336 -16416 16470 0
-1336 -16417 16471 0
-1336 -16418 16472 0
-1336 -16419 16473 0
-1336 -16420 16474 0
-1336 -16421 16475 0
-1336 -16422 16476 0
-1336 -16423 16477 0
-1336 -16424 16478 0
-1336 -16425 16479 0
-1336 -16426 16480 0
-1336 -16427 16481 0
-1336 -16428 16482 0
-1336 -16429 16483 0
-1336 -16430 16484 0
-1336 -16431 16485 0
-1336 -16432 16486 0
-1336 -16433 16487 0
-1336 -16434 16488 0
-1336 -16435 16489 0
-1336 -16436 16490 0
-1336 -16437 16491 0
-1336 -16438 16492 0
-1336 -16439 16493 0
-1336 -16440 16494 0
-1336 -16441 16495 0
-1336 -16442 16496 0
-1336 -16443 16497 0
-1336 -16444 16498 0
-1336 -16445 16499 0
-1336 -16446 16500 0
-1336 -16447 16501 0
-1336 -16448 16502 0
-1336 -16449 0
-16450 16503 0
-16451 16504 0
-16452 16505 0
-16453 16506 0
-16454 16507 0
-16455 16508 0
-16456 16509 0
-16457 16510 0
-16458 16511 0
-16459 16512 0
-16460 16513 0
-16461 16514 0
-16462 16515 0
-16463 16516 0
-16464 16517 0
-16465 16518 0
-16466 16519 0
-16467 16520 0
-16468 16521 0
-16469 16522 0
-16470 16523 0
-16471 16524 0
-16472 16525 0
-16473 16526 0
-16474 16527 0
-16475 16528 0
-16476 16529 0
-16477 16530 0
-16478 16531 0
-16479 16532 0
-16480 16533 0
-16481 16534 0
-16482 16535 0
-16483 16536 0
-16484 16537 0
-16485 16538 0
-16486 16539 0
-16487 16540 0
-16488 16541 0
-16489 16542 0
-16490 16543 0
-16491 16544 0
-16492 16545 0
-16493 16546 0
-16494 16547 0
-16495 16548 0
-16496 16549 0
-16497 16550 0
-16498 16551 0
-16499 16552 0
-16500 16553 0
-16501 16554 0
-16502 16555 0
-1338 -16450 16504 0
-1338 -16451 16505 0
-1338 -16452 16506 0
-1338 -16453 16507 0
-1338 -16454 16508 0
-1338 -16455 16509 0
-1338 -16456 16510 0
-1338 -16457 16511 0
-1338 -16458 16512 0
-1338 -16459 16513 0
-1338 -16460 16514 0
-1338 -16461 16515 0
-1338 -16462 16516 0
-1338 -16463 16517 0
-1338 -16464 16518 0
-1338 -16465 16519 0
-1338 -16466 16520 0
-1338 -16467 16521 0
-1338 -16468 16522 0
-1338 -16469 16523 0
-1338 -16470 16524 0
-1338 -16471 16525 0
-1338 -16472 16526 0
-1338 -16473 16527 0
-1338 -16474 16528 0
-1338 -16475 16529 0
-1338 -16476 16530 0
-1338 -16477 16531 0
-1338 -16478 16532 0
-1338 -16479 16533 0
-1338 -16480 16534 0
-1338 -16481 16535 0
-1338 -16482 16536 0
-1338 -16483 16537 0
-1338 -16484 16538 0
-1338 -16485 16539 0
-1338 -16486 16540 0
-1338 -16487 16541 0
-1338 -16488 16542 0
-1338 -16489 16543 0
-1338 -16490 16544 0
-1338 -16491 16545 0
-1338 -16492 16546 0
-1338 -16493 16547 0
-1338 -16494 16548 0
-1338 -16495 16549 0
-1338 -16496 16550 0
-1338 -16497 16551 0
-1338 -16498 16552 0
-1338 -16499 16553 0
-1338 -16500 16554 0
-1338 -16501 16555 0
-1338 -16502 0
-16503 16556 0
-16504 16557 0
-16505 16558 0
-16506 16559 0
-16507 16560 0
-16508 16561 0
-16509 16562 0
-16510 16563 0
-16511 16564 0
-16512 16565 0
-16513 16566 0
-16514 16567 0
-16515 16568 0
-16516 16569 0
-16517 16570 0
-16518 16571 0
-16519 16572 0
-16520 16573 0
-16521 16574 0
-16522 16575 0
-16523 16576 0
-16524 16577 0
-16525 16578 0
-16526 16579 0
-16527 16580 0
-16528 16581 0
-16529 16582 0
-16530 16583 0
-16531 16584 0
-16532 16585 0
-16533 16586 0
-16534 16587 0
-16535 16588 0
-16536 16589 0
-16537 16590 0
-16538 16591 0
-16539 16592 0
-16540 16593 0
-16541 16594 0
-16542 16595 0
-16543 16596 0
-16544 16597 0
-16545 16598 0
-16546 16599 0
-16547 16600 0
-16548 16601 0
-16549 16602 0
-16550 16603 0
-16551 16604 0
-16552 16605 0
-16553 16606 0
-16554 16607 0
-16555 16608 0
-1340 -16503 16557 0
-1340 -16504 16558 0
-1340 -16505 16559 0
-1340 -16506 16560 0
-1340 -16507 16561 0
-1340 -16508 16562 0
-1340 -16509 16563 0
-1340 -16510 16564 0
-1340 -16511 16565 0
-1340 -16512 16566 0
-1340 -16513 16567 0
-1340 -16514 16568 0
-1340 -16515 16569 0
-1340 -16516 16570 0
-1340 -16517 16571 0
-1340 -16518 16572 0
-1340 -16519 16573 0
-1340 -16520 16574 0
-1340 -16521 16575 0
-1340 -16522 16576 0
-1340 -16523 16577 0
-1340 -16524 16578 0
-1340 -16525 16579 0
-1340 -16526 16580 0
-1340 -16527 16581 0
-1340 -16528 16582 0
-1340 -16529 16583 0
-1340 -16530 16584 0
-1340 -16531 16585 0
-1340 -16532 16586 0
-1340 -16533 16587 0
-1340 -16534 16588 0
-1340 -16535 16589 0
-1340 -16536 16590 0
-1340 -16537 16591 0
-1340 -16538 16592 0
-1340 -16539 16593 0
-1340 -16540 16594 0
-1340 -16541 16595 0
-1340 -16542 16596 0
-1340 -16543 16597 0
-1340 -16544 16598 0
-1340 -16545 16599 0
-1340 -16546 16600 0
-1340 -16547 16601 0
-1340 -16548 16602 0
-1340 -16549 16603 0
-1340 -16550 16604 0
-1340 -16551 16605 0
-1340 -16552 16606 0
-1340 -16553 16607 0
-1340 -16554 16608 0
-1340 -16555 0
-16556 16609 0
-16557 16610 0
-16558 16611 0
-16559 16612 0
-16560 16613 0
-16561 16614 0
-16562 16615 0
-16563 16616 0
-16564 16617 0
-16565 16618 0
-16566 16619 0
-16567 16620 0
-16568 16621 0
-16569 16622 0
-16570 16623 0
-16571 16624 0
-16572 16625 0
-16573 16626 0
-16574 16627 0
-16575 16628 0
-16576 16629 0
-16577 16630 0
-16578 16631 0
-16579 16632 0
-16580 16633 0
-16581 16634 0
-16582 16635 0
-16583 16636 0
-16584 16637 0
-16585 16638 0
-16586 16639 0
-16587 16640 0
-16588 16641 0
-16589 16642 0
-16590 16643 0
-16591 16644 0
-16592 16645 0
-16593 16646 0
-16594 16647 0
-16595 16648 0
-16596 16649 0
-16597 16650 0
-16598 16651 0
-16599 16652 0
-16600 16653 0
-16601 16654 0
-16602 16655 0
-16603 16656 0
-16604 16657 0
-16605 16658 0
-16606 16659 0
-16607 16660 0
-16608 16661 0
-1342 -16556 16610 0
-1342 -16557 16611 0
-1342 -16558 16612 0
-1342 -16559 16613 0
-1342 -16560 16614 0
-1342 -16561 16615 0
-1342 -16562 16616 0
-1342 -16563 16617 0
-1342 -16564 16618 0
-1342 -16565 16619 0
-1342 -16566 16620 0
-1342 -16567 16621 0
-1342 -16568 16622 0
-1342 -16569 16623 0
-1342 -16570 16624 0
-1342 -16571 16625 0
-1342 -16572 16626 0
-1342 -16573 16627 0
-1342 -16574 16628 0
-1342 -16575 16629 0
-1342 -16576 16630 0
-1342 -16577 16631 0
-1342 -16578 16632 0
-1342 -16579 16633 0
-1342 -16580 16634 0
-1342 -16581 16635 0
-1342 -16582 16636 0
-1342 -16583 16637 0
-1342 -16584 16638 0
-1342 -16585 16639 0
-1342 -16586 16640 0
-1342 -16587 16641 0
-1342 -16588 16642 0
-1342 -16589 16643 0
-1342 -16590 16644 0
-1342 -16591 16645 0
-1342 -16592 16646 0
-1342 -16593 16647 0
-1342 -16594 16648 0
-1342 -16595 16649 0
-1342 -16596 16650 0
-1342 -16597 16651 0
-1342 -16598 16652 0
-1342 -16599 16653 0
-1342 -16600 16654 0
-1342 -16601 16655 0
-1342 -16602 16656 0
-1342 -16603 16657 0
-1342 -16604 16658 0
-1342 -16605 16659 0
-1342 -16606 16660 0
-1342 -16607 16661 0
-1342 -16608 0
-16609 16662 0
-16610 16663 0
-16611 16664 0
-16612 16665 0
-16613 16666 0
-16614 16667 0
-16615 16668 0
-16616 16669 0
-16617 16670 0
-16618 16671 0
-16619 16672 0
-16620 16673 0
-16621 16674 0
-16622 16675 0
-16623 16676 0
-16624 16677 0
-16625 16678 0
-16626 16679 0
-16627 16680 0
-16628 16681 0
-16629 16682 0
-16630 16683 0
-16631 16684 0
-16632 16685 0
-16633 16686 0
-16634 16687 0
-16635 16688 0
-16636 16689 0
-16637 16690 0
-16638 16691 0
-16639 16692 0
-16640 16693 0
-16641 16694 0
-16642 16695 0
-16643 16696 0
-16644 16697 0
-16645 16698 0
-16646 16699 0
-16647 16700 0
-16648 16701 0
-16649 16702 0
-16650 16703 0
-16651 16704 0
-16652 16705 0
-16653 16706 0
-16654 16707 0
-16655 16708 0
-16656 16709 0
-16657 16710 0
-16658 16711 0
-16659 16712 0
-16660 16713 0
-16661 16714 0
-1344 -16609 16663 0
-1344 -16610 16664 0
-1344 -16611 16665 0
-1344 -16612 16666 0
-1344 -16613 16667 0
-1344 -16614 16668 0
-1344 -16615 16669 0
-1344 -16616 16670 0
-1344 -16617 16671 0
-1344 -16618 16672 0
-1344 -16619 16673 0
-1344 -16620 16674 0
-1344 -16621 16675 0
-1344 -16622 16676 0
-1344 -16623 16677 0
-1344 -16624 16678 0
-1344 -16625 16679 0
-1344 -16626 16680 0
-1344 -16627 16681 0
-1344 -16628 16682 0
-1344 -16629 16683 0
-1344 -16630 16684 0
-1344 -16631 16685 0
-1344 -16632 16686 0
-1344 -16633 16687 0
-1344 -16634 16688 0
-1344 -16635 16689 0
-1344 -16636 16690 0
-1344 -16637 16691 0
-1344 -16638 16692 0
-1344 -16639 16693 0
-1344 -16640 16694 0
-1344 -16641 16695 0
-1344 -16642 16696 0
-1344 -16643 16697 0
-1344 -16644 16698 0
-1344 -16645 16699 0
-1344 -16646 16700 0
-1344 -16647 16701 0
-1344 -16648 16702 0
-1344 -16649 16703 0
-1344 -16650 16704 0
-1344 -16651 16705 0
-1344 -16652 16706 0
-1344 -16653 16707 0
-1344 -16654 16708 0
-1344 -16655 16709 0
-1344 -16656 16710 0
-1344 -16657 16711 0
-1344 -16658 16712 0
-1344 -16659 16713 0
-1344 -16660 16714 0
-1344 -16661 0
-16662 16715 0
-16663 16716 0
-16664 16717 0
-16665 16718 0
-16666 16719 0
-16667 16720 0
-16668 16721 0
-16669 16722 0
-16670 16723 0
-16671 16724 0
-16672 16725 0
-16673 16726 0
-16674 16727 0
-16675 16728 0
-16676 16729 0
-16677 16730 0
-16678 16731 0
-16679 16732 0
-16680 16733 0
-16681 16734 0
-16682 16735 0
-16683 16736 0
-16684 16737 0
-16685 16738 0
-16686 16739 0
-16687 16740 0
-16688 16741 0
-16689 16742 0
-16690 16743 0
-16691 16744 0
-16692 16745 0
-16693 16746 0
-16694 16747 0
-16695 16748 0
-16696 16749 0
-16697 16750 0
-16698 16751 0
-16699 16752 0
-16700 16753 0
-16701 16754 0
-16702 16755 0
-16703 16756 0
-16704 16757 0
-16705 16758 0
-16706 16759 0
-16707 16760 0
-16708 16761 0
-16709 16762 0
-16710 16763 0
-16711 16764 0
-16712 16765 0
-16713 16766 0
-16714 16767 0
-1346 -16662 16716 0
-1346 -16663 16717 0
-1346 -16664 16718 0
-1346 -16665 16719 0
-1346 -16666 16720 0
-1346 -16667 16721 0
-1346 -16668 16722 0
-1346 -16669 16723 0
-1346 -16670 16724 0
-1346 -16671 16725 0
-1346 -16672 16726 0
-1346 -16673 16727 0
-1346 -16674 16728 0
-1346 -16675 16729 0
-1346 -16676 16730 0
-1346 -16677 16731 0
-1346 -16678 16732 0
-1346 -16679 16733 0
-1346 -16680 16734 0
-1346 -16681 16735 0
-1346 -16682 16736 0
-1346 -16683 16737 0
-1346 -16684 16738 0
-1346 -16685 16739 0
-1346 -16686 16740 0
-1346 -16687 16741 0
-1346 -16688 16742 0
-1346 -16689 16743 0
-1346 -16690 16744 0
-1346 -16691 16745 0
-1346 -16692 16746 0
-1346 -16693 16747 0
-1346 -16694 16748 0
-1346 -16695 16749 0
-1346 -16696 16750 0
-1346 -16697 16751 0
-1346 -16698 16752 0
-1346 -16699 16753 0
-1346 -16700 16754 0
-1346 -16701 16755 0
-1346 -16702 16756 0
-1346 -16703 16757 0
-1346 -16704 16758 0
-1346 -16705 16759 0
-1346 -16706 16760 0
-1346 -16707 16761 0
-1346 -16708 16762 0
-1346 -16709 16763 0
-1346 -16710 16764 0
-1346 -16711 16765 0
-1346 -16712 16766 0
-1346 -16713 16767 0
-1346 -16714 0
-16715 16768 0
-16716 16769 0
-16717 16770 0
-16718 16771 0
-16719 16772 0
-16720 16773 0
-16721 16774 0
-16722 16775 0
-16723 16776 0
-16724 16777 0
-16725 16778 0
-16726 16779 0
-16727 16780 0
-16728 16781 0
-16729 16782 0
-16730 16783 0
-16731 16784 0
-16732 16785 0
-16733 16786 0
-16734 16787 0
-16735 16788 0
-16736 16789 0
-16737 16790 0
-16738 16791 0
-16739 16792 0
-16740 16793 0
-16741 16794 0
-16742 16795 0
-16743 16796 0
-16744 16797 0
-16745 16798 0
-16746 16799 0
-16747 16800 0
-16748 16801 0
-16749 16802 0
-16750 16803 0
-16751 16804 0
-16752 16805 0
-16753 16806 0
-16754 16807 0
-16755 16808 0
-16756 16809 0
-16757 16810 0
-16758 16811 0
-16759 16812 0
-16760 16813 0
-16761 16814 0
-16762 16815 0
-16763 16816 0
-16764 16817 0
-16765 16818 0
-16766 16819 0
-16767 16820 0
-1348 -16715 16769 0
-1348 -16716 16770 0
-1348 -16717 16771 0
-1348 -16718 16772 0
-1348 -16719 16773 0
-1348 -16720 16774 0
-1348 -16721 16775 0
-1348 -16722 16776 0
-1348 -16723 16777 0
-1348 -16724 16778 0
-1348 -16725 16779 0
-1348 -16726 16780 0
-1348 -16727 16781 0
-1348 -16728 16782 0
-1348 -16729 16783 0
-1348 -16730 16784 0
-1348 -16731 16785 0
-1348 -16732 16786 0
-1348 -16733 16787 0
-1348 -16734 16788 0
-1348 -16735 16789 0
-1348 -16736 16790 0
-1348 -16737 16791 0
-1348 -16738 16792 0
-1348 -16739 16793 0
-1348 -16740 16794 0
-1348 -16741 16795 0
-1348 -16742 16796 0
-1348 -16743 16797 0
-1348 -16744 16798 0
-1348 -16745 16799 0
-1348 -16746 16800 0
-1348 -16747 16801 0
-1348 -16748 16802 0
-1348 -16749 16803 0
-1348 -16750 16804 0
-1348 -16751 16805 0
-1348 -16752 16806 0
-1348 -16753 16807 0
-1348 -16754 16808 0
-1348 -16755 16809 0
-1348 -16756 16810 0
-1348 -16757 16811 0
-1348 -16758 16812 0
-1348 -16759 16813 0
-1348 -16760 16814 0
-1348 -16761 16815 0
-1348 -16762 16816 0
-1348 -16763 16817 0
-1348 -16764 16818 0
-1348 -16765 16819 0
-1348 -16766 16820 0
-1348 -16767 0
-16768 16821 0
-16769 16822 0
-16770 16823 0
-16771 16824 0
-16772 16825 0
-16773 16826 0
-16774 16827 0
-16775 16828 0
-16776 16829 0
-16777 16830 0
-16778 16831 0
-16779 16832 0
-16780 16833 0
-16781 16834 0
-16782 16835 0
-16783 16836 0
-16784 16837 0
-16785 16838 0
-16786 16839 0
-16787 16840 0
-16788 16841 0
-16789 16842 0
-16790 16843 0
-16791 16844 0
-16792 16845 0
-16793 16846 0
-16794 16847 0
-16795 16848 0
-16796 16849 0
-16797 16850 0
-16798 16851 0
-16799 16852 0
-16800 16853 0
-16801 16854 0
-16802 16855 0
-16803 16856 0
-16804 16857 0
-16805 16858 0
-16806 16859 0
-16807 16860 0
-16808 16861 0
-16809 16862 0
-16810 16863 0
-16811 16864 0
-16812 16865 0
-16813 16866 0
-16814 16867 0
-16815 16868 0
-16816 16869 0
-16817 16870 0
-16818 16871 0
-16819 16872 0
-16820 16873 0
-1350 -16768 16822 0
-1350 -16769 16823 0
-1350 -16770 16824 0
-1350 -16771 16825 0
-1350 -16772 16826 0
-1350 -16773 16827 0
-1350 -16774 16828 0
-1350 -16775 16829 0
-1350 -16776 16830 0
-1350 -16777 16831 0
-1350 -16778 16832 0
-1350 -16779 16833 0
-1350 -16780 16834 0
-1350 -16781 16835 0
-1350 -16782 16836 0
-1350 -16783 16837 0
-1350 -16784 16838 0
-1350 -16785 16839 0
-1350 -16786 16840 0
-1350 -16787 16841 0
-1350 -16788 16842 0
-1350 -16789 16843 0
-1350 -16790 16844 0
-1350 -16791 16845 0
-1350 -16792 16846 0
-1350 -16793 16847 0
-1350 -16794 16848 0
-1350 -16795 16849 0
-1350 -16796 16850 0
-1350 -16797 16851 0
-1350 -16798 16852 0
-1350 -16799 16853 0
-1350 -16800 16854 0
-1350 -16801 16855 0
-1350 -16802 16856 0
-1350 -16803 16857 0
-1350 -16804 16858 0
-1350 -16805 16859 0
-1350 -16806 16860 0
-1350 -16807 16861 0
-1350 -16808 16862 0
-1350 -16809 16863 0
-1350 -16810 16864 0
-1350 -16811 16865 0
-1350 -16812 16866 0
-1350 -16813 16867 0
-1350 -16814 16868 0
-1350 -16815 16869 0
-1350 -16816 16870 0
-1350 -16817 16871 0
-1350 -16818 16872 0
-1350 -16819 16873 0
-1350 -16820 0
-16821 16874 0
-16822 16875 0
-16823 16876 0
-16824 16877 0
-16825 16878 0
-16826 16879 0
-16827 16880 0
-16828 16881 0
-16829 16882 0
-16830 16883 0
-16831 16884 0
-16832 16885 0
-16833 16886 0
-16834 16887 0
-16835 16888 0
-16836 16889 0
-16837 16890 0
-16838 16891 0
-16839 16892 0
-16840 16893 0
-16841 16894 0
-16842 16895 0
-16843 16896 0
-16844 16897 0
-16845 16898 0
-16846 16899 0
-16847 16900 0
-16848 16901 0
-16849 16902 0
-16850 16903 0
-16851 16904 0
-16852 16905 0
-16853 16906 0
-16854 16907 0
-16855 16908 0
-16856 16909 0
-16857 16910 0
-16858 16911 0
-16859 16912 0
-16860 16913 0
-16861 16914 0
-16862 16915 0
-16863 16916 0
-16864 16917 0
-16865 16918 0
-16866 16919 0
-16867 16920 0
-16868 16921 0
-16869 16922 0
-16870 16923 0
-16871 16924 0
-16872 16925 0
-16873 16926 0
-1352 -16821 16875 0
-1352 -16822 16876 0
-1352 -16823 16877 0
-1352 -16824 16878 0
-1352 -16825 16879 0
-1352 -16826 16880 0
-1352 -16827 16881 0
-1352 -16828 16882 0
-1352 -16829 16883 0
-1352 -16830 16884 0
-1352 -16831 16885 0
-1352 -16832 16886 0
-1352 -16833 16887 0
-1352 -16834 16888 0
-1352 -16835 16889 0
-1352 -16836 16890 0
-1352 -16837 16891 0
-1352 -16838 16892 0
-1352 -16839 16893 0
-1352 -16840 16894 0
-1352 -16841 16895 0
-1352 -16842 16896 0
-1352 -16843 16897 0
-1352 -16844 16898 0
-1352 -16845 16899 0
-1352 -16846 16900 0
-1352 -16847 16901 0
-1352 -16848 16902 0
-1352 -16849 16903 0
-1352 -16850 16904 0
-1352 -16851 16905 0
-1352 -16852 16906 0
-1352 -16853 16907 0
-1352 -16854 16908 0
-1352 -16855 16909 0
-1352 -16856 16910 0
-1352 -16857 16911 0
-1352 -16858 16912 0
-1352 -16859 16913 0
-1352 -16860 16914 0
-1352 -16861 16915 0
-1352 -16862 16916 0
-1352 -16863 16917 0
-1352 -16864 16918 0
-1352 -16865 16919 0
-1352 -16866 16920 0
-1352 -16867 16921 0
-1352 -16868 16922 0
-1352 -16869 16923 0
-1352 -16870 16924 0
-1352 -16871 16925 0
-1352 -16872 16926 0
-1352 -16873 0
-16874 16927 0
-16875 16928 0
-16876 16929 0
-16877 16930 0
-16878 16931 0
-16879 16932 0
-16880 16933 0
-16881 16934 0
-16882 16935 0
-16883 16936 0
-16884 16937 0
-16885 16938 0
-16886 16939 0
-16887 16940 0
-16888 16941 0
-16889 16942 0
-16890 16943 0
-16891 16944 0
-16892 16945 0
-16893 16946 0
-16894 16947 0
-16895 16948 0
-16896 16949 0
-16897 16950 0
-16898 16951 0
-16899 16952 0
-16900 16953 0
-16901 16954 0
-16902 16955 0
-16903 16956 0
-16904 16957 0
-16905 16958 0
-16906 16959 0
-16907 16960 0
-16908 16961 0
-16909 16962 0
-16910 16963 0
-16911 16964 0
-16912 16965 0
-16913 16966 0
-16914 16967 0
-16915 16968 0
-16916 16969 0
-16917 16970 0
-16918 16971 0
-16919 16972 0
-16920 16973 0
-16921 16974 0
-16922 16975 0
-16923 16976 0
-16924 16977 0
-16925 16978 0
-16926 16979 0
-1354 -16874 16928 0
-1354 -16875 16929 0
-1354 -16876 16930 0
-1354 -16877 16931 0
-1354 -16878 16932 0
-1354 -16879 16933 0
-1354 -16880 16934 0
-1354 -16881 16935 0
-1354 -16882 16936 0
-1354 -16883 16937 0
-1354 -16884 16938 0
-1354 -16885 16939 0
-1354 -16886 16940 0
-1354 -16887 16941 0
-1354 -16888 16942 0
-1354 -16889 16943 0
-1354 -16890 16944 0
-1354 -16891 16945 0
-1354 -16892 16946 0
-1354 -16893 16947 0
-1354 -16894 16948 0
-1354 -16895 16949 0
-1354 -16896 16950 0
-1354 -16897 16951 0
-1354 -16898 16952 0
-1354 -16899 16953 0
-1354 -16900 16954 0
-1354 -16901 16955 0
-1354 -16902 16956 0
-1354 -16903 16957 0
-1354 -16904 16958 0
-1354 -16905 16959 0
-1354 -16906 16960 0
-1354 -16907 16961 0
-1354 -16908 16962 0
-1354 -16909 16963 0
-1354 -16910 16964 0
-1354 -16911 16965 0
-1354 -16912 16966 0
-1354 -16913 16967 0
-1354 -16914 16968 0
-1354 -16915 16969 0
-1354 -16916 16970 0
-1354 -16917 16971 0
-1354 -16918 16972 0
-1354 -16919 16973 0
-1354 -16920 16974 0
-1354 -16921 16975 0
-1354 -16922 16976 0
-1354 -16923 16977 0
-1354 -16924 16978 0
-1354 -16925 16979 0
-1354 -16926 0
-16927 16980 0
-16928 16981 0
-16929 16982 0
-16930 16983 0
-16931 16984 0
-16932 16985 0
-16933 16986 0
-16934 16987 0
-16935 16988 0
-16936 16989 0
-16937 16990 0
-16938 16991 0
-16939 16992 0
-16940 16993 0
-16941 16994 0
-16942 16995 0
-16943 16996 0
-16944 16997 0
-16945 16998 0
-16946 16999 0
-16947 17000 0
-16948 17001 0
-16949 17002 0
-16950 17003 0
-16951 17004 0
-16952 17005 0
-16953 17006 0
-16954 17007 0
-16955 17008 0
-16956 17009 0
-16957 17010 0
-16958 17011 0
-16959 17012 0
-16960 17013 0
-16961 17014 0
-16962 17015 0
-16963 17016 0
-16964 17017 0
-16965 17018 0
-16966 17019 0
-16967 17020 0
-16968 17021 0
-16969 17022 0
-16970 17023 0
-16971 17024 0
-16972 17025 0
-16973 17026 0
-16974 17027 0
-16975 17028 0
-16976 17029 0
-16977 17030 0
-16978 17031 0
-16979 17032 0
-1356 -16927 16981 0
-1356 -16928 16982 0
-1356 -16929 16983 0
-1356 -16930 16984 0
-1356 -16931 16985 0
-1356 -16932 16986 0
-1356 -16933 16987 0
-1356 -16934 16988 0
-1356 -16935 16989 0
-1356 -16936 16990 0
-1356 -16937 16991 0
-1356 -16938 16992 0
-1356 -16939 16993 0
-1356 -16940 16994 0
-1356 -16941 16995 0
-1356 -16942 16996 0
-1356 -16943 16997 0
-1356 -16944 16998 0
-1356 -16945 16999 0
-1356 -16946 17000 0
-1356 -16947 17001 0
-1356 -16948 17002 0
-1356 -16949 17003 0
-1356 -16950 17004 0
-1356 -16951 17005 0
-1356 -16952 17006 0
-1356 -16953 17007 0
-1356 -16954 17008 0
-1356 -16955 17009 0
-1356 -16956 17010 0
-1356 -16957 17011 0
-1356 -16958 17012 0
-1356 -16959 17013 0
-1356 -16960 17014 0
-1356 -16961 17015 0
-1356 -16962 17016 0
-1356 -16963 17017 0
-1356 -16964 17018 0
-1356 -16965 17019 0
-1356 -16966 17020 0
-1356 -16967 17021 0
-1356 -16968 17022 0
-1356 -16969 17023 0
-1356 -16970 17024 0
-1356 -16971 17025 0
-1356 -16972 17026 0
-1356 -16973 17027 0
-1356 -16974 17028 0
-1356 -16975 17029 0
-1356 -16976 17030 0
-1356 -16977 17031 0
-1356 -16978 17032 0
-1356 -16979 0
-16980 17033 0
-16981 17034 0
-16982 17035 0
-16983 17036 0
-16984 17037 0
-16985 17038 0
-16986 17039 0
-16987 17040 0
-16988 17041 0
-16989 17042 0
-16990 17043 0
-16991 17044 0
-16992 17045 0
-16993 17046 0
-16994 17047 0
-16995 17048 0
-16996 17049 0
-16997 17050 0
-16998 17051 0
-16999 17052 0
-17000 17053 0
-17001 17054 0
-17002 17055 0
-17003 17056 0
-17004 17057 0
-17005 17058 0
-17006 17059 0
-17007 17060 0
-17008 17061 0
-17009 17062 0
-17010 17063 0
-17011 17064 0
-17012 17065 0
-17013 17066 0
-17014 17067 0
-17015 17068 0
-17016 17069 0
-17017 17070 0
-17018 17071 0
-17019 17072 0
-17020 17073 0
-17021 17074 0
-17022 17075 0
-17023 17076 0
-17024 17077 0
-17025 17078 0
-17026 17079 0
-17027 17080 0
-17028 17081 0
-17029 17082 0
-17030 17083 0
-17031 17084 0
-17032 17085 0
-1358 -16980 17034 0
-1358 -16981 17035 0
-1358 -16982 17036 0
-1358 -16983 17037 0
-1358 -16984 17038 0
-1358 -16985 17039 0
-1358 -16986 17040 0
-1358 -16987 17041 0
-1358 -16988 17042 0
-1358 -16989 17043 0
-1358 -16990 17044 0
-1358 -16991 17045 0
-1358 -16992 17046 0
-1358 -16993 17047 0
-1358 -16994 17048 0
-1358 -16995 17049 0
-1358 -16996 17050 0
-1358 -16997 17051 0
-1358 -16998 17052 0
-1358 -16999 17053 0
-1358 -17000 17054 0
-1358 -17001 17055 0
-1358 -17002 17056 0
-1358 -17003 17057 0
-1358 -17004 17058 0
-1358 -17005 17059 0
-1358 -17006 17060 0
-1358 -17007 17061 0
-1358 -17008 17062 0
-1358 -17009 17063 0
-1358 -17010 17064 0
-1358 -17011 17065 0
-1358 -17012 17066 0
-1358 -17013 17067 0
-1358 -17014 17068 0
-1358 -17015 17069 0
-1358 -17016 17070 0
-1358 -17017 17071 0
-1358 -17018 17072 0
-1358 -17019 17073 0
-1358 -17020 17074 0
-1358 -17021 17075 0
-1358 -17022 17076 0
-1358 -17023 17077 0
-1358 -17024 17078 0
-1358 -17025 17079 0
-1358 -17026 17080 0
-1358 -17027 17081 0
-1358 -17028 17082 0
-1358 -17029 17083 0
-1358 -17030 17084 0
-1358 -17031 17085 0
-1358 -17032 0
-17033 17086 0
-17034 17087 0
-17035 17088 0
-17036 17089 0
-17037 17090 0
-17038 17091 0
-17039 17092 0
-17040 17093 0
-17041 17094 0
-17042 17095 0
-17043 17096 0
-17044 17097 0
-17045 17098 0
-17046 17099 0
-17047 17100 0
-17048 17101 0
-17049 17102 0
-17050 17103 0
-17051 17104 0
-17052 17105 0
-17053 17106 0
-17054 17107 0
-17055 17108 0
-17056 17109 0
-17057 17110 0
-17058 17111 0
-17059 17112 0
-17060 17113 0
-17061 17114 0
-17062 17115 0
-17063 17116 0
-17064 17117 0
-17065 17118 0
-17066 17119 0
-17067 17120 0
-17068 17121 0
-17069 17122 0
-17070 17123 0
-17071 17124 0
-17072 17125 0
-17073 17126 0
-17074 17127 0
-17075 17128 0
-17076 17129 0
-17077 17130 0
-17078 17131 0
-17079 17132 0
-17080 17133 0
-17081 17134 0
-17082 17135 0
-17083 17136 0
-17084 17137 0
-17085 17138 0
-1360 -17033 17087 0
-1360 -17034 17088 0
-1360 -17035 17089 0
-1360 -17036 17090 0
-1360 -17037 17091 0
-1360 -17038 17092 0
-1360 -17039 17093 0
-1360 -17040 17094 0
-1360 -17041 17095 0
-1360 -17042 17096 0
-1360 -17043 17097 0
-1360 -17044 17098 0
-1360 -17045 17099 0
-1360 -17046 17100 0
-1360 -17047 17101 0
-1360 -17048 17102 0
-1360 -17049 17103 0
-1360 -17050 17104 0
-1360 -17051 17105 0
-1360 -17052 17106 0
-1360 -17053 17107 0
-1360 -17054 17108 0
-1360 -17055 17109 0
-1360 -17056 17110 0
-1360 -17057 17111 0
-1360 -17058 17112 0
-1360 -17059 17113 0
-1360 -17060 17114 0
-1360 -17061 17115 0
-1360 -17062 17116 0
-1360 -17063 17117 0
-1360 -17064 17118 0
-1360 -17065 17119 0
-1360 -17066 17120 0
-1360 -17067 17121 0
-1360 -17068 17122 0
-1360 -17069 17123 0
-1360 -17070 17124 0
-1360 -17071 17125 0
-1360 -17072 17126 0
-1360 -17073 17127 0
-1360 -17074 17128 0
-1360 -17075 17129 0
-1360 -17076 17130 0
-1360 -17077 17131 0
-1360 -17078 17132 0
-1360 -17079 17133 0
-1360 -17080 17134 0
-1360 -17081 17135 0
-1360 -17082 17136 0
-1360 -17083 17137 0
-1360 -17084 17138 0
-1360 -17085 0
-17086 17139 0
-17087 17140 0
-17088 17141 0
-17089 17142 0
-17090 17143 0
-17091 17144 0
-17092 17145 0
-17093 17146 0
-17094 17147 0
-17095 17148 0
-17096 17149 0
-17097 17150 0
-17098 17151 0
-17099 17152 0
-17100 17153 0
-17101 17154 0
-17102 17155 0
-17103 17156 0
-17104 17157 0
-17105 17158 0
-17106 17159 0
-17107 17160 0
-17108 17161 0
-17109 17162 0
-17110 17163 0
-17111 17164 0
-17112 17165 0
-17113 17166 0
-17114 17167 0
-17115 17168 0
-17116 17169 0
-17117 17170 0
-17118 17171 0
-17119 17172 0
-17120 17173 0
-17121 17174 0
-17122 17175 0
-17123 17176 0
-17124 17177 0
-17125 17178 0
-17126 17179 0
-17127 17180 0
-17128 17181 0
-17129 17182 0
-17130 17183 0
-17131 17184 0
-17132 17185 0
-17133 17186 0
-17134 17187 0
-17135 17188 0
-17136 17189 0
-17137 17190 0
-17138 17191 0
-1362 -17086 17140 0
-1362 -17087 17141 0
-1362 -17088 17142 0
-1362 -17089 17143 0
-1362 -17090 17144 0
-1362 -17091 17145 0
-1362 -17092 17146 0
-1362 -17093 17147 0
-1362 -17094 17148 0
-1362 -17095 17149 0
-1362 -17096 17150 0
-1362 -17097 17151 0
-1362 -17098 17152 0
-1362 -17099 17153 0
-1362 -17100 17154 0
-1362 -17101 17155 0
-1362 -17102 17156 0
-1362 -17103 17157 0
-1362 -17104 17158 0
-1362 -17105 17159 0
-1362 -17106 17160 0
-1362 -17107 17161 0
-1362 -17108 17162 0
-1362 -17109 17163 0
-1362 -17110 17164 0
-1362 -17111 17165 0
-1362 -17112 17166 0
-1362 -17113 17167 0
-1362 -17114 17168 0
-1362 -17115 17169 0
-1362 -17116 17170 0
-1362 -17117 17171 0
-1362 -17118 17172 0
-1362 -17119 17173 0
-1362 -17120 17174 0
-1362 -17121 17175 0
-1362 -17122 17176 0
-1362 -17123 17177 0
-1362 -17124 17178 0
-1362 -17125 17179 0
-1362 -17126 17180 0
-1362 -17127 17181 0
-1362 -17128 17182 0
-1362 -17129 17183 0
-1362 -17130 17184 0
-1362 -17131 17185 0
-1362 -17132 17186 0
-1362 -17133 17187 0
-1362 -17134 17188 0
-1362 -17135 17189 0
-1362 -17136 17190 0
-1362 -17137 17191 0
-1362 -17138 0
-17139 17192 0
-17140 17193 0
-17141 17194 0
-17142 17195 0
-17143 17196 0
-17144 17197 0
-17145 17198 0
-17146 17199 0
-17147 17200 0
-17148 17201 0
-17149 17202 0
-17150 17203 0
-17151 17204 0
-17152 17205 0
-17153 17206 0
-17154 17207 0
-17155 17208 0
-17156 17209 0
-17157 17210 0
-17158 17211 0
-17159 17212 0
-17160 17213 0
-17161 17214 0
-17162 17215 0
-17163 17216 0
-17164 17217 0
-17165 17218 0
-17166 17219 0
-17167 17220 0
-17168 17221 0
-17169 17222 0
-17170 17223 0
-17171 17224 0
-17172 17225 0
-17173 17226 0
-17174 17227 0
-17175 17228 0
-17176 17229 0
-17177 17230 0
-17178 17231 0
-17179 17232 0
-17180 17233 0
-17181 17234 0
-17182 17235 0
-17183 17236 0
-17184 17237 0
-17185 17238 0
-17186 17239 0
-17187 17240 0
-17188 17241 0
-17189 17242 0
-17190 17243 0
-17191 17244 0
-1364 -17139 17193 0
-1364 -17140 17194 0
-1364 -17141 17195 0
-1364 -17142 17196 0
-1364 -17143 17197 0
-1364 -17144 17198 0
-1364 -17145 17199 0
-1364 -17146 17200 0
-1364 -17147 17201 0
-1364 -17148 17202 0
-1364 -17149 17203 0
-1364 -17150 17204 0
-1364 -17151 17205 0
-1364 -17152 17206 0
-1364 -17153 17207 0
-1364 -17154 17208 0
-1364 -17155 17209 0
-1364 -17156 17210 0
-1364 -17157 17211 0
-1364 -17158 17212 0
-1364 -17159 17213 0
-1364 -17160 17214 0
-1364 -17161 17215 0
-1364 -17162 17216 0
-1364 -17163 17217 0
-1364 -17164 17218 0
-1364 -17165 17219 0
-1364 -17166 17220 0
-1364 -17167 17221 0
-1364 -17168 17222 0
-1364 -17169 17223 0
-1364 -17170 17224 0
-1364 -17171 17225 0
-1364 -17172 17226 0
-1364 -17173 17227 0
-1364 -17174 17228 0
-1364 -17175 17229 0
-1364 -17176 17230 0
-1364 -17177 17231 0
-1364 -17178 17232 0
-1364 -17179 17233 0
-1364 -17180 17234 0
-1364 -17181 17235 0
-1364 -17182 17236 0
-1364 -17183 17237 0
-1364 -17184 17238 0
-1364 -17185 17239 0
-1364 -17186 17240 0
-1364 -17187 17241 0
-1364 -17188 17242 0
-1364 -17189 17243 0
-1364 -17190 17244 0
-1364 -17191 0
-17192 17245 0
-17193 17246 0
-17194 17247 0
-17195 17248 0
-17196 17249 0
-17197 17250 0
-17198 17251 0
-17199 17252 0
-17200 17253 0
-17201 17254 0
-17202 17255 0
-17203 17256 0
-17204 17257 0
-17205 17258 0
-17206 17259 0
-17207 17260 0
-17208 17261 0
-17209 17262 0
-17210 17263 0
-17211 17264 0
-17212 17265 0
-17213 17266 0
-17214 17267 0
-17215 17268 0
-17216 17269 0
-17217 17270 0
-17218 17271 0
-17219 17272 0
-17220 17273 0
-17221 17274 0
-17222 17275 0
-17223 17276 0
-17224 17277 0
-17225 17278 0
-17226 17279 0
-17227 17280 0
-17228 17281 0
-17229 17282 0
-17230 17283 0
-17231 17284 0
-17232 17285 0
-17233 17286 0
-17234 17287 0
-17235 17288 0
-17236 17289 0
-17237 17290 0
-17238 17291 0
-17239 17292 0
-17240 17293 0
-17241 17294 0
-17242 17295 0
-17243 17296 0
-17244 17297 0
-1366 -17192 17246 0
-1366 -17193 17247 0
-1366 -17194 17248 0
-1366 -17195 17249 0
-1366 -17196 17250 0
-1366 -17197 17251 0
-1366 -17198 17252 0
-1366 -17199 17253 0
-1366 -17200 17254 0
-1366 -17201 17255 0
-1366 -17202 17256 0
-1366 -17203 17257 0
-1366 -17204 17258 0
-1366 -17205 17259 0
-1366 -17206 17260 0
-1366 -17207 17261 0
-1366 -17208 17262 0
-1366 -17209 17263 0
-1366 -17210 17264 0
-1366 -17211 17265 0
-1366 -17212 17266 0
-1366 -17213 17267 0
-1366 -17214 17268 0
-1366 -17215 17269 0
-1366 -17216 17270 0
-1366 -17217 17271 0
-1366 -17218 17272 0
-1366 -17219 17273 0
-1366 -17220 17274 0
-1366 -17221 17275 0
-1366 -17222 17276 0
-1366 -17223 17277 0
-1366 -17224 17278 0
-1366 -17225 17279 0
-1366 -17226 17280 0
-1366 -17227 17281 0
-1366 -17228 17282 0
-1366 -17229 17283 0
-1366 -17230 17284 0
-1366 -17231 17285 0
-1366 -17232 17286 0
-1366 -17233 17287 0
-1366 -17234 17288 0
-1366 -17235 17289 0
-1366 -17236 17290 0
-1366 -17237 17291 0
-1366 -17238 17292 0
-1366 -17239 17293 0
-1366 -17240 17294 0
-1366 -17241 17295 0
-1366 -17242 17296 0
-1366 -17243 17297 0
-1366 -17244 0
-17245 17298 0
-17246 17299 0
-17247 17300 0
-17248 17301 0
-17249 17302 0
-17250 17303 0
-17251 17304 0
-17252 17305 0
-17253 17306 0
-17254 17307 0
-17255 17308 0
-17256 17309 0
-17257 17310 0
-17258 17311 0
-17259 17312 0
-17260 17313 0
-17261 17314 0
-17262 17315 0
-17263 17316 0
-17264 17317 0
-17265 17318 0
-17266 17319 0
-17267 17320 0
-17268 17321 0
-17269 17322 0
-17270 17323 0
-17271 17324 0
-17272 17325 0
-17273 17326 0
-17274 17327 0
-17275 17328 0
-17276 17329 0
-17277 17330 0
-17278 17331 0
-17279 17332 0
-17280 17333 0
-17281 17334 0
-17282 17335 0
-17283 17336 0
-17284 17337 0
-17285 17338 0
-17286 17339 0
-17287 17340 0
-17288 17341 0
-17289 17342 0
-17290 17343 0
-17291 17344 0
-17292 17345 0
-17293 17346 0
-17294 17347 0
-17295 17348 0
-17296 17349 0
-17297 17350 0
-1368 -17245 17299 0
-1368 -17246 17300 0
-1368 -17247 17301 0
-1368 -17248 17302 0
-1368 -17249 17303 0
-1368 -17250 17304 0
-1368 -17251 17305 0
-1368 -17252 17306 0
-1368 -17253 17307 0
-1368 -17254 17308 0
-1368 -17255 17309 0
-1368 -17256 17310 0
-1368 -17257 17311 0
-1368 -17258 17312 0
-1368 -17259 17313 0
-1368 -17260 17314 0
-1368 -17261 17315 0
-1368 -17262 17316 0
-1368 -17263 17317 0
-1368 -17264 17318 0
-1368 -17265 17319 0
-1368 -17266 17320 0
-1368 -17267 17321 0
-1368 -17268 17322 0
-1368 -17269 17323 0
-1368 -17270 17324 0
-1368 -17271 17325 0
-1368 -17272 17326 0
-1368 -17273 17327 0
-1368 -17274 17328 0
-1368 -17275 17329 0
-1368 -17276 17330 0
-1368 -17277 17331 0
-1368 -17278 17332 0
-1368 -17279 17333 0
-1368 -17280 17334 0
-1368 -17281 17335 0
-1368 -17282 17336 0
-1368 -17283 17337 0
-1368 -17284 17338 0
-1368 -17285 17339 0
-1368 -17286 17340 0
-1368 -17287 17341 0
-1368 -17288 17342 0
-1368 -17289 17343 0
-1368 -17290 17344 0
-1368 -17291 17345 0
-1368 -17292 17346 0
-1368 -17293 17347 0
-1368 -17294 17348 0
-1368 -17295 17349 0
-1368 -17296 17350 0
-1368 -17297 0
-17298 17351 0
-17299 17352 0
-17300 17353 0
-17301 17354 0
-17302 17355 0
-17303 17356 0
-17304 17357 0
-17305 17358 0
-17306 17359 0
-17307 17360 0
-17308 17361 0
-17309 17362 0
-17310 17363 0
-17311 17364 0
-17312 17365 0
-17313 17366 0
-17314 17367 0
-17315 17368 0
-17316 17369 0
-17317 17370 0
-17318 17371 0
-17319 17372 0
-17320 17373 0
-17321 17374 0
-17322 17375 0
-17323 17376 0
-17324 17377 0
-17325 17378 0
-17326 17379 0
-17327 17380 0
-17328 17381 0
-17329 17382 0
-17330 17383 0
-17331 17384 0
-17332 17385 0
-17333 17386 0
-17334 17387 0
-17335 17388 0
-17336 17389 0
-17337 17390 0
-17338 17391 0
-17339 17392 0
-17340 17393 0
-17341 17394 0
-17342 17395 0
-17343 17396 0
-17344 17397 0
-17345 17398 0
-17346 17399 0
-17347 17400 0
-17348 17401 0
-17349 17402 0
-17350 17403 0
-1370 -17298 17352 0
-1370 -17299 17353 0
-1370 -17300 17354 0
-1370 -17301 17355 0
-1370 -17302 17356 0
-1370 -17303 17357 0
-1370 -17304 17358 0
-1370 -17305 17359 0
-1370 -17306 17360 0
-1370 -17307 17361 0
-1370 -17308 17362 0
-1370 -17309 17363 0
-1370 -17310 17364 0
-1370 -17311 17365 0
-1370 -17312 17366 0
-1370 -17313 17367 0
-1370 -17314 17368 0
-1370 -17315 17369 0
-1370 -17316 17370 0
-1370 -17317 17371 0
-1370 -17318 17372 0
-1370 -17319 17373 0
-1370 -17320 17374 0
-1370 -17321 17375 0
-1370 -17322 17376 0
-1370 -17323 17377 0
-1370 -17324 17378 0
-1370 -17325 17379 0
-1370 -17326 17380 0
-1370 -17327 17381 0
-1370 -17328 17382 0
-1370 -17329 17383 0
-1370 -17330 17384 0
-1370 -17331 17385 0
-1370 -17332 17386 0
-1370 -17333 17387 0
-1370 -17334 17388 0
-1370 -17335 17389 0
-1370 -17336 17390 0
-1370 -17337 17391 0
-1370 -17338 17392 0
-1370 -17339 17393 0
-1370 -17340 17394 0
-1370 -17341 17395 0
-1370 -17342 17396 0
-1370 -17343 17397 0
-1370 -17344 17398 0
-1370 -17345 17399 0
-1370 -17346 17400 0
-1370 -17347 17401 0
-1370 -17348 17402 0
-1370 -17349 17403 0
-1370 -17350 0
-17351 17404 0
-17352 17405 0
-17353 17406 0
-17354 17407 0
-17355 17408 0
-17356 17409 0
-17357 17410 0
-17358 17411 0
-17359 17412 0
-17360 17413 0
-17361 17414 0
-17362 17415 0
-17363 17416 0
-17364 17417 0
-17365 17418 0
-17366 17419 0
-17367 17420 0
-17368 17421 0
-17369 17422 0
-17370 17423 0
-17371 17424 0
-17372 17425 0
-17373 17426 0
-17374 17427 0
-17375 17428 0
-17376 17429 0
-17377 17430 0
-17378 17431 0
-17379 17432 0
-17380 17433 0
-17381 17434 0
-17382 17435 0
-17383 17436 0
-17384 17437 0
-17385 17438 0
-17386 17439 0
-17387 17440 0
-17388 17441 0
-17389 17442 0
-17390 17443 0
-17391 17444 0
-17392 17445 0
-17393 17446 0
-17394 17447 0
-17395 17448 0
-17396 17449 0
-17397 17450 0
-17398 17451 0
-17399 17452 0
-17400 17453 0
-17401 17454 0
-17402 17455 0
-17403 17456 0
-1372 -17351 17405 0
-1372 -17352 17406 0
-1372 -17353 17407 0
-1372 -17354 17408 0
-1372 -17355 17409 0
-1372 -17356 17410 0
-1372 -17357 17411 0
-1372 -17358 17412 0
-1372 -17359 17413 0
-1372 -17360 17414 0
-1372 -17361 17415 0
-1372 -17362 17416 0
-1372 -17363 17417 0
-1372 -17364 17418 0
-1372 -17365 17419 0
-1372 -17366 17420 0
-1372 -17367 17421 0
-1372 -17368 17422 0
-1372 -17369 17423 0
-1372 -17370 17424 0
-1372 -17371 17425 0
-1372 -17372 17426 0
-1372 -17373 17427 0
-1372 -17374 17428 0
-1372 -17375 17429 0
-1372 -17376 17430 0
-1372 -17377 17431 0
-1372 -17378 17432 0
-1372 -17379 17433 0
-1372 -17380 17434 0
-1372 -17381 17435 0
-1372 -17382 17436 0
-1372 -17383 17437 0
-1372 -17384 17438 0
-1372 -17385 17439 0
-1372 -17386 17440 0
-1372 -17387 17441 0
-1372 -17388 17442 0
-1372 -17389 17443 0
-1372 -17390 17444 0
-1372 -17391 17445 0
-1372 -17392 17446 0
-1372 -17393 17447 0
-1372 -17394 17448 0
-1372 -17395 17449 0
-1372 -17396 17450 0
-1372 -17397 17451 0
-1372 -17398 17452 0
-1372 -17399 17453 0
-1372 -17400 17454 0
-1372 -17401 17455 0
-1372 -17402 17456 0
-1372 -17403 0
-17404 17457 0
-17405 17458 0
-17406 17459 0
-17407 17460 0
-17408 17461 0
-17409 17462 0
-17410 17463 0
-17411 17464 0
-17412 17465 0
-17413 17466 0
-17414 17467 0
-17415 17468 0
-17416 17469 0
-17417 17470 0
-17418 17471 0
-17419 17472 0
-17420 17473 0
-17421 17474 0
-17422 17475 0
-17423 17476 0
-17424 17477 0
-17425 17478 0
-17426 17479 0
-17427 17480 0
-17428 17481 0
-17429 17482 0
-17430 17483 0
-17431 17484 0
-17432 17485 0
-17433 17486 0
-17434 17487 0
-17435 17488 0
-17436 17489 0
-17437 17490 0
-17438 17491 0
-17439 17492 0
-17440 17493 0
-17441 17494 0
-17442 17495 0
-17443 17496 0
-17444 17497 0
-17445 17498 0
-17446 17499 0
-17447 17500 0
-17448 17501 0
-17449 17502 0
-17450 17503 0
-17451 17504 0
-17452 17505 0
-17453 17506 0
-17454 17507 0
-17455 17508 0
-17456 17509 0
-1374 -17404 17458 0
-1374 -17405 17459 0
-1374 -17406 17460 0
-1374 -17407 17461 0
-1374 -17408 17462 0
-1374 -17409 17463 0
-1374 -17410 17464 0
-1374 -17411 17465 0
-1374 -17412 17466 0
-1374 -17413 17467 0
-1374 -17414 17468 0
-1374 -17415 17469 0
-1374 -17416 17470 0
-1374 -17417 17471 0
-1374 -17418 17472 0
-1374 -17419 17473 0
-1374 -17420 17474 0
-1374 -17421 17475 0
-1374 -17422 17476 0
-1374 -17423 17477 0
-1374 -17424 17478 0
-1374 -17425 17479 0
-1374 -17426 17480 0
-1374 -17427 17481 0
-1374 -17428 17482 0
-1374 -17429 17483 0
-1374 -17430 17484 0
-1374 -17431 17485 0
-1374 -17432 17486 0
-1374 -17433 17487 0
-1374 -17434 17488 0
-1374 -17435 17489 0
-1374 -17436 17490 0
-1374 -17437 17491 0
-1374 -17438 17492 0
-1374 -17439 17493 0
-1374 -17440 17494 0
-1374 -17441 17495 0
-1374 -17442 17496 0
-1374 -17443 17497 0
-1374 -17444 17498 0
-1374 -17445 17499 0
-1374 -17446 17500 0
-1374 -17447 17501 0
-1374 -17448 17502 0
-1374 -17449 17503 0
-1374 -17450 17504 0
-1374 -17451 17505 0
-1374 -17452 17506 0
-1374 -17453 17507 0
-1374 -17454 17508 0
-1374 -17455 17509 0
-1374 -17456 0
-17457 17510 0
-17458 17511 0
-17459 17512 0
-17460 17513 0
-17461 17514 0
-17462 17515 0
-17463 17516 0
-17464 17517 0
-17465 17518 0
-17466 17519 0
-17467 17520 0
-17468 17521 0
-17469 17522 0
-17470 17523 0
-17471 17524 0
-17472 17525 0
-17473 17526 0
-17474 17527 0
-17475 17528 0
-17476 17529 0
-17477 17530 0
-17478 17531 0
-17479 17532 0
-17480 17533 0
-17481 17534 0
-17482 17535 0
-17483 17536 0
-17484 17537 0
-17485 17538 0
-17486 17539 0
-17487 17540 0
-17488 17541 0
-17489 17542 0
-17490 17543 0
-17491 17544 0
-17492 17545 0
-17493 17546 0
-17494 17547 0
-17495 17548 0
-17496 17549 0
-17497 17550 0
-17498 17551 0
-17499 17552 0
-17500 17553 0
-17501 17554 0
-17502 17555 0
-17503 17556 0
-17504 17557 0
-17505 17558 0
-17506 17559 0
-17507 17560 0
-17508 17561 0
-17509 17562 0
-1376 -17457 17511 0
-1376 -17458 17512 0
-1376 -17459 17513 0
-1376 -17460 17514 0
-1376 -17461 17515 0
-1376 -17462 17516 0
-1376 -17463 17517 0
-1376 -17464 17518 0
-1376 -17465 17519 0
-1376 -17466 17520 0
-1376 -17467 17521 0
-1376 -17468 17522 0
-1376 -17469 17523 0
-1376 -17470 17524 0
-1376 -17471 17525 0
-1376 -17472 17526 0
-1376 -17473 17527 0
-1376 -17474 17528 0
-1376 -17475 17529 0
-1376 -17476 17530 0
-1376 -17477 17531 0
-1376 -17478 17532 0
-1376 -17479 17533 0
-1376 -17480 17534 0
-1376 -17481 17535 0
-1376 -17482 17536 0
-1376 -17483 17537 0
-1376 -17484 17538 0
-1376 -17485 17539 0
-1376 -17486 17540 0
-1376 -17487 17541 0
-1376 -17488 17542 0
-1376 -17489 17543 0
-1376 -17490 17544 0
-1376 -17491 17545 0
-1376 -17492 17546 0
-1376 -17493 17547 0
-1376 -17494 17548 0
-1376 -17495 17549 0
-1376 -17496 17550 0
-1376 -17497 17551 0
-1376 -17498 17552 0
-1376 -17499 17553 0
-1376 -17500 17554 0
-1376 -17501 17555 0
-1376 -17502 17556 0
-1376 -17503 17557 0
-1376 -17504 17558 0
-1376 -17505 17559 0
-1376 -17506 17560 0
-1376 -17507 17561 0
-1376 -17508 17562 0
-1376 -17509 0
-17510 17563 0
-17511 17564 0
-17512 17565 0
-17513 17566 0
-17514 17567 0
-17515 17568 0
-17516 17569 0
-17517 17570 0
-17518 17571 0
-17519 17572 0
-17520 17573 0
-17521 17574 0
-17522 17575 0
-17523 17576 0
-17524 17577 0
-17525 17578 0
-17526 17579 0
-17527 17580 0
-17528 17581 0
-17529 17582 0
-17530 17583 0
-17531 17584 0
-17532 17585 0
-17533 17586 0
-17534 17587 0
-17535 17588 0
-17536 17589 0
-17537 17590 0
-17538 17591 0
-17539 17592 0
-17540 17593 0
-17541 17594 0
-17542 17595 0
-17543 17596 0
-17544 17597 0
-17545 17598 0
-17546 17599 0
-17547 17600 0
-17548 17601 0
-17549 17602 0
-17550 17603 0
-17551 17604 0
-17552 17605 0
-17553 17606 0
-17554 17607 0
-17555 17608 0
-17556 17609 0
-17557 17610 0
-17558 17611 0
-17559 17612 0
-17560 17613 0
-17561 17614 0
-17562 17615 0
-1378 -17510 17564 0
-1378 -17511 17565 0
-1378 -17512 17566 0
-1378 -17513 17567 0
-1378 -17514 17568 0
-1378 -17515 17569 0
-1378 -17516 17570 0
-1378 -17517 17571 0
-1378 -17518 17572 0
-1378 -17519 17573 0
-1378 -17520 17574 0
-1378 -17521 17575 0
-1378 -17522 17576 0
-1378 -17523 17577 0
-1378 -17524 17578 0
-1378 -17525 17579 0
-1378 -17526 17580 0
-1378 -17527 17581 0
-1378 -17528 17582 0
-1378 -17529 17583 0
-1378 -17530 17584 0
-1378 -17531 17585 0
-1378 -17532 17586 0
-1378 -17533 17587 0
-1378 -17534 17588 0
-1378 -17535 17589 0
-1378 -17536 17590 0
-1378 -17537 17591 0
-1378 -17538 17592 0
-1378 -17539 17593 0
-1378 -17540 17594 0
-1378 -17541 17595 0
-1378 -17542 17596 0
-1378 -17543 17597 0
-1378 -17544 17598 0
-1378 -17545 17599 0
-1378 -17546 17600 0
-1378 -17547 17601 0
-1378 -17548 17602 0
-1378 -17549 17603 0
-1378 -17550 17604 0
-1378 -17551 17605 0
-1378 -17552 17606 0
-1378 -17553 17607 0
-1378 -17554 17608 0
-1378 -17555 17609 0
-1378 -17556 17610 0
-1378 -17557 17611 0
-1378 -17558 17612 0
-1378 -17559 17613 0
-1378 -17560 17614 0
-1378 -17561 17615 0
-1378 -17562 0
-17563 17616 0
-17564 17617 0
-17565 17618 0
-17566 17619 0
-17567 17620 0
-17568 17621 0
-17569 17622 0
-17570 17623 0
-17571 17624 0
-17572 17625 0
-17573 17626 0
-17574 17627 0
-17575 17628 0
-17576 17629 0
-17577 17630 0
-17578 17631 0
-17579 17632 0
-17580 17633 0
-17581 17634 0
-17582 17635 0
-17583 17636 0
-17584 17637 0
-17585 17638 0
-17586 17639 0
-17587 17640 0
-17588 17641 0
-17589 17642 0
-17590 17643 0
-17591 17644 0
-17592 17645 0
-17593 17646 0
-17594 17647 0
-17595 17648 0
-17596 17649 0
-17597 17650 0
-17598 17651 0
-17599 17652 0
-17600 17653 0
-17601 17654 0
-17602 17655 0
-17603 17656 0
-17604 17657 0
-17605 17658 0
-17606 17659 0
-17607 17660 0
-17608 17661 0
-17609 17662 0
-17610 17663 0
-17611 17664 0
-17612 17665 0
-17613 17666 0
-17614 17667 0
-17615 17668 0
-1380 -17563 17617 0
-1380 -17564 17618 0
-1380 -17565 17619 0
-1380 -17566 17620 0
-1380 -17567 17621 0
-1380 -17568 17622 0
-1380 -17569 17623 0
-1380 -17570 17624 0
-1380 -17571 17625 0
-1380 -17572 17626 0
-1380 -17573 17627 0
-1380 -17574 17628 0
-1380 -17575 17629 0
-1380 -17576 17630 0
-1380 -17577 17631 0
-1380 -17578 17632 0
-1380 -17579 17633 0
-1380 -17580 17634 0
-1380 -17581 17635 0
-1380 -17582 17636 0
-1380 -17583 17637 0
-1380 -17584 17638 0
-1380 -17585 17639 0
-1380 -17586 17640 0
-1380 -17587 17641 0
-1380 -17588 17642 0
-1380 -17589 17643 0
-1380 -17590 17644 0
-1380 -17591 17645 0
-1380 -17592 17646 0
-1380 -17593 17647 0
-1380 -17594 17648 0
-1380 -17595 17649 0
-1380 -17596 17650 0
-1380 -17597 17651 0
-1380 -17598 17652 0
-1380 -17599 17653 0
-1380 -17600 17654 0
-1380 -17601 17655 0
-1380 -17602 17656 0
-1380 -17603 17657 0
-1380 -17604 17658 0
-1380 -17605 17659 0
-1380 -17606 17660 0
-1380 -17607 17661 0
-1380 -17608 17662 0
-1380 -17609 17663 0
-1380 -17610 17664 0
-1380 -17611 17665 0
-1380 -17612 17666 0
-1380 -17613 17667 0
-1380 -17614 17668 0
-1380 -17615 0
-17616 17669 0
-17617 17670 0
-17618 17671 0
-17619 17672 0
-17620 17673 0
-17621 17674 0
-17622 17675 0
-17623 17676 0
-17624 17677 0
-17625 17678 0
-17626 17679 0
-17627 17680 0
-17628 17681 0
-17629 17682 0
-17630 17683 0
-17631 17684 0
-17632 17685 0
-17633 17686 0
-17634 17687 0
-17635 17688 0
-17636 17689 0
-17637 17690 0
-17638 17691 0
-17639 17692 0
-17640 17693 0
-17641 17694 0
-17642 17695 0
-17643 17696 0
-17644 17697 0
-17645 17698 0
-17646 17699 0
-17647 17700 0
-17648 17701 0
-17649 17702 0
-17650 17703 0
-17651 17704 0
-17652 17705 0
-17653 17706 0
-17654 17707 0
-17655 17708 0
-17656 17709 0
-17657 17710 0
-17658 17711 0
-17659 17712 0
-17660 17713 0
-17661 17714 0
-17662 17715 0
-17663 17716 0
-17664 17717 0
-17665 17718 0
-17666 17719 0
-17667 17720 0
-17668 17721 0
-1382 -17616 17670 0
-1382 -17617 17671 0
-1382 -17618 17672 0
-1382 -17619 17673 0
-1382 -17620 17674 0
-1382 -17621 17675 0
-1382 -17622 17676 0
-1382 -17623 17677 0
-1382 -17624 17678 0
-1382 -17625 17679 0
-1382 -17626 17680 0
-1382 -17627 17681 0
-1382 -17628 17682 0
-1382 -17629 17683 0
-1382 -17630 17684 0
-1382 -17631 17685 0
-1382 -17632 17686 0
-1382 -17633 17687 0
-1382 -17634 17688 0
-1382 -17635 17689 0
-1382 -17636 17690 0
-1382 -17637 17691 0
-1382 -17638 17692 0
-1382 -17639 17693 0
-1382 -17640 17694 0
-1382 -17641 17695 0
-1382 -17642 17696 0
-1382 -17643 17697 0
-1382 -17644 17698 0
-1382 -17645 17699 0
-1382 -17646 17700 0
-1382 -17647 17701 0
-1382 -17648 17702 0
-1382 -17649 17703 0
-1382 -17650 17704 0
-1382 -17651 17705 0
-1382 -17652 17706 0
-1382 -17653 17707 0
-1382 -17654 17708 0
-1382 -17655 17709 0
-1382 -17656 17710 0
-1382 -17657 17711 0
-1382 -17658 17712 0
-1382 -17659 17713 0
-1382 -17660 17714 0
-1382 -17661 17715 0
-1382 -17662 17716 0
-1382 -17663 17717 0
-1382 -17664 17718 0
-1382 -17665 17719 0
-1382 -17666 17720 0
-1382 -17667 17721 0
-1382 -17668 0
-17669 17722 0
-17670 17723 0
-17671 17724 0
-17672 17725 0
-17673 17726 0
-17674 17727 0
-17675 17728 0
-17676 17729 0
-17677 17730 0
-17678 17731 0
-17679 17732 0
-17680 17733 0
-17681 17734 0
-17682 17735 0
-17683 17736 0
-17684 17737 0
-17685 17738 0
-17686 17739 0
-17687 17740 0
-17688 17741 0
-17689 17742 0
-17690 17743 0
-17691 17744 0
-17692 17745 0
-17693 17746 0
-17694 17747 0
-17695 17748 0
-17696 17749 0
-17697 17750 0
-17698 17751 0
-17699 17752 0
-17700 17753 0
-17701 17754 0
-17702 17755 0
-17703 17756 0
-17704 17757 0
-17705 17758 0
-17706 17759 0
-17707 17760 0
-17708 17761 0
-17709 17762 0
-17710 17763 0
-17711 17764 0
-17712 17765 0
-17713 17766 0
-17714 17767 0
-17715 17768 0
-17716 17769 0
-17717 17770 0
-17718 17771 0
-17719 17772 0
-17720 17773 0
-17721 17774 0
-1384 -17669 17723 0
-1384 -17670 17724 0
-1384 -17671 17725 0
-1384 -17672 17726 0
-1384 -17673 17727 0
-1384 -17674 17728 0
-1384 -17675 17729 0
-1384 -17676 17730 0
-1384 -17677 17731 0
-1384 -17678 17732 0
-1384 -17679 17733 0
-1384 -17680 17734 0
-1384 -17681 17735 0
-1384 -17682 17736 0
-1384 -17683 17737 0
-1384 -17684 17738 0
-1384 -17685 17739 0
-1384 -17686 17740 0
-1384 -17687 17741 0
-1384 -17688 17742 0
-1384 -17689 17743 0
-1384 -17690 17744 0
-1384 -17691 17745 0
-1384 -17692 17746 0
-1384 -17693 17747 0
-1384 -17694 17748 0
-1384 -17695 17749 0
-1384 -17696 17750 0
-1384 -17697 17751 0
-1384 -17698 17752 0
-1384 -17699 17753 0
-1384 -17700 17754 0
-1384 -17701 17755 0
-1384 -17702 17756 0
-1384 -17703 17757 0
-1384 -17704 17758 0
-1384 -17705 17759 0
-1384 -17706 17760 0
-1384 -17707 17761 0
-1384 -17708 17762 0
-1384 -17709 17763 0
-1384 -17710 17764 0
-1384 -17711 17765 0
-1384 -17712 17766 0
-1384 -17713 17767 0
-1384 -17714 17768 0
-1384 -17715 17769 0
-1384 -17716 17770 0
-1384 -17717 17771 0
-1384 -17718 17772 0
-1384 -17719 17773 0
-1384 -17720 17774 0
-1384 -17721 0
-17722 17775 0
-17723 17776 0
-17724 17777 0
-17725 17778 0
-17726 17779 0
-17727 17780 0
-17728 17781 0
-17729 17782 0
-17730 17783 0
-17731 17784 0
-17732 17785 0
-17733 17786 0
-17734 17787 0
-17735 17788 0
-17736 17789 0
-17737 17790 0
-17738 17791 0
-17739 17792 0
-17740 17793 0
-17741 17794 0
-17742 17795 0
-17743 17796 0
-17744 17797 0
-17745 17798 0
-17746 17799 0
-17747 17800 0
-17748 17801 0
-17749 17802 0
-17750 17803 0
-17751 17804 0
-17752 17805 0
-17753 17806 0
-17754 17807 0
-17755 17808 0
-17756 17809 0
-17757 17810 0
-17758 17811 0
-17759 17812 0
-17760 17813 0
-17761 17814 0
-17762 17815 0
-17763 17816 0
-17764 17817 0
-17765 17818 0
-17766 17819 0
-17767 17820 0
-17768 17821 0
-17769 17822 0
-17770 17823 0
-17771 17824 0
-17772 17825 0
-17773 17826 0
-17774 17827 0
-1386 -17722 17776 0
-1386 -17723 17777 0
-1386 -17724 17778 0
-1386 -17725 17779 0
-1386 -17726 17780 0
-1386 -17727 17781 0
-1386 -17728 17782 0
-1386 -17729 17783 0
-1386 -17730 17784 0
-1386 -17731 17785 0
-1386 -17732 17786 0
-1386 -17733 17787 0
-1386 -17734 17788 0
-1386 -17735 17789 0
-1386 -17736 17790 0
-1386 -17737 17791 0
-1386 -17738 17792 0
-1386 -17739 17793 0
-1386 -17740 17794 0
-1386 -17741 17795 0
-1386 -17742 17796 0
-1386 -17743 17797 0
-1386 -17744 17798 0
-1386 -17745 17799 0
-1386 -17746 17800 0
-1386 -17747 17801 0
-1386 -17748 17802 0
-1386 -17749 17803 0
-1386 -17750 17804 0
-1386 -17751 17805 0
-1386 -17752 17806 0
-1386 -17753 17807 0
-1386 -17754 17808 0
-1386 -17755 17809 0
-1386 -17756 17810 0
-1386 -17757 17811 0
-1386 -17758 17812 0
-1386 -17759 17813 0
-1386 -17760 17814 0
-1386 -17761 17815 0
-1386 -17762 17816 0
-1386 -17763 17817 0
-1386 -17764 17818 0
-1386 -17765 17819 0
-1386 -17766 17820 0
-1386 -17767 17821 0
-1386 -17768 17822 0
-1386 -17769 17823 0
-1386 -17770 17824 0
-1386 -17771 17825 0
-1386 -17772 17826 0
-1386 -17773 17827 0
-1386 -17774 0
-17775 17828 0
-17776 17829 0
-17777 17830 0
-17778 17831 0
-17779 17832 0
-17780 17833 0
-17781 17834 0
-17782 17835 0
-17783 17836 0
-17784 17837 0
-17785 17838 0
-17786 17839 0
-17787 17840 0
-17788 17841 0
-17789 17842 0
-17790 17843 0
-17791 17844 0
-17792 17845 0
-17793 17846 0
-17794 17847 0
-17795 17848 0
-17796 17849 0
-17797 17850 0
-17798 17851 0
-17799 17852 0
-17800 17853 0
-17801 17854 0
-17802 17855 0
-17803 17856 0
-17804 17857 0
-17805 17858 0
-17806 17859 0
-17807 17860 0
-17808 17861 0
-17809 17862 0
-17810 17863 0
-17811 17864 0
-17812 17865 0
-17813 17866 0
-17814 17867 0
-17815 17868 0
-17816 17869 0
-17817 17870 0
-17818 17871 0
-17819 17872 0
-17820 17873 0
-17821 17874 0
-17822 17875 0
-17823 17876 0
-17824 17877 0
-17825 17878 0
-17826 17879 0
-17827 17880 0
-1388 -17775 17829 0
-1388 -17776 17830 0
-1388 -17777 17831 0
-1388 -17778 17832 0
-1388 -17779 17833 0
-1388 -17780 17834 0
-1388 -17781 17835 0
-1388 -17782 17836 0
-1388 -17783 17837 0
-1388 -17784 17838 0
-1388 -17785 17839 0
-1388 -17786 17840 0
-1388 -17787 17841 0
-1388 -17788 17842 0
-1388 -17789 17843 0
-1388 -17790 17844 0
-1388 -17791 17845 0
-1388 -17792 17846 0
-1388 -17793 17847 0
-1388 -17794 17848 0
-1388 -17795 17849 0
-1388 -17796 17850 0
-1388 -17797 17851 0
-1388 -17798 17852 0
-1388 -17799 17853 0
-1388 -17800 17854 0
-1388 -17801 17855 0
-1388 -17802 17856 0
-1388 -17803 17857 0
-1388 -17804 17858 0
-1388 -17805 17859 0
-1388 -17806 17860 0
-1388 -17807 17861 0
-1388 -17808 17862 0
-1388 -17809 17863 0
-1388 -17810 17864 0
-1388 -17811 17865 0
-1388 -17812 17866 0
-1388 -17813 17867 0
-1388 -17814 17868 0
-1388 -17815 17869 0
-1388 -17816 17870 0
-1388 -17817 17871 0
-1388 -17818 17872 0
-1388 -17819 17873 0
-1388 -17820 17874 0
-1388 -17821 17875 0
-1388 -17822 17876 0
-1388 -17823 17877 0
-1388 -17824 17878 0
-1388 -17825 17879 0
-1388 -17826 17880 0
-1388 -17827 0
-17828 17881 0
-17829 17882 0
-17830 17883 0
-17831 17884 0
-17832 17885 0
-17833 17886 0
-17834 17887 0
-17835 17888 0
-17836 17889 0
-17837 17890 0
-17838 17891 0
-17839 17892 0
-17840 17893 0
-17841 17894 0
-17842 17895 0
-17843 17896 0
-17844 17897 0
-17845 17898 0
-17846 17899 0
-17847 17900 0
-17848 17901 0
-17849 17902 0
-17850 17903 0
-17851 17904 0
-17852 17905 0
-17853 17906 0
-17854 17907 0
-17855 17908 0
-17856 17909 0
-17857 17910 0
-17858 17911 0
-17859 17912 0
-17860 17913 0
-17861 17914 0
-17862 17915 0
-17863 17916 0
-17864 17917 0
-17865 17918 0
-17866 17919 0
-17867 17920 0
-17868 17921 0
-17869 17922 0
-17870 17923 0
-17871 17924 0
-17872 17925 0
-17873 17926 0
-17874 17927 0
-17875 17928 0
-17876 17929 0
-17877 17930 0
-17878 17931 0
-17879 17932 0
-17880 17933 0
-1390 -17828 17882 0
-1390 -17829 17883 0
-1390 -17830 17884 0
-1390 -17831 17885 0
-1390 -17832 17886 0
-1390 -17833 17887 0
-1390 -17834 17888 0
-1390 -17835 17889 0
-1390 -17836 17890 0
-1390 -17837 17891 0
-1390 -17838 17892 0
-1390 -17839 17893 0
-1390 -17840 17894 0
-1390 -17841 17895 0
-1390 -17842 17896 0
-1390 -17843 17897 0
-1390 -17844 17898 0
-1390 -17845 17899 0
-1390 -17846 17900 0
-1390 -17847 17901 0
-1390 -17848 17902 0
-1390 -17849 17903 0
-1390 -17850 17904 0
-1390 -17851 17905 0
-1390 -17852 17906 0
-1390 -17853 17907 0
-1390 -17854 17908 0
-1390 -17855 17909 0
-1390 -17856 17910 0
-1390 -17857 17911 0
-1390 -17858 17912 0
-1390 -17859 17913 0
-1390 -17860 17914 0
-1390 -17861 17915 0
-1390 -17862 17916 0
-1390 -17863 17917 0
-1390 -17864 17918 0
-1390 -17865 17919 0
-1390 -17866 17920 0
-1390 -17867 17921 0
-1390 -17868 17922 0
-1390 -17869 17923 0
-1390 -17870 17924 0
-1390 -17871 17925 0
-1390 -17872 17926 0
-1390 -17873 17927 0
-1390 -17874 17928 0
-1390 -17875 17929 0
-1390 -17876 17930 0
-1390 -17877 17931 0
-1390 -17878 17932 0
-1390 -17879 17933 0
-1390 -17880 0
-17881 17934 0
-17882 17935 0
-17883 17936 0
-17884 17937 0
-17885 17938 0
-17886 17939 0
-17887 17940 0
-17888 17941 0
-17889 17942 0
-17890 17943 0
-17891 17944 0
-17892 17945 0
-17893 17946 0
-17894 17947 0
-17895 17948 0
-17896 17949 0
-17897 17950 0
-17898 17951 0
-17899 17952 0
-17900 17953 0
-17901 17954 0
-17902 17955 0
-17903 17956 0
-17904 17957 0
-17905 17958 0
-17906 17959 0
-17907 17960 0
-17908 17961 0
-17909 17962 0
-17910 17963 0
-17911 17964 0
-17912 17965 0
-17913 17966 0
-17914 17967 0
-17915 17968 0
-17916 17969 0
-17917 17970 0
-17918 17971 0
-17919 17972 0
-17920 17973 0
-17921 17974 0
-17922 17975 0
-17923 17976 0
-17924 17977 0
-17925 17978 0
-17926 17979 0
-17927 17980 0
-17928 17981 0
-17929 17982 0
-17930 17983 0
-17931 17984 0
-17932 17985 0
-17933 17986 0
-1392 -17881 17935 0
-1392 -17882 17936 0
-1392 -17883 17937 0
-1392 -17884 17938 0
-1392 -17885 17939 0
-1392 -17886 17940 0
-1392 -17887 17941 0
-1392 -17888 17942 0
-1392 -17889 17943 0
-1392 -17890 17944 0
-1392 -17891 17945 0
-1392 -17892 17946 0
-1392 -17893 17947 0
-1392 -17894 17948 0
-1392 -17895 17949 0
-1392 -17896 17950 0
-1392 -17897 17951 0
-1392 -17898 17952 0
-1392 -17899 17953 0
-1392 -17900 17954 0
-1392 -17901 17955 0
-1392 -17902 17956 0
-1392 -17903 17957 0
-1392 -17904 17958 0
-1392 -17905 17959 0
-1392 -17906 17960 0
-1392 -17907 17961 0
-1392 -17908 17962 0
-1392 -17909 17963 0
-1392 -17910 17964 0
-1392 -17911 17965 0
-1392 -17912 17966 0
-1392 -17913 17967 0
-1392 -17914 17968 0
-1392 -17915 17969 0
-1392 -17916 17970 0
-1392 -17917 17971 0
-1392 -17918 17972 0
-1392 -17919 17973 0
-1392 -17920 17974 0
-1392 -17921 17975 0
-1392 -17922 17976 0
-1392 -17923 17977 0
-1392 -17924 17978 0
-1392 -17925 17979 0
-1392 -17926 17980 0
-1392 -17927 17981 0
-1392 -17928 17982 0
-1392 -17929 17983 0
-1392 -17930 17984 0
-1392 -17931 17985 0
-1392 -17932 17986 0
-1392 -17933 0
-17934 17987 0
-17935 17988 0
-17936 17989 0
-17937 17990 0
-17938 17991 0
-17939 17992 0
-17940 17993 0
-17941 17994 0
-17942 17995 0
-17943 17996 0
-17944 17997 0
-17945 17998 0
-17946 17999 0
-17947 18000 0
-17948 18001 0
-17949 18002 0
-17950 18003 0
-17951 18004 0
-17952 18005 0
-17953 18006 0
-17954 18007 0
-17955 18008 0
-17956 18009 0
-17957 18010 0
-17958 18011 0
-17959 18012 0
-17960 18013 0
-17961 18014 0
-17962 18015 0
-17963 18016 0
-17964 18017 0
-17965 18018 0
-17966 18019 0
-17967 18020 0
-17968 18021 0
-17969 18022 0
-17970 18023 0
-17971 18024 0
-17972 18025 0
-17973 18026 0
-17974 18027 0
-17975 18028 0
-17976 18029 0
-17977 18030 0
-17978 18031 0
-17979 18032 0
-17980 18033 0
-17981 18034 0
-17982 18035 0
-17983 18036 0
-17984 18037 0
-17985 18038 0
-17986 18039 0
-1394 -17934 17988 0
-1394 -17935 17989 0
-1394 -17936 17990 0
-1394 -17937 17991 0
-1394 -17938 17992 0
-1394 -17939 17993 0
-1394 -17940 17994 0
-1394 -17941 17995 0
-1394 -17942 17996 0
-1394 -17943 17997 0
-1394 -17944 17998 0
-1394 -17945 17999 0
-1394 -17946 18000 0
-1394 -17947 18001 0
-1394 -17948 18002 0
-1394 -17949 18003 0
-1394 -17950 18004 0
-1394 -17951 18005 0
-1394 -17952 18006 0
-1394 -17953 18007 0
-1394 -17954 18008 0
-1394 -17955 18009 0
-1394 -17956 18010 0
-1394 -17957 18011 0
-1394 -17958 18012 0
-1394 -17959 18013 0
-1394 -17960 18014 0
-1394 -17961 18015 0
-1394 -17962 18016 0
-1394 -17963 18017 0
-1394 -17964 18018 0
-1394 -17965 18019 0
-1394 -17966 18020 0
-1394 -17967 18021 0
-1394 -17968 18022 0
-1394 -17969 18023 0
-1394 -17970 18024 0
-1394 -17971 18025 0
-1394 -17972 18026 0
-1394 -17973 18027 0
-1394 -17974 18028 0
-1394 -17975 18029 0
-1394 -17976 18030 0
-1394 -17977 18031 0
-1394 -17978 18032 0
-1394 -17979 18033 0
-1394 -17980 18034 0
-1394 -17981 18035 0
-1394 -17982 18036 0
-1394 -17983 18037 0
-1394 -17984 18038 0
-1394 -17985 18039 0
-1394 -17986 0
-17987 18040 0
-17988 18041 0
-17989 18042 0
-17990 18043 0
-17991 18044 0
-17992 18045 0
-17993 18046 0
-17994 18047 0
-17995 18048 0
-17996 18049 0
-17997 18050 0
-17998 18051 0
-17999 18052 0
-18000 18053 0
-18001 18054 0
-18002 18055 0
-18003 18056 0
-18004 18057 0
-18005 18058 0
-18006 18059 0
-18007 18060 0
-18008 18061 0
-18009 18062 0
-18010 18063 0
-18011 18064 0
-18012 18065 0
-18013 18066 0
-18014 18067 0
-18015 18068 0
-18016 18069 0
-18017 18070 0
-18018 18071 0
-18019 18072 0
-18020 18073 0
-18021 18074 0
-18022 18075 0
-18023 18076 0
-18024 18077 0
-18025 18078 0
-18026 18079 0
-18027 18080 0
-18028 18081 0
-18029 18082 0
-18030 18083 0
-18031 18084 0
-18032 18085 0
-18033 18086 0
-18034 18087 0
-18035 18088 0
-18036 18089 0
-18037 18090 0
-18038 18091 0
-18039 18092 0
-1396 -17987 18041 0
-1396 -17988 18042 0
-1396 -17989 18043 0
-1396 -17990 18044 0
-1396 -17991 18045 0
-1396 -17992 18046 0
-1396 -17993 18047 0
-1396 -17994 18048 0
-1396 -17995 18049 0
-1396 -17996 18050 0
-1396 -17997 18051 0
-1396 -17998 18052 0
-1396 -17999 18053 0
-1396 -18000 18054 0
-1396 -18001 18055 0
-1396 -18002 18056 0
-1396 -18003 18057 0
-1396 -18004 18058 0
-1396 -18005 18059 0
-1396 -18006 18060 0
-1396 -18007 18061 0
-1396 -18008 18062 0
-1396 -18009 18063 0
-1396 -18010 18064 0
-1396 -18011 18065 0
-1396 -18012 18066 0
-1396 -18013 18067 0
-1396 -18014 18068 0
-1396 -18015 18069 0
-1396 -18016 18070 0
-1396 -18017 18071 0
-1396 -18018 18072 0
-1396 -18019 18073 0
-1396 -18020 18074 0
-1396 -18021 18075 0
-1396 -18022 18076 0
-1396 -18023 18077 0
-1396 -18024 18078 0
-1396 -18025 18079 0
-1396 -18026 18080 0
-1396 -18027 18081 0
-1396 -18028 18082 0
-1396 -18029 18083 0
-1396 -18030 18084 0
-1396 -18031 18085 0
-1396 -18032 18086 0
-1396 -18033 18087 0
-1396 -18034 18088 0
-1396 -18035 18089 0
-1396 -18036 18090 0
-1396 -18037 18091 0
-1396 -18038 18092 0
-1396 -18039 0
-18040 18093 0
-18041 18094 0
-18042 18095 0
-18043 18096 0
-18044 18097 0
-18045 18098 0
-18046 18099 0
-18047 18100 0
-18048 18101 0
-18049 18102 0
-18050 18103 0
-18051 18104 0
-18052 18105 0
-18053 18106 0
-18054 18107 0
-18055 18108 0
-18056 18109 0
-18057 18110 0
-18058 18111 0
-18059 18112 0
-18060 18113 0
-18061 18114 0
-18062 18115 0
-18063 18116 0
-18064 18117 0
-18065 18118 0
-18066 18119 0
-18067 18120 0
-18068 18121 0
-18069 18122 0
-18070 18123 0
-18071 18124 0
-18072 18125 0
-18073 18126 0
-18074 18127 0
-18075 18128 0
-18076 18129 0
-18077 18130 0
-18078 18131 0
-18079 18132 0
-18080 18133 0
-18081 18134 0
-18082 18135 0
-18083 18136 0
-18084 18137 0
-18085 18138 0
-18086 18139 0
-18087 18140 0
-18088 18141 0
-18089 18142 0
-18090 18143 0
-18091 18144 0
-18092 18145 0
-1398 -18040 18094 0
-1398 -18041 18095 0
-1398 -18042 18096 0
-1398 -18043 18097 0
-1398 -18044 18098 0
-1398 -18045 18099 0
-1398 -18046 18100 0
-1398 -18047 18101 0
-1398 -18048 18102 0
-1398 -18049 18103 0
-1398 -18050 18104 0
-1398 -18051 18105 0
-1398 -18052 18106 0
-1398 -18053 18107 0
-1398 -18054 18108 0
-1398 -18055 18109 0
-1398 -18056 18110 0
-1398 -18057 18111 0
-1398 -18058 18112 0
-1398 -18059 18113 0
-1398 -18060 18114 0
-1398 -18061 18115 0
-1398 -18062 18116 0
-1398 -18063 18117 0
-1398 -18064 18118 0
-1398 -18065 18119 0
-1398 -18066 18120 0
-1398 -18067 18121 0
-1398 -18068 18122 0
-1398 -18069 18123 0
-1398 -18070 18124 0
-1398 -18071 18125 0
-1398 -18072 18126 0
-1398 -18073 18127 0
-1398 -18074 18128 0
-1398 -18075 18129 0
-1398 -18076 18130 0
-1398 -18077 18131 0
-1398 -18078 18132 0
-1398 -18079 18133 0
-1398 -18080 18134 0
-1398 -18081 18135 0
-1398 -18082 18136 0
-1398 -18083 18137 0
-1398 -18084 18138 0
-1398 -18085 18139 0
-1398 -18086 18140 0
-1398 -18087 18141 0
-1398 -18088 18142 0
-1398 -18089 18143 0
-1398 -18090 18144 0
-1398 -18091 18145 0
-1398 -18092 0
-18093 18146 0
-18094 18147 0
-18095 18148 0
-18096 18149 0
-18097 18150 0
-18098 18151 0
-18099 18152 0
-18100 18153 0
-18101 18154 0
-18102 18155 0
-18103 18156 0
-18104 18157 0
-18105 18158 0
-18106 18159 0
-18107 18160 0
-18108 18161 0
-18109 18162 0
-18110 18163 0
-18111 18164 0
-18112 18165 0
-18113 18166 0
-18114 18167 0
-18115 18168 0
-18116 18169 0
-18117 18170 0
-18118 18171 0
-18119 18172 0
-18120 18173 0
-18121 18174 0
-18122 18175 0
-18123 18176 0
-18124 18177 0
-18125 18178 0
-18126 18179 0
-18127 18180 0
-18128 18181 0
-18129 18182 0
-18130 18183 0
-18131 18184 0
-18132 18185 0
-18133 18186 0
-18134 18187 0
-18135 18188 0
-18136 18189 0
-18137 18190 0
-18138 18191 0
-18139 18192 0
-18140 18193 0
-18141 18194 0
-18142 18195 0
-18143 18196 0
-18144 18197 0
-18145 18198 0
-1400 -18093 18147 0
-1400 -18094 18148 0
-1400 -18095 18149 0
-1400 -18096 18150 0
-1400 -18097 18151 0
-1400 -18098 18152 0
-1400 -18099 18153 0
-1400 -18100 18154 0
-1400 -18101 18155 0
-1400 -18102 18156 0
-1400 -18103 18157 0
-1400 -18104 18158 0
-1400 -18105 18159 0
-1400 -18106 18160 0
-1400 -18107 18161 0
-1400 -18108 18162 0
-1400 -18109 18163 0
-1400 -18110 18164 0
-1400 -18111 18165 0
-1400 -18112 18166 0
-1400 -18113 18167 0
-1400 -18114 18168 0
-1400 -18115 18169 0
-1400 -18116 18170 0
-1400 -18117 18171 0
-1400 -18118 18172 0
-1400 -18119 18173 0
-1400 -18120 18174 0
-1400 -18121 18175 0
-1400 -18122 18176 0
-1400 -18123 18177 0
-1400 -18124 18178 0
-1400 -18125 18179 0
-1400 -18126 18180 0
-1400 -18127 18181 0
-1400 -18128 18182 0
-1400 -18129 18183 0
-1400 -18130 18184 0
-1400 -18131 18185 0
-1400 -18132 18186 0
-1400 -18133 18187 0
-1400 -18134 18188 0
-1400 -18135 18189 0
-1400 -18136 18190 0
-1400 -18137 18191 0
-1400 -18138 18192 0
-1400 -18139 18193 0
-1400 -18140 18194 0
-1400 -18141 18195 0
-1400 -18142 18196 0
-1400 -18143 18197 0
-1400 -18144 18198 0
-1400 -18145 0
-18146 18199 0
-18147 18200 0
-18148 18201 0
-18149 18202 0
-18150 18203 0
-18151 18204 0
-18152 18205 0
-18153 18206 0
-18154 18207 0
-18155 18208 0
-18156 18209 0
-18157 18210 0
-18158 18211 0
-18159 18212 0
-18160 18213 0
-18161 18214 0
-18162 18215 0
-18163 18216 0
-18164 18217 0
-18165 18218 0
-18166 18219 0
-18167 18220 0
-18168 18221 0
-18169 18222 0
-18170 18223 0
-18171 18224 0
-18172 18225 0
-18173 18226 0
-18174 18227 0
-18175 18228 0
-18176 18229 0
-18177 18230 0
-18178 18231 0
-18179 18232 0
-18180 18233 0
-18181 18234 0
-18182 18235 0
-18183 18236 0
-18184 18237 0
-18185 18238 0
-18186 18239 0
-18187 18240 0
-18188 18241 0
-18189 18242 0
-18190 18243 0
-18191 18244 0
-18192 18245 0
-18193 18246 0
-18194 18247 0
-18195 18248 0
-18196 18249 0
-18197 18250 0
-18198 18251 0
-1402 -18146 18200 0
-1402 -18147 18201 0
-1402 -18148 18202 0
-1402 -18149 18203 0
-1402 -18150 18204 0
-1402 -18151 18205 0
-1402 -18152 18206 0
-1402 -18153 18207 0
-1402 -18154 18208 0
-1402 -18155 18209 0
-1402 -18156 18210 0
-1402 -18157 18211 0
-1402 -18158 18212 0
-1402 -18159 18213 0
-1402 -18160 18214 0
-1402 -18161 18215 0
-1402 -18162 18216 0
-1402 -18163 18217 0
-1402 -18164 18218 0
-1402 -18165 18219 0
-1402 -18166 18220 0
-1402 -18167 18221 0
-1402 -18168 18222 0
-1402 -18169 18223 0
-1402 -18170 18224 0
-1402 -18171 18225 0
-1402 -18172 18226 0
-1402 -18173 18227 0
-1402 -18174 18228 0
-1402 -18175 18229 0
-1402 -18176 18230 0
-1402 -18177 18231 0
-1402 -18178 18232 0
-1402 -18179 18233 0
-1402 -18180 18234 0
-1402 -18181 18235 0
-1402 -18182 18236 0
-1402 -18183 18237 0
-1402 -18184 18238 0
-1402 -18185 18239 0
-1402 -18186 18240 0
-1402 -18187 18241 0
-1402 -18188 18242 0
-1402 -18189 18243 0
-1402 -18190 18244 0
-1402 -18191 18245 0
-1402 -18192 18246 0
-1402 -18193 18247 0
-1402 -18194 18248 0
-1402 -18195 18249 0
-1402 -18196 18250 0
-1402 -18197 18251 0
-1402 -18198 0
-18199 18252 0
-18200 18253 0
-18201 18254 0
-18202 18255 0
-18203 18256 0
-18204 18257 0
-18205 18258 0
-18206 18259 0
-18207 18260 0
-18208 18261 0
-18209 18262 0
-18210 18263 0
-18211 18264 0
-18212 18265 0
-18213 18266 0
-18214 18267 0
-18215 18268 0
-18216 18269 0
-18217 18270 0
-18218 18271 0
-18219 18272 0
-18220 18273 0
-18221 18274 0
-18222 18275 0
-18223 18276 0
-18224 18277 0
-18225 18278 0
-18226 18279 0
-18227 18280 0
-18228 18281 0
-18229 18282 0
-18230 18283 0
-18231 18284 0
-18232 18285 0
-18233 18286 0
-18234 18287 0
-18235 18288 0
-18236 18289 0
-18237 18290 0
-18238 18291 0
-18239 18292 0
-18240 18293 0
-18241 18294 0
-18242 18295 0
-18243 18296 0
-18244 18297 0
-18245 18298 0
-18246 18299 0
-18247 18300 0
-18248 18301 0
-18249 18302 0
-18250 18303 0
-18251 18304 0
-1404 -18199 18253 0
-1404 -18200 18254 0
-1404 -18201 18255 0
-1404 -18202 18256 0
-1404 -18203 18257 0
-1404 -18204 18258 0
-1404 -18205 18259 0
-1404 -18206 18260 0
-1404 -18207 18261 0
-1404 -18208 18262 0
-1404 -18209 18263 0
-1404 -18210 18264 0
-1404 -18211 18265 0
-1404 -18212 18266 0
-1404 -18213 18267 0
-1404 -18214 18268 0
-1404 -18215 18269 0
-1404 -18216 18270 0
-1404 -18217 18271 0
-1404 -18218 18272 0
-1404 -18219 18273 0
-1404 -18220 18274 0
-1404 -18221 18275 0
-1404 -18222 18276 0
-1404 -18223 18277 0
-1404 -18224 18278 0
-1404 -18225 18279 0
-1404 -18226 18280 0
-1404 -18227 18281 0
-1404 -18228 18282 0
-1404 -18229 18283 0
-1404 -18230 18284 0
-1404 -18231 18285 0
-1404 -18232 18286 0
-1404 -18233 18287 0
-1404 -18234 18288 0
-1404 -18235 18289 0
-1404 -18236 18290 0
-1404 -18237 18291 0
-1404 -18238 18292 0
-1404 -18239 18293 0
-1404 -18240 18294 0
-1404 -18241 18295 0
-1404 -18242 18296 0
-1404 -18243 18297 0
-1404 -18244 18298 0
-1404 -18245 18299 0
-1404 -18246 18300 0
-1404 -18247 18301 0
-1404 -18248 18302 0
-1404 -18249 18303 0
-1404 -18250 18304 0
-1404 -18251 0
-18252 18305 0
-18253 18306 0
-18254 18307 0
-18255 18308 0
-18256 18309 0
-18257 18310 0
-18258 18311 0
-18259 18312 0
-18260 18313 0
-18261 18314 0
-18262 18315 0
-18263 18316 0
-18264 18317 0
-18265 18318 0
-18266 18319 0
-18267 18320 0
-18268 18321 0
-18269 18322 0
-18270 18323 0
-18271 18324 0
-18272 18325 0
-18273 18326 0
-18274 18327 0
-18275 18328 0
-18276 18329 0
-18277 18330 0
-18278 18331 0
-18279 18332 0
-18280 18333 0
-18281 18334 0
-18282 18335 0
-18283 18336 0
-18284 18337 0
-18285 18338 0
-18286 18339 0
-18287 18340 0
-18288 18341 0
-18289 18342 0
-18290 18343 0
-18291 18344 0
-18292 18345 0
-18293 18346 0
-18294 18347 0
-18295 18348 0
-18296 18349 0
-18297 18350 0
-18298 18351 0
-18299 18352 0
-18300 18353 0
-18301 18354 0
-18302 18355 0
-18303 18356 0
-18304 18357 0
-1406 -18252 18306 0
-1406 -18253 18307 0
-1406 -18254 18308 0
-1406 -18255 18309 0
-1406 -18256 18310 0
-1406 -18257 18311 0
-1406 -18258 18312 0
-1406 -18259 18313 0
-1406 -18260 18314 0
-1406 -18261 18315 0
-1406 -18262 18316 0
-1406 -18263 18317 0
-1406 -18264 18318 0
-1406 -18265 18319 0
-1406 -18266 18320 0
-1406 -18267 18321 0
-1406 -18268 18322 0
-1406 -18269 18323 0
-1406 -18270 18324 0
-1406 -18271 18325 0
-1406 -18272 18326 0
-1406 -18273 18327 0
-1406 -18274 18328 0
-1406 -18275 18329 0
-1406 -18276 18330 0
-1406 -18277 18331 0
-1406 -18278 18332 0
-1406 -18279 18333 0
-1406 -18280 18334 0
-1406 -18281 18335 0
-1406 -18282 18336 0
-1406 -18283 18337 0
-1406 -18284 18338 0
-1406 -18285 18339 0
-1406 -18286 18340 0
-1406 -18287 18341 0
-1406 -18288 18342 0
-1406 -18289 18343 0
-1406 -18290 18344 0
-1406 -18291 18345 0
-1406 -18292 18346 0
-1406 -18293 18347 0
-1406 -18294 18348 0
-1406 -18295 18349 0
-1406 -18296 18350 0
-1406 -18297 18351 0
-1406 -18298 18352 0
-1406 -18299 18353 0
-1406 -18300 18354 0
-1406 -18301 18355 0
-1406 -18302 18356 0
-1406 -18303 18357 0
-1406 -18304 0
-18305 18358 0
-18306 18359 0
-18307 18360 0
-18308 18361 0
-18309 18362 0
-18310 18363 0
-18311 18364 0
-18312 18365 0
-18313 18366 0
-18314 18367 0
-18315 18368 0
-18316 18369 0
-18317 18370 0
-18318 18371 0
-18319 18372 0
-18320 18373 0
-18321 18374 0
-18322 18375 0
-18323 18376 0
-18324 18377 0
-18325 18378 0
-18326 18379 0
-18327 18380 0
-18328 18381 0
-18329 18382 0
-18330 18383 0
-18331 18384 0
-18332 18385 0
-18333 18386 0
-18334 18387 0
-18335 18388 0
-18336 18389 0
-18337 18390 0
-18338 18391 0
-18339 18392 0
-18340 18393 0
-18341 18394 0
-18342 18395 0
-18343 18396 0
-18344 18397 0
-18345 18398 0
-18346 18399 0
-18347 18400 0
-18348 18401 0
-18349 18402 0
-18350 18403 0
-18351 18404 0
-18352 18405 0
-18353 18406 0
-18354 18407 0
-18355 18408 0
-18356 18409 0
-18357 18410 0
-1408 -18305 18359 0
-1408 -18306 18360 0
-1408 -18307 18361 0
-1408 -18308 18362 0
-1408 -18309 18363 0
-1408 -18310 18364 0
-1408 -18311 18365 0
-1408 -18312 18366 0
-1408 -18313 18367 0
-1408 -18314 18368 0
-1408 -18315 18369 0
-1408 -18316 18370 0
-1408 -18317 18371 0
-1408 -18318 18372 0
-1408 -18319 18373 0
-1408 -18320 18374 0
-1408 -18321 18375 0
-1408 -18322 18376 0
-1408 -18323 18377 0
-1408 -18324 18378 0
-1408 -18325 18379 0
-1408 -18326 18380 0
-1408 -18327 18381 0
-1408 -18328 18382 0
-1408 -18329 18383 0
-1408 -18330 18384 0
-1408 -18331 18385 0
-1408 -18332 18386 0
-1408 -18333 18387 0
-1408 -18334 18388 0
-1408 -18335 18389 0
-1408 -18336 18390 0
-1408 -18337 18391 0
-1408 -18338 18392 0
-1408 -18339 18393 0
-1408 -18340 18394 0
-1408 -18341 18395 0
-1408 -18342 18396 0
-1408 -18343 18397 0
-1408 -18344 18398 0
-1408 -18345 18399 0
-1408 -18346 18400 0
-1408 -18347 18401 0
-1408 -18348 18402 0
-1408 -18349 18403 0
-1408 -18350 18404 0
-1408 -18351 18405 0
-1408 -18352 18406 0
-1408 -18353 18407 0
-1408 -18354 18408 0
-1408 -18355 18409 0
-1408 -18356 18410 0
-1408 -18357 0
-18358 18411 0
-18359 18412 0
-18360 18413 0
-18361 18414 0
-18362 18415 0
-18363 18416 0
-18364 18417 0
-18365 18418 0
-18366 18419 0
-18367 18420 0
-18368 18421 0
-18369 18422 0
-18370 18423 0
-18371 18424 0
-18372 18425 0
-18373 18426 0
-18374 18427 0
-18375 18428 0
-18376 18429 0
-18377 18430 0
-18378 18431 0
-18379 18432 0
-18380 18433 0
-18381 18434 0
-18382 18435 0
-18383 18436 0
-18384 18437 0
-18385 18438 0
-18386 18439 0
-18387 18440 0
-18388 18441 0
-18389 18442 0
-18390 18443 0
-18391 18444 0
-18392 18445 0
-18393 18446 0
-18394 18447 0
-18395 18448 0
-18396 18449 0
-18397 18450 0
-18398 18451 0
-18399 18452 0
-18400 18453 0
-18401 18454 0
-18402 18455 0
-18403 18456 0
-18404 18457 0
-18405 18458 0
-18406 18459 0
-18407 18460 0
-18408 18461 0
-18409 18462 0
-18410 18463 0
-1410 -18358 18412 0
-1410 -18359 18413 0
-1410 -18360 18414 0
-1410 -18361 18415 0
-1410 -18362 18416 0
-1410 -18363 18417 0
-1410 -18364 18418 0
-1410 -18365 18419 0
-1410 -18366 18420 0
-1410 -18367 18421 0
-1410 -18368 18422 0
-1410 -18369 18423 0
-1410 -18370 18424 0
-1410 -18371 18425 0
-1410 -18372 18426 0
-1410 -18373 18427 0
-1410 -18374 18428 0
-1410 -18375 18429 0
-1410 -18376 18430 0
-1410 -18377 18431 0
-1410 -18378 18432 0
-1410 -18379 18433 0
-1410 -18380 18434 0
-1410 -18381 18435 0
-1410 -18382 18436 0
-1410 -18383 18437 0
-1410 -18384 18438 0
-1410 -18385 18439 0
-1410 -18386 18440 0
-1410 -18387 18441 0
-1410 -18388 18442 0
-1410 -18389 18443 0
-1410 -18390 18444 0
-1410 -18391 18445 0
-1410 -18392 18446 0
-1410 -18393 18447 0
-1410 -18394 18448 0
-1410 -18395 18449 0
-1410 -18396 18450 0
-1410 -18397 18451 0
-1410 -18398 18452 0
-1410 -18399 18453 0
-1410 -18400 18454 0
-1410 -18401 18455 0
-1410 -18402 18456 0
-1410 -18403 18457 0
-1410 -18404 18458 0
-1410 -18405 18459 0
-1410 -18406 18460 0
-1410 -18407 18461 0
-1410 -18408 18462 0
-1410 -18409 18463 0
-1410 -18410 0
-18411 18464 0
-18412 18465 0
-18413 18466 0
-18414 18467 0
-18415 18468 0
-18416 18469 0
-18417 18470 0
-18418 18471 0
-18419 18472 0
-18420 18473 0
-18421 18474 0
-18422 18475 0
-18423 18476 0
-18424 18477 0
-18425 18478 0
-18426 18479 0
-18427 18480 0
-18428 18481 0
-18429 18482 0
-18430 18483 0
-18431 18484 0
-18432 18485 0
-18433 18486 0
-18434 18487 0
-18435 18488 0
-18436 18489 0
-18437 18490 0
-18438 18491 0
-18439 18492 0
-18440 18493 0
-18441 18494 0
-18442 18495 0
-18443 18496 0
-18444 18497 0
-18445 18498 0
-18446 18499 0
-18447 18500 0
-18448 18501 0
-18449 18502 0
-18450 18503 0
-18451 18504 0
-18452 18505 0
-18453 18506 0
-18454 18507 0
-18455 18508 0
-18456 18509 0
-18457 18510 0
-18458 18511 0
-18459 18512 0
-18460 18513 0
-18461 18514 0
-18462 18515 0
-18463 18516 0
-1412 -18411 18465 0
-1412 -18412 18466 0
-1412 -18413 18467 0
-1412 -18414 18468 0
-1412 -18415 18469 0
-1412 -18416 18470 0
-1412 -18417 18471 0
-1412 -18418 18472 0
-1412 -18419 18473 0
-1412 -18420 18474 0
-1412 -18421 18475 0
-1412 -18422 18476 0
-1412 -18423 18477 0
-1412 -18424 18478 0
-1412 -18425 18479 0
-1412 -18426 18480 0
-1412 -18427 18481 0
-1412 -18428 18482 0
-1412 -18429 18483 0
-1412 -18430 18484 0
-1412 -18431 18485 0
-1412 -18432 18486 0
-1412 -18433 18487 0
-1412 -18434 18488 0
-1412 -18435 18489 0
-1412 -18436 18490 0
-1412 -18437 18491 0
-1412 -18438 18492 0
-1412 -18439 18493 0
-1412 -18440 18494 0
-1412 -18441 18495 0
-1412 -18442 18496 0
-1412 -18443 18497 0
-1412 -18444 18498 0
-1412 -18445 18499 0
-1412 -18446 18500 0
-1412 -18447 18501 0
-1412 -18448 18502 0
-1412 -18449 18503 0
-1412 -18450 18504 0
-1412 -18451 18505 0
-1412 -18452 18506 0
-1412 -18453 18507 0
-1412 -18454 18508 0
-1412 -18455 18509 0
-1412 -18456 18510 0
-1412 -18457 18511 0
-1412 -18458 18512 0
-1412 -18459 18513 0
-1412 -18460 18514 0
-1412 -18461 18515 0
-1412 -18462 18516 0
-1412 -18463 0
-18464 18517 0
-18465 18518 0
-18466 18519 0
-18467 18520 0
-18468 18521 0
-18469 18522 0
-18470 18523 0
-18471 18524 0
-18472 18525 0
-18473 18526 0
-18474 18527 0
-18475 18528 0
-18476 18529 0
-18477 18530 0
-18478 18531 0
-18479 18532 0
-18480 18533 0
-18481 18534 0
-18482 18535 0
-18483 18536 0
-18484 18537 0
-18485 18538 0
-18486 18539 0
-18487 18540 0
-18488 18541 0
-18489 18542 0
-18490 18543 0
-18491 18544 0
-18492 18545 0
-18493 18546 0
-18494 18547 0
-18495 18548 0
-18496 18549 0
-18497 18550 0
-18498 18551 0
-18499 18552 0
-18500 18553 0
-18501 18554 0
-18502 18555 0
-18503 18556 0
-18504 18557 0
-18505 18558 0
-18506 18559 0
-18507 18560 0
-18508 18561 0
-18509 18562 0
-18510 18563 0
-18511 18564 0
-18512 18565 0
-18513 18566 0
-18514 18567 0
-18515 18568 0
-18516 18569 0
-1414 -18464 18518 0
-1414 -18465 18519 0
-1414 -18466 18520 0
-1414 -18467 18521 0
-1414 -18468 18522 0
-1414 -18469 18523 0
-1414 -18470 18524 0
-1414 -18471 18525 0
-1414 -18472 18526 0
-1414 -18473 18527 0
-1414 -18474 18528 0
-1414 -18475 18529 0
-1414 -18476 18530 0
-1414 -18477 18531 0
-1414 -18478 18532 0
-1414 -18479 18533 0
-1414 -18480 18534 0
-1414 -18481 18535 0
-1414 -18482 18536 0
-1414 -18483 18537 0
-1414 -18484 18538 0
-1414 -18485 18539 0
-1414 -18486 18540 0
-1414 -18487 18541 0
-1414 -18488 18542 0
-1414 -18489 18543 0
-1414 -18490 18544 0
-1414 -18491 18545 0
-1414 -18492 18546 0
-1414 -18493 18547 0
-1414 -18494 18548 0
-1414 -18495 18549 0
-1414 -18496 18550 0
-1414 -18497 18551 0
-1414 -18498 18552 0
-1414 -18499 18553 0
-1414 -18500 18554 0
-1414 -18501 18555 0
-1414 -18502 18556 0
-1414 -18503 18557 0
-1414 -18504 18558 0
-1414 -18505 18559 0
-1414 -18506 18560 0
-1414 -18507 18561 0
-1414 -18508 18562 0
-1414 -18509 18563 0
-1414 -18510 18564 0
-1414 -18511 18565 0
-1414 -18512 18566 0
-1414 -18513 18567 0
-1414 -18514 18568 0
-1414 -18515 18569 0
-1414 -18516 0
-18517 18570 0
-18518 18571 0
-18519 18572 0
-18520 18573 0
-18521 18574 0
-18522 18575 0
-18523 18576 0
-18524 18577 0
-18525 18578 0
-18526 18579 0
-18527 18580 0
-18528 18581 0
-18529 18582 0
-18530 18583 0
-18531 18584 0
-18532 18585 0
-18533 18586 0
-18534 18587 0
-18535 18588 0
-18536 18589 0
-18537 18590 0
-18538 18591 0
-18539 18592 0
-18540 18593 0
-18541 18594 0
-18542 18595 0
-18543 18596 0
-18544 18597 0
-18545 18598 0
-18546 18599 0
-18547 18600 0
-18548 18601 0
-18549 18602 0
-18550 18603 0
-18551 18604 0
-18552 18605 0
-18553 18606 0
-18554 18607 0
-18555 18608 0
-18556 18609 0
-18557 18610 0
-18558 18611 0
-18559 18612 0
-18560 18613 0
-18561 18614 0
-18562 18615 0
-18563 18616 0
-18564 18617 0
-18565 18618 0
-18566 18619 0
-18567 18620 0
-18568 18621 0
-18569 18622 0
-1416 -18517 18571 0
-1416 -18518 18572 0
-1416 -18519 18573 0
-1416 -18520 18574 0
-1416 -18521 18575 0
-1416 -18522 18576 0
-1416 -18523 18577 0
-1416 -18524 18578 0
-1416 -18525 18579 0
-1416 -18526 18580 0
-1416 -18527 18581 0
-1416 -18528 18582 0
-1416 -18529 18583 0
-1416 -18530 18584 0
-1416 -18531 18585 0
-1416 -18532 18586 0
-1416 -18533 18587 0
-1416 -18534 18588 0
-1416 -18535 18589 0
-1416 -18536 18590 0
-1416 -18537 18591 0
-1416 -18538 18592 0
-1416 -18539 18593 0
-1416 -18540 18594 0
-1416 -18541 18595 0
-1416 -18542 18596 0
-1416 -18543 18597 0
-1416 -18544 18598 0
-1416 -18545 18599 0
-1416 -18546 18600 0
-1416 -18547 18601 0
-1416 -18548 18602 0
-1416 -18549 18603 0
-1416 -18550 18604 0
-1416 -18551 18605 0
-1416 -18552 18606 0
-1416 -18553 18607 0
-1416 -18554 18608 0
-1416 -18555 18609 0
-1416 -18556 18610 0
-1416 -18557 18611 0
-1416 -18558 18612 0
-1416 -18559 18613 0
-1416 -18560 18614 0
-1416 -18561 18615 0
-1416 -18562 18616 0
-1416 -18563 18617 0
-1416 -18564 18618 0
-1416 -18565 18619 0
-1416 -18566 18620 0
-1416 -18567 18621 0
-1416 -18568 18622 0
-1416 -18569 0
-18570 18623 0
-18571 18624 0
-18572 18625 0
-18573 18626 0
-18574 18627 0
-18575 18628 0
-18576 18629 0
-18577 18630 0
-18578 18631 0
-18579 18632 0
-18580 18633 0
-18581 18634 0
-18582 18635 0
-18583 18636 0
-18584 18637 0
-18585 18638 0
-18586 18639 0
-18587 18640 0
-18588 18641 0
-18589 18642 0
-18590 18643 0
-18591 18644 0
-18592 18645 0
-18593 18646 0
-18594 18647 0
-18595 18648 0
-18596 18649 0
-18597 18650 0
-18598 18651 0
-18599 18652 0
-18600 18653 0
-18601 18654 0
-18602 18655 0
-18603 18656 0
-18604 18657 0
-18605 18658 0
-18606 18659 0
-18607 18660 0
-18608 18661 0
-18609 18662 0
-18610 18663 0
-18611 18664 0
-18612 18665 0
-18613 18666 0
-18614 18667 0
-18615 18668 0
-18616 18669 0
-18617 18670 0
-18618 18671 0
-18619 18672 0
-18620 18673 0
-18621 18674 0
-18622 18675 0
-1418 -18570 18624 0
-1418 -18571 18625 0
-1418 -18572 18626 0
-1418 -18573 18627 0
-1418 -18574 18628 0
-1418 -18575 18629 0
-1418 -18576 18630 0
-1418 -18577 18631 0
-1418 -18578 18632 0
-1418 -18579 18633 0
-1418 -18580 18634 0
-1418 -18581 18635 0
-1418 -18582 18636 0
-1418 -18583 18637 0
-1418 -18584 18638 0
-1418 -18585 18639 0
-1418 -18586 18640 0
-1418 -18587 18641 0
-1418 -18588 18642 0
-1418 -18589 18643 0
-1418 -18590 18644 0
-1418 -18591 18645 0
-1418 -18592 18646 0
-1418 -18593 18647 0
-1418 -18594 18648 0
-1418 -18595 18649 0
-1418 -18596 18650 0
-1418 -18597 18651 0
-1418 -18598 18652 0
-1418 -18599 18653 0
-1418 -18600 18654 0
-1418 -18601 18655 0
-1418 -18602 18656 0
-1418 -18603 18657 0
-1418 -18604 18658 0
-1418 -18605 18659 0
-1418 -18606 18660 0
-1418 -18607 18661 0
-1418 -18608 18662 0
-1418 -18609 18663 0
-1418 -18610 18664 0
-1418 -18611 18665 0
-1418 -18612 18666 0
-1418 -18613 18667 0
-1418 -18614 18668 0
-1418 -18615 18669 0
-1418 -18616 18670 0
-1418 -18617 18671 0
-1418 -18618 18672 0
-1418 -18619 18673 0
-1418 -18620 18674 0
-1418 -18621 18675 0
-1418 -18622 0
-18623 18676 0
-18624 18677 0
-18625 18678 0
-18626 18679 0
-18627 18680 0
-18628 18681 0
-18629 18682 0
-18630 18683 0
-18631 18684 0
-18632 18685 0
-18633 18686 0
-18634 18687 0
-18635 18688 0
-18636 18689 0
-18637 18690 0
-18638 18691 0
-18639 18692 0
-18640 18693 0
-18641 18694 0
-18642 18695 0
-18643 18696 0
-18644 18697 0
-18645 18698 0
-18646 18699 0
-18647 18700 0
-18648 18701 0
-18649 18702 0
-18650 18703 0
-18651 18704 0
-18652 18705 0
-18653 18706 0
-18654 18707 0
-18655 18708 0
-18656 18709 0
-18657 18710 0
-18658 18711 0
-18659 18712 0
-18660 18713 0
-18661 18714 0
-18662 18715 0
-18663 18716 0
-18664 18717 0
-18665 18718 0
-18666 18719 0
-18667 18720 0
-18668 18721 0
-18669 18722 0
-18670 18723 0
-18671 18724 0
-18672 18725 0
-18673 18726 0
-18674 18727 0
-18675 18728 0
-1420 -18623 18677 0
-1420 -18624 18678 0
-1420 -18625 18679 0
-1420 -18626 18680 0
-1420 -18627 18681 0
-1420 -18628 18682 0
-1420 -18629 18683 0
-1420 -18630 18684 0
-1420 -18631 18685 0
-1420 -18632 18686 0
-1420 -18633 18687 0
-1420 -18634 18688 0
-1420 -18635 18689 0
-1420 -18636 18690 0
-1420 -18637 18691 0
-1420 -18638 18692 0
-1420 -18639 18693 0
-1420 -18640 18694 0
-1420 -18641 18695 0
-1420 -18642 18696 0
-1420 -18643 18697 0
-1420 -18644 18698 0
-1420 -18645 18699 0
-1420 -18646 18700 0
-1420 -18647 18701 0
-1420 -18648 18702 0
-1420 -18649 18703 0
-1420 -18650 18704 0
-1420 -18651 18705 0
-1420 -18652 18706 0
-1420 -18653 18707 0
-1420 -18654 18708 0
-1420 -18655 18709 0
-1420 -18656 18710 0
-1420 -18657 18711 0
-1420 -18658 18712 0
-1420 -18659 18713 0
-1420 -18660 18714 0
-1420 -18661 18715 0
-1420 -18662 18716 0
-1420 -18663 18717 0
-1420 -18664 18718 0
-1420 -18665 18719 0
-1420 -18666 18720 0
-1420 -18667 18721 0
-1420 -18668 18722 0
-1420 -18669 18723 0
-1420 -18670 18724 0
-1420 -18671 18725 0
-1420 -18672 18726 0
-1420 -18673 18727 0
-1420 -18674 18728 0
-1420 -18675 0
-18676 18729 0
-18677 18730 0
-18678 18731 0
-18679 18732 0
-18680 18733 0
-18681 18734 0
-18682 18735 0
-18683 18736 0
-18684 18737 0
-18685 18738 0
-18686 18739 0
-18687 18740 0
-18688 18741 0
-18689 18742 0
-18690 18743 0
-18691 18744 0
-18692 18745 0
-18693 18746 0
-18694 18747 0
-18695 18748 0
-18696 18749 0
-18697 18750 0
-18698 18751 0
-18699 18752 0
-18700 18753 0
-18701 18754 0
-18702 18755 0
-18703 18756 0
-18704 18757 0
-18705 18758 0
-18706 18759 0
-18707 18760 0
-18708 18761 0
-18709 18762 0
-18710 18763 0
-18711 18764 0
-18712 18765 0
-18713 18766 0
-18714 18767 0
-18715 18768 0
-18716 18769 0
-18717 18770 0
-18718 18771 0
-18719 18772 0
-18720 18773 0
-18721 18774 0
-18722 18775 0
-18723 18776 0
-18724 18777 0
-18725 18778 0
-18726 18779 0
-18727 18780 0
-18728 18781 0
-1422 -18676 18730 0
-1422 -18677 18731 0
-1422 -18678 18732 0
-1422 -18679 18733 0
-1422 -18680 18734 0
-1422 -18681 18735 0
-1422 -18682 18736 0
-1422 -18683 18737 0
-1422 -18684 18738 0
-1422 -18685 18739 0
-1422 -18686 18740 0
-1422 -18687 18741 0
-1422 -18688 18742 0
-1422 -18689 18743 0
-1422 -18690 18744 0
-1422 -18691 18745 0
-1422 -18692 18746 0
-1422 -18693 18747 0
-1422 -18694 18748 0
-1422 -18695 18749 0
-1422 -18696 18750 0
-1422 -18697 18751 0
-1422 -18698 18752 0
-1422 -18699 18753 0
-1422 -18700 18754 0
-1422 -18701 18755 0
-1422 -18702 18756 0
-1422 -18703 18757 0
-1422 -18704 18758 0
-1422 -18705 18759 0
-1422 -18706 18760 0
-1422 -18707 18761 0
-1422 -18708 18762 0
-1422 -18709 18763 0
-1422 -18710 18764 0
-1422 -18711 18765 0
-1422 -18712 18766 0
-1422 -18713 18767 0
-1422 -18714 18768 0
-1422 -18715 18769 0
-1422 -18716 18770 0
-1422 -18717 18771 0
-1422 -18718 18772 0
-1422 -18719 18773 0
-1422 -18720 18774 0
-1422 -18721 18775 0
-1422 -18722 18776 0
-1422 -18723 18777 0
-1422 -18724 18778 0
-1422 -18725 18779 0
-1422 -18726 18780 0
-1422 -18727 18781 0
-1422 -18728 0
-18729 18782 0
-18730 18783 0
-18731 18784 0
-18732 18785 0
-18733 18786 0
-18734 18787 0
-18735 18788 0
-18736 18789 0
-18737 18790 0
-18738 18791 0
-18739 18792 0
-18740 18793 0
-18741 18794 0
-18742 18795 0
-18743 18796 0
-18744 18797 0
-18745 18798 0
-18746 18799 0
-18747 18800 0
-18748 18801 0
-18749 18802 0
-18750 18803 0
-18751 18804 0
-18752 18805 0
-18753 18806 0
-18754 18807 0
-18755 18808 0
-18756 18809 0
-18757 18810 0
-18758 18811 0
-18759 18812 0
-18760 18813 0
-18761 18814 0
-18762 18815 0
-18763 18816 0
-18764 18817 0
-18765 18818 0
-18766 18819 0
-18767 18820 0
-18768 18821 0
-18769 18822 0
-18770 18823 0
-18771 18824 0
-18772 18825 0
-18773 18826 0
-18774 18827 0
-18775 18828 0
-18776 18829 0
-18777 18830 0
-18778 18831 0
-18779 18832 0
-18780 18833 0
-18781 18834 0
-1424 -18729 18783 0
-1424 -18730 18784 0
-1424 -18731 18785 0
-1424 -18732 18786 0
-1424 -18733 18787 0
-1424 -18734 18788 0
-1424 -18735 18789 0
-1424 -18736 18790 0
-1424 -18737 18791 0
-1424 -18738 18792 0
-1424 -18739 18793 0
-1424 -18740 18794 0
-1424 -18741 18795 0
-1424 -18742 18796 0
-1424 -18743 18797 0
-1424 -18744 18798 0
-1424 -18745 18799 0
-1424 -18746 18800 0
-1424 -18747 18801 0
-1424 -18748 18802 0
-1424 -18749 18803 0
-1424 -18750 18804 0
-1424 -18751 18805 0
-1424 -18752 18806 0
-1424 -18753 18807 0
-1424 -18754 18808 0
-1424 -18755 18809 0
-1424 -18756 18810 0
-1424 -18757 18811 0
-1424 -18758 18812 0
-1424 -18759 18813 0
-1424 -18760 18814 0
-1424 -18761 18815 0
-1424 -18762 18816 0
-1424 -18763 18817 0
-1424 -18764 18818 0
-1424 -18765 18819 0
-1424 -18766 18820 0
-1424 -18767 18821 0
-1424 -18768 18822 0
-1424 -18769 18823 0
-1424 -18770 18824 0
-1424 -18771 18825 0
-1424 -18772 18826 0
-1424 -18773 18827 0
-1424 -18774 18828 0
-1424 -18775 18829 0
-1424 -18776 18830 0
-1424 -18777 18831 0
-1424 -18778 18832 0
-1424 -18779 18833 0
-1424 -18780 18834 0
-1424 -18781 0
-18782 18835 0
-18783 18836 0
-18784 18837 0
-18785 18838 0
-18786 18839 0
-18787 18840 0
-18788 18841 0
-18789 18842 0
-18790 18843 0
-18791 18844 0
-18792 18845 0
-18793 18846 0
-18794 18847 0
-18795 18848 0
-18796 18849 0
-18797 18850 0
-18798 18851 0
-18799 18852 0
-18800 18853 0
-18801 18854 0
-18802 18855 0
-18803 18856 0
-18804 18857 0
-18805 18858 0
-18806 18859 0
-18807 18860 0
-18808 18861 0
-18809 18862 0
-18810 18863 0
-18811 18864 0
-18812 18865 0
-18813 18866 0
-18814 18867 0
-18815 18868 0
-18816 18869 0
-18817 18870 0
-18818 18871 0
-18819 18872 0
-18820 18873 0
-18821 18874 0
-18822 18875 0
-18823 18876 0
-18824 18877 0
-18825 18878 0
-18826 18879 0
-18827 18880 0
-18828 18881 0
-18829 18882 0
-18830 18883 0
-18831 18884 0
-18832 18885 0
-18833 18886 0
-18834 18887 0
-1426 -18782 18836 0
-1426 -18783 18837 0
-1426 -18784 18838 0
-1426 -18785 18839 0
-1426 -18786 18840 0
-1426 -18787 18841 0
-1426 -18788 18842 0
-1426 -18789 18843 0
-1426 -18790 18844 0
-1426 -18791 18845 0
-1426 -18792 18846 0
-1426 -18793 18847 0
-1426 -18794 18848 0
-1426 -18795 18849 0
-1426 -18796 18850 0
-1426 -18797 18851 0
-1426 -18798 18852 0
-1426 -18799 18853 0
-1426 -18800 18854 0
-1426 -18801 18855 0
-1426 -18802 18856 0
-1426 -18803 18857 0
-1426 -18804 18858 0
-1426 -18805 18859 0
-1426 -18806 18860 0
-1426 -18807 18861 0
-1426 -18808 18862 0
-1426 -18809 18863 0
-1426 -18810 18864 0
-1426 -18811 18865 0
-1426 -18812 18866 0
-1426 -18813 18867 0
-1426 -18814 18868 0
-1426 -18815 18869 0
-1426 -18816 18870 0
-1426 -18817 18871 0
-1426 -18818 18872 0
-1426 -18819 18873 0
-1426 -18820 18874 0
-1426 -18821 18875 0
-1426 -18822 18876 0
-1426 -18823 18877 0
-1426 -18824 18878 0
-1426 -18825 18879 0
-1426 -18826 18880 0
-1426 -18827 18881 0
-1426 -18828 18882 0
-1426 -18829 18883 0
-1426 -18830 18884 0
-1426 -18831 18885 0
-1426 -18832 18886 0
-1426 -18833 18887 0
-1426 -18834 0
-18835 18888 0
-18836 18889 0
-18837 18890 0
-18838 18891 0
-18839 18892 0
-18840 18893 0
-18841 18894 0
-18842 18895 0
-18843 18896 0
-18844 18897 0
-18845 18898 0
-18846 18899 0
-18847 18900 0
-18848 18901 0
-18849 18902 0
-18850 18903 0
-18851 18904 0
-18852 18905 0
-18853 18906 0
-18854 18907 0
-18855 18908 0
-18856 18909 0
-18857 18910 0
-18858 18911 0
-18859 18912 0
-18860 18913 0
-18861 18914 0
-18862 18915 0
-18863 18916 0
-18864 18917 0
-18865 18918 0
-18866 18919 0
-18867 18920 0
-18868 18921 0
-18869 18922 0
-18870 18923 0
-18871 18924 0
-18872 18925 0
-18873 18926 0
-18874 18927 0
-18875 18928 0
-18876 18929 0
-18877 18930 0
-18878 18931 0
-18879 18932 0
-18880 18933 0
-18881 18934 0
-18882 18935 0
-18883 18936 0
-18884 18937 0
-18885 18938 0
-18886 18939 0
-18887 18940 0
-1428 -18835 18889 0
-1428 -18836 18890 0
-1428 -18837 18891 0
-1428 -18838 18892 0
-1428 -18839 18893 0
-1428 -18840 18894 0
-1428 -18841 18895 0
-1428 -18842 18896 0
-1428 -18843 18897 0
-1428 -18844 18898 0
-1428 -18845 18899 0
-1428 -18846 18900 0
-1428 -18847 18901 0
-1428 -18848 18902 0
-1428 -18849 18903 0
-1428 -18850 18904 0
-1428 -18851 18905 0
-1428 -18852 18906 0
-1428 -18853 18907 0
-1428 -18854 18908 0
-1428 -18855 18909 0
-1428 -18856 18910 0
-1428 -18857 18911 0
-1428 -18858 18912 0
-1428 -18859 18913 0
-1428 -18860 18914 0
-1428 -18861 18915 0
-1428 -18862 18916 0
-1428 -18863 18917 0
-1428 -18864 18918 0
-1428 -18865 18919 0
-1428 -18866 18920 0
-1428 -18867 18921 0
-1428 -18868 18922 0
-1428 -18869 18923 0
-1428 -18870 18924 0
-1428 -18871 18925 0
-1428 -18872 18926 0
-1428 -18873 18927 0
-1428 -18874 18928 0
-1428 -18875 18929 0
-1428 -18876 18930 0
-1428 -18877 18931 0
-1428 -18878 18932 0
-1428 -18879 18933 0
-1428 -18880 18934 0
-1428 -18881 18935 0
-1428 -18882 18936 0
-1428 -18883 18937 0
-1428 -18884 18938 0
-1428 -18885 18939 0
-1428 -18886 18940 0
-1428 -18887 0
-18888 18941 0
-18889 18942 0
-18890 18943 0
-18891 18944 0
-18892 18945 0
-18893 18946 0
-18894 18947 0
-18895 18948 0
-18896 18949 0
-18897 18950 0
-18898 18951 0
-18899 18952 0
-18900 18953 0
-18901 18954 0
-18902 18955 0
-18903 18956 0
-18904 18957 0
-18905 18958 0
-18906 18959 0
-18907 18960 0
-18908 18961 0
-18909 18962 0
-18910 18963 0
-18911 18964 0
-18912 18965 0
-18913 18966 0
-18914 18967 0
-18915 18968 0
-18916 18969 0
-18917 18970 0
-18918 18971 0
-18919 18972 0
-18920 18973 0
-18921 18974 0
-18922 18975 0
-18923 18976 0
-18924 18977 0
-18925 18978 0
-18926 18979 0
-18927 18980 0
-18928 18981 0
-18929 18982 0
-18930 18983 0
-18931 18984 0
-18932 18985 0
-18933 18986 0
-18934 18987 0
-18935 18988 0
-18936 18989 0
-18937 18990 0
-18938 18991 0
-18939 18992 0
-18940 18993 0
-1430 -18888 18942 0
-1430 -18889 18943 0
-1430 -18890 18944 0
-1430 -18891 18945 0
-1430 -18892 18946 0
-1430 -18893 18947 0
-1430 -18894 18948 0
-1430 -18895 18949 0
-1430 -18896 18950 0
-1430 -18897 18951 0
-1430 -18898 18952 0
-1430 -18899 18953 0
-1430 -18900 18954 0
-1430 -18901 18955 0
-1430 -18902 18956 0
-1430 -18903 18957 0
-1430 -18904 18958 0
-1430 -18905 18959 0
-1430 -18906 18960 0
-1430 -18907 18961 0
-1430 -18908 18962 0
-1430 -18909 18963 0
-1430 -18910 18964 0
-1430 -18911 18965 0
-1430 -18912 18966 0
-1430 -18913 18967 0
-1430 -18914 18968 0
-1430 -18915 18969 0
-1430 -18916 18970 0
-1430 -18917 18971 0
-1430 -18918 18972 0
-1430 -18919 18973 0
-1430 -18920 18974 0
-1430 -18921 18975 0
-1430 -18922 18976 0
-1430 -18923 18977 0
-1430 -18924 18978 0
-1430 -18925 18979 0
-1430 -18926 18980 0
-1430 -18927 18981 0
-1430 -18928 18982 0
-1430 -18929 18983 0
-1430 -18930 18984 0
-1430 -18931 18985 0
-1430 -18932 18986 0
-1430 -18933 18987 0
-1430 -18934 18988 0
-1430 -18935 18989 0
-1430 -18936 18990 0
-1430 -18937 18991 0
-1430 -18938 18992 0
-1430 -18939 18993 0
-1430 -18940 0
-18941 18994 0
-18942 18995 0
-18943 18996 0
-18944 18997 0
-18945 18998 0
-18946 18999 0
-18947 19000 0
-18948 19001 0
-18949 19002 0
-18950 19003 0
-18951 19004 0
-18952 19005 0
-18953 19006 0
-18954 19007 0
-18955 19008 0
-18956 19009 0
-18957 19010 0
-18958 19011 0
-18959 19012 0
-18960 19013 0
-18961 19014 0
-18962 19015 0
-18963 19016 0
-18964 19017 0
-18965 19018 0
-18966 19019 0
-18967 19020 0
-18968 19021 0
-18969 19022 0
-18970 19023 0
-18971 19024 0
-18972 19025 0
-18973 19026 0
-18974 19027 0
-18975 19028 0
-18976 19029 0
-18977 19030 0
-18978 19031 0
-18979 19032 0
-18980 19033 0
-18981 19034 0
-18982 19035 0
-18983 19036 0
-18984 19037 0
-18985 19038 0
-18986 19039 0
-18987 19040 0
-18988 19041 0
-18989 19042 0
-18990 19043 0
-18991 19044 0
-18992 19045 0
-18993 19046 0
-1432 -18941 18995 0
-1432 -18942 18996 0
-1432 -18943 18997 0
-1432 -18944 18998 0
-1432 -18945 18999 0
-1432 -18946 19000 0
-1432 -18947 19001 0
-1432 -18948 19002 0
-1432 -18949 19003 0
-1432 -18950 19004 0
-1432 -18951 19005 0
-1432 -18952 19006 0
-1432 -18953 19007 0
-1432 -18954 19008 0
-1432 -18955 19009 0
-1432 -18956 19010 0
-1432 -18957 19011 0
-1432 -18958 19012 0
-1432 -18959 19013 0
-1432 -18960 19014 0
-1432 -18961 19015 0
-1432 -18962 19016 0
-1432 -18963 19017 0
-1432 -18964 19018 0
-1432 -18965 19019 0
-1432 -18966 19020 0
-1432 -18967 19021 0
-1432 -18968 19022 0
-1432 -18969 19023 0
-1432 -18970 19024 0
-1432 -18971 19025 0
-1432 -18972 19026 0
-1432 -18973 19027 0
-1432 -18974 19028 0
-1432 -18975 19029 0
-1432 -18976 19030 0
-1432 -18977 19031 0
-1432 -18978 19032 0
-1432 -18979 19033 0
-1432 -18980 19034 0
-1432 -18981 19035 0
-1432 -18982 19036 0
-1432 -18983 19037 0
-1432 -18984 19038 0
-1432 -18985 19039 0
-1432 -18986 19040 0
-1432 -18987 19041 0
-1432 -18988 19042 0
-1432 -18989 19043 0
-1432 -18990 19044 0
-1432 -18991 19045 0
-1432 -18992 19046 0
-1432 -18993 0
-18994 19047 0
-18995 19048 0
-18996 19049 0
-18997 19050 0
-18998 19051 0
-18999 19052 0
-19000 19053 0
-19001 19054 0
-19002 19055 0
-19003 19056 0
-19004 19057 0
-19005 19058 0
-19006 19059 0
-19007 19060 0
-19008 19061 0
-19009 19062 0
-19010 19063 0
-19011 19064 0
-19012 19065 0
-19013 19066 0
-19014 19067 0
-19015 19068 0
-19016 19069 0
-19017 19070 0
-19018 19071 0
-19019 19072 0
-19020 19073 0
-19021 19074 0
-19022 19075 0
-19023 19076 0
-19024 19077 0
-19025 19078 0
-19026 19079 0
-19027 19080 0
-19028 19081 0
-19029 19082 0
-19030 19083 0
-19031 19084 0
-19032 19085 0
-19033 19086 0
-19034 19087 0
-19035 19088 0
-19036 19089 0
-19037 19090 0
-19038 19091 0
-19039 19092 0
-19040 19093 0
-19041 19094 0
-19042 19095 0
-19043 19096 0
-19044 19097 0
-19045 19098 0
-19046 19099 0
-1434 -18994 19048 0
-1434 -18995 19049 0
-1434 -18996 19050 0
-1434 -18997 19051 0
-1434 -18998 19052 0
-1434 -18999 19053 0
-1434 -19000 19054 0
-1434 -19001 19055 0
-1434 -19002 19056 0
-1434 -19003 19057 0
-1434 -19004 19058 0
-1434 -19005 19059 0
-1434 -19006 19060 0
-1434 -19007 19061 0
-1434 -19008 19062 0
-1434 -19009 19063 0
-1434 -19010 19064 0
-1434 -19011 19065 0
-1434 -19012 19066 0
-1434 -19013 19067 0
-1434 -19014 19068 0
-1434 -19015 19069 0
-1434 -19016 19070 0
-1434 -19017 19071 0
-1434 -19018 19072 0
-1434 -19019 19073 0
-1434 -19020 19074 0
-1434 -19021 19075 0
-1434 -19022 19076 0
-1434 -19023 19077 0
-1434 -19024 19078 0
-1434 -19025 19079 0
-1434 -19026 19080 0
-1434 -19027 19081 0
-1434 -19028 19082 0
-1434 -19029 19083 0
-1434 -19030 19084 0
-1434 -19031 19085 0
-1434 -19032 19086 0
-1434 -19033 19087 0
-1434 -19034 19088 0
-1434 -19035 19089 0
-1434 -19036 19090 0
-1434 -19037 19091 0
-1434 -19038 19092 0
-1434 -19039 19093 0
-1434 -19040 19094 0
-1434 -19041 19095 0
-1434 -19042 19096 0
-1434 -19043 19097 0
-1434 -19044 19098 0
-1434 -19045 19099 0
-1434 -19046 0
-19047 19100 0
-19048 19101 0
-19049 19102 0
-19050 19103 0
-19051 19104 0
-19052 19105 0
-19053 19106 0
-19054 19107 0
-19055 19108 0
-19056 19109 0
-19057 19110 0
-19058 19111 0
-19059 19112 0
-19060 19113 0
-19061 19114 0
-19062 19115 0
-19063 19116 0
-19064 19117 0
-19065 19118 0
-19066 19119 0
-19067 19120 0
-19068 19121 0
-19069 19122 0
-19070 19123 0
-19071 19124 0
-19072 19125 0
-19073 19126 0
-19074 19127 0
-19075 19128 0
-19076 19129 0
-19077 19130 0
-19078 19131 0
-19079 19132 0
-19080 19133 0
-19081 19134 0
-19082 19135 0
-19083 19136 0
-19084 19137 0
-19085 19138 0
-19086 19139 0
-19087 19140 0
-19088 19141 0
-19089 19142 0
-19090 19143 0
-19091 19144 0
-19092 19145 0
-19093 19146 0
-19094 19147 0
-19095 19148 0
-19096 19149 0
-19097 19150 0
-19098 19151 0
-19099 19152 0
-1436 -19047 19101 0
-1436 -19048 19102 0
-1436 -19049 19103 0
-1436 -19050 19104 0
-1436 -19051 19105 0
-1436 -19052 19106 0
-1436 -19053 19107 0
-1436 -19054 19108 0
-1436 -19055 19109 0
-1436 -19056 19110 0
-1436 -19057 19111 0
-1436 -19058 19112 0
-1436 -19059 19113 0
-1436 -19060 19114 0
-1436 -19061 19115 0
-1436 -19062 19116 0
-1436 -19063 19117 0
-1436 -19064 19118 0
-1436 -19065 19119 0
-1436 -19066 19120 0
-1436 -19067 19121 0
-1436 -19068 19122 0
-1436 -19069 19123 0
-1436 -19070 19124 0
-1436 -19071 19125 0
-1436 -19072 19126 0
-1436 -19073 19127 0
-1436 -19074 19128 0
-1436 -19075 19129 0
-1436 -19076 19130 0
-1436 -19077 19131 0
-1436 -19078 19132 0
-1436 -19079 19133 0
-1436 -19080 19134 0
-1436 -19081 19135 0
-1436 -19082 19136 0
-1436 -19083 19137 0
-1436 -19084 19138 0
-1436 -19085 19139 0
-1436 -19086 19140 0
-1436 -19087 19141 0
-1436 -19088 19142 0
-1436 -19089 19143 0
-1436 -19090 19144 0
-1436 -19091 19145 0
-1436 -19092 19146 0
-1436 -19093 19147 0
-1436 -19094 19148 0
-1436 -19095 19149 0
-1436 -19096 19150 0
-1436 -19097 19151 0
-1436 -19098 19152 0
-1436 -19099 0
-19100 19153 0
-19101 19154 0
-19102 19155 0
-19103 19156 0
-19104 19157 0
-19105 19158 0
-19106 19159 0
-19107 19160 0
-19108 19161 0
-19109 19162 0
-19110 19163 0
-19111 19164 0
-19112 19165 0
-19113 19166 0
-19114 19167 0
-19115 19168 0
-19116 19169 0
-19117 19170 0
-19118 19171 0
-19119 19172 0
-19120 19173 0
-19121 19174 0
-19122 19175 0
-19123 19176 0
-19124 19177 0
-19125 19178 0
-19126 19179 0
-19127 19180 0
-19128 19181 0
-19129 19182 0
-19130 19183 0
-19131 19184 0
-19132 19185 0
-19133 19186 0
-19134 19187 0
-19135 19188 0
-19136 19189 0
-19137 19190 0
-19138 19191 0
-19139 19192 0
-19140 19193 0
-19141 19194 0
-19142 19195 0
-19143 19196 0
-19144 19197 0
-19145 19198 0
-19146 19199 0
-19147 19200 0
-19148 19201 0
-19149 19202 0
-19150 19203 0
-19151 19204 0
-19152 19205 0
-1438 -19100 19154 0
-1438 -19101 19155 0
-1438 -19102 19156 0
-1438 -19103 19157 0
-1438 -19104 19158 0
-1438 -19105 19159 0
-1438 -19106 19160 0
-1438 -19107 19161 0
-1438 -19108 19162 0
-1438 -19109 19163 0
-1438 -19110 19164 0
-1438 -19111 19165 0
-1438 -19112 19166 0
-1438 -19113 19167 0
-1438 -19114 19168 0
-1438 -19115 19169 0
-1438 -19116 19170 0
-1438 -19117 19171 0
-1438 -19118 19172 0
-1438 -19119 19173 0
-1438 -19120 19174 0
-1438 -19121 19175 0
-1438 -19122 19176 0
-1438 -19123 19177 0
-1438 -19124 19178 0
-1438 -19125 19179 0
-1438 -19126 19180 0
-1438 -19127 19181 0
-1438 -19128 19182 0
-1438 -19129 19183 0
-1438 -19130 19184 0
-1438 -19131 19185 0
-1438 -19132 19186 0
-1438 -19133 19187 0
-1438 -19134 19188 0
-1438 -19135 19189 0
-1438 -19136 19190 0
-1438 -19137 19191 0
-1438 -19138 19192 0
-1438 -19139 19193 0
-1438 -19140 19194 0
-1438 -19141 19195 0
-1438 -19142 19196 0
-1438 -19143 19197 0
-1438 -19144 19198 0
-1438 -19145 19199 0
-1438 -19146 19200 0
-1438 -19147 19201 0
-1438 -19148 19202 0
-1438 -19149 19203 0
-1438 -19150 19204 0
-1438 -19151 19205 0
-1438 -19152 0
-19153 19206 0
-19154 19207 0
-19155 19208 0
-19156 19209 0
-19157 19210 0
-19158 19211 0
-19159 19212 0
-19160 19213 0
-19161 19214 0
-19162 19215 0
-19163 19216 0
-19164 19217 0
-19165 19218 0
-19166 19219 0
-19167 19220 0
-19168 19221 0
-19169 19222 0
-19170 19223 0
-19171 19224 0
-19172 19225 0
-19173 19226 0
-19174 19227 0
-19175 19228 0
-19176 19229 0
-19177 19230 0
-19178 19231 0
-19179 19232 0
-19180 19233 0
-19181 19234 0
-19182 19235 0
-19183 19236 0
-19184 19237 0
-19185 19238 0
-19186 19239 0
-19187 19240 0
-19188 19241 0
-19189 19242 0
-19190 19243 0
-19191 19244 0
-19192 19245 0
-19193 19246 0
-19194 19247 0
-19195 19248 0
-19196 19249 0
-19197 19250 0
-19198 19251 0
-19199 19252 0
-19200 19253 0
-19201 19254 0
-19202 19255 0
-19203 19256 0
-19204 19257 0
-19205 19258 0
-1440 -19153 19207 0
-1440 -19154 19208 0
-1440 -19155 19209 0
-1440 -19156 19210 0
-1440 -19157 19211 0
-1440 -19158 19212 0
-1440 -19159 19213 0
-1440 -19160 19214 0
-1440 -19161 19215 0
-1440 -19162 19216 0
-1440 -19163 19217 0
-1440 -19164 19218 0
-1440 -19165 19219 0
-1440 -19166 19220 0
-1440 -19167 19221 0
-1440 -19168 19222 0
-1440 -19169 19223 0
-1440 -19170 19224 0
-1440 -19171 19225 0
-1440 -19172 19226 0
-1440 -19173 19227 0
-1440 -19174 19228 0
-1440 -19175 19229 0
-1440 -19176 19230 0
-1440 -19177 19231 0
-1440 -19178 19232 0
-1440 -19179 19233 0
-1440 -19180 19234 0
-1440 -19181 19235 0
-1440 -19182 19236 0
-1440 -19183 19237 0
-1440 -19184 19238 0
-1440 -19185 19239 0
-1440 -19186 19240 0
-1440 -19187 19241 0
-1440 -19188 19242 0
-1440 -19189 19243 0
-1440 -19190 19244 0
-1440 -19191 19245 0
-1440 -19192 19246 0
-1440 -19193 19247 0
-1440 -19194 19248 0
-1440 -19195 19249 0
-1440 -19196 19250 0
-1440 -19197 19251 0
-1440 -19198 19252 0
-1440 -19199 19253 0
-1440 -19200 19254 0
-1440 -19201 19255 0
-1440 -19202 19256 0
-1440 -19203 19257 0
-1440 -19204 19258 0
-1440 -19205 0
-19206 19259 0
-19207 19260 0
-19208 19261 0
-19209 19262 0
-19210 19263 0
-19211 19264 0
-19212 19265 0
-19213 19266 0
-19214 19267 0
-19215 19268 0
-19216 19269 0
-19217 19270 0
-19218 19271 0
-19219 19272 0
-19220 19273 0
-19221 19274 0
-19222 19275 0
-19223 19276 0
-19224 19277 0
-19225 19278 0
-19226 19279 0
-19227 19280 0
-19228 19281 0
-19229 19282 0
-19230 19283 0
-19231 19284 0
-19232 19285 0
-19233 19286 0
-19234 19287 0
-19235 19288 0
-19236 19289 0
-19237 19290 0
-19238 19291 0
-19239 19292 0
-19240 19293 0
-19241 19294 0
-19242 19295 0
-19243 19296 0
-19244 19297 0
-19245 19298 0
-19246 19299 0
-19247 19300 0
-19248 19301 0
-19249 19302 0
-19250 19303 0
-19251 19304 0
-19252 19305 0
-19253 19306 0
-19254 19307 0
-19255 19308 0
-19256 19309 0
-19257 19310 0
-19258 19311 0
-1442 -19206 19260 0
-1442 -19207 19261 0
-1442 -19208 19262 0
-1442 -19209 19263 0
-1442 -19210 19264 0
-1442 -19211 19265 0
-1442 -19212 19266 0
-1442 -19213 19267 0
-1442 -19214 19268 0
-1442 -19215 19269 0
-1442 -19216 19270 0
-1442 -19217 19271 0
-1442 -19218 19272 0
-1442 -19219 19273 0
-1442 -19220 19274 0
-1442 -19221 19275 0
-1442 -19222 19276 0
-1442 -19223 19277 0
-1442 -19224 19278 0
-1442 -19225 19279 0
-1442 -19226 19280 0
-1442 -19227 19281 0
-1442 -19228 19282 0
-1442 -19229 19283 0
-1442 -19230 19284 0
-1442 -19231 19285 0
-1442 -19232 19286 0
-1442 -19233 19287 0
-1442 -19234 19288 0
-1442 -19235 19289 0
-1442 -19236 19290 0
-1442 -19237 19291 0
-1442 -19238 19292 0
-1442 -19239 19293 0
-1442 -19240 19294 0
-1442 -19241 19295 0
-1442 -19242 19296 0
-1442 -19243 19297 0
-1442 -19244 19298 0
-1442 -19245 19299 0
-1442 -19246 19300 0
-1442 -19247 19301 0
-1442 -19248 19302 0
-1442 -19249 19303 0
-1442 -19250 19304 0
-1442 -19251 19305 0
-1442 -19252 19306 0
-1442 -19253 19307 0
-1442 -19254 19308 0
-1442 -19255 19309 0
-1442 -19256 19310 0
-1442 -19257 19311 0
-1442 -19258 0
-19259 19312 0
-19260 19313 0
-19261 19314 0
-19262 19315 0
-19263 19316 0
-19264 19317 0
-19265 19318 0
-19266 19319 0
-19267 19320 0
-19268 19321 0
-19269 19322 0
-19270 19323 0
-19271 19324 0
-19272 19325 0
-19273 19326 0
-19274 19327 0
-19275 19328 0
-19276 19329 0
-19277 19330 0
-19278 19331 0
-19279 19332 0
-19280 19333 0
-19281 19334 0
-19282 19335 0
-19283 19336 0
-19284 19337 0
-19285 19338 0
-19286 19339 0
-19287 19340 0
-19288 19341 0
-19289 19342 0
-19290 19343 0
-19291 19344 0
-19292 19345 0
-19293 19346 0
-19294 19347 0
-19295 19348 0
-19296 19349 0
-19297 19350 0
-19298 19351 0
-19299 19352 0
-19300 19353 0
-19301 19354 0
-19302 19355 0
-19303 19356 0
-19304 19357 0
-19305 19358 0
-19306 19359 0
-19307 19360 0
-19308 19361 0
-19309 19362 0
-19310 19363 0
-19311 19364 0
-1444 -19259 19313 0
-1444 -19260 19314 0
-1444 -19261 19315 0
-1444 -19262 19316 0
-1444 -19263 19317 0
-1444 -19264 19318 0
-1444 -19265 19319 0
-1444 -19266 19320 0
-1444 -19267 19321 0
-1444 -19268 19322 0
-1444 -19269 19323 0
-1444 -19270 19324 0
-1444 -19271 19325 0
-1444 -19272 19326 0
-1444 -19273 19327 0
-1444 -19274 19328 0
-1444 -19275 19329 0
-1444 -19276 19330 0
-1444 -19277 19331 0
-1444 -19278 19332 0
-1444 -19279 19333 0
-1444 -19280 19334 0
-1444 -19281 19335 0
-1444 -19282 19336 0
-1444 -19283 19337 0
-1444 -19284 19338 0
-1444 -19285 19339 0
-1444 -19286 19340 0
-1444 -19287 19341 0
-1444 -19288 19342 0
-1444 -19289 19343 0
-1444 -19290 19344 0
-1444 -19291 19345 0
-1444 -19292 19346 0
-1444 -19293 19347 0
-1444 -19294 19348 0
-1444 -19295 19349 0
-1444 -19296 19350 0
-1444 -19297 19351 0
-1444 -19298 19352 0
-1444 -19299 19353 0
-1444 -19300 19354 0
-1444 -19301 19355 0
-1444 -19302 19356 0
-1444 -19303 19357 0
-1444 -19304 19358 0
-1444 -19305 19359 0
-1444 -19306 19360 0
-1444 -19307 19361 0
-1444 -19308 19362 0
-1444 -19309 19363 0
-1444 -19310 19364 0
-1444 -19311 0
-19312 19365 0
-19313 19366 0
-19314 19367 0
-19315 19368 0
-19316 19369 0
-19317 19370 0
-19318 19371 0
-19319 19372 0
-19320 19373 0
-19321 19374 0
-19322 19375 0
-19323 19376 0
-19324 19377 0
-19325 19378 0
-19326 19379 0
-19327 19380 0
-19328 19381 0
-19329 19382 0
-19330 19383 0
-19331 19384 0
-19332 19385 0
-19333 19386 0
-19334 19387 0
-19335 19388 0
-19336 19389 0
-19337 19390 0
-19338 19391 0
-19339 19392 0
-19340 19393 0
-19341 19394 0
-19342 19395 0
-19343 19396 0
-19344 19397 0
-19345 19398 0
-19346 19399 0
-19347 19400 0
-19348 19401 0
-19349 19402 0
-19350 19403 0
-19351 19404 0
-19352 19405 0
-19353 19406 0
-19354 19407 0
-19355 19408 0
-19356 19409 0
-19357 19410 0
-19358 19411 0
-19359 19412 0
-19360 19413 0
-19361 19414 0
-19362 19415 0
-19363 19416 0
-19364 19417 0
-1446 -19312 19366 0
-1446 -19313 19367 0
-1446 -19314 19368 0
-1446 -19315 19369 0
-1446 -19316 19370 0
-1446 -19317 19371 0
-1446 -19318 19372 0
-1446 -19319 19373 0
-1446 -19320 19374 0
-1446 -19321 19375 0
-1446 -19322 19376 0
-1446 -19323 19377 0
-1446 -19324 19378 0
-1446 -19325 19379 0
-1446 -19326 19380 0
-1446 -19327 19381 0
-1446 -19328 19382 0
-1446 -19329 19383 0
-1446 -19330 19384 0
-1446 -19331 19385 0
-1446 -19332 19386 0
-1446 -19333 19387 0
-1446 -19334 19388 0
-1446 -19335 19389 0
-1446 -19336 19390 0
-1446 -19337 19391 0
-1446 -19338 19392 0
-1446 -19339 19393 0
-1446 -19340 19394 0
-1446 -19341 19395 0
-1446 -19342 19396 0
-1446 -19343 19397 0
-1446 -19344 19398 0
-1446 -19345 19399 0
-1446 -19346 19400 0
-1446 -19347 19401 0
-1446 -19348 19402 0
-1446 -19349 19403 0
-1446 -19350 19404 0
-1446 -19351 19405 0
-1446 -19352 19406 0
-1446 -19353 19407 0
-1446 -19354 19408 0
-1446 -19355 19409 0
-1446 -19356 19410 0
-1446 -19357 19411 0
-1446 -19358 19412 0
-1446 -19359 19413 0
-1446 -19360 19414 0
-1446 -19361 19415 0
-1446 -19362 19416 0
-1446 -19363 19417 0
-1446 -19364 0
-19365 19418 0
-19366 19419 0
-19367 19420 0
-19368 19421 0
-19369 19422 0
-19370 19423 0
-19371 19424 0
-19372 19425 0
-19373 19426 0
-19374 19427 0
-19375 19428 0
-19376 19429 0
-19377 19430 0
-19378 19431 0
-19379 19432 0
-19380 19433 0
-19381 19434 0
-19382 19435 0
-19383 19436 0
-19384 19437 0
-19385 19438 0
-19386 19439 0
-19387 19440 0
-19388 19441 0
-19389 19442 0
-19390 19443 0
-19391 19444 0
-19392 19445 0
-19393 19446 0
-19394 19447 0
-19395 19448 0
-19396 19449 0
-19397 19450 0
-19398 19451 0
-19399 19452 0
-19400 19453 0
-19401 19454 0
-19402 19455 0
-19403 19456 0
-19404 19457 0
-19405 19458 0
-19406 19459 0
-19407 19460 0
-19408 19461 0
-19409 19462 0
-19410 19463 0
-19411 19464 0
-19412 19465 0
-19413 19466 0
-19414 19467 0
-19415 19468 0
-19416 19469 0
-19417 19470 0
-1448 -19365 19419 0
-1448 -19366 19420 0
-1448 -19367 19421 0
-1448 -19368 19422 0
-1448 -19369 19423 0
-1448 -19370 19424 0
-1448 -19371 19425 0
-1448 -19372 19426 0
-1448 -19373 19427 0
-1448 -19374 19428 0
-1448 -19375 19429 0
-1448 -19376 19430 0
-1448 -19377 19431 0
-1448 -19378 19432 0
-1448 -19379 19433 0
-1448 -19380 19434 0
-1448 -19381 19435 0
-1448 -19382 19436 0
-1448 -19383 19437 0
-1448 -19384 19438 0
-1448 -19385 19439 0
-1448 -19386 19440 0
-1448 -19387 19441 0
-1448 -19388 19442 0
-1448 -19389 19443 0
-1448 -19390 19444 0
-1448 -19391 19445 0
-1448 -19392 19446 0
-1448 -19393 19447 0
-1448 -19394 19448 0
-1448 -19395 19449 0
-1448 -19396 19450 0
-1448 -19397 19451 0
-1448 -19398 19452 0
-1448 -19399 19453 0
-1448 -19400 19454 0
-1448 -19401 19455 0
-1448 -19402 19456 0
-1448 -19403 19457 0
-1448 -19404 19458 0
-1448 -19405 19459 0
-1448 -19406 19460 0
-1448 -19407 19461 0
-1448 -19408 19462 0
-1448 -19409 19463 0
-1448 -19410 19464 0
-1448 -19411 19465 0
-1448 -19412 19466 0
-1448 -19413 19467 0
-1448 -19414 19468 0
-1448 -19415 19469 0
-1448 -19416 19470 0
-1448 -19417 0
-19418 19471 0
-19419 19472 0
-19420 19473 0
-19421 19474 0
-19422 19475 0
-19423 19476 0
-19424 19477 0
-19425 19478 0
-19426 19479 0
-19427 19480 0
-19428 19481 0
-19429 19482 0
-19430 19483 0
-19431 19484 0
-19432 19485 0
-19433 19486 0
-19434 19487 0
-19435 19488 0
-19436 19489 0
-19437 19490 0
-19438 19491 0
-19439 19492 0
-19440 19493 0
-19441 19494 0
-19442 19495 0
-19443 19496 0
-19444 19497 0
-19445 19498 0
-19446 19499 0
-19447 19500 0
-19448 19501 0
-19449 19502 0
-19450 19503 0
-19451 19504 0
-19452 19505 0
-19453 19506 0
-19454 19507 0
-19455 19508 0
-19456 19509 0
-19457 19510 0
-19458 19511 0
-19459 19512 0
-19460 19513 0
-19461 19514 0
-19462 19515 0
-19463 19516 0
-19464 19517 0
-19465 19518 0
-19466 19519 0
-19467 19520 0
-19468 19521 0
-19469 19522 0
-19470 19523 0
-1450 -19418 19472 0
-1450 -19419 19473 0
-1450 -19420 19474 0
-1450 -19421 19475 0
-1450 -19422 19476 0
-1450 -19423 19477 0
-1450 -19424 19478 0
-1450 -19425 19479 0
-1450 -19426 19480 0
-1450 -19427 19481 0
-1450 -19428 19482 0
-1450 -19429 19483 0
-1450 -19430 19484 0
-1450 -19431 19485 0
-1450 -19432 19486 0
-1450 -19433 19487 0
-1450 -19434 19488 0
-1450 -19435 19489 0
-1450 -19436 19490 0
-1450 -19437 19491 0
-1450 -19438 19492 0
-1450 -19439 19493 0
-1450 -19440 19494 0
-1450 -19441 19495 0
-1450 -19442 19496 0
-1450 -19443 19497 0
-1450 -19444 19498 0
-1450 -19445 19499 0
-1450 -19446 19500 0
-1450 -19447 19501 0
-1450 -19448 19502 0
-1450 -19449 19503 0
-1450 -19450 19504 0
-1450 -19451 19505 0
-1450 -19452 19506 0
-1450 -19453 19507 0
-1450 -19454 19508 0
-1450 -19455 19509 0
-1450 -19456 19510 0
-1450 -19457 19511 0
-1450 -19458 19512 0
-1450 -19459 19513 0
-1450 -19460 19514 0
-1450 -19461 19515 0
-1450 -19462 19516 0
-1450 -19463 19517 0
-1450 -19464 19518 0
-1450 -19465 19519 0
-1450 -19466 19520 0
-1450 -19467 19521 0
-1450 -19468 19522 0
-1450 -19469 19523 0
-1450 -19470 0
