c Speck64 XOR-differential SAT CNF
c word_bits=32 alpha=8 beta=3 rounds=12
c in_dx=0x00000008 in_dy=0x00000000
c out_dx=None out_dy=None
c max_weight=51
c num_vars=20548 num_clauses=45864
p cnf 20548 45864
-1 0
-2 0
-3 0
4 0
-5 0
-6 0
-7 0
-8 0
-9 0
-10 0
-11 0
-12 0
-13 0
-14 0
-15 0
-16 0
-17 0
-18 0
-19 0
-20 0
-21 0
-22 0
-23 0
-24 0
-25 0
-26 0
-27 0
-28 0
-29 0
-30 0
-31 0
-32 0
-33 0
-34 0
-35 0
-36 0
-37 0
-38 0
-39 0
-40 0
-41 0
-42 0
-43 0
-44 0
-45 0
-46 0
-47 0
-48 0
-49 0
-50 0
-51 0
-52 0
-53 0
-54 0
-55 0
-56 0
-57 0
-58 0
-59 0
-60 0
-61 0
-62 0
-63 0
-64 0
9 33 -65 0
9 -33 65 0
-9 33 65 0
-9 -33 -65 0
9 33 65 833 0
-9 -33 -65 833 0
-833 -9 33 0
-833 9 -33 0
-833 -9 65 0
-833 9 -65 0
-833 10 34 66 -33 0
-833 10 34 -66 33 0
-833 10 -34 66 33 0
-833 10 -34 -66 -33 0
-833 -10 34 66 33 0
-833 -10 34 -66 -33 0
-833 -10 -34 66 -33 0
-833 -10 -34 -66 33 0
834 833 0
-834 -833 0
10 34 66 835 0
-10 -34 -66 835 0
-835 -10 34 0
-835 10 -34 0
-835 -10 66 0
-835 10 -66 0
-835 11 35 67 -34 0
-835 11 35 -67 34 0
-835 11 -35 67 34 0
-835 11 -35 -67 -34 0
-835 -11 35 67 34 0
-835 -11 35 -67 -34 0
-835 -11 -35 67 -34 0
-835 -11 -35 -67 34 0
836 835 0
-836 -835 0
11 35 67 837 0
-11 -35 -67 837 0
-837 -11 35 0
-837 11 -35 0
-837 -11 67 0
-837 11 -67 0
-837 12 36 68 -35 0
-837 12 36 -68 35 0
-837 12 -36 68 35 0
-837 12 -36 -68 -35 0
-837 -12 36 68 35 0
-837 -12 36 -68 -35 0
-837 -12 -36 68 -35 0
-837 -12 -36 -68 35 0
838 837 0
-838 -837 0
12 36 68 839 0
-12 -36 -68 839 0
-839 -12 36 0
-839 12 -36 0
-839 -12 68 0
-839 12 -68 0
-839 13 37 69 -36 0
-839 13 37 -69 36 0
-839 13 -37 69 36 0
-839 13 -37 -69 -36 0
-839 -13 37 69 36 0
-839 -13 37 -69 -36 0
-839 -13 -37 69 -36 0
-839 -13 -37 -69 36 0
840 839 0
-840 -839 0
13 37 69 841 0
-13 -37 -69 841 0
-841 -13 37 0
-841 13 -37 0
-841 -13 69 0
-841 13 -69 0
-841 14 38 70 -37 0
-841 14 38 -70 37 0
-841 14 -38 70 37 0
-841 14 -38 -70 -37 0
-841 -14 38 70 37 0
-841 -14 38 -70 -37 0
-841 -14 -38 70 -37 0
-841 -14 -38 -70 37 0
842 841 0
-842 -841 0
14 38 70 843 0
-14 -38 -70 843 0
-843 -14 38 0
-843 14 -38 0
-843 -14 70 0
-843 14 -70 0
-843 15 39 71 -38 0
-843 15 39 -71 38 0
-843 15 -39 71 38 0
-843 15 -39 -71 -38 0
-843 -15 39 71 38 0
-843 -15 39 -71 -38 0
-843 -15 -39 71 -38 0
-843 -15 -39 -71 38 0
844 843 0
-844 -843 0
15 39 71 845 0
-15 -39 -71 845 0
-845 -15 39 0
-845 15 -39 0
-845 -15 71 0
-845 15 -71 0
-845 16 40 72 -39 0
-845 16 40 -72 39 0
-845 16 -40 72 39 0
-845 16 -40 -72 -39 0
-845 -16 40 72 39 0
-845 -16 40 -72 -39 0
-845 -16 -40 72 -39 0
-845 -16 -40 -72 39 0
846 845 0
-846 -845 0
16 40 72 847 0
-16 -40 -72 847 0
-847 -16 40 0
-847 16 -40 0
-847 -16 72 0
-847 16 -72 0
-847 17 41 73 -40 0
-847 17 41 -73 40 0
-847 17 -41 73 40 0
-847 17 -41 -73 -40 0
-847 -17 41 73 40 0
-847 -17 41 -73 -40 0
-847 -17 -41 73 -40 0
-847 -17 -41 -73 40 0
848 847 0
-848 -847 0
17 41 73 849 0
-17 -41 -73 849 0
-849 -17 41 0
-849 17 -41 0
-849 -17 73 0
-849 17 -73 0
-849 18 42 74 -41 0
-849 18 42 -74 41 0
-849 18 -42 74 41 0
-849 18 -42 -74 -41 0
-849 -18 42 74 41 0
-849 -18 42 -74 -41 0
-849 -18 -42 74 -41 0
-849 -18 -42 -74 41 0
850 849 0
-850 -849 0
18 42 74 851 0
-18 -42 -74 851 0
-851 -18 42 0
-851 18 -42 0
-851 -18 74 0
-851 18 -74 0
-851 19 43 75 -42 0
-851 19 43 -75 42 0
-851 19 -43 75 42 0
-851 19 -43 -75 -42 0
-851 -19 43 75 42 0
-851 -19 43 -75 -42 0
-851 -19 -43 75 -42 0
-851 -19 -43 -75 42 0
852 851 0
-852 -851 0
19 43 75 853 0
-19 -43 -75 853 0
-853 -19 43 0
-853 19 -43 0
-853 -19 75 0
-853 19 -75 0
-853 20 44 76 -43 0
-853 20 44 -76 43 0
-853 20 -44 76 43 0
-853 20 -44 -76 -43 0
-853 -20 44 76 43 0
-853 -20 44 -76 -43 0
-853 -20 -44 76 -43 0
-853 -20 -44 -76 43 0
854 853 0
-854 -853 0
20 44 76 855 0
-20 -44 -76 855 0
-855 -20 44 0
-855 20 -44 0
-855 -20 76 0
-855 20 -76 0
-855 21 45 77 -44 0
-855 21 45 -77 44 0
-855 21 -45 77 44 0
-855 21 -45 -77 -44 0
-855 -21 45 77 44 0
-855 -21 45 -77 -44 0
-855 -21 -45 77 -44 0
-855 -21 -45 -77 44 0
856 855 0
-856 -855 0
21 45 77 857 0
-21 -45 -77 857 0
-857 -21 45 0
-857 21 -45 0
-857 -21 77 0
-857 21 -77 0
-857 22 46 78 -45 0
-857 22 46 -78 45 0
-857 22 -46 78 45 0
-857 22 -46 -78 -45 0
-857 -22 46 78 45 0
-857 -22 46 -78 -45 0
-857 -22 -46 78 -45 0
-857 -22 -46 -78 45 0
858 857 0
-858 -857 0
22 46 78 859 0
-22 -46 -78 859 0
-859 -22 46 0
-859 22 -46 0
-859 -22 78 0
-859 22 -78 0
-859 23 47 79 -46 0
-859 23 47 -79 46 0
-859 23 -47 79 46 0
-859 23 -47 -79 -46 0
-859 -23 47 79 46 0
-859 -23 47 -79 -46 0
-859 -23 -47 79 -46 0
-859 -23 -47 -79 46 0
860 859 0
-860 -859 0
23 47 79 861 0
-23 -47 -79 861 0
-861 -23 47 0
-861 23 -47 0
-861 -23 79 0
-861 23 -79 0
-861 24 48 80 -47 0
-861 24 48 -80 47 0
-861 24 -48 80 47 0
-861 24 -48 -80 -47 0
-861 -24 48 80 47 0
-861 -24 48 -80 -47 0
-861 -24 -48 80 -47 0
-861 -24 -48 -80 47 0
862 861 0
-862 -861 0
24 48 80 863 0
-24 -48 -80 863 0
-863 -24 48 0
-863 24 -48 0
-863 -24 80 0
-863 24 -80 0
-863 25 49 81 -48 0
-863 25 49 -81 48 0
-863 25 -49 81 48 0
-863 25 -49 -81 -48 0
-863 -25 49 81 48 0
-863 -25 49 -81 -48 0
-863 -25 -49 81 -48 0
-863 -25 -49 -81 48 0
864 863 0
-864 -863 0
25 49 81 865 0
-25 -49 -81 865 0
-865 -25 49 0
-865 25 -49 0
-865 -25 81 0
-865 25 -81 0
-865 26 50 82 -49 0
-865 26 50 -82 49 0
-865 26 -50 82 49 0
-865 26 -50 -82 -49 0
-865 -26 50 82 49 0
-865 -26 50 -82 -49 0
-865 -26 -50 82 -49 0
-865 -26 -50 -82 49 0
866 865 0
-866 -865 0
26 50 82 867 0
-26 -50 -82 867 0
-867 -26 50 0
-867 26 -50 0
-867 -26 82 0
-867 26 -82 0
-867 27 51 83 -50 0
-867 27 51 -83 50 0
-867 27 -51 83 50 0
-867 27 -51 -83 -50 0
-867 -27 51 83 50 0
-867 -27 51 -83 -50 0
-867 -27 -51 83 -50 0
-867 -27 -51 -83 50 0
868 867 0
-868 -867 0
27 51 83 869 0
-27 -51 -83 869 0
-869 -27 51 0
-869 27 -51 0
-869 -27 83 0
-869 27 -83 0
-869 28 52 84 -51 0
-869 28 52 -84 51 0
-869 28 -52 84 51 0
-869 28 -52 -84 -51 0
-869 -28 52 84 51 0
-869 -28 52 -84 -51 0
-869 -28 -52 84 -51 0
-869 -28 -52 -84 51 0
870 869 0
-870 -869 0
28 52 84 871 0
-28 -52 -84 871 0
-871 -28 52 0
-871 28 -52 0
-871 -28 84 0
-871 28 -84 0
-871 29 53 85 -52 0
-871 29 53 -85 52 0
-871 29 -53 85 52 0
-871 29 -53 -85 -52 0
-871 -29 53 85 52 0
-871 -29 53 -85 -52 0
-871 -29 -53 85 -52 0
-871 -29 -53 -85 52 0
872 871 0
-872 -871 0
29 53 85 873 0
-29 -53 -85 873 0
-873 -29 53 0
-873 29 -53 0
-873 -29 85 0
-873 29 -85 0
-873 30 54 86 -53 0
-873 30 54 -86 53 0
-873 30 -54 86 53 0
-873 30 -54 -86 -53 0
-873 -30 54 86 53 0
-873 -30 54 -86 -53 0
-873 -30 -54 86 -53 0
-873 -30 -54 -86 53 0
874 873 0
-874 -873 0
30 54 86 875 0
-30 -54 -86 875 0
-875 -30 54 0
-875 30 -54 0
-875 -30 86 0
-875 30 -86 0
-875 31 55 87 -54 0
-875 31 55 -87 54 0
-875 31 -55 87 54 0
-875 31 -55 -87 -54 0
-875 -31 55 87 54 0
-875 -31 55 -87 -54 0
-875 -31 -55 87 -54 0
-875 -31 -55 -87 54 0
876 875 0
-876 -875 0
31 55 87 877 0
-31 -55 -87 877 0
-877 -31 55 0
-877 31 -55 0
-877 -31 87 0
-877 31 -87 0
-877 32 56 88 -55 0
-877 32 56 -88 55 0
-877 32 -56 88 55 0
-877 32 -56 -88 -55 0
-877 -32 56 88 55 0
-877 -32 56 -88 -55 0
-877 -32 -56 88 -55 0
-877 -32 -56 -88 55 0
878 877 0
-878 -877 0
32 56 88 879 0
-32 -56 -88 879 0
-879 -32 56 0
-879 32 -56 0
-879 -32 88 0
-879 32 -88 0
-879 1 57 89 -56 0
-879 1 57 -89 56 0
-879 1 -57 89 56 0
-879 1 -57 -89 -56 0
-879 -1 57 89 56 0
-879 -1 57 -89 -56 0
-879 -1 -57 89 -56 0
-879 -1 -57 -89 56 0
880 879 0
-880 -879 0
1 57 89 881 0
-1 -57 -89 881 0
-881 -1 57 0
-881 1 -57 0
-881 -1 89 0
-881 1 -89 0
-881 2 58 90 -57 0
-881 2 58 -90 57 0
-881 2 -58 90 57 0
-881 2 -58 -90 -57 0
-881 -2 58 90 57 0
-881 -2 58 -90 -57 0
-881 -2 -58 90 -57 0
-881 -2 -58 -90 57 0
882 881 0
-882 -881 0
2 58 90 883 0
-2 -58 -90 883 0
-883 -2 58 0
-883 2 -58 0
-883 -2 90 0
-883 2 -90 0
-883 3 59 91 -58 0
-883 3 59 -91 58 0
-883 3 -59 91 58 0
-883 3 -59 -91 -58 0
-883 -3 59 91 58 0
-883 -3 59 -91 -58 0
-883 -3 -59 91 -58 0
-883 -3 -59 -91 58 0
884 883 0
-884 -883 0
3 59 91 885 0
-3 -59 -91 885 0
-885 -3 59 0
-885 3 -59 0
-885 -3 91 0
-885 3 -91 0
-885 4 60 92 -59 0
-885 4 60 -92 59 0
-885 4 -60 92 59 0
-885 4 -60 -92 -59 0
-885 -4 60 92 59 0
-885 -4 60 -92 -59 0
-885 -4 -60 92 -59 0
-885 -4 -60 -92 59 0
886 885 0
-886 -885 0
4 60 92 887 0
-4 -60 -92 887 0
-887 -4 60 0
-887 4 -60 0
-887 -4 92 0
-887 4 -92 0
-887 5 61 93 -60 0
-887 5 61 -93 60 0
-887 5 -61 93 60 0
-887 5 -61 -93 -60 0
-887 -5 61 93 60 0
-887 -5 61 -93 -60 0
-887 -5 -61 93 -60 0
-887 -5 -61 -93 60 0
888 887 0
-888 -887 0
5 61 93 889 0
-5 -61 -93 889 0
-889 -5 61 0
-889 5 -61 0
-889 -5 93 0
-889 5 -93 0
-889 6 62 94 -61 0
-889 6 62 -94 61 0
-889 6 -62 94 61 0
-889 6 -62 -94 -61 0
-889 -6 62 94 61 0
-889 -6 62 -94 -61 0
-889 -6 -62 94 -61 0
-889 -6 -62 -94 61 0
890 889 0
-890 -889 0
6 62 94 891 0
-6 -62 -94 891 0
-891 -6 62 0
-891 6 -62 0
-891 -6 94 0
-891 6 -94 0
-891 7 63 95 -62 0
-891 7 63 -95 62 0
-891 7 -63 95 62 0
-891 7 -63 -95 -62 0
-891 -7 63 95 62 0
-891 -7 63 -95 -62 0
-891 -7 -63 95 -62 0
-891 -7 -63 -95 62 0
892 891 0
-892 -891 0
7 63 95 893 0
-7 -63 -95 893 0
-893 -7 63 0
-893 7 -63 0
-893 -7 95 0
-893 7 -95 0
-893 8 64 96 -63 0
-893 8 64 -96 63 0
-893 8 -64 96 63 0
-893 8 -64 -96 -63 0
-893 -8 64 96 63 0
-893 -8 64 -96 -63 0
-893 -8 -64 96 -63 0
-893 -8 -64 -96 63 0
894 893 0
-894 -893 0
62 65 -97 0
62 -65 97 0
-62 65 97 0
-62 -65 -97 0
63 66 -98 0
63 -66 98 0
-63 66 98 0
-63 -66 -98 0
64 67 -99 0
64 -67 99 0
-64 67 99 0
-64 -67 -99 0
33 68 -100 0
33 -68 100 0
-33 68 100 0
-33 -68 -100 0
34 69 -101 0
34 -69 101 0
-34 69 101 0
-34 -69 -101 0
35 70 -102 0
35 -70 102 0
-35 70 102 0
-35 -70 -102 0
36 71 -103 0
36 -71 103 0
-36 71 103 0
-36 -71 -103 0
37 72 -104 0
37 -72 104 0
-37 72 104 0
-37 -72 -104 0
38 73 -105 0
38 -73 105 0
-38 73 105 0
-38 -73 -105 0
39 74 -106 0
39 -74 106 0
-39 74 106 0
-39 -74 -106 0
40 75 -107 0
40 -75 107 0
-40 75 107 0
-40 -75 -107 0
41 76 -108 0
41 -76 108 0
-41 76 108 0
-41 -76 -108 0
42 77 -109 0
42 -77 109 0
-42 77 109 0
-42 -77 -109 0
43 78 -110 0
43 -78 110 0
-43 78 110 0
-43 -78 -110 0
44 79 -111 0
44 -79 111 0
-44 79 111 0
-44 -79 -111 0
45 80 -112 0
45 -80 112 0
-45 80 112 0
-45 -80 -112 0
46 81 -113 0
46 -81 113 0
-46 81 113 0
-46 -81 -113 0
47 82 -114 0
47 -82 114 0
-47 82 114 0
-47 -82 -114 0
48 83 -115 0
48 -83 115 0
-48 83 115 0
-48 -83 -115 0
49 84 -116 0
49 -84 116 0
-49 84 116 0
-49 -84 -116 0
50 85 -117 0
50 -85 117 0
-50 85 117 0
-50 -85 -117 0
51 86 -118 0
51 -86 118 0
-51 86 118 0
-51 -86 -118 0
52 87 -119 0
52 -87 119 0
-52 87 119 0
-52 -87 -119 0
53 88 -120 0
53 -88 120 0
-53 88 120 0
-53 -88 -120 0
54 89 -121 0
54 -89 121 0
-54 89 121 0
-54 -89 -121 0
55 90 -122 0
55 -90 122 0
-55 90 122 0
-55 -90 -122 0
56 91 -123 0
56 -91 123 0
-56 91 123 0
-56 -91 -123 0
57 92 -124 0
57 -92 124 0
-57 92 124 0
-57 -92 -124 0
58 93 -125 0
58 -93 125 0
-58 93 125 0
-58 -93 -125 0
59 94 -126 0
59 -94 126 0
-59 94 126 0
-59 -94 -126 0
60 95 -127 0
60 -95 127 0
-60 95 127 0
-60 -95 -127 0
61 96 -128 0
61 -96 128 0
-61 96 128 0
-61 -96 -128 0
73 97 -129 0
73 -97 129 0
-73 97 129 0
-73 -97 -129 0
73 97 129 895 0
-73 -97 -129 895 0
-895 -73 97 0
-895 73 -97 0
-895 -73 129 0
-895 73 -129 0
-895 74 98 130 -97 0
-895 74 98 -130 97 0
-895 74 -98 130 97 0
-895 74 -98 -130 -97 0
-895 -74 98 130 97 0
-895 -74 98 -130 -97 0
-895 -74 -98 130 -97 0
-895 -74 -98 -130 97 0
896 895 0
-896 -895 0
74 98 130 897 0
-74 -98 -130 897 0
-897 -74 98 0
-897 74 -98 0
-897 -74 130 0
-897 74 -130 0
-897 75 99 131 -98 0
-897 75 99 -131 98 0
-897 75 -99 131 98 0
-897 75 -99 -131 -98 0
-897 -75 99 131 98 0
-897 -75 99 -131 -98 0
-897 -75 -99 131 -98 0
-897 -75 -99 -131 98 0
898 897 0
-898 -897 0
75 99 131 899 0
-75 -99 -131 899 0
-899 -75 99 0
-899 75 -99 0
-899 -75 131 0
-899 75 -131 0
-899 76 100 132 -99 0
-899 76 100 -132 99 0
-899 76 -100 132 99 0
-899 76 -100 -132 -99 0
-899 -76 100 132 99 0
-899 -76 100 -132 -99 0
-899 -76 -100 132 -99 0
-899 -76 -100 -132 99 0
900 899 0
-900 -899 0
76 100 132 901 0
-76 -100 -132 901 0
-901 -76 100 0
-901 76 -100 0
-901 -76 132 0
-901 76 -132 0
-901 77 101 133 -100 0
-901 77 101 -133 100 0
-901 77 -101 133 100 0
-901 77 -101 -133 -100 0
-901 -77 101 133 100 0
-901 -77 101 -133 -100 0
-901 -77 -101 133 -100 0
-901 -77 -101 -133 100 0
902 901 0
-902 -901 0
77 101 133 903 0
-77 -101 -133 903 0
-903 -77 101 0
-903 77 -101 0
-903 -77 133 0
-903 77 -133 0
-903 78 102 134 -101 0
-903 78 102 -134 101 0
-903 78 -102 134 101 0
-903 78 -102 -134 -101 0
-903 -78 102 134 101 0
-903 -78 102 -134 -101 0
-903 -78 -102 134 -101 0
-903 -78 -102 -134 101 0
904 903 0
-904 -903 0
78 102 134 905 0
-78 -102 -134 905 0
-905 -78 102 0
-905 78 -102 0
-905 -78 134 0
-905 78 -134 0
-905 79 103 135 -102 0
-905 79 103 -135 102 0
-905 79 -103 135 102 0
-905 79 -103 -135 -102 0
-905 -79 103 135 102 0
-905 -79 103 -135 -102 0
-905 -79 -103 135 -102 0
-905 -79 -103 -135 102 0
906 905 0
-906 -905 0
79 103 135 907 0
-79 -103 -135 907 0
-907 -79 103 0
-907 79 -103 0
-907 -79 135 0
-907 79 -135 0
-907 80 104 136 -103 0
-907 80 104 -136 103 0
-907 80 -104 136 103 0
-907 80 -104 -136 -103 0
-907 -80 104 136 103 0
-907 -80 104 -136 -103 0
-907 -80 -104 136 -103 0
-907 -80 -104 -136 103 0
908 907 0
-908 -907 0
80 104 136 909 0
-80 -104 -136 909 0
-909 -80 104 0
-909 80 -104 0
-909 -80 136 0
-909 80 -136 0
-909 81 105 137 -104 0
-909 81 105 -137 104 0
-909 81 -105 137 104 0
-909 81 -105 -137 -104 0
-909 -81 105 137 104 0
-909 -81 105 -137 -104 0
-909 -81 -105 137 -104 0
-909 -81 -105 -137 104 0
910 909 0
-910 -909 0
81 105 137 911 0
-81 -105 -137 911 0
-911 -81 105 0
-911 81 -105 0
-911 -81 137 0
-911 81 -137 0
-911 82 106 138 -105 0
-911 82 106 -138 105 0
-911 82 -106 138 105 0
-911 82 -106 -138 -105 0
-911 -82 106 138 105 0
-911 -82 106 -138 -105 0
-911 -82 -106 138 -105 0
-911 -82 -106 -138 105 0
912 911 0
-912 -911 0
82 106 138 913 0
-82 -106 -138 913 0
-913 -82 106 0
-913 82 -106 0
-913 -82 138 0
-913 82 -138 0
-913 83 107 139 -106 0
-913 83 107 -139 106 0
-913 83 -107 139 106 0
-913 83 -107 -139 -106 0
-913 -83 107 139 106 0
-913 -83 107 -139 -106 0
-913 -83 -107 139 -106 0
-913 -83 -107 -139 106 0
914 913 0
-914 -913 0
83 107 139 915 0
-83 -107 -139 915 0
-915 -83 107 0
-915 83 -107 0
-915 -83 139 0
-915 83 -139 0
-915 84 108 140 -107 0
-915 84 108 -140 107 0
-915 84 -108 140 107 0
-915 84 -108 -140 -107 0
-915 -84 108 140 107 0
-915 -84 108 -140 -107 0
-915 -84 -108 140 -107 0
-915 -84 -108 -140 107 0
916 915 0
-916 -915 0
84 108 140 917 0
-84 -108 -140 917 0
-917 -84 108 0
-917 84 -108 0
-917 -84 140 0
-917 84 -140 0
-917 85 109 141 -108 0
-917 85 109 -141 108 0
-917 85 -109 141 108 0
-917 85 -109 -141 -108 0
-917 -85 109 141 108 0
-917 -85 109 -141 -108 0
-917 -85 -109 141 -108 0
-917 -85 -109 -141 108 0
918 917 0
-918 -917 0
85 109 141 919 0
-85 -109 -141 919 0
-919 -85 109 0
-919 85 -109 0
-919 -85 141 0
-919 85 -141 0
-919 86 110 142 -109 0
-919 86 110 -142 109 0
-919 86 -110 142 109 0
-919 86 -110 -142 -109 0
-919 -86 110 142 109 0
-919 -86 110 -142 -109 0
-919 -86 -110 142 -109 0
-919 -86 -110 -142 109 0
920 919 0
-920 -919 0
86 110 142 921 0
-86 -110 -142 921 0
-921 -86 110 0
-921 86 -110 0
-921 -86 142 0
-921 86 -142 0
-921 87 111 143 -110 0
-921 87 111 -143 110 0
-921 87 -111 143 110 0
-921 87 -111 -143 -110 0
-921 -87 111 143 110 0
-921 -87 111 -143 -110 0
-921 -87 -111 143 -110 0
-921 -87 -111 -143 110 0
922 921 0
-922 -921 0
87 111 143 923 0
-87 -111 -143 923 0
-923 -87 111 0
-923 87 -111 0
-923 -87 143 0
-923 87 -143 0
-923 88 112 144 -111 0
-923 88 112 -144 111 0
-923 88 -112 144 111 0
-923 88 -112 -144 -111 0
-923 -88 112 144 111 0
-923 -88 112 -144 -111 0
-923 -88 -112 144 -111 0
-923 -88 -112 -144 111 0
924 923 0
-924 -923 0
88 112 144 925 0
-88 -112 -144 925 0
-925 -88 112 0
-925 88 -112 0
-925 -88 144 0
-925 88 -144 0
-925 89 113 145 -112 0
-925 89 113 -145 112 0
-925 89 -113 145 112 0
-925 89 -113 -145 -112 0
-925 -89 113 145 112 0
-925 -89 113 -145 -112 0
-925 -89 -113 145 -112 0
-925 -89 -113 -145 112 0
926 925 0
-926 -925 0
89 113 145 927 0
-89 -113 -145 927 0
-927 -89 113 0
-927 89 -113 0
-927 -89 145 0
-927 89 -145 0
-927 90 114 146 -113 0
-927 90 114 -146 113 0
-927 90 -114 146 113 0
-927 90 -114 -146 -113 0
-927 -90 114 146 113 0
-927 -90 114 -146 -113 0
-927 -90 -114 146 -113 0
-927 -90 -114 -146 113 0
928 927 0
-928 -927 0
90 114 146 929 0
-90 -114 -146 929 0
-929 -90 114 0
-929 90 -114 0
-929 -90 146 0
-929 90 -146 0
-929 91 115 147 -114 0
-929 91 115 -147 114 0
-929 91 -115 147 114 0
-929 91 -115 -147 -114 0
-929 -91 115 147 114 0
-929 -91 115 -147 -114 0
-929 -91 -115 147 -114 0
-929 -91 -115 -147 114 0
930 929 0
-930 -929 0
91 115 147 931 0
-91 -115 -147 931 0
-931 -91 115 0
-931 91 -115 0
-931 -91 147 0
-931 91 -147 0
-931 92 116 148 -115 0
-931 92 116 -148 115 0
-931 92 -116 148 115 0
-931 92 -116 -148 -115 0
-931 -92 116 148 115 0
-931 -92 116 -148 -115 0
-931 -92 -116 148 -115 0
-931 -92 -116 -148 115 0
932 931 0
-932 -931 0
92 116 148 933 0
-92 -116 -148 933 0
-933 -92 116 0
-933 92 -116 0
-933 -92 148 0
-933 92 -148 0
-933 93 117 149 -116 0
-933 93 117 -149 116 0
-933 93 -117 149 116 0
-933 93 -117 -149 -116 0
-933 -93 117 149 116 0
-933 -93 117 -149 -116 0
-933 -93 -117 149 -116 0
-933 -93 -117 -149 116 0
934 933 0
-934 -933 0
93 117 149 935 0
-93 -117 -149 935 0
-935 -93 117 0
-935 93 -117 0
-935 -93 149 0
-935 93 -149 0
-935 94 118 150 -117 0
-935 94 118 -150 117 0
-935 94 -118 150 117 0
-935 94 -118 -150 -117 0
-935 -94 118 150 117 0
-935 -94 118 -150 -117 0
-935 -94 -118 150 -117 0
-935 -94 -118 -150 117 0
936 935 0
-936 -935 0
94 118 150 937 0
-94 -118 -150 937 0
-937 -94 118 0
-937 94 -118 0
-937 -94 150 0
-937 94 -150 0
-937 95 119 151 -118 0
-937 95 119 -151 118 0
-937 95 -119 151 118 0
-937 95 -119 -151 -118 0
-937 -95 119 151 118 0
-937 -95 119 -151 -118 0
-937 -95 -119 151 -118 0
-937 -95 -119 -151 118 0
938 937 0
-938 -937 0
95 119 151 939 0
-95 -119 -151 939 0
-939 -95 119 0
-939 95 -119 0
-939 -95 151 0
-939 95 -151 0
-939 96 120 152 -119 0
-939 96 120 -152 119 0
-939 96 -120 152 119 0
-939 96 -120 -152 -119 0
-939 -96 120 152 119 0
-939 -96 120 -152 -119 0
-939 -96 -120 152 -119 0
-939 -96 -120 -152 119 0
940 939 0
-940 -939 0
96 120 152 941 0
-96 -120 -152 941 0
-941 -96 120 0
-941 96 -120 0
-941 -96 152 0
-941 96 -152 0
-941 65 121 153 -120 0
-941 65 121 -153 120 0
-941 65 -121 153 120 0
-941 65 -121 -153 -120 0
-941 -65 121 153 120 0
-941 -65 121 -153 -120 0
-941 -65 -121 153 -120 0
-941 -65 -121 -153 120 0
942 941 0
-942 -941 0
65 121 153 943 0
-65 -121 -153 943 0
-943 -65 121 0
-943 65 -121 0
-943 -65 153 0
-943 65 -153 0
-943 66 122 154 -121 0
-943 66 122 -154 121 0
-943 66 -122 154 121 0
-943 66 -122 -154 -121 0
-943 -66 122 154 121 0
-943 -66 122 -154 -121 0
-943 -66 -122 154 -121 0
-943 -66 -122 -154 121 0
944 943 0
-944 -943 0
66 122 154 945 0
-66 -122 -154 945 0
-945 -66 122 0
-945 66 -122 0
-945 -66 154 0
-945 66 -154 0
-945 67 123 155 -122 0
-945 67 123 -155 122 0
-945 67 -123 155 122 0
-945 67 -123 -155 -122 0
-945 -67 123 155 122 0
-945 -67 123 -155 -122 0
-945 -67 -123 155 -122 0
-945 -67 -123 -155 122 0
946 945 0
-946 -945 0
67 123 155 947 0
-67 -123 -155 947 0
-947 -67 123 0
-947 67 -123 0
-947 -67 155 0
-947 67 -155 0
-947 68 124 156 -123 0
-947 68 124 -156 123 0
-947 68 -124 156 123 0
-947 68 -124 -156 -123 0
-947 -68 124 156 123 0
-947 -68 124 -156 -123 0
-947 -68 -124 156 -123 0
-947 -68 -124 -156 123 0
948 947 0
-948 -947 0
68 124 156 949 0
-68 -124 -156 949 0
-949 -68 124 0
-949 68 -124 0
-949 -68 156 0
-949 68 -156 0
-949 69 125 157 -124 0
-949 69 125 -157 124 0
-949 69 -125 157 124 0
-949 69 -125 -157 -124 0
-949 -69 125 157 124 0
-949 -69 125 -157 -124 0
-949 -69 -125 157 -124 0
-949 -69 -125 -157 124 0
950 949 0
-950 -949 0
69 125 157 951 0
-69 -125 -157 951 0
-951 -69 125 0
-951 69 -125 0
-951 -69 157 0
-951 69 -157 0
-951 70 126 158 -125 0
-951 70 126 -158 125 0
-951 70 -126 158 125 0
-951 70 -126 -158 -125 0
-951 -70 126 158 125 0
-951 -70 126 -158 -125 0
-951 -70 -126 158 -125 0
-951 -70 -126 -158 125 0
952 951 0
-952 -951 0
70 126 158 953 0
-70 -126 -158 953 0
-953 -70 126 0
-953 70 -126 0
-953 -70 158 0
-953 70 -158 0
-953 71 127 159 -126 0
-953 71 127 -159 126 0
-953 71 -127 159 126 0
-953 71 -127 -159 -126 0
-953 -71 127 159 126 0
-953 -71 127 -159 -126 0
-953 -71 -127 159 -126 0
-953 -71 -127 -159 126 0
954 953 0
-954 -953 0
71 127 159 955 0
-71 -127 -159 955 0
-955 -71 127 0
-955 71 -127 0
-955 -71 159 0
-955 71 -159 0
-955 72 128 160 -127 0
-955 72 128 -160 127 0
-955 72 -128 160 127 0
-955 72 -128 -160 -127 0
-955 -72 128 160 127 0
-955 -72 128 -160 -127 0
-955 -72 -128 160 -127 0
-955 -72 -128 -160 127 0
956 955 0
-956 -955 0
126 129 -161 0
126 -129 161 0
-126 129 161 0
-126 -129 -161 0
127 130 -162 0
127 -130 162 0
-127 130 162 0
-127 -130 -162 0
128 131 -163 0
128 -131 163 0
-128 131 163 0
-128 -131 -163 0
97 132 -164 0
97 -132 164 0
-97 132 164 0
-97 -132 -164 0
98 133 -165 0
98 -133 165 0
-98 133 165 0
-98 -133 -165 0
99 134 -166 0
99 -134 166 0
-99 134 166 0
-99 -134 -166 0
100 135 -167 0
100 -135 167 0
-100 135 167 0
-100 -135 -167 0
101 136 -168 0
101 -136 168 0
-101 136 168 0
-101 -136 -168 0
102 137 -169 0
102 -137 169 0
-102 137 169 0
-102 -137 -169 0
103 138 -170 0
103 -138 170 0
-103 138 170 0
-103 -138 -170 0
104 139 -171 0
104 -139 171 0
-104 139 171 0
-104 -139 -171 0
105 140 -172 0
105 -140 172 0
-105 140 172 0
-105 -140 -172 0
106 141 -173 0
106 -141 173 0
-106 141 173 0
-106 -141 -173 0
107 142 -174 0
107 -142 174 0
-107 142 174 0
-107 -142 -174 0
108 143 -175 0
108 -143 175 0
-108 143 175 0
-108 -143 -175 0
109 144 -176 0
109 -144 176 0
-109 144 176 0
-109 -144 -176 0
110 145 -177 0
110 -145 177 0
-110 145 177 0
-110 -145 -177 0
111 146 -178 0
111 -146 178 0
-111 146 178 0
-111 -146 -178 0
112 147 -179 0
112 -147 179 0
-112 147 179 0
-112 -147 -179 0
113 148 -180 0
113 -148 180 0
-113 148 180 0
-113 -148 -180 0
114 149 -181 0
114 -149 181 0
-114 149 181 0
-114 -149 -181 0
115 150 -182 0
115 -150 182 0
-115 150 182 0
-115 -150 -182 0
116 151 -183 0
116 -151 183 0
-116 151 183 0
-116 -151 -183 0
117 152 -184 0
117 -152 184 0
-117 152 184 0
-117 -152 -184 0
118 153 -185 0
118 -153 185 0
-118 153 185 0
-118 -153 -185 0
119 154 -186 0
119 -154 186 0
-119 154 186 0
-119 -154 -186 0
120 155 -187 0
120 -155 187 0
-120 155 187 0
-120 -155 -187 0
121 156 -188 0
121 -156 188 0
-121 156 188 0
-121 -156 -188 0
122 157 -189 0
122 -157 189 0
-122 157 189 0
-122 -157 -189 0
123 158 -190 0
123 -158 190 0
-123 158 190 0
-123 -158 -190 0
124 159 -191 0
124 -159 191 0
-124 159 191 0
-124 -159 -191 0
125 160 -192 0
125 -160 192 0
-125 160 192 0
-125 -160 -192 0
137 161 -193 0
137 -161 193 0
-137 161 193 0
-137 -161 -193 0
137 161 193 957 0
-137 -161 -193 957 0
-957 -137 161 0
-957 137 -161 0
-957 -137 193 0
-957 137 -193 0
-957 138 162 194 -161 0
-957 138 162 -194 161 0
-957 138 -162 194 161 0
-957 138 -162 -194 -161 0
-957 -138 162 194 161 0
-957 -138 162 -194 -161 0
-957 -138 -162 194 -161 0
-957 -138 -162 -194 161 0
958 957 0
-958 -957 0
138 162 194 959 0
-138 -162 -194 959 0
-959 -138 162 0
-959 138 -162 0
-959 -138 194 0
-959 138 -194 0
-959 139 163 195 -162 0
-959 139 163 -195 162 0
-959 139 -163 195 162 0
-959 139 -163 -195 -162 0
-959 -139 163 195 162 0
-959 -139 163 -195 -162 0
-959 -139 -163 195 -162 0
-959 -139 -163 -195 162 0
960 959 0
-960 -959 0
139 163 195 961 0
-139 -163 -195 961 0
-961 -139 163 0
-961 139 -163 0
-961 -139 195 0
-961 139 -195 0
-961 140 164 196 -163 0
-961 140 164 -196 163 0
-961 140 -164 196 163 0
-961 140 -164 -196 -163 0
-961 -140 164 196 163 0
-961 -140 164 -196 -163 0
-961 -140 -164 196 -163 0
-961 -140 -164 -196 163 0
962 961 0
-962 -961 0
140 164 196 963 0
-140 -164 -196 963 0
-963 -140 164 0
-963 140 -164 0
-963 -140 196 0
-963 140 -196 0
-963 141 165 197 -164 0
-963 141 165 -197 164 0
-963 141 -165 197 164 0
-963 141 -165 -197 -164 0
-963 -141 165 197 164 0
-963 -141 165 -197 -164 0
-963 -141 -165 197 -164 0
-963 -141 -165 -197 164 0
964 963 0
-964 -963 0
141 165 197 965 0
-141 -165 -197 965 0
-965 -141 165 0
-965 141 -165 0
-965 -141 197 0
-965 141 -197 0
-965 142 166 198 -165 0
-965 142 166 -198 165 0
-965 142 -166 198 165 0
-965 142 -166 -198 -165 0
-965 -142 166 198 165 0
-965 -142 166 -198 -165 0
-965 -142 -166 198 -165 0
-965 -142 -166 -198 165 0
966 965 0
-966 -965 0
142 166 198 967 0
-142 -166 -198 967 0
-967 -142 166 0
-967 142 -166 0
-967 -142 198 0
-967 142 -198 0
-967 143 167 199 -166 0
-967 143 167 -199 166 0
-967 143 -167 199 166 0
-967 143 -167 -199 -166 0
-967 -143 167 199 166 0
-967 -143 167 -199 -166 0
-967 -143 -167 199 -166 0
-967 -143 -167 -199 166 0
968 967 0
-968 -967 0
143 167 199 969 0
-143 -167 -199 969 0
-969 -143 167 0
-969 143 -167 0
-969 -143 199 0
-969 143 -199 0
-969 144 168 200 -167 0
-969 144 168 -200 167 0
-969 144 -168 200 167 0
-969 144 -168 -200 -167 0
-969 -144 168 200 167 0
-969 -144 168 -200 -167 0
-969 -144 -168 200 -167 0
-969 -144 -168 -200 167 0
970 969 0
-970 -969 0
144 168 200 971 0
-144 -168 -200 971 0
-971 -144 168 0
-971 144 -168 0
-971 -144 200 0
-971 144 -200 0
-971 145 169 201 -168 0
-971 145 169 -201 168 0
-971 145 -169 201 168 0
-971 145 -169 -201 -168 0
-971 -145 169 201 168 0
-971 -145 169 -201 -168 0
-971 -145 -169 201 -168 0
-971 -145 -169 -201 168 0
972 971 0
-972 -971 0
145 169 201 973 0
-145 -169 -201 973 0
-973 -145 169 0
-973 145 -169 0
-973 -145 201 0
-973 145 -201 0
-973 146 170 202 -169 0
-973 146 170 -202 169 0
-973 146 -170 202 169 0
-973 146 -170 -202 -169 0
-973 -146 170 202 169 0
-973 -146 170 -202 -169 0
-973 -146 -170 202 -169 0
-973 -146 -170 -202 169 0
974 973 0
-974 -973 0
146 170 202 975 0
-146 -170 -202 975 0
-975 -146 170 0
-975 146 -170 0
-975 -146 202 0
-975 146 -202 0
-975 147 171 203 -170 0
-975 147 171 -203 170 0
-975 147 -171 203 170 0
-975 147 -171 -203 -170 0
-975 -147 171 203 170 0
-975 -147 171 -203 -170 0
-975 -147 -171 203 -170 0
-975 -147 -171 -203 170 0
976 975 0
-976 -975 0
147 171 203 977 0
-147 -171 -203 977 0
-977 -147 171 0
-977 147 -171 0
-977 -147 203 0
-977 147 -203 0
-977 148 172 204 -171 0
-977 148 172 -204 171 0
-977 148 -172 204 171 0
-977 148 -172 -204 -171 0
-977 -148 172 204 171 0
-977 -148 172 -204 -171 0
-977 -148 -172 204 -171 0
-977 -148 -172 -204 171 0
978 977 0
-978 -977 0
148 172 204 979 0
-148 -172 -204 979 0
-979 -148 172 0
-979 148 -172 0
-979 -148 204 0
-979 148 -204 0
-979 149 173 205 -172 0
-979 149 173 -205 172 0
-979 149 -173 205 172 0
-979 149 -173 -205 -172 0
-979 -149 173 205 172 0
-979 -149 173 -205 -172 0
-979 -149 -173 205 -172 0
-979 -149 -173 -205 172 0
980 979 0
-980 -979 0
149 173 205 981 0
-149 -173 -205 981 0
-981 -149 173 0
-981 149 -173 0
-981 -149 205 0
-981 149 -205 0
-981 150 174 206 -173 0
-981 150 174 -206 173 0
-981 150 -174 206 173 0
-981 150 -174 -206 -173 0
-981 -150 174 206 173 0
-981 -150 174 -206 -173 0
-981 -150 -174 206 -173 0
-981 -150 -174 -206 173 0
982 981 0
-982 -981 0
150 174 206 983 0
-150 -174 -206 983 0
-983 -150 174 0
-983 150 -174 0
-983 -150 206 0
-983 150 -206 0
-983 151 175 207 -174 0
-983 151 175 -207 174 0
-983 151 -175 207 174 0
-983 151 -175 -207 -174 0
-983 -151 175 207 174 0
-983 -151 175 -207 -174 0
-983 -151 -175 207 -174 0
-983 -151 -175 -207 174 0
984 983 0
-984 -983 0
151 175 207 985 0
-151 -175 -207 985 0
-985 -151 175 0
-985 151 -175 0
-985 -151 207 0
-985 151 -207 0
-985 152 176 208 -175 0
-985 152 176 -208 175 0
-985 152 -176 208 175 0
-985 152 -176 -208 -175 0
-985 -152 176 208 175 0
-985 -152 176 -208 -175 0
-985 -152 -176 208 -175 0
-985 -152 -176 -208 175 0
986 985 0
-986 -985 0
152 176 208 987 0
-152 -176 -208 987 0
-987 -152 176 0
-987 152 -176 0
-987 -152 208 0
-987 152 -208 0
-987 153 177 209 -176 0
-987 153 177 -209 176 0
-987 153 -177 209 176 0
-987 153 -177 -209 -176 0
-987 -153 177 209 176 0
-987 -153 177 -209 -176 0
-987 -153 -177 209 -176 0
-987 -153 -177 -209 176 0
988 987 0
-988 -987 0
153 177 209 989 0
-153 -177 -209 989 0
-989 -153 177 0
-989 153 -177 0
-989 -153 209 0
-989 153 -209 0
-989 154 178 210 -177 0
-989 154 178 -210 177 0
-989 154 -178 210 177 0
-989 154 -178 -210 -177 0
-989 -154 178 210 177 0
-989 -154 178 -210 -177 0
-989 -154 -178 210 -177 0
-989 -154 -178 -210 177 0
990 989 0
-990 -989 0
154 178 210 991 0
-154 -178 -210 991 0
-991 -154 178 0
-991 154 -178 0
-991 -154 210 0
-991 154 -210 0
-991 155 179 211 -178 0
-991 155 179 -211 178 0
-991 155 -179 211 178 0
-991 155 -179 -211 -178 0
-991 -155 179 211 178 0
-991 -155 179 -211 -178 0
-991 -155 -179 211 -178 0
-991 -155 -179 -211 178 0
992 991 0
-992 -991 0
155 179 211 993 0
-155 -179 -211 993 0
-993 -155 179 0
-993 155 -179 0
-993 -155 211 0
-993 155 -211 0
-993 156 180 212 -179 0
-993 156 180 -212 179 0
-993 156 -180 212 179 0
-993 156 -180 -212 -179 0
-993 -156 180 212 179 0
-993 -156 180 -212 -179 0
-993 -156 -180 212 -179 0
-993 -156 -180 -212 179 0
994 993 0
-994 -993 0
156 180 212 995 0
-156 -180 -212 995 0
-995 -156 180 0
-995 156 -180 0
-995 -156 212 0
-995 156 -212 0
-995 157 181 213 -180 0
-995 157 181 -213 180 0
-995 157 -181 213 180 0
-995 157 -181 -213 -180 0
-995 -157 181 213 180 0
-995 -157 181 -213 -180 0
-995 -157 -181 213 -180 0
-995 -157 -181 -213 180 0
996 995 0
-996 -995 0
157 181 213 997 0
-157 -181 -213 997 0
-997 -157 181 0
-997 157 -181 0
-997 -157 213 0
-997 157 -213 0
-997 158 182 214 -181 0
-997 158 182 -214 181 0
-997 158 -182 214 181 0
-997 158 -182 -214 -181 0
-997 -158 182 214 181 0
-997 -158 182 -214 -181 0
-997 -158 -182 214 -181 0
-997 -158 -182 -214 181 0
998 997 0
-998 -997 0
158 182 214 999 0
-158 -182 -214 999 0
-999 -158 182 0
-999 158 -182 0
-999 -158 214 0
-999 158 -214 0
-999 159 183 215 -182 0
-999 159 183 -215 182 0
-999 159 -183 215 182 0
-999 159 -183 -215 -182 0
-999 -159 183 215 182 0
-999 -159 183 -215 -182 0
-999 -159 -183 215 -182 0
-999 -159 -183 -215 182 0
1000 999 0
-1000 -999 0
159 183 215 1001 0
-159 -183 -215 1001 0
-1001 -159 183 0
-1001 159 -183 0
-1001 -159 215 0
-1001 159 -215 0
-1001 160 184 216 -183 0
-1001 160 184 -216 183 0
-1001 160 -184 216 183 0
-1001 160 -184 -216 -183 0
-1001 -160 184 216 183 0
-1001 -160 184 -216 -183 0
-1001 -160 -184 216 -183 0
-1001 -160 -184 -216 183 0
1002 1001 0
-1002 -1001 0
160 184 216 1003 0
-160 -184 -216 1003 0
-1003 -160 184 0
-1003 160 -184 0
-1003 -160 216 0
-1003 160 -216 0
-1003 129 185 217 -184 0
-1003 129 185 -217 184 0
-1003 129 -185 217 184 0
-1003 129 -185 -217 -184 0
-1003 -129 185 217 184 0
-1003 -129 185 -217 -184 0
-1003 -129 -185 217 -184 0
-1003 -129 -185 -217 184 0
1004 1003 0
-1004 -1003 0
129 185 217 1005 0
-129 -185 -217 1005 0
-1005 -129 185 0
-1005 129 -185 0
-1005 -129 217 0
-1005 129 -217 0
-1005 130 186 218 -185 0
-1005 130 186 -218 185 0
-1005 130 -186 218 185 0
-1005 130 -186 -218 -185 0
-1005 -130 186 218 185 0
-1005 -130 186 -218 -185 0
-1005 -130 -186 218 -185 0
-1005 -130 -186 -218 185 0
1006 1005 0
-1006 -1005 0
130 186 218 1007 0
-130 -186 -218 1007 0
-1007 -130 186 0
-1007 130 -186 0
-1007 -130 218 0
-1007 130 -218 0
-1007 131 187 219 -186 0
-1007 131 187 -219 186 0
-1007 131 -187 219 186 0
-1007 131 -187 -219 -186 0
-1007 -131 187 219 186 0
-1007 -131 187 -219 -186 0
-1007 -131 -187 219 -186 0
-1007 -131 -187 -219 186 0
1008 1007 0
-1008 -1007 0
131 187 219 1009 0
-131 -187 -219 1009 0
-1009 -131 187 0
-1009 131 -187 0
-1009 -131 219 0
-1009 131 -219 0
-1009 132 188 220 -187 0
-1009 132 188 -220 187 0
-1009 132 -188 220 187 0
-1009 132 -188 -220 -187 0
-1009 -132 188 220 187 0
-1009 -132 188 -220 -187 0
-1009 -132 -188 220 -187 0
-1009 -132 -188 -220 187 0
1010 1009 0
-1010 -1009 0
132 188 220 1011 0
-132 -188 -220 1011 0
-1011 -132 188 0
-1011 132 -188 0
-1011 -132 220 0
-1011 132 -220 0
-1011 133 189 221 -188 0
-1011 133 189 -221 188 0
-1011 133 -189 221 188 0
-1011 133 -189 -221 -188 0
-1011 -133 189 221 188 0
-1011 -133 189 -221 -188 0
-1011 -133 -189 221 -188 0
-1011 -133 -189 -221 188 0
1012 1011 0
-1012 -1011 0
133 189 221 1013 0
-133 -189 -221 1013 0
-1013 -133 189 0
-1013 133 -189 0
-1013 -133 221 0
-1013 133 -221 0
-1013 134 190 222 -189 0
-1013 134 190 -222 189 0
-1013 134 -190 222 189 0
-1013 134 -190 -222 -189 0
-1013 -134 190 222 189 0
-1013 -134 190 -222 -189 0
-1013 -134 -190 222 -189 0
-1013 -134 -190 -222 189 0
1014 1013 0
-1014 -1013 0
134 190 222 1015 0
-134 -190 -222 1015 0
-1015 -134 190 0
-1015 134 -190 0
-1015 -134 222 0
-1015 134 -222 0
-1015 135 191 223 -190 0
-1015 135 191 -223 190 0
-1015 135 -191 223 190 0
-1015 135 -191 -223 -190 0
-1015 -135 191 223 190 0
-1015 -135 191 -223 -190 0
-1015 -135 -191 223 -190 0
-1015 -135 -191 -223 190 0
1016 1015 0
-1016 -1015 0
135 191 223 1017 0
-135 -191 -223 1017 0
-1017 -135 191 0
-1017 135 -191 0
-1017 -135 223 0
-1017 135 -223 0
-1017 136 192 224 -191 0
-1017 136 192 -224 191 0
-1017 136 -192 224 191 0
-1017 136 -192 -224 -191 0
-1017 -136 192 224 191 0
-1017 -136 192 -224 -191 0
-1017 -136 -192 224 -191 0
-1017 -136 -192 -224 191 0
1018 1017 0
-1018 -1017 0
190 193 -225 0
190 -193 225 0
-190 193 225 0
-190 -193 -225 0
191 194 -226 0
191 -194 226 0
-191 194 226 0
-191 -194 -226 0
192 195 -227 0
192 -195 227 0
-192 195 227 0
-192 -195 -227 0
161 196 -228 0
161 -196 228 0
-161 196 228 0
-161 -196 -228 0
162 197 -229 0
162 -197 229 0
-162 197 229 0
-162 -197 -229 0
163 198 -230 0
163 -198 230 0
-163 198 230 0
-163 -198 -230 0
164 199 -231 0
164 -199 231 0
-164 199 231 0
-164 -199 -231 0
165 200 -232 0
165 -200 232 0
-165 200 232 0
-165 -200 -232 0
166 201 -233 0
166 -201 233 0
-166 201 233 0
-166 -201 -233 0
167 202 -234 0
167 -202 234 0
-167 202 234 0
-167 -202 -234 0
168 203 -235 0
168 -203 235 0
-168 203 235 0
-168 -203 -235 0
169 204 -236 0
169 -204 236 0
-169 204 236 0
-169 -204 -236 0
170 205 -237 0
170 -205 237 0
-170 205 237 0
-170 -205 -237 0
171 206 -238 0
171 -206 238 0
-171 206 238 0
-171 -206 -238 0
172 207 -239 0
172 -207 239 0
-172 207 239 0
-172 -207 -239 0
173 208 -240 0
173 -208 240 0
-173 208 240 0
-173 -208 -240 0
174 209 -241 0
174 -209 241 0
-174 209 241 0
-174 -209 -241 0
175 210 -242 0
175 -210 242 0
-175 210 242 0
-175 -210 -242 0
176 211 -243 0
176 -211 243 0
-176 211 243 0
-176 -211 -243 0
177 212 -244 0
177 -212 244 0
-177 212 244 0
-177 -212 -244 0
178 213 -245 0
178 -213 245 0
-178 213 245 0
-178 -213 -245 0
179 214 -246 0
179 -214 246 0
-179 214 246 0
-179 -214 -246 0
180 215 -247 0
180 -215 247 0
-180 215 247 0
-180 -215 -247 0
181 216 -248 0
181 -216 248 0
-181 216 248 0
-181 -216 -248 0
182 217 -249 0
182 -217 249 0
-182 217 249 0
-182 -217 -249 0
183 218 -250 0
183 -218 250 0
-183 218 250 0
-183 -218 -250 0
184 219 -251 0
184 -219 251 0
-184 219 251 0
-184 -219 -251 0
185 220 -252 0
185 -220 252 0
-185 220 252 0
-185 -220 -252 0
186 221 -253 0
186 -221 253 0
-186 221 253 0
-186 -221 -253 0
187 222 -254 0
187 -222 254 0
-187 222 254 0
-187 -222 -254 0
188 223 -255 0
188 -223 255 0
-188 223 255 0
-188 -223 -255 0
189 224 -256 0
189 -224 256 0
-189 224 256 0
-189 -224 -256 0
201 225 -257 0
201 -225 257 0
-201 225 257 0
-201 -225 -257 0
201 225 257 1019 0
-201 -225 -257 1019 0
-1019 -201 225 0
-1019 201 -225 0
-1019 -201 257 0
-1019 201 -257 0
-1019 202 226 258 -225 0
-1019 202 226 -258 225 0
-1019 202 -226 258 225 0
-1019 202 -226 -258 -225 0
-1019 -202 226 258 225 0
-1019 -202 226 -258 -225 0
-1019 -202 -226 258 -225 0
-1019 -202 -226 -258 225 0
1020 1019 0
-1020 -1019 0
202 226 258 1021 0
-202 -226 -258 1021 0
-1021 -202 226 0
-1021 202 -226 0
-1021 -202 258 0
-1021 202 -258 0
-1021 203 227 259 -226 0
-1021 203 227 -259 226 0
-1021 203 -227 259 226 0
-1021 203 -227 -259 -226 0
-1021 -203 227 259 226 0
-1021 -203 227 -259 -226 0
-1021 -203 -227 259 -226 0
-1021 -203 -227 -259 226 0
1022 1021 0
-1022 -1021 0
203 227 259 1023 0
-203 -227 -259 1023 0
-1023 -203 227 0
-1023 203 -227 0
-1023 -203 259 0
-1023 203 -259 0
-1023 204 228 260 -227 0
-1023 204 228 -260 227 0
-1023 204 -228 260 227 0
-1023 204 -228 -260 -227 0
-1023 -204 228 260 227 0
-1023 -204 228 -260 -227 0
-1023 -204 -228 260 -227 0
-1023 -204 -228 -260 227 0
1024 1023 0
-1024 -1023 0
204 228 260 1025 0
-204 -228 -260 1025 0
-1025 -204 228 0
-1025 204 -228 0
-1025 -204 260 0
-1025 204 -260 0
-1025 205 229 261 -228 0
-1025 205 229 -261 228 0
-1025 205 -229 261 228 0
-1025 205 -229 -261 -228 0
-1025 -205 229 261 228 0
-1025 -205 229 -261 -228 0
-1025 -205 -229 261 -228 0
-1025 -205 -229 -261 228 0
1026 1025 0
-1026 -1025 0
205 229 261 1027 0
-205 -229 -261 1027 0
-1027 -205 229 0
-1027 205 -229 0
-1027 -205 261 0
-1027 205 -261 0
-1027 206 230 262 -229 0
-1027 206 230 -262 229 0
-1027 206 -230 262 229 0
-1027 206 -230 -262 -229 0
-1027 -206 230 262 229 0
-1027 -206 230 -262 -229 0
-1027 -206 -230 262 -229 0
-1027 -206 -230 -262 229 0
1028 1027 0
-1028 -1027 0
206 230 262 1029 0
-206 -230 -262 1029 0
-1029 -206 230 0
-1029 206 -230 0
-1029 -206 262 0
-1029 206 -262 0
-1029 207 231 263 -230 0
-1029 207 231 -263 230 0
-1029 207 -231 263 230 0
-1029 207 -231 -263 -230 0
-1029 -207 231 263 230 0
-1029 -207 231 -263 -230 0
-1029 -207 -231 263 -230 0
-1029 -207 -231 -263 230 0
1030 1029 0
-1030 -1029 0
207 231 263 1031 0
-207 -231 -263 1031 0
-1031 -207 231 0
-1031 207 -231 0
-1031 -207 263 0
-1031 207 -263 0
-1031 208 232 264 -231 0
-1031 208 232 -264 231 0
-1031 208 -232 264 231 0
-1031 208 -232 -264 -231 0
-1031 -208 232 264 231 0
-1031 -208 232 -264 -231 0
-1031 -208 -232 264 -231 0
-1031 -208 -232 -264 231 0
1032 1031 0
-1032 -1031 0
208 232 264 1033 0
-208 -232 -264 1033 0
-1033 -208 232 0
-1033 208 -232 0
-1033 -208 264 0
-1033 208 -264 0
-1033 209 233 265 -232 0
-1033 209 233 -265 232 0
-1033 209 -233 265 232 0
-1033 209 -233 -265 -232 0
-1033 -209 233 265 232 0
-1033 -209 233 -265 -232 0
-1033 -209 -233 265 -232 0
-1033 -209 -233 -265 232 0
1034 1033 0
-1034 -1033 0
209 233 265 1035 0
-209 -233 -265 1035 0
-1035 -209 233 0
-1035 209 -233 0
-1035 -209 265 0
-1035 209 -265 0
-1035 210 234 266 -233 0
-1035 210 234 -266 233 0
-1035 210 -234 266 233 0
-1035 210 -234 -266 -233 0
-1035 -210 234 266 233 0
-1035 -210 234 -266 -233 0
-1035 -210 -234 266 -233 0
-1035 -210 -234 -266 233 0
1036 1035 0
-1036 -1035 0
210 234 266 1037 0
-210 -234 -266 1037 0
-1037 -210 234 0
-1037 210 -234 0
-1037 -210 266 0
-1037 210 -266 0
-1037 211 235 267 -234 0
-1037 211 235 -267 234 0
-1037 211 -235 267 234 0
-1037 211 -235 -267 -234 0
-1037 -211 235 267 234 0
-1037 -211 235 -267 -234 0
-1037 -211 -235 267 -234 0
-1037 -211 -235 -267 234 0
1038 1037 0
-1038 -1037 0
211 235 267 1039 0
-211 -235 -267 1039 0
-1039 -211 235 0
-1039 211 -235 0
-1039 -211 267 0
-1039 211 -267 0
-1039 212 236 268 -235 0
-1039 212 236 -268 235 0
-1039 212 -236 268 235 0
-1039 212 -236 -268 -235 0
-1039 -212 236 268 235 0
-1039 -212 236 -268 -235 0
-1039 -212 -236 268 -235 0
-1039 -212 -236 -268 235 0
1040 1039 0
-1040 -1039 0
212 236 268 1041 0
-212 -236 -268 1041 0
-1041 -212 236 0
-1041 212 -236 0
-1041 -212 268 0
-1041 212 -268 0
-1041 213 237 269 -236 0
-1041 213 237 -269 236 0
-1041 213 -237 269 236 0
-1041 213 -237 -269 -236 0
-1041 -213 237 269 236 0
-1041 -213 237 -269 -236 0
-1041 -213 -237 269 -236 0
-1041 -213 -237 -269 236 0
1042 1041 0
-1042 -1041 0
213 237 269 1043 0
-213 -237 -269 1043 0
-1043 -213 237 0
-1043 213 -237 0
-1043 -213 269 0
-1043 213 -269 0
-1043 214 238 270 -237 0
-1043 214 238 -270 237 0
-1043 214 -238 270 237 0
-1043 214 -238 -270 -237 0
-1043 -214 238 270 237 0
-1043 -214 238 -270 -237 0
-1043 -214 -238 270 -237 0
-1043 -214 -238 -270 237 0
1044 1043 0
-1044 -1043 0
214 238 270 1045 0
-214 -238 -270 1045 0
-1045 -214 238 0
-1045 214 -238 0
-1045 -214 270 0
-1045 214 -270 0
-1045 215 239 271 -238 0
-1045 215 239 -271 238 0
-1045 215 -239 271 238 0
-1045 215 -239 -271 -238 0
-1045 -215 239 271 238 0
-1045 -215 239 -271 -238 0
-1045 -215 -239 271 -238 0
-1045 -215 -239 -271 238 0
1046 1045 0
-1046 -1045 0
215 239 271 1047 0
-215 -239 -271 1047 0
-1047 -215 239 0
-1047 215 -239 0
-1047 -215 271 0
-1047 215 -271 0
-1047 216 240 272 -239 0
-1047 216 240 -272 239 0
-1047 216 -240 272 239 0
-1047 216 -240 -272 -239 0
-1047 -216 240 272 239 0
-1047 -216 240 -272 -239 0
-1047 -216 -240 272 -239 0
-1047 -216 -240 -272 239 0
1048 1047 0
-1048 -1047 0
216 240 272 1049 0
-216 -240 -272 1049 0
-1049 -216 240 0
-1049 216 -240 0
-1049 -216 272 0
-1049 216 -272 0
-1049 217 241 273 -240 0
-1049 217 241 -273 240 0
-1049 217 -241 273 240 0
-1049 217 -241 -273 -240 0
-1049 -217 241 273 240 0
-1049 -217 241 -273 -240 0
-1049 -217 -241 273 -240 0
-1049 -217 -241 -273 240 0
1050 1049 0
-1050 -1049 0
217 241 273 1051 0
-217 -241 -273 1051 0
-1051 -217 241 0
-1051 217 -241 0
-1051 -217 273 0
-1051 217 -273 0
-1051 218 242 274 -241 0
-1051 218 242 -274 241 0
-1051 218 -242 274 241 0
-1051 218 -242 -274 -241 0
-1051 -218 242 274 241 0
-1051 -218 242 -274 -241 0
-1051 -218 -242 274 -241 0
-1051 -218 -242 -274 241 0
1052 1051 0
-1052 -1051 0
218 242 274 1053 0
-218 -242 -274 1053 0
-1053 -218 242 0
-1053 218 -242 0
-1053 -218 274 0
-1053 218 -274 0
-1053 219 243 275 -242 0
-1053 219 243 -275 242 0
-1053 219 -243 275 242 0
-1053 219 -243 -275 -242 0
-1053 -219 243 275 242 0
-1053 -219 243 -275 -242 0
-1053 -219 -243 275 -242 0
-1053 -219 -243 -275 242 0
1054 1053 0
-1054 -1053 0
219 243 275 1055 0
-219 -243 -275 1055 0
-1055 -219 243 0
-1055 219 -243 0
-1055 -219 275 0
-1055 219 -275 0
-1055 220 244 276 -243 0
-1055 220 244 -276 243 0
-1055 220 -244 276 243 0
-1055 220 -244 -276 -243 0
-1055 -220 244 276 243 0
-1055 -220 244 -276 -243 0
-1055 -220 -244 276 -243 0
-1055 -220 -244 -276 243 0
1056 1055 0
-1056 -1055 0
220 244 276 1057 0
-220 -244 -276 1057 0
-1057 -220 244 0
-1057 220 -244 0
-1057 -220 276 0
-1057 220 -276 0
-1057 221 245 277 -244 0
-1057 221 245 -277 244 0
-1057 221 -245 277 244 0
-1057 221 -245 -277 -244 0
-1057 -221 245 277 244 0
-1057 -221 245 -277 -244 0
-1057 -221 -245 277 -244 0
-1057 -221 -245 -277 244 0
1058 1057 0
-1058 -1057 0
221 245 277 1059 0
-221 -245 -277 1059 0
-1059 -221 245 0
-1059 221 -245 0
-1059 -221 277 0
-1059 221 -277 0
-1059 222 246 278 -245 0
-1059 222 246 -278 245 0
-1059 222 -246 278 245 0
-1059 222 -246 -278 -245 0
-1059 -222 246 278 245 0
-1059 -222 246 -278 -245 0
-1059 -222 -246 278 -245 0
-1059 -222 -246 -278 245 0
1060 1059 0
-1060 -1059 0
222 246 278 1061 0
-222 -246 -278 1061 0
-1061 -222 246 0
-1061 222 -246 0
-1061 -222 278 0
-1061 222 -278 0
-1061 223 247 279 -246 0
-1061 223 247 -279 246 0
-1061 223 -247 279 246 0
-1061 223 -247 -279 -246 0
-1061 -223 247 279 246 0
-1061 -223 247 -279 -246 0
-1061 -223 -247 279 -246 0
-1061 -223 -247 -279 246 0
1062 1061 0
-1062 -1061 0
223 247 279 1063 0
-223 -247 -279 1063 0
-1063 -223 247 0
-1063 223 -247 0
-1063 -223 279 0
-1063 223 -279 0
-1063 224 248 280 -247 0
-1063 224 248 -280 247 0
-1063 224 -248 280 247 0
-1063 224 -248 -280 -247 0
-1063 -224 248 280 247 0
-1063 -224 248 -280 -247 0
-1063 -224 -248 280 -247 0
-1063 -224 -248 -280 247 0
1064 1063 0
-1064 -1063 0
224 248 280 1065 0
-224 -248 -280 1065 0
-1065 -224 248 0
-1065 224 -248 0
-1065 -224 280 0
-1065 224 -280 0
-1065 193 249 281 -248 0
-1065 193 249 -281 248 0
-1065 193 -249 281 248 0
-1065 193 -249 -281 -248 0
-1065 -193 249 281 248 0
-1065 -193 249 -281 -248 0
-1065 -193 -249 281 -248 0
-1065 -193 -249 -281 248 0
1066 1065 0
-1066 -1065 0
193 249 281 1067 0
-193 -249 -281 1067 0
-1067 -193 249 0
-1067 193 -249 0
-1067 -193 281 0
-1067 193 -281 0
-1067 194 250 282 -249 0
-1067 194 250 -282 249 0
-1067 194 -250 282 249 0
-1067 194 -250 -282 -249 0
-1067 -194 250 282 249 0
-1067 -194 250 -282 -249 0
-1067 -194 -250 282 -249 0
-1067 -194 -250 -282 249 0
1068 1067 0
-1068 -1067 0
194 250 282 1069 0
-194 -250 -282 1069 0
-1069 -194 250 0
-1069 194 -250 0
-1069 -194 282 0
-1069 194 -282 0
-1069 195 251 283 -250 0
-1069 195 251 -283 250 0
-1069 195 -251 283 250 0
-1069 195 -251 -283 -250 0
-1069 -195 251 283 250 0
-1069 -195 251 -283 -250 0
-1069 -195 -251 283 -250 0
-1069 -195 -251 -283 250 0
1070 1069 0
-1070 -1069 0
195 251 283 1071 0
-195 -251 -283 1071 0
-1071 -195 251 0
-1071 195 -251 0
-1071 -195 283 0
-1071 195 -283 0
-1071 196 252 284 -251 0
-1071 196 252 -284 251 0
-1071 196 -252 284 251 0
-1071 196 -252 -284 -251 0
-1071 -196 252 284 251 0
-1071 -196 252 -284 -251 0
-1071 -196 -252 284 -251 0
-1071 -196 -252 -284 251 0
1072 1071 0
-1072 -1071 0
196 252 284 1073 0
-196 -252 -284 1073 0
-1073 -196 252 0
-1073 196 -252 0
-1073 -196 284 0
-1073 196 -284 0
-1073 197 253 285 -252 0
-1073 197 253 -285 252 0
-1073 197 -253 285 252 0
-1073 197 -253 -285 -252 0
-1073 -197 253 285 252 0
-1073 -197 253 -285 -252 0
-1073 -197 -253 285 -252 0
-1073 -197 -253 -285 252 0
1074 1073 0
-1074 -1073 0
197 253 285 1075 0
-197 -253 -285 1075 0
-1075 -197 253 0
-1075 197 -253 0
-1075 -197 285 0
-1075 197 -285 0
-1075 198 254 286 -253 0
-1075 198 254 -286 253 0
-1075 198 -254 286 253 0
-1075 198 -254 -286 -253 0
-1075 -198 254 286 253 0
-1075 -198 254 -286 -253 0
-1075 -198 -254 286 -253 0
-1075 -198 -254 -286 253 0
1076 1075 0
-1076 -1075 0
198 254 286 1077 0
-198 -254 -286 1077 0
-1077 -198 254 0
-1077 198 -254 0
-1077 -198 286 0
-1077 198 -286 0
-1077 199 255 287 -254 0
-1077 199 255 -287 254 0
-1077 199 -255 287 254 0
-1077 199 -255 -287 -254 0
-1077 -199 255 287 254 0
-1077 -199 255 -287 -254 0
-1077 -199 -255 287 -254 0
-1077 -199 -255 -287 254 0
1078 1077 0
-1078 -1077 0
199 255 287 1079 0
-199 -255 -287 1079 0
-1079 -199 255 0
-1079 199 -255 0
-1079 -199 287 0
-1079 199 -287 0
-1079 200 256 288 -255 0
-1079 200 256 -288 255 0
-1079 200 -256 288 255 0
-1079 200 -256 -288 -255 0
-1079 -200 256 288 255 0
-1079 -200 256 -288 -255 0
-1079 -200 -256 288 -255 0
-1079 -200 -256 -288 255 0
1080 1079 0
-1080 -1079 0
254 257 -289 0
254 -257 289 0
-254 257 289 0
-254 -257 -289 0
255 258 -290 0
255 -258 290 0
-255 258 290 0
-255 -258 -290 0
256 259 -291 0
256 -259 291 0
-256 259 291 0
-256 -259 -291 0
225 260 -292 0
225 -260 292 0
-225 260 292 0
-225 -260 -292 0
226 261 -293 0
226 -261 293 0
-226 261 293 0
-226 -261 -293 0
227 262 -294 0
227 -262 294 0
-227 262 294 0
-227 -262 -294 0
228 263 -295 0
228 -263 295 0
-228 263 295 0
-228 -263 -295 0
229 264 -296 0
229 -264 296 0
-229 264 296 0
-229 -264 -296 0
230 265 -297 0
230 -265 297 0
-230 265 297 0
-230 -265 -297 0
231 266 -298 0
231 -266 298 0
-231 266 298 0
-231 -266 -298 0
232 267 -299 0
232 -267 299 0
-232 267 299 0
-232 -267 -299 0
233 268 -300 0
233 -268 300 0
-233 268 300 0
-233 -268 -300 0
234 269 -301 0
234 -269 301 0
-234 269 301 0
-234 -269 -301 0
235 270 -302 0
235 -270 302 0
-235 270 302 0
-235 -270 -302 0
236 271 -303 0
236 -271 303 0
-236 271 303 0
-236 -271 -303 0
237 272 -304 0
237 -272 304 0
-237 272 304 0
-237 -272 -304 0
238 273 -305 0
238 -273 305 0
-238 273 305 0
-238 -273 -305 0
239 274 -306 0
239 -274 306 0
-239 274 306 0
-239 -274 -306 0
240 275 -307 0
240 -275 307 0
-240 275 307 0
-240 -275 -307 0
241 276 -308 0
241 -276 308 0
-241 276 308 0
-241 -276 -308 0
242 277 -309 0
242 -277 309 0
-242 277 309 0
-242 -277 -309 0
243 278 -310 0
243 -278 310 0
-243 278 310 0
-243 -278 -310 0
244 279 -311 0
244 -279 311 0
-244 279 311 0
-244 -279 -311 0
245 280 -312 0
245 -280 312 0
-245 280 312 0
-245 -280 -312 0
246 281 -313 0
246 -281 313 0
-246 281 313 0
-246 -281 -313 0
247 282 -314 0
247 -282 314 0
-247 282 314 0
-247 -282 -314 0
248 283 -315 0
248 -283 315 0
-248 283 315 0
-248 -283 -315 0
249 284 -316 0
249 -284 316 0
-249 284 316 0
-249 -284 -316 0
250 285 -317 0
250 -285 317 0
-250 285 317 0
-250 -285 -317 0
251 286 -318 0
251 -286 318 0
-251 286 318 0
-251 -286 -318 0
252 287 -319 0
252 -287 319 0
-252 287 319 0
-252 -287 -319 0
253 288 -320 0
253 -288 320 0
-253 288 320 0
-253 -288 -320 0
265 289 -321 0
265 -289 321 0
-265 289 321 0
-265 -289 -321 0
265 289 321 1081 0
-265 -289 -321 1081 0
-1081 -265 289 0
-1081 265 -289 0
-1081 -265 321 0
-1081 265 -321 0
-1081 266 290 322 -289 0
-1081 266 290 -322 289 0
-1081 266 -290 322 289 0
-1081 266 -290 -322 -289 0
-1081 -266 290 322 289 0
-1081 -266 290 -322 -289 0
-1081 -266 -290 322 -289 0
-1081 -266 -290 -322 289 0
1082 1081 0
-1082 -1081 0
266 290 322 1083 0
-266 -290 -322 1083 0
-1083 -266 290 0
-1083 266 -290 0
-1083 -266 322 0
-1083 266 -322 0
-1083 267 291 323 -290 0
-1083 267 291 -323 290 0
-1083 267 -291 323 290 0
-1083 267 -291 -323 -290 0
-1083 -267 291 323 290 0
-1083 -267 291 -323 -290 0
-1083 -267 -291 323 -290 0
-1083 -267 -291 -323 290 0
1084 1083 0
-1084 -1083 0
267 291 323 1085 0
-267 -291 -323 1085 0
-1085 -267 291 0
-1085 267 -291 0
-1085 -267 323 0
-1085 267 -323 0
-1085 268 292 324 -291 0
-1085 268 292 -324 291 0
-1085 268 -292 324 291 0
-1085 268 -292 -324 -291 0
-1085 -268 292 324 291 0
-1085 -268 292 -324 -291 0
-1085 -268 -292 324 -291 0
-1085 -268 -292 -324 291 0
1086 1085 0
-1086 -1085 0
268 292 324 1087 0
-268 -292 -324 1087 0
-1087 -268 292 0
-1087 268 -292 0
-1087 -268 324 0
-1087 268 -324 0
-1087 269 293 325 -292 0
-1087 269 293 -325 292 0
-1087 269 -293 325 292 0
-1087 269 -293 -325 -292 0
-1087 -269 293 325 292 0
-1087 -269 293 -325 -292 0
-1087 -269 -293 325 -292 0
-1087 -269 -293 -325 292 0
1088 1087 0
-1088 -1087 0
269 293 325 1089 0
-269 -293 -325 1089 0
-1089 -269 293 0
-1089 269 -293 0
-1089 -269 325 0
-1089 269 -325 0
-1089 270 294 326 -293 0
-1089 270 294 -326 293 0
-1089 270 -294 326 293 0
-1089 270 -294 -326 -293 0
-1089 -270 294 326 293 0
-1089 -270 294 -326 -293 0
-1089 -270 -294 326 -293 0
-1089 -270 -294 -326 293 0
1090 1089 0
-1090 -1089 0
270 294 326 1091 0
-270 -294 -326 1091 0
-1091 -270 294 0
-1091 270 -294 0
-1091 -270 326 0
-1091 270 -326 0
-1091 271 295 327 -294 0
-1091 271 295 -327 294 0
-1091 271 -295 327 294 0
-1091 271 -295 -327 -294 0
-1091 -271 295 327 294 0
-1091 -271 295 -327 -294 0
-1091 -271 -295 327 -294 0
-1091 -271 -295 -327 294 0
1092 1091 0
-1092 -1091 0
271 295 327 1093 0
-271 -295 -327 1093 0
-1093 -271 295 0
-1093 271 -295 0
-1093 -271 327 0
-1093 271 -327 0
-1093 272 296 328 -295 0
-1093 272 296 -328 295 0
-1093 272 -296 328 295 0
-1093 272 -296 -328 -295 0
-1093 -272 296 328 295 0
-1093 -272 296 -328 -295 0
-1093 -272 -296 328 -295 0
-1093 -272 -296 -328 295 0
1094 1093 0
-1094 -1093 0
272 296 328 1095 0
-272 -296 -328 1095 0
-1095 -272 296 0
-1095 272 -296 0
-1095 -272 328 0
-1095 272 -328 0
-1095 273 297 329 -296 0
-1095 273 297 -329 296 0
-1095 273 -297 329 296 0
-1095 273 -297 -329 -296 0
-1095 -273 297 329 296 0
-1095 -273 297 -329 -296 0
-1095 -273 -297 329 -296 0
-1095 -273 -297 -329 296 0
1096 1095 0
-1096 -1095 0
273 297 329 1097 0
-273 -297 -329 1097 0
-1097 -273 297 0
-1097 273 -297 0
-1097 -273 329 0
-1097 273 -329 0
-1097 274 298 330 -297 0
-1097 274 298 -330 297 0
-1097 274 -298 330 297 0
-1097 274 -298 -330 -297 0
-1097 -274 298 330 297 0
-1097 -274 298 -330 -297 0
-1097 -274 -298 330 -297 0
-1097 -274 -298 -330 297 0
1098 1097 0
-1098 -1097 0
274 298 330 1099 0
-274 -298 -330 1099 0
-1099 -274 298 0
-1099 274 -298 0
-1099 -274 330 0
-1099 274 -330 0
-1099 275 299 331 -298 0
-1099 275 299 -331 298 0
-1099 275 -299 331 298 0
-1099 275 -299 -331 -298 0
-1099 -275 299 331 298 0
-1099 -275 299 -331 -298 0
-1099 -275 -299 331 -298 0
-1099 -275 -299 -331 298 0
1100 1099 0
-1100 -1099 0
275 299 331 1101 0
-275 -299 -331 1101 0
-1101 -275 299 0
-1101 275 -299 0
-1101 -275 331 0
-1101 275 -331 0
-1101 276 300 332 -299 0
-1101 276 300 -332 299 0
-1101 276 -300 332 299 0
-1101 276 -300 -332 -299 0
-1101 -276 300 332 299 0
-1101 -276 300 -332 -299 0
-1101 -276 -300 332 -299 0
-1101 -276 -300 -332 299 0
1102 1101 0
-1102 -1101 0
276 300 332 1103 0
-276 -300 -332 1103 0
-1103 -276 300 0
-1103 276 -300 0
-1103 -276 332 0
-1103 276 -332 0
-1103 277 301 333 -300 0
-1103 277 301 -333 300 0
-1103 277 -301 333 300 0
-1103 277 -301 -333 -300 0
-1103 -277 301 333 300 0
-1103 -277 301 -333 -300 0
-1103 -277 -301 333 -300 0
-1103 -277 -301 -333 300 0
1104 1103 0
-1104 -1103 0
277 301 333 1105 0
-277 -301 -333 1105 0
-1105 -277 301 0
-1105 277 -301 0
-1105 -277 333 0
-1105 277 -333 0
-1105 278 302 334 -301 0
-1105 278 302 -334 301 0
-1105 278 -302 334 301 0
-1105 278 -302 -334 -301 0
-1105 -278 302 334 301 0
-1105 -278 302 -334 -301 0
-1105 -278 -302 334 -301 0
-1105 -278 -302 -334 301 0
1106 1105 0
-1106 -1105 0
278 302 334 1107 0
-278 -302 -334 1107 0
-1107 -278 302 0
-1107 278 -302 0
-1107 -278 334 0
-1107 278 -334 0
-1107 279 303 335 -302 0
-1107 279 303 -335 302 0
-1107 279 -303 335 302 0
-1107 279 -303 -335 -302 0
-1107 -279 303 335 302 0
-1107 -279 303 -335 -302 0
-1107 -279 -303 335 -302 0
-1107 -279 -303 -335 302 0
1108 1107 0
-1108 -1107 0
279 303 335 1109 0
-279 -303 -335 1109 0
-1109 -279 303 0
-1109 279 -303 0
-1109 -279 335 0
-1109 279 -335 0
-1109 280 304 336 -303 0
-1109 280 304 -336 303 0
-1109 280 -304 336 303 0
-1109 280 -304 -336 -303 0
-1109 -280 304 336 303 0
-1109 -280 304 -336 -303 0
-1109 -280 -304 336 -303 0
-1109 -280 -304 -336 303 0
1110 1109 0
-1110 -1109 0
280 304 336 1111 0
-280 -304 -336 1111 0
-1111 -280 304 0
-1111 280 -304 0
-1111 -280 336 0
-1111 280 -336 0
-1111 281 305 337 -304 0
-1111 281 305 -337 304 0
-1111 281 -305 337 304 0
-1111 281 -305 -337 -304 0
-1111 -281 305 337 304 0
-1111 -281 305 -337 -304 0
-1111 -281 -305 337 -304 0
-1111 -281 -305 -337 304 0
1112 1111 0
-1112 -1111 0
281 305 337 1113 0
-281 -305 -337 1113 0
-1113 -281 305 0
-1113 281 -305 0
-1113 -281 337 0
-1113 281 -337 0
-1113 282 306 338 -305 0
-1113 282 306 -338 305 0
-1113 282 -306 338 305 0
-1113 282 -306 -338 -305 0
-1113 -282 306 338 305 0
-1113 -282 306 -338 -305 0
-1113 -282 -306 338 -305 0
-1113 -282 -306 -338 305 0
1114 1113 0
-1114 -1113 0
282 306 338 1115 0
-282 -306 -338 1115 0
-1115 -282 306 0
-1115 282 -306 0
-1115 -282 338 0
-1115 282 -338 0
-1115 283 307 339 -306 0
-1115 283 307 -339 306 0
-1115 283 -307 339 306 0
-1115 283 -307 -339 -306 0
-1115 -283 307 339 306 0
-1115 -283 307 -339 -306 0
-1115 -283 -307 339 -306 0
-1115 -283 -307 -339 306 0
1116 1115 0
-1116 -1115 0
283 307 339 1117 0
-283 -307 -339 1117 0
-1117 -283 307 0
-1117 283 -307 0
-1117 -283 339 0
-1117 283 -339 0
-1117 284 308 340 -307 0
-1117 284 308 -340 307 0
-1117 284 -308 340 307 0
-1117 284 -308 -340 -307 0
-1117 -284 308 340 307 0
-1117 -284 308 -340 -307 0
-1117 -284 -308 340 -307 0
-1117 -284 -308 -340 307 0
1118 1117 0
-1118 -1117 0
284 308 340 1119 0
-284 -308 -340 1119 0
-1119 -284 308 0
-1119 284 -308 0
-1119 -284 340 0
-1119 284 -340 0
-1119 285 309 341 -308 0
-1119 285 309 -341 308 0
-1119 285 -309 341 308 0
-1119 285 -309 -341 -308 0
-1119 -285 309 341 308 0
-1119 -285 309 -341 -308 0
-1119 -285 -309 341 -308 0
-1119 -285 -309 -341 308 0
1120 1119 0
-1120 -1119 0
285 309 341 1121 0
-285 -309 -341 1121 0
-1121 -285 309 0
-1121 285 -309 0
-1121 -285 341 0
-1121 285 -341 0
-1121 286 310 342 -309 0
-1121 286 310 -342 309 0
-1121 286 -310 342 309 0
-1121 286 -310 -342 -309 0
-1121 -286 310 342 309 0
-1121 -286 310 -342 -309 0
-1121 -286 -310 342 -309 0
-1121 -286 -310 -342 309 0
1122 1121 0
-1122 -1121 0
286 310 342 1123 0
-286 -310 -342 1123 0
-1123 -286 310 0
-1123 286 -310 0
-1123 -286 342 0
-1123 286 -342 0
-1123 287 311 343 -310 0
-1123 287 311 -343 310 0
-1123 287 -311 343 310 0
-1123 287 -311 -343 -310 0
-1123 -287 311 343 310 0
-1123 -287 311 -343 -310 0
-1123 -287 -311 343 -310 0
-1123 -287 -311 -343 310 0
1124 1123 0
-1124 -1123 0
287 311 343 1125 0
-287 -311 -343 1125 0
-1125 -287 311 0
-1125 287 -311 0
-1125 -287 343 0
-1125 287 -343 0
-1125 288 312 344 -311 0
-1125 288 312 -344 311 0
-1125 288 -312 344 311 0
-1125 288 -312 -344 -311 0
-1125 -288 312 344 311 0
-1125 -288 312 -344 -311 0
-1125 -288 -312 344 -311 0
-1125 -288 -312 -344 311 0
1126 1125 0
-1126 -1125 0
288 312 344 1127 0
-288 -312 -344 1127 0
-1127 -288 312 0
-1127 288 -312 0
-1127 -288 344 0
-1127 288 -344 0
-1127 257 313 345 -312 0
-1127 257 313 -345 312 0
-1127 257 -313 345 312 0
-1127 257 -313 -345 -312 0
-1127 -257 313 345 312 0
-1127 -257 313 -345 -312 0
-1127 -257 -313 345 -312 0
-1127 -257 -313 -345 312 0
1128 1127 0
-1128 -1127 0
257 313 345 1129 0
-257 -313 -345 1129 0
-1129 -257 313 0
-1129 257 -313 0
-1129 -257 345 0
-1129 257 -345 0
-1129 258 314 346 -313 0
-1129 258 314 -346 313 0
-1129 258 -314 346 313 0
-1129 258 -314 -346 -313 0
-1129 -258 314 346 313 0
-1129 -258 314 -346 -313 0
-1129 -258 -314 346 -313 0
-1129 -258 -314 -346 313 0
1130 1129 0
-1130 -1129 0
258 314 346 1131 0
-258 -314 -346 1131 0
-1131 -258 314 0
-1131 258 -314 0
-1131 -258 346 0
-1131 258 -346 0
-1131 259 315 347 -314 0
-1131 259 315 -347 314 0
-1131 259 -315 347 314 0
-1131 259 -315 -347 -314 0
-1131 -259 315 347 314 0
-1131 -259 315 -347 -314 0
-1131 -259 -315 347 -314 0
-1131 -259 -315 -347 314 0
1132 1131 0
-1132 -1131 0
259 315 347 1133 0
-259 -315 -347 1133 0
-1133 -259 315 0
-1133 259 -315 0
-1133 -259 347 0
-1133 259 -347 0
-1133 260 316 348 -315 0
-1133 260 316 -348 315 0
-1133 260 -316 348 315 0
-1133 260 -316 -348 -315 0
-1133 -260 316 348 315 0
-1133 -260 316 -348 -315 0
-1133 -260 -316 348 -315 0
-1133 -260 -316 -348 315 0
1134 1133 0
-1134 -1133 0
260 316 348 1135 0
-260 -316 -348 1135 0
-1135 -260 316 0
-1135 260 -316 0
-1135 -260 348 0
-1135 260 -348 0
-1135 261 317 349 -316 0
-1135 261 317 -349 316 0
-1135 261 -317 349 316 0
-1135 261 -317 -349 -316 0
-1135 -261 317 349 316 0
-1135 -261 317 -349 -316 0
-1135 -261 -317 349 -316 0
-1135 -261 -317 -349 316 0
1136 1135 0
-1136 -1135 0
261 317 349 1137 0
-261 -317 -349 1137 0
-1137 -261 317 0
-1137 261 -317 0
-1137 -261 349 0
-1137 261 -349 0
-1137 262 318 350 -317 0
-1137 262 318 -350 317 0
-1137 262 -318 350 317 0
-1137 262 -318 -350 -317 0
-1137 -262 318 350 317 0
-1137 -262 318 -350 -317 0
-1137 -262 -318 350 -317 0
-1137 -262 -318 -350 317 0
1138 1137 0
-1138 -1137 0
262 318 350 1139 0
-262 -318 -350 1139 0
-1139 -262 318 0
-1139 262 -318 0
-1139 -262 350 0
-1139 262 -350 0
-1139 263 319 351 -318 0
-1139 263 319 -351 318 0
-1139 263 -319 351 318 0
-1139 263 -319 -351 -318 0
-1139 -263 319 351 318 0
-1139 -263 319 -351 -318 0
-1139 -263 -319 351 -318 0
-1139 -263 -319 -351 318 0
1140 1139 0
-1140 -1139 0
263 319 351 1141 0
-263 -319 -351 1141 0
-1141 -263 319 0
-1141 263 -319 0
-1141 -263 351 0
-1141 263 -351 0
-1141 264 320 352 -319 0
-1141 264 320 -352 319 0
-1141 264 -320 352 319 0
-1141 264 -320 -352 -319 0
-1141 -264 320 352 319 0
-1141 -264 320 -352 -319 0
-1141 -264 -320 352 -319 0
-1141 -264 -320 -352 319 0
1142 1141 0
-1142 -1141 0
318 321 -353 0
318 -321 353 0
-318 321 353 0
-318 -321 -353 0
319 322 -354 0
319 -322 354 0
-319 322 354 0
-319 -322 -354 0
320 323 -355 0
320 -323 355 0
-320 323 355 0
-320 -323 -355 0
289 324 -356 0
289 -324 356 0
-289 324 356 0
-289 -324 -356 0
290 325 -357 0
290 -325 357 0
-290 325 357 0
-290 -325 -357 0
291 326 -358 0
291 -326 358 0
-291 326 358 0
-291 -326 -358 0
292 327 -359 0
292 -327 359 0
-292 327 359 0
-292 -327 -359 0
293 328 -360 0
293 -328 360 0
-293 328 360 0
-293 -328 -360 0
294 329 -361 0
294 -329 361 0
-294 329 361 0
-294 -329 -361 0
295 330 -362 0
295 -330 362 0
-295 330 362 0
-295 -330 -362 0
296 331 -363 0
296 -331 363 0
-296 331 363 0
-296 -331 -363 0
297 332 -364 0
297 -332 364 0
-297 332 364 0
-297 -332 -364 0
298 333 -365 0
298 -333 365 0
-298 333 365 0
-298 -333 -365 0
299 334 -366 0
299 -334 366 0
-299 334 366 0
-299 -334 -366 0
300 335 -367 0
300 -335 367 0
-300 335 367 0
-300 -335 -367 0
301 336 -368 0
301 -336 368 0
-301 336 368 0
-301 -336 -368 0
302 337 -369 0
302 -337 369 0
-302 337 369 0
-302 -337 -369 0
303 338 -370 0
303 -338 370 0
-303 338 370 0
-303 -338 -370 0
304 339 -371 0
304 -339 371 0
-304 339 371 0
-304 -339 -371 0
305 340 -372 0
305 -340 372 0
-305 340 372 0
-305 -340 -372 0
306 341 -373 0
306 -341 373 0
-306 341 373 0
-306 -341 -373 0
307 342 -374 0
307 -342 374 0
-307 342 374 0
-307 -342 -374 0
308 343 -375 0
308 -343 375 0
-308 343 375 0
-308 -343 -375 0
309 344 -376 0
309 -344 376 0
-309 344 376 0
-309 -344 -376 0
310 345 -377 0
310 -345 377 0
-310 345 377 0
-310 -345 -377 0
311 346 -378 0
311 -346 378 0
-311 346 378 0
-311 -346 -378 0
312 347 -379 0
312 -347 379 0
-312 347 379 0
-312 -347 -379 0
313 348 -380 0
313 -348 380 0
-313 348 380 0
-313 -348 -380 0
314 349 -381 0
314 -349 381 0
-314 349 381 0
-314 -349 -381 0
315 350 -382 0
315 -350 382 0
-315 350 382 0
-315 -350 -382 0
316 351 -383 0
316 -351 383 0
-316 351 383 0
-316 -351 -383 0
317 352 -384 0
317 -352 384 0
-317 352 384 0
-317 -352 -384 0
329 353 -385 0
329 -353 385 0
-329 353 385 0
-329 -353 -385 0
329 353 385 1143 0
-329 -353 -385 1143 0
-1143 -329 353 0
-1143 329 -353 0
-1143 -329 385 0
-1143 329 -385 0
-1143 330 354 386 -353 0
-1143 330 354 -386 353 0
-1143 330 -354 386 353 0
-1143 330 -354 -386 -353 0
-1143 -330 354 386 353 0
-1143 -330 354 -386 -353 0
-1143 -330 -354 386 -353 0
-1143 -330 -354 -386 353 0
1144 1143 0
-1144 -1143 0
330 354 386 1145 0
-330 -354 -386 1145 0
-1145 -330 354 0
-1145 330 -354 0
-1145 -330 386 0
-1145 330 -386 0
-1145 331 355 387 -354 0
-1145 331 355 -387 354 0
-1145 331 -355 387 354 0
-1145 331 -355 -387 -354 0
-1145 -331 355 387 354 0
-1145 -331 355 -387 -354 0
-1145 -331 -355 387 -354 0
-1145 -331 -355 -387 354 0
1146 1145 0
-1146 -1145 0
331 355 387 1147 0
-331 -355 -387 1147 0
-1147 -331 355 0
-1147 331 -355 0
-1147 -331 387 0
-1147 331 -387 0
-1147 332 356 388 -355 0
-1147 332 356 -388 355 0
-1147 332 -356 388 355 0
-1147 332 -356 -388 -355 0
-1147 -332 356 388 355 0
-1147 -332 356 -388 -355 0
-1147 -332 -356 388 -355 0
-1147 -332 -356 -388 355 0
1148 1147 0
-1148 -1147 0
332 356 388 1149 0
-332 -356 -388 1149 0
-1149 -332 356 0
-1149 332 -356 0
-1149 -332 388 0
-1149 332 -388 0
-1149 333 357 389 -356 0
-1149 333 357 -389 356 0
-1149 333 -357 389 356 0
-1149 333 -357 -389 -356 0
-1149 -333 357 389 356 0
-1149 -333 357 -389 -356 0
-1149 -333 -357 389 -356 0
-1149 -333 -357 -389 356 0
1150 1149 0
-1150 -1149 0
333 357 389 1151 0
-333 -357 -389 1151 0
-1151 -333 357 0
-1151 333 -357 0
-1151 -333 389 0
-1151 333 -389 0
-1151 334 358 390 -357 0
-1151 334 358 -390 357 0
-1151 334 -358 390 357 0
-1151 334 -358 -390 -357 0
-1151 -334 358 390 357 0
-1151 -334 358 -390 -357 0
-1151 -334 -358 390 -357 0
-1151 -334 -358 -390 357 0
1152 1151 0
-1152 -1151 0
334 358 390 1153 0
-334 -358 -390 1153 0
-1153 -334 358 0
-1153 334 -358 0
-1153 -334 390 0
-1153 334 -390 0
-1153 335 359 391 -358 0
-1153 335 359 -391 358 0
-1153 335 -359 391 358 0
-1153 335 -359 -391 -358 0
-1153 -335 359 391 358 0
-1153 -335 359 -391 -358 0
-1153 -335 -359 391 -358 0
-1153 -335 -359 -391 358 0
1154 1153 0
-1154 -1153 0
335 359 391 1155 0
-335 -359 -391 1155 0
-1155 -335 359 0
-1155 335 -359 0
-1155 -335 391 0
-1155 335 -391 0
-1155 336 360 392 -359 0
-1155 336 360 -392 359 0
-1155 336 -360 392 359 0
-1155 336 -360 -392 -359 0
-1155 -336 360 392 359 0
-1155 -336 360 -392 -359 0
-1155 -336 -360 392 -359 0
-1155 -336 -360 -392 359 0
1156 1155 0
-1156 -1155 0
336 360 392 1157 0
-336 -360 -392 1157 0
-1157 -336 360 0
-1157 336 -360 0
-1157 -336 392 0
-1157 336 -392 0
-1157 337 361 393 -360 0
-1157 337 361 -393 360 0
-1157 337 -361 393 360 0
-1157 337 -361 -393 -360 0
-1157 -337 361 393 360 0
-1157 -337 361 -393 -360 0
-1157 -337 -361 393 -360 0
-1157 -337 -361 -393 360 0
1158 1157 0
-1158 -1157 0
337 361 393 1159 0
-337 -361 -393 1159 0
-1159 -337 361 0
-1159 337 -361 0
-1159 -337 393 0
-1159 337 -393 0
-1159 338 362 394 -361 0
-1159 338 362 -394 361 0
-1159 338 -362 394 361 0
-1159 338 -362 -394 -361 0
-1159 -338 362 394 361 0
-1159 -338 362 -394 -361 0
-1159 -338 -362 394 -361 0
-1159 -338 -362 -394 361 0
1160 1159 0
-1160 -1159 0
338 362 394 1161 0
-338 -362 -394 1161 0
-1161 -338 362 0
-1161 338 -362 0
-1161 -338 394 0
-1161 338 -394 0
-1161 339 363 395 -362 0
-1161 339 363 -395 362 0
-1161 339 -363 395 362 0
-1161 339 -363 -395 -362 0
-1161 -339 363 395 362 0
-1161 -339 363 -395 -362 0
-1161 -339 -363 395 -362 0
-1161 -339 -363 -395 362 0
1162 1161 0
-1162 -1161 0
339 363 395 1163 0
-339 -363 -395 1163 0
-1163 -339 363 0
-1163 339 -363 0
-1163 -339 395 0
-1163 339 -395 0
-1163 340 364 396 -363 0
-1163 340 364 -396 363 0
-1163 340 -364 396 363 0
-1163 340 -364 -396 -363 0
-1163 -340 364 396 363 0
-1163 -340 364 -396 -363 0
-1163 -340 -364 396 -363 0
-1163 -340 -364 -396 363 0
1164 1163 0
-1164 -1163 0
340 364 396 1165 0
-340 -364 -396 1165 0
-1165 -340 364 0
-1165 340 -364 0
-1165 -340 396 0
-1165 340 -396 0
-1165 341 365 397 -364 0
-1165 341 365 -397 364 0
-1165 341 -365 397 364 0
-1165 341 -365 -397 -364 0
-1165 -341 365 397 364 0
-1165 -341 365 -397 -364 0
-1165 -341 -365 397 -364 0
-1165 -341 -365 -397 364 0
1166 1165 0
-1166 -1165 0
341 365 397 1167 0
-341 -365 -397 1167 0
-1167 -341 365 0
-1167 341 -365 0
-1167 -341 397 0
-1167 341 -397 0
-1167 342 366 398 -365 0
-1167 342 366 -398 365 0
-1167 342 -366 398 365 0
-1167 342 -366 -398 -365 0
-1167 -342 366 398 365 0
-1167 -342 366 -398 -365 0
-1167 -342 -366 398 -365 0
-1167 -342 -366 -398 365 0
1168 1167 0
-1168 -1167 0
342 366 398 1169 0
-342 -366 -398 1169 0
-1169 -342 366 0
-1169 342 -366 0
-1169 -342 398 0
-1169 342 -398 0
-1169 343 367 399 -366 0
-1169 343 367 -399 366 0
-1169 343 -367 399 366 0
-1169 343 -367 -399 -366 0
-1169 -343 367 399 366 0
-1169 -343 367 -399 -366 0
-1169 -343 -367 399 -366 0
-1169 -343 -367 -399 366 0
1170 1169 0
-1170 -1169 0
343 367 399 1171 0
-343 -367 -399 1171 0
-1171 -343 367 0
-1171 343 -367 0
-1171 -343 399 0
-1171 343 -399 0
-1171 344 368 400 -367 0
-1171 344 368 -400 367 0
-1171 344 -368 400 367 0
-1171 344 -368 -400 -367 0
-1171 -344 368 400 367 0
-1171 -344 368 -400 -367 0
-1171 -344 -368 400 -367 0
-1171 -344 -368 -400 367 0
1172 1171 0
-1172 -1171 0
344 368 400 1173 0
-344 -368 -400 1173 0
-1173 -344 368 0
-1173 344 -368 0
-1173 -344 400 0
-1173 344 -400 0
-1173 345 369 401 -368 0
-1173 345 369 -401 368 0
-1173 345 -369 401 368 0
-1173 345 -369 -401 -368 0
-1173 -345 369 401 368 0
-1173 -345 369 -401 -368 0
-1173 -345 -369 401 -368 0
-1173 -345 -369 -401 368 0
1174 1173 0
-1174 -1173 0
345 369 401 1175 0
-345 -369 -401 1175 0
-1175 -345 369 0
-1175 345 -369 0
-1175 -345 401 0
-1175 345 -401 0
-1175 346 370 402 -369 0
-1175 346 370 -402 369 0
-1175 346 -370 402 369 0
-1175 346 -370 -402 -369 0
-1175 -346 370 402 369 0
-1175 -346 370 -402 -369 0
-1175 -346 -370 402 -369 0
-1175 -346 -370 -402 369 0
1176 1175 0
-1176 -1175 0
346 370 402 1177 0
-346 -370 -402 1177 0
-1177 -346 370 0
-1177 346 -370 0
-1177 -346 402 0
-1177 346 -402 0
-1177 347 371 403 -370 0
-1177 347 371 -403 370 0
-1177 347 -371 403 370 0
-1177 347 -371 -403 -370 0
-1177 -347 371 403 370 0
-1177 -347 371 -403 -370 0
-1177 -347 -371 403 -370 0
-1177 -347 -371 -403 370 0
1178 1177 0
-1178 -1177 0
347 371 403 1179 0
-347 -371 -403 1179 0
-1179 -347 371 0
-1179 347 -371 0
-1179 -347 403 0
-1179 347 -403 0
-1179 348 372 404 -371 0
-1179 348 372 -404 371 0
-1179 348 -372 404 371 0
-1179 348 -372 -404 -371 0
-1179 -348 372 404 371 0
-1179 -348 372 -404 -371 0
-1179 -348 -372 404 -371 0
-1179 -348 -372 -404 371 0
1180 1179 0
-1180 -1179 0
348 372 404 1181 0
-348 -372 -404 1181 0
-1181 -348 372 0
-1181 348 -372 0
-1181 -348 404 0
-1181 348 -404 0
-1181 349 373 405 -372 0
-1181 349 373 -405 372 0
-1181 349 -373 405 372 0
-1181 349 -373 -405 -372 0
-1181 -349 373 405 372 0
-1181 -349 373 -405 -372 0
-1181 -349 -373 405 -372 0
-1181 -349 -373 -405 372 0
1182 1181 0
-1182 -1181 0
349 373 405 1183 0
-349 -373 -405 1183 0
-1183 -349 373 0
-1183 349 -373 0
-1183 -349 405 0
-1183 349 -405 0
-1183 350 374 406 -373 0
-1183 350 374 -406 373 0
-1183 350 -374 406 373 0
-1183 350 -374 -406 -373 0
-1183 -350 374 406 373 0
-1183 -350 374 -406 -373 0
-1183 -350 -374 406 -373 0
-1183 -350 -374 -406 373 0
1184 1183 0
-1184 -1183 0
350 374 406 1185 0
-350 -374 -406 1185 0
-1185 -350 374 0
-1185 350 -374 0
-1185 -350 406 0
-1185 350 -406 0
-1185 351 375 407 -374 0
-1185 351 375 -407 374 0
-1185 351 -375 407 374 0
-1185 351 -375 -407 -374 0
-1185 -351 375 407 374 0
-1185 -351 375 -407 -374 0
-1185 -351 -375 407 -374 0
-1185 -351 -375 -407 374 0
1186 1185 0
-1186 -1185 0
351 375 407 1187 0
-351 -375 -407 1187 0
-1187 -351 375 0
-1187 351 -375 0
-1187 -351 407 0
-1187 351 -407 0
-1187 352 376 408 -375 0
-1187 352 376 -408 375 0
-1187 352 -376 408 375 0
-1187 352 -376 -408 -375 0
-1187 -352 376 408 375 0
-1187 -352 376 -408 -375 0
-1187 -352 -376 408 -375 0
-1187 -352 -376 -408 375 0
1188 1187 0
-1188 -1187 0
352 376 408 1189 0
-352 -376 -408 1189 0
-1189 -352 376 0
-1189 352 -376 0
-1189 -352 408 0
-1189 352 -408 0
-1189 321 377 409 -376 0
-1189 321 377 -409 376 0
-1189 321 -377 409 376 0
-1189 321 -377 -409 -376 0
-1189 -321 377 409 376 0
-1189 -321 377 -409 -376 0
-1189 -321 -377 409 -376 0
-1189 -321 -377 -409 376 0
1190 1189 0
-1190 -1189 0
321 377 409 1191 0
-321 -377 -409 1191 0
-1191 -321 377 0
-1191 321 -377 0
-1191 -321 409 0
-1191 321 -409 0
-1191 322 378 410 -377 0
-1191 322 378 -410 377 0
-1191 322 -378 410 377 0
-1191 322 -378 -410 -377 0
-1191 -322 378 410 377 0
-1191 -322 378 -410 -377 0
-1191 -322 -378 410 -377 0
-1191 -322 -378 -410 377 0
1192 1191 0
-1192 -1191 0
322 378 410 1193 0
-322 -378 -410 1193 0
-1193 -322 378 0
-1193 322 -378 0
-1193 -322 410 0
-1193 322 -410 0
-1193 323 379 411 -378 0
-1193 323 379 -411 378 0
-1193 323 -379 411 378 0
-1193 323 -379 -411 -378 0
-1193 -323 379 411 378 0
-1193 -323 379 -411 -378 0
-1193 -323 -379 411 -378 0
-1193 -323 -379 -411 378 0
1194 1193 0
-1194 -1193 0
323 379 411 1195 0
-323 -379 -411 1195 0
-1195 -323 379 0
-1195 323 -379 0
-1195 -323 411 0
-1195 323 -411 0
-1195 324 380 412 -379 0
-1195 324 380 -412 379 0
-1195 324 -380 412 379 0
-1195 324 -380 -412 -379 0
-1195 -324 380 412 379 0
-1195 -324 380 -412 -379 0
-1195 -324 -380 412 -379 0
-1195 -324 -380 -412 379 0
1196 1195 0
-1196 -1195 0
324 380 412 1197 0
-324 -380 -412 1197 0
-1197 -324 380 0
-1197 324 -380 0
-1197 -324 412 0
-1197 324 -412 0
-1197 325 381 413 -380 0
-1197 325 381 -413 380 0
-1197 325 -381 413 380 0
-1197 325 -381 -413 -380 0
-1197 -325 381 413 380 0
-1197 -325 381 -413 -380 0
-1197 -325 -381 413 -380 0
-1197 -325 -381 -413 380 0
1198 1197 0
-1198 -1197 0
325 381 413 1199 0
-325 -381 -413 1199 0
-1199 -325 381 0
-1199 325 -381 0
-1199 -325 413 0
-1199 325 -413 0
-1199 326 382 414 -381 0
-1199 326 382 -414 381 0
-1199 326 -382 414 381 0
-1199 326 -382 -414 -381 0
-1199 -326 382 414 381 0
-1199 -326 382 -414 -381 0
-1199 -326 -382 414 -381 0
-1199 -326 -382 -414 381 0
1200 1199 0
-1200 -1199 0
326 382 414 1201 0
-326 -382 -414 1201 0
-1201 -326 382 0
-1201 326 -382 0
-1201 -326 414 0
-1201 326 -414 0
-1201 327 383 415 -382 0
-1201 327 383 -415 382 0
-1201 327 -383 415 382 0
-1201 327 -383 -415 -382 0
-1201 -327 383 415 382 0
-1201 -327 383 -415 -382 0
-1201 -327 -383 415 -382 0
-1201 -327 -383 -415 382 0
1202 1201 0
-1202 -1201 0
327 383 415 1203 0
-327 -383 -415 1203 0
-1203 -327 383 0
-1203 327 -383 0
-1203 -327 415 0
-1203 327 -415 0
-1203 328 384 416 -383 0
-1203 328 384 -416 383 0
-1203 328 -384 416 383 0
-1203 328 -384 -416 -383 0
-1203 -328 384 416 383 0
-1203 -328 384 -416 -383 0
-1203 -328 -384 416 -383 0
-1203 -328 -384 -416 383 0
1204 1203 0
-1204 -1203 0
382 385 -417 0
382 -385 417 0
-382 385 417 0
-382 -385 -417 0
383 386 -418 0
383 -386 418 0
-383 386 418 0
-383 -386 -418 0
384 387 -419 0
384 -387 419 0
-384 387 419 0
-384 -387 -419 0
353 388 -420 0
353 -388 420 0
-353 388 420 0
-353 -388 -420 0
354 389 -421 0
354 -389 421 0
-354 389 421 0
-354 -389 -421 0
355 390 -422 0
355 -390 422 0
-355 390 422 0
-355 -390 -422 0
356 391 -423 0
356 -391 423 0
-356 391 423 0
-356 -391 -423 0
357 392 -424 0
357 -392 424 0
-357 392 424 0
-357 -392 -424 0
358 393 -425 0
358 -393 425 0
-358 393 425 0
-358 -393 -425 0
359 394 -426 0
359 -394 426 0
-359 394 426 0
-359 -394 -426 0
360 395 -427 0
360 -395 427 0
-360 395 427 0
-360 -395 -427 0
361 396 -428 0
361 -396 428 0
-361 396 428 0
-361 -396 -428 0
362 397 -429 0
362 -397 429 0
-362 397 429 0
-362 -397 -429 0
363 398 -430 0
363 -398 430 0
-363 398 430 0
-363 -398 -430 0
364 399 -431 0
364 -399 431 0
-364 399 431 0
-364 -399 -431 0
365 400 -432 0
365 -400 432 0
-365 400 432 0
-365 -400 -432 0
366 401 -433 0
366 -401 433 0
-366 401 433 0
-366 -401 -433 0
367 402 -434 0
367 -402 434 0
-367 402 434 0
-367 -402 -434 0
368 403 -435 0
368 -403 435 0
-368 403 435 0
-368 -403 -435 0
369 404 -436 0
369 -404 436 0
-369 404 436 0
-369 -404 -436 0
370 405 -437 0
370 -405 437 0
-370 405 437 0
-370 -405 -437 0
371 406 -438 0
371 -406 438 0
-371 406 438 0
-371 -406 -438 0
372 407 -439 0
372 -407 439 0
-372 407 439 0
-372 -407 -439 0
373 408 -440 0
373 -408 440 0
-373 408 440 0
-373 -408 -440 0
374 409 -441 0
374 -409 441 0
-374 409 441 0
-374 -409 -441 0
375 410 -442 0
375 -410 442 0
-375 410 442 0
-375 -410 -442 0
376 411 -443 0
376 -411 443 0
-376 411 443 0
-376 -411 -443 0
377 412 -444 0
377 -412 444 0
-377 412 444 0
-377 -412 -444 0
378 413 -445 0
378 -413 445 0
-378 413 445 0
-378 -413 -445 0
379 414 -446 0
379 -414 446 0
-379 414 446 0
-379 -414 -446 0
380 415 -447 0
380 -415 447 0
-380 415 447 0
-380 -415 -447 0
381 416 -448 0
381 -416 448 0
-381 416 448 0
-381 -416 -448 0
393 417 -449 0
393 -417 449 0
-393 417 449 0
-393 -417 -449 0
393 417 449 1205 0
-393 -417 -449 1205 0
-1205 -393 417 0
-1205 393 -417 0
-1205 -393 449 0
-1205 393 -449 0
-1205 394 418 450 -417 0
-1205 394 418 -450 417 0
-1205 394 -418 450 417 0
-1205 394 -418 -450 -417 0
-1205 -394 418 450 417 0
-1205 -394 418 -450 -417 0
-1205 -394 -418 450 -417 0
-1205 -394 -418 -450 417 0
1206 1205 0
-1206 -1205 0
394 418 450 1207 0
-394 -418 -450 1207 0
-1207 -394 418 0
-1207 394 -418 0
-1207 -394 450 0
-1207 394 -450 0
-1207 395 419 451 -418 0
-1207 395 419 -451 418 0
-1207 395 -419 451 418 0
-1207 395 -419 -451 -418 0
-1207 -395 419 451 418 0
-1207 -395 419 -451 -418 0
-1207 -395 -419 451 -418 0
-1207 -395 -419 -451 418 0
1208 1207 0
-1208 -1207 0
395 419 451 1209 0
-395 -419 -451 1209 0
-1209 -395 419 0
-1209 395 -419 0
-1209 -395 451 0
-1209 395 -451 0
-1209 396 420 452 -419 0
-1209 396 420 -452 419 0
-1209 396 -420 452 419 0
-1209 396 -420 -452 -419 0
-1209 -396 420 452 419 0
-1209 -396 420 -452 -419 0
-1209 -396 -420 452 -419 0
-1209 -396 -420 -452 419 0
1210 1209 0
-1210 -1209 0
396 420 452 1211 0
-396 -420 -452 1211 0
-1211 -396 420 0
-1211 396 -420 0
-1211 -396 452 0
-1211 396 -452 0
-1211 397 421 453 -420 0
-1211 397 421 -453 420 0
-1211 397 -421 453 420 0
-1211 397 -421 -453 -420 0
-1211 -397 421 453 420 0
-1211 -397 421 -453 -420 0
-1211 -397 -421 453 -420 0
-1211 -397 -421 -453 420 0
1212 1211 0
-1212 -1211 0
397 421 453 1213 0
-397 -421 -453 1213 0
-1213 -397 421 0
-1213 397 -421 0
-1213 -397 453 0
-1213 397 -453 0
-1213 398 422 454 -421 0
-1213 398 422 -454 421 0
-1213 398 -422 454 421 0
-1213 398 -422 -454 -421 0
-1213 -398 422 454 421 0
-1213 -398 422 -454 -421 0
-1213 -398 -422 454 -421 0
-1213 -398 -422 -454 421 0
1214 1213 0
-1214 -1213 0
398 422 454 1215 0
-398 -422 -454 1215 0
-1215 -398 422 0
-1215 398 -422 0
-1215 -398 454 0
-1215 398 -454 0
-1215 399 423 455 -422 0
-1215 399 423 -455 422 0
-1215 399 -423 455 422 0
-1215 399 -423 -455 -422 0
-1215 -399 423 455 422 0
-1215 -399 423 -455 -422 0
-1215 -399 -423 455 -422 0
-1215 -399 -423 -455 422 0
1216 1215 0
-1216 -1215 0
399 423 455 1217 0
-399 -423 -455 1217 0
-1217 -399 423 0
-1217 399 -423 0
-1217 -399 455 0
-1217 399 -455 0
-1217 400 424 456 -423 0
-1217 400 424 -456 423 0
-1217 400 -424 456 423 0
-1217 400 -424 -456 -423 0
-1217 -400 424 456 423 0
-1217 -400 424 -456 -423 0
-1217 -400 -424 456 -423 0
-1217 -400 -424 -456 423 0
1218 1217 0
-1218 -1217 0
400 424 456 1219 0
-400 -424 -456 1219 0
-1219 -400 424 0
-1219 400 -424 0
-1219 -400 456 0
-1219 400 -456 0
-1219 401 425 457 -424 0
-1219 401 425 -457 424 0
-1219 401 -425 457 424 0
-1219 401 -425 -457 -424 0
-1219 -401 425 457 424 0
-1219 -401 425 -457 -424 0
-1219 -401 -425 457 -424 0
-1219 -401 -425 -457 424 0
1220 1219 0
-1220 -1219 0
401 425 457 1221 0
-401 -425 -457 1221 0
-1221 -401 425 0
-1221 401 -425 0
-1221 -401 457 0
-1221 401 -457 0
-1221 402 426 458 -425 0
-1221 402 426 -458 425 0
-1221 402 -426 458 425 0
-1221 402 -426 -458 -425 0
-1221 -402 426 458 425 0
-1221 -402 426 -458 -425 0
-1221 -402 -426 458 -425 0
-1221 -402 -426 -458 425 0
1222 1221 0
-1222 -1221 0
402 426 458 1223 0
-402 -426 -458 1223 0
-1223 -402 426 0
-1223 402 -426 0
-1223 -402 458 0
-1223 402 -458 0
-1223 403 427 459 -426 0
-1223 403 427 -459 426 0
-1223 403 -427 459 426 0
-1223 403 -427 -459 -426 0
-1223 -403 427 459 426 0
-1223 -403 427 -459 -426 0
-1223 -403 -427 459 -426 0
-1223 -403 -427 -459 426 0
1224 1223 0
-1224 -1223 0
403 427 459 1225 0
-403 -427 -459 1225 0
-1225 -403 427 0
-1225 403 -427 0
-1225 -403 459 0
-1225 403 -459 0
-1225 404 428 460 -427 0
-1225 404 428 -460 427 0
-1225 404 -428 460 427 0
-1225 404 -428 -460 -427 0
-1225 -404 428 460 427 0
-1225 -404 428 -460 -427 0
-1225 -404 -428 460 -427 0
-1225 -404 -428 -460 427 0
1226 1225 0
-1226 -1225 0
404 428 460 1227 0
-404 -428 -460 1227 0
-1227 -404 428 0
-1227 404 -428 0
-1227 -404 460 0
-1227 404 -460 0
-1227 405 429 461 -428 0
-1227 405 429 -461 428 0
-1227 405 -429 461 428 0
-1227 405 -429 -461 -428 0
-1227 -405 429 461 428 0
-1227 -405 429 -461 -428 0
-1227 -405 -429 461 -428 0
-1227 -405 -429 -461 428 0
1228 1227 0
-1228 -1227 0
405 429 461 1229 0
-405 -429 -461 1229 0
-1229 -405 429 0
-1229 405 -429 0
-1229 -405 461 0
-1229 405 -461 0
-1229 406 430 462 -429 0
-1229 406 430 -462 429 0
-1229 406 -430 462 429 0
-1229 406 -430 -462 -429 0
-1229 -406 430 462 429 0
-1229 -406 430 -462 -429 0
-1229 -406 -430 462 -429 0
-1229 -406 -430 -462 429 0
1230 1229 0
-1230 -1229 0
406 430 462 1231 0
-406 -430 -462 1231 0
-1231 -406 430 0
-1231 406 -430 0
-1231 -406 462 0
-1231 406 -462 0
-1231 407 431 463 -430 0
-1231 407 431 -463 430 0
-1231 407 -431 463 430 0
-1231 407 -431 -463 -430 0
-1231 -407 431 463 430 0
-1231 -407 431 -463 -430 0
-1231 -407 -431 463 -430 0
-1231 -407 -431 -463 430 0
1232 1231 0
-1232 -1231 0
407 431 463 1233 0
-407 -431 -463 1233 0
-1233 -407 431 0
-1233 407 -431 0
-1233 -407 463 0
-1233 407 -463 0
-1233 408 432 464 -431 0
-1233 408 432 -464 431 0
-1233 408 -432 464 431 0
-1233 408 -432 -464 -431 0
-1233 -408 432 464 431 0
-1233 -408 432 -464 -431 0
-1233 -408 -432 464 -431 0
-1233 -408 -432 -464 431 0
1234 1233 0
-1234 -1233 0
408 432 464 1235 0
-408 -432 -464 1235 0
-1235 -408 432 0
-1235 408 -432 0
-1235 -408 464 0
-1235 408 -464 0
-1235 409 433 465 -432 0
-1235 409 433 -465 432 0
-1235 409 -433 465 432 0
-1235 409 -433 -465 -432 0
-1235 -409 433 465 432 0
-1235 -409 433 -465 -432 0
-1235 -409 -433 465 -432 0
-1235 -409 -433 -465 432 0
1236 1235 0
-1236 -1235 0
409 433 465 1237 0
-409 -433 -465 1237 0
-1237 -409 433 0
-1237 409 -433 0
-1237 -409 465 0
-1237 409 -465 0
-1237 410 434 466 -433 0
-1237 410 434 -466 433 0
-1237 410 -434 466 433 0
-1237 410 -434 -466 -433 0
-1237 -410 434 466 433 0
-1237 -410 434 -466 -433 0
-1237 -410 -434 466 -433 0
-1237 -410 -434 -466 433 0
1238 1237 0
-1238 -1237 0
410 434 466 1239 0
-410 -434 -466 1239 0
-1239 -410 434 0
-1239 410 -434 0
-1239 -410 466 0
-1239 410 -466 0
-1239 411 435 467 -434 0
-1239 411 435 -467 434 0
-1239 411 -435 467 434 0
-1239 411 -435 -467 -434 0
-1239 -411 435 467 434 0
-1239 -411 435 -467 -434 0
-1239 -411 -435 467 -434 0
-1239 -411 -435 -467 434 0
1240 1239 0
-1240 -1239 0
411 435 467 1241 0
-411 -435 -467 1241 0
-1241 -411 435 0
-1241 411 -435 0
-1241 -411 467 0
-1241 411 -467 0
-1241 412 436 468 -435 0
-1241 412 436 -468 435 0
-1241 412 -436 468 435 0
-1241 412 -436 -468 -435 0
-1241 -412 436 468 435 0
-1241 -412 436 -468 -435 0
-1241 -412 -436 468 -435 0
-1241 -412 -436 -468 435 0
1242 1241 0
-1242 -1241 0
412 436 468 1243 0
-412 -436 -468 1243 0
-1243 -412 436 0
-1243 412 -436 0
-1243 -412 468 0
-1243 412 -468 0
-1243 413 437 469 -436 0
-1243 413 437 -469 436 0
-1243 413 -437 469 436 0
-1243 413 -437 -469 -436 0
-1243 -413 437 469 436 0
-1243 -413 437 -469 -436 0
-1243 -413 -437 469 -436 0
-1243 -413 -437 -469 436 0
1244 1243 0
-1244 -1243 0
413 437 469 1245 0
-413 -437 -469 1245 0
-1245 -413 437 0
-1245 413 -437 0
-1245 -413 469 0
-1245 413 -469 0
-1245 414 438 470 -437 0
-1245 414 438 -470 437 0
-1245 414 -438 470 437 0
-1245 414 -438 -470 -437 0
-1245 -414 438 470 437 0
-1245 -414 438 -470 -437 0
-1245 -414 -438 470 -437 0
-1245 -414 -438 -470 437 0
1246 1245 0
-1246 -1245 0
414 438 470 1247 0
-414 -438 -470 1247 0
-1247 -414 438 0
-1247 414 -438 0
-1247 -414 470 0
-1247 414 -470 0
-1247 415 439 471 -438 0
-1247 415 439 -471 438 0
-1247 415 -439 471 438 0
-1247 415 -439 -471 -438 0
-1247 -415 439 471 438 0
-1247 -415 439 -471 -438 0
-1247 -415 -439 471 -438 0
-1247 -415 -439 -471 438 0
1248 1247 0
-1248 -1247 0
415 439 471 1249 0
-415 -439 -471 1249 0
-1249 -415 439 0
-1249 415 -439 0
-1249 -415 471 0
-1249 415 -471 0
-1249 416 440 472 -439 0
-1249 416 440 -472 439 0
-1249 416 -440 472 439 0
-1249 416 -440 -472 -439 0
-1249 -416 440 472 439 0
-1249 -416 440 -472 -439 0
-1249 -416 -440 472 -439 0
-1249 -416 -440 -472 439 0
1250 1249 0
-1250 -1249 0
416 440 472 1251 0
-416 -440 -472 1251 0
-1251 -416 440 0
-1251 416 -440 0
-1251 -416 472 0
-1251 416 -472 0
-1251 385 441 473 -440 0
-1251 385 441 -473 440 0
-1251 385 -441 473 440 0
-1251 385 -441 -473 -440 0
-1251 -385 441 473 440 0
-1251 -385 441 -473 -440 0
-1251 -385 -441 473 -440 0
-1251 -385 -441 -473 440 0
1252 1251 0
-1252 -1251 0
385 441 473 1253 0
-385 -441 -473 1253 0
-1253 -385 441 0
-1253 385 -441 0
-1253 -385 473 0
-1253 385 -473 0
-1253 386 442 474 -441 0
-1253 386 442 -474 441 0
-1253 386 -442 474 441 0
-1253 386 -442 -474 -441 0
-1253 -386 442 474 441 0
-1253 -386 442 -474 -441 0
-1253 -386 -442 474 -441 0
-1253 -386 -442 -474 441 0
1254 1253 0
-1254 -1253 0
386 442 474 1255 0
-386 -442 -474 1255 0
-1255 -386 442 0
-1255 386 -442 0
-1255 -386 474 0
-1255 386 -474 0
-1255 387 443 475 -442 0
-1255 387 443 -475 442 0
-1255 387 -443 475 442 0
-1255 387 -443 -475 -442 0
-1255 -387 443 475 442 0
-1255 -387 443 -475 -442 0
-1255 -387 -443 475 -442 0
-1255 -387 -443 -475 442 0
1256 1255 0
-1256 -1255 0
387 443 475 1257 0
-387 -443 -475 1257 0
-1257 -387 443 0
-1257 387 -443 0
-1257 -387 475 0
-1257 387 -475 0
-1257 388 444 476 -443 0
-1257 388 444 -476 443 0
-1257 388 -444 476 443 0
-1257 388 -444 -476 -443 0
-1257 -388 444 476 443 0
-1257 -388 444 -476 -443 0
-1257 -388 -444 476 -443 0
-1257 -388 -444 -476 443 0
1258 1257 0
-1258 -1257 0
388 444 476 1259 0
-388 -444 -476 1259 0
-1259 -388 444 0
-1259 388 -444 0
-1259 -388 476 0
-1259 388 -476 0
-1259 389 445 477 -444 0
-1259 389 445 -477 444 0
-1259 389 -445 477 444 0
-1259 389 -445 -477 -444 0
-1259 -389 445 477 444 0
-1259 -389 445 -477 -444 0
-1259 -389 -445 477 -444 0
-1259 -389 -445 -477 444 0
1260 1259 0
-1260 -1259 0
389 445 477 1261 0
-389 -445 -477 1261 0
-1261 -389 445 0
-1261 389 -445 0
-1261 -389 477 0
-1261 389 -477 0
-1261 390 446 478 -445 0
-1261 390 446 -478 445 0
-1261 390 -446 478 445 0
-1261 390 -446 -478 -445 0
-1261 -390 446 478 445 0
-1261 -390 446 -478 -445 0
-1261 -390 -446 478 -445 0
-1261 -390 -446 -478 445 0
1262 1261 0
-1262 -1261 0
390 446 478 1263 0
-390 -446 -478 1263 0
-1263 -390 446 0
-1263 390 -446 0
-1263 -390 478 0
-1263 390 -478 0
-1263 391 447 479 -446 0
-1263 391 447 -479 446 0
-1263 391 -447 479 446 0
-1263 391 -447 -479 -446 0
-1263 -391 447 479 446 0
-1263 -391 447 -479 -446 0
-1263 -391 -447 479 -446 0
-1263 -391 -447 -479 446 0
1264 1263 0
-1264 -1263 0
391 447 479 1265 0
-391 -447 -479 1265 0
-1265 -391 447 0
-1265 391 -447 0
-1265 -391 479 0
-1265 391 -479 0
-1265 392 448 480 -447 0
-1265 392 448 -480 447 0
-1265 392 -448 480 447 0
-1265 392 -448 -480 -447 0
-1265 -392 448 480 447 0
-1265 -392 448 -480 -447 0
-1265 -392 -448 480 -447 0
-1265 -392 -448 -480 447 0
1266 1265 0
-1266 -1265 0
446 449 -481 0
446 -449 481 0
-446 449 481 0
-446 -449 -481 0
447 450 -482 0
447 -450 482 0
-447 450 482 0
-447 -450 -482 0
448 451 -483 0
448 -451 483 0
-448 451 483 0
-448 -451 -483 0
417 452 -484 0
417 -452 484 0
-417 452 484 0
-417 -452 -484 0
418 453 -485 0
418 -453 485 0
-418 453 485 0
-418 -453 -485 0
419 454 -486 0
419 -454 486 0
-419 454 486 0
-419 -454 -486 0
420 455 -487 0
420 -455 487 0
-420 455 487 0
-420 -455 -487 0
421 456 -488 0
421 -456 488 0
-421 456 488 0
-421 -456 -488 0
422 457 -489 0
422 -457 489 0
-422 457 489 0
-422 -457 -489 0
423 458 -490 0
423 -458 490 0
-423 458 490 0
-423 -458 -490 0
424 459 -491 0
424 -459 491 0
-424 459 491 0
-424 -459 -491 0
425 460 -492 0
425 -460 492 0
-425 460 492 0
-425 -460 -492 0
426 461 -493 0
426 -461 493 0
-426 461 493 0
-426 -461 -493 0
427 462 -494 0
427 -462 494 0
-427 462 494 0
-427 -462 -494 0
428 463 -495 0
428 -463 495 0
-428 463 495 0
-428 -463 -495 0
429 464 -496 0
429 -464 496 0
-429 464 496 0
-429 -464 -496 0
430 465 -497 0
430 -465 497 0
-430 465 497 0
-430 -465 -497 0
431 466 -498 0
431 -466 498 0
-431 466 498 0
-431 -466 -498 0
432 467 -499 0
432 -467 499 0
-432 467 499 0
-432 -467 -499 0
433 468 -500 0
433 -468 500 0
-433 468 500 0
-433 -468 -500 0
434 469 -501 0
434 -469 501 0
-434 469 501 0
-434 -469 -501 0
435 470 -502 0
435 -470 502 0
-435 470 502 0
-435 -470 -502 0
436 471 -503 0
436 -471 503 0
-436 471 503 0
-436 -471 -503 0
437 472 -504 0
437 -472 504 0
-437 472 504 0
-437 -472 -504 0
438 473 -505 0
438 -473 505 0
-438 473 505 0
-438 -473 -505 0
439 474 -506 0
439 -474 506 0
-439 474 506 0
-439 -474 -506 0
440 475 -507 0
440 -475 507 0
-440 475 507 0
-440 -475 -507 0
441 476 -508 0
441 -476 508 0
-441 476 508 0
-441 -476 -508 0
442 477 -509 0
442 -477 509 0
-442 477 509 0
-442 -477 -509 0
443 478 -510 0
443 -478 510 0
-443 478 510 0
-443 -478 -510 0
444 479 -511 0
444 -479 511 0
-444 479 511 0
-444 -479 -511 0
445 480 -512 0
445 -480 512 0
-445 480 512 0
-445 -480 -512 0
457 481 -513 0
457 -481 513 0
-457 481 513 0
-457 -481 -513 0
457 481 513 1267 0
-457 -481 -513 1267 0
-1267 -457 481 0
-1267 457 -481 0
-1267 -457 513 0
-1267 457 -513 0
-1267 458 482 514 -481 0
-1267 458 482 -514 481 0
-1267 458 -482 514 481 0
-1267 458 -482 -514 -481 0
-1267 -458 482 514 481 0
-1267 -458 482 -514 -481 0
-1267 -458 -482 514 -481 0
-1267 -458 -482 -514 481 0
1268 1267 0
-1268 -1267 0
458 482 514 1269 0
-458 -482 -514 1269 0
-1269 -458 482 0
-1269 458 -482 0
-1269 -458 514 0
-1269 458 -514 0
-1269 459 483 515 -482 0
-1269 459 483 -515 482 0
-1269 459 -483 515 482 0
-1269 459 -483 -515 -482 0
-1269 -459 483 515 482 0
-1269 -459 483 -515 -482 0
-1269 -459 -483 515 -482 0
-1269 -459 -483 -515 482 0
1270 1269 0
-1270 -1269 0
459 483 515 1271 0
-459 -483 -515 1271 0
-1271 -459 483 0
-1271 459 -483 0
-1271 -459 515 0
-1271 459 -515 0
-1271 460 484 516 -483 0
-1271 460 484 -516 483 0
-1271 460 -484 516 483 0
-1271 460 -484 -516 -483 0
-1271 -460 484 516 483 0
-1271 -460 484 -516 -483 0
-1271 -460 -484 516 -483 0
-1271 -460 -484 -516 483 0
1272 1271 0
-1272 -1271 0
460 484 516 1273 0
-460 -484 -516 1273 0
-1273 -460 484 0
-1273 460 -484 0
-1273 -460 516 0
-1273 460 -516 0
-1273 461 485 517 -484 0
-1273 461 485 -517 484 0
-1273 461 -485 517 484 0
-1273 461 -485 -517 -484 0
-1273 -461 485 517 484 0
-1273 -461 485 -517 -484 0
-1273 -461 -485 517 -484 0
-1273 -461 -485 -517 484 0
1274 1273 0
-1274 -1273 0
461 485 517 1275 0
-461 -485 -517 1275 0
-1275 -461 485 0
-1275 461 -485 0
-1275 -461 517 0
-1275 461 -517 0
-1275 462 486 518 -485 0
-1275 462 486 -518 485 0
-1275 462 -486 518 485 0
-1275 462 -486 -518 -485 0
-1275 -462 486 518 485 0
-1275 -462 486 -518 -485 0
-1275 -462 -486 518 -485 0
-1275 -462 -486 -518 485 0
1276 1275 0
-1276 -1275 0
462 486 518 1277 0
-462 -486 -518 1277 0
-1277 -462 486 0
-1277 462 -486 0
-1277 -462 518 0
-1277 462 -518 0
-1277 463 487 519 -486 0
-1277 463 487 -519 486 0
-1277 463 -487 519 486 0
-1277 463 -487 -519 -486 0
-1277 -463 487 519 486 0
-1277 -463 487 -519 -486 0
-1277 -463 -487 519 -486 0
-1277 -463 -487 -519 486 0
1278 1277 0
-1278 -1277 0
463 487 519 1279 0
-463 -487 -519 1279 0
-1279 -463 487 0
-1279 463 -487 0
-1279 -463 519 0
-1279 463 -519 0
-1279 464 488 520 -487 0
-1279 464 488 -520 487 0
-1279 464 -488 520 487 0
-1279 464 -488 -520 -487 0
-1279 -464 488 520 487 0
-1279 -464 488 -520 -487 0
-1279 -464 -488 520 -487 0
-1279 -464 -488 -520 487 0
1280 1279 0
-1280 -1279 0
464 488 520 1281 0
-464 -488 -520 1281 0
-1281 -464 488 0
-1281 464 -488 0
-1281 -464 520 0
-1281 464 -520 0
-1281 465 489 521 -488 0
-1281 465 489 -521 488 0
-1281 465 -489 521 488 0
-1281 465 -489 -521 -488 0
-1281 -465 489 521 488 0
-1281 -465 489 -521 -488 0
-1281 -465 -489 521 -488 0
-1281 -465 -489 -521 488 0
1282 1281 0
-1282 -1281 0
465 489 521 1283 0
-465 -489 -521 1283 0
-1283 -465 489 0
-1283 465 -489 0
-1283 -465 521 0
-1283 465 -521 0
-1283 466 490 522 -489 0
-1283 466 490 -522 489 0
-1283 466 -490 522 489 0
-1283 466 -490 -522 -489 0
-1283 -466 490 522 489 0
-1283 -466 490 -522 -489 0
-1283 -466 -490 522 -489 0
-1283 -466 -490 -522 489 0
1284 1283 0
-1284 -1283 0
466 490 522 1285 0
-466 -490 -522 1285 0
-1285 -466 490 0
-1285 466 -490 0
-1285 -466 522 0
-1285 466 -522 0
-1285 467 491 523 -490 0
-1285 467 491 -523 490 0
-1285 467 -491 523 490 0
-1285 467 -491 -523 -490 0
-1285 -467 491 523 490 0
-1285 -467 491 -523 -490 0
-1285 -467 -491 523 -490 0
-1285 -467 -491 -523 490 0
1286 1285 0
-1286 -1285 0
467 491 523 1287 0
-467 -491 -523 1287 0
-1287 -467 491 0
-1287 467 -491 0
-1287 -467 523 0
-1287 467 -523 0
-1287 468 492 524 -491 0
-1287 468 492 -524 491 0
-1287 468 -492 524 491 0
-1287 468 -492 -524 -491 0
-1287 -468 492 524 491 0
-1287 -468 492 -524 -491 0
-1287 -468 -492 524 -491 0
-1287 -468 -492 -524 491 0
1288 1287 0
-1288 -1287 0
468 492 524 1289 0
-468 -492 -524 1289 0
-1289 -468 492 0
-1289 468 -492 0
-1289 -468 524 0
-1289 468 -524 0
-1289 469 493 525 -492 0
-1289 469 493 -525 492 0
-1289 469 -493 525 492 0
-1289 469 -493 -525 -492 0
-1289 -469 493 525 492 0
-1289 -469 493 -525 -492 0
-1289 -469 -493 525 -492 0
-1289 -469 -493 -525 492 0
1290 1289 0
-1290 -1289 0
469 493 525 1291 0
-469 -493 -525 1291 0
-1291 -469 493 0
-1291 469 -493 0
-1291 -469 525 0
-1291 469 -525 0
-1291 470 494 526 -493 0
-1291 470 494 -526 493 0
-1291 470 -494 526 493 0
-1291 470 -494 -526 -493 0
-1291 -470 494 526 493 0
-1291 -470 494 -526 -493 0
-1291 -470 -494 526 -493 0
-1291 -470 -494 -526 493 0
1292 1291 0
-1292 -1291 0
470 494 526 1293 0
-470 -494 -526 1293 0
-1293 -470 494 0
-1293 470 -494 0
-1293 -470 526 0
-1293 470 -526 0
-1293 471 495 527 -494 0
-1293 471 495 -527 494 0
-1293 471 -495 527 494 0
-1293 471 -495 -527 -494 0
-1293 -471 495 527 494 0
-1293 -471 495 -527 -494 0
-1293 -471 -495 527 -494 0
-1293 -471 -495 -527 494 0
1294 1293 0
-1294 -1293 0
471 495 527 1295 0
-471 -495 -527 1295 0
-1295 -471 495 0
-1295 471 -495 0
-1295 -471 527 0
-1295 471 -527 0
-1295 472 496 528 -495 0
-1295 472 496 -528 495 0
-1295 472 -496 528 495 0
-1295 472 -496 -528 -495 0
-1295 -472 496 528 495 0
-1295 -472 496 -528 -495 0
-1295 -472 -496 528 -495 0
-1295 -472 -496 -528 495 0
1296 1295 0
-1296 -1295 0
472 496 528 1297 0
-472 -496 -528 1297 0
-1297 -472 496 0
-1297 472 -496 0
-1297 -472 528 0
-1297 472 -528 0
-1297 473 497 529 -496 0
-1297 473 497 -529 496 0
-1297 473 -497 529 496 0
-1297 473 -497 -529 -496 0
-1297 -473 497 529 496 0
-1297 -473 497 -529 -496 0
-1297 -473 -497 529 -496 0
-1297 -473 -497 -529 496 0
1298 1297 0
-1298 -1297 0
473 497 529 1299 0
-473 -497 -529 1299 0
-1299 -473 497 0
-1299 473 -497 0
-1299 -473 529 0
-1299 473 -529 0
-1299 474 498 530 -497 0
-1299 474 498 -530 497 0
-1299 474 -498 530 497 0
-1299 474 -498 -530 -497 0
-1299 -474 498 530 497 0
-1299 -474 498 -530 -497 0
-1299 -474 -498 530 -497 0
-1299 -474 -498 -530 497 0
1300 1299 0
-1300 -1299 0
474 498 530 1301 0
-474 -498 -530 1301 0
-1301 -474 498 0
-1301 474 -498 0
-1301 -474 530 0
-1301 474 -530 0
-1301 475 499 531 -498 0
-1301 475 499 -531 498 0
-1301 475 -499 531 498 0
-1301 475 -499 -531 -498 0
-1301 -475 499 531 498 0
-1301 -475 499 -531 -498 0
-1301 -475 -499 531 -498 0
-1301 -475 -499 -531 498 0
1302 1301 0
-1302 -1301 0
475 499 531 1303 0
-475 -499 -531 1303 0
-1303 -475 499 0
-1303 475 -499 0
-1303 -475 531 0
-1303 475 -531 0
-1303 476 500 532 -499 0
-1303 476 500 -532 499 0
-1303 476 -500 532 499 0
-1303 476 -500 -532 -499 0
-1303 -476 500 532 499 0
-1303 -476 500 -532 -499 0
-1303 -476 -500 532 -499 0
-1303 -476 -500 -532 499 0
1304 1303 0
-1304 -1303 0
476 500 532 1305 0
-476 -500 -532 1305 0
-1305 -476 500 0
-1305 476 -500 0
-1305 -476 532 0
-1305 476 -532 0
-1305 477 501 533 -500 0
-1305 477 501 -533 500 0
-1305 477 -501 533 500 0
-1305 477 -501 -533 -500 0
-1305 -477 501 533 500 0
-1305 -477 501 -533 -500 0
-1305 -477 -501 533 -500 0
-1305 -477 -501 -533 500 0
1306 1305 0
-1306 -1305 0
477 501 533 1307 0
-477 -501 -533 1307 0
-1307 -477 501 0
-1307 477 -501 0
-1307 -477 533 0
-1307 477 -533 0
-1307 478 502 534 -501 0
-1307 478 502 -534 501 0
-1307 478 -502 534 501 0
-1307 478 -502 -534 -501 0
-1307 -478 502 534 501 0
-1307 -478 502 -534 -501 0
-1307 -478 -502 534 -501 0
-1307 -478 -502 -534 501 0
1308 1307 0
-1308 -1307 0
478 502 534 1309 0
-478 -502 -534 1309 0
-1309 -478 502 0
-1309 478 -502 0
-1309 -478 534 0
-1309 478 -534 0
-1309 479 503 535 -502 0
-1309 479 503 -535 502 0
-1309 479 -503 535 502 0
-1309 479 -503 -535 -502 0
-1309 -479 503 535 502 0
-1309 -479 503 -535 -502 0
-1309 -479 -503 535 -502 0
-1309 -479 -503 -535 502 0
1310 1309 0
-1310 -1309 0
479 503 535 1311 0
-479 -503 -535 1311 0
-1311 -479 503 0
-1311 479 -503 0
-1311 -479 535 0
-1311 479 -535 0
-1311 480 504 536 -503 0
-1311 480 504 -536 503 0
-1311 480 -504 536 503 0
-1311 480 -504 -536 -503 0
-1311 -480 504 536 503 0
-1311 -480 504 -536 -503 0
-1311 -480 -504 536 -503 0
-1311 -480 -504 -536 503 0
1312 1311 0
-1312 -1311 0
480 504 536 1313 0
-480 -504 -536 1313 0
-1313 -480 504 0
-1313 480 -504 0
-1313 -480 536 0
-1313 480 -536 0
-1313 449 505 537 -504 0
-1313 449 505 -537 504 0
-1313 449 -505 537 504 0
-1313 449 -505 -537 -504 0
-1313 -449 505 537 504 0
-1313 -449 505 -537 -504 0
-1313 -449 -505 537 -504 0
-1313 -449 -505 -537 504 0
1314 1313 0
-1314 -1313 0
449 505 537 1315 0
-449 -505 -537 1315 0
-1315 -449 505 0
-1315 449 -505 0
-1315 -449 537 0
-1315 449 -537 0
-1315 450 506 538 -505 0
-1315 450 506 -538 505 0
-1315 450 -506 538 505 0
-1315 450 -506 -538 -505 0
-1315 -450 506 538 505 0
-1315 -450 506 -538 -505 0
-1315 -450 -506 538 -505 0
-1315 -450 -506 -538 505 0
1316 1315 0
-1316 -1315 0
450 506 538 1317 0
-450 -506 -538 1317 0
-1317 -450 506 0
-1317 450 -506 0
-1317 -450 538 0
-1317 450 -538 0
-1317 451 507 539 -506 0
-1317 451 507 -539 506 0
-1317 451 -507 539 506 0
-1317 451 -507 -539 -506 0
-1317 -451 507 539 506 0
-1317 -451 507 -539 -506 0
-1317 -451 -507 539 -506 0
-1317 -451 -507 -539 506 0
1318 1317 0
-1318 -1317 0
451 507 539 1319 0
-451 -507 -539 1319 0
-1319 -451 507 0
-1319 451 -507 0
-1319 -451 539 0
-1319 451 -539 0
-1319 452 508 540 -507 0
-1319 452 508 -540 507 0
-1319 452 -508 540 507 0
-1319 452 -508 -540 -507 0
-1319 -452 508 540 507 0
-1319 -452 508 -540 -507 0
-1319 -452 -508 540 -507 0
-1319 -452 -508 -540 507 0
1320 1319 0
-1320 -1319 0
452 508 540 1321 0
-452 -508 -540 1321 0
-1321 -452 508 0
-1321 452 -508 0
-1321 -452 540 0
-1321 452 -540 0
-1321 453 509 541 -508 0
-1321 453 509 -541 508 0
-1321 453 -509 541 508 0
-1321 453 -509 -541 -508 0
-1321 -453 509 541 508 0
-1321 -453 509 -541 -508 0
-1321 -453 -509 541 -508 0
-1321 -453 -509 -541 508 0
1322 1321 0
-1322 -1321 0
453 509 541 1323 0
-453 -509 -541 1323 0
-1323 -453 509 0
-1323 453 -509 0
-1323 -453 541 0
-1323 453 -541 0
-1323 454 510 542 -509 0
-1323 454 510 -542 509 0
-1323 454 -510 542 509 0
-1323 454 -510 -542 -509 0
-1323 -454 510 542 509 0
-1323 -454 510 -542 -509 0
-1323 -454 -510 542 -509 0
-1323 -454 -510 -542 509 0
1324 1323 0
-1324 -1323 0
454 510 542 1325 0
-454 -510 -542 1325 0
-1325 -454 510 0
-1325 454 -510 0
-1325 -454 542 0
-1325 454 -542 0
-1325 455 511 543 -510 0
-1325 455 511 -543 510 0
-1325 455 -511 543 510 0
-1325 455 -511 -543 -510 0
-1325 -455 511 543 510 0
-1325 -455 511 -543 -510 0
-1325 -455 -511 543 -510 0
-1325 -455 -511 -543 510 0
1326 1325 0
-1326 -1325 0
455 511 543 1327 0
-455 -511 -543 1327 0
-1327 -455 511 0
-1327 455 -511 0
-1327 -455 543 0
-1327 455 -543 0
-1327 456 512 544 -511 0
-1327 456 512 -544 511 0
-1327 456 -512 544 511 0
-1327 456 -512 -544 -511 0
-1327 -456 512 544 511 0
-1327 -456 512 -544 -511 0
-1327 -456 -512 544 -511 0
-1327 -456 -512 -544 511 0
1328 1327 0
-1328 -1327 0
510 513 -545 0
510 -513 545 0
-510 513 545 0
-510 -513 -545 0
511 514 -546 0
511 -514 546 0
-511 514 546 0
-511 -514 -546 0
512 515 -547 0
512 -515 547 0
-512 515 547 0
-512 -515 -547 0
481 516 -548 0
481 -516 548 0
-481 516 548 0
-481 -516 -548 0
482 517 -549 0
482 -517 549 0
-482 517 549 0
-482 -517 -549 0
483 518 -550 0
483 -518 550 0
-483 518 550 0
-483 -518 -550 0
484 519 -551 0
484 -519 551 0
-484 519 551 0
-484 -519 -551 0
485 520 -552 0
485 -520 552 0
-485 520 552 0
-485 -520 -552 0
486 521 -553 0
486 -521 553 0
-486 521 553 0
-486 -521 -553 0
487 522 -554 0
487 -522 554 0
-487 522 554 0
-487 -522 -554 0
488 523 -555 0
488 -523 555 0
-488 523 555 0
-488 -523 -555 0
489 524 -556 0
489 -524 556 0
-489 524 556 0
-489 -524 -556 0
490 525 -557 0
490 -525 557 0
-490 525 557 0
-490 -525 -557 0
491 526 -558 0
491 -526 558 0
-491 526 558 0
-491 -526 -558 0
492 527 -559 0
492 -527 559 0
-492 527 559 0
-492 -527 -559 0
493 528 -560 0
493 -528 560 0
-493 528 560 0
-493 -528 -560 0
494 529 -561 0
494 -529 561 0
-494 529 561 0
-494 -529 -561 0
495 530 -562 0
495 -530 562 0
-495 530 562 0
-495 -530 -562 0
496 531 -563 0
496 -531 563 0
-496 531 563 0
-496 -531 -563 0
497 532 -564 0
497 -532 564 0
-497 532 564 0
-497 -532 -564 0
498 533 -565 0
498 -533 565 0
-498 533 565 0
-498 -533 -565 0
499 534 -566 0
499 -534 566 0
-499 534 566 0
-499 -534 -566 0
500 535 -567 0
500 -535 567 0
-500 535 567 0
-500 -535 -567 0
501 536 -568 0
501 -536 568 0
-501 536 568 0
-501 -536 -568 0
502 537 -569 0
502 -537 569 0
-502 537 569 0
-502 -537 -569 0
503 538 -570 0
503 -538 570 0
-503 538 570 0
-503 -538 -570 0
504 539 -571 0
504 -539 571 0
-504 539 571 0
-504 -539 -571 0
505 540 -572 0
505 -540 572 0
-505 540 572 0
-505 -540 -572 0
506 541 -573 0
506 -541 573 0
-506 541 573 0
-506 -541 -573 0
507 542 -574 0
507 -542 574 0
-507 542 574 0
-507 -542 -574 0
508 543 -575 0
508 -543 575 0
-508 543 575 0
-508 -543 -575 0
509 544 -576 0
509 -544 576 0
-509 544 576 0
-509 -544 -576 0
521 545 -577 0
521 -545 577 0
-521 545 577 0
-521 -545 -577 0
521 545 577 1329 0
-521 -545 -577 1329 0
-1329 -521 545 0
-1329 521 -545 0
-1329 -521 577 0
-1329 521 -577 0
-1329 522 546 578 -545 0
-1329 522 546 -578 545 0
-1329 522 -546 578 545 0
-1329 522 -546 -578 -545 0
-1329 -522 546 578 545 0
-1329 -522 546 -578 -545 0
-1329 -522 -546 578 -545 0
-1329 -522 -546 -578 545 0
1330 1329 0
-1330 -1329 0
522 546 578 1331 0
-522 -546 -578 1331 0
-1331 -522 546 0
-1331 522 -546 0
-1331 -522 578 0
-1331 522 -578 0
-1331 523 547 579 -546 0
-1331 523 547 -579 546 0
-1331 523 -547 579 546 0
-1331 523 -547 -579 -546 0
-1331 -523 547 579 546 0
-1331 -523 547 -579 -546 0
-1331 -523 -547 579 -546 0
-1331 -523 -547 -579 546 0
1332 1331 0
-1332 -1331 0
523 547 579 1333 0
-523 -547 -579 1333 0
-1333 -523 547 0
-1333 523 -547 0
-1333 -523 579 0
-1333 523 -579 0
-1333 524 548 580 -547 0
-1333 524 548 -580 547 0
-1333 524 -548 580 547 0
-1333 524 -548 -580 -547 0
-1333 -524 548 580 547 0
-1333 -524 548 -580 -547 0
-1333 -524 -548 580 -547 0
-1333 -524 -548 -580 547 0
1334 1333 0
-1334 -1333 0
524 548 580 1335 0
-524 -548 -580 1335 0
-1335 -524 548 0
-1335 524 -548 0
-1335 -524 580 0
-1335 524 -580 0
-1335 525 549 581 -548 0
-1335 525 549 -581 548 0
-1335 525 -549 581 548 0
-1335 525 -549 -581 -548 0
-1335 -525 549 581 548 0
-1335 -525 549 -581 -548 0
-1335 -525 -549 581 -548 0
-1335 -525 -549 -581 548 0
1336 1335 0
-1336 -1335 0
525 549 581 1337 0
-525 -549 -581 1337 0
-1337 -525 549 0
-1337 525 -549 0
-1337 -525 581 0
-1337 525 -581 0
-1337 526 550 582 -549 0
-1337 526 550 -582 549 0
-1337 526 -550 582 549 0
-1337 526 -550 -582 -549 0
-1337 -526 550 582 549 0
-1337 -526 550 -582 -549 0
-1337 -526 -550 582 -549 0
-1337 -526 -550 -582 549 0
1338 1337 0
-1338 -1337 0
526 550 582 1339 0
-526 -550 -582 1339 0
-1339 -526 550 0
-1339 526 -550 0
-1339 -526 582 0
-1339 526 -582 0
-1339 527 551 583 -550 0
-1339 527 551 -583 550 0
-1339 527 -551 583 550 0
-1339 527 -551 -583 -550 0
-1339 -527 551 583 550 0
-1339 -527 551 -583 -550 0
-1339 -527 -551 583 -550 0
-1339 -527 -551 -583 550 0
1340 1339 0
-1340 -1339 0
527 551 583 1341 0
-527 -551 -583 1341 0
-1341 -527 551 0
-1341 527 -551 0
-1341 -527 583 0
-1341 527 -583 0
-1341 528 552 584 -551 0
-1341 528 552 -584 551 0
-1341 528 -552 584 551 0
-1341 528 -552 -584 -551 0
-1341 -528 552 584 551 0
-1341 -528 552 -584 -551 0
-1341 -528 -552 584 -551 0
-1341 -528 -552 -584 551 0
1342 1341 0
-1342 -1341 0
528 552 584 1343 0
-528 -552 -584 1343 0
-1343 -528 552 0
-1343 528 -552 0
-1343 -528 584 0
-1343 528 -584 0
-1343 529 553 585 -552 0
-1343 529 553 -585 552 0
-1343 529 -553 585 552 0
-1343 529 -553 -585 -552 0
-1343 -529 553 585 552 0
-1343 -529 553 -585 -552 0
-1343 -529 -553 585 -552 0
-1343 -529 -553 -585 552 0
1344 1343 0
-1344 -1343 0
529 553 585 1345 0
-529 -553 -585 1345 0
-1345 -529 553 0
-1345 529 -553 0
-1345 -529 585 0
-1345 529 -585 0
-1345 530 554 586 -553 0
-1345 530 554 -586 553 0
-1345 530 -554 586 553 0
-1345 530 -554 -586 -553 0
-1345 -530 554 586 553 0
-1345 -530 554 -586 -553 0
-1345 -530 -554 586 -553 0
-1345 -530 -554 -586 553 0
1346 1345 0
-1346 -1345 0
530 554 586 1347 0
-530 -554 -586 1347 0
-1347 -530 554 0
-1347 530 -554 0
-1347 -530 586 0
-1347 530 -586 0
-1347 531 555 587 -554 0
-1347 531 555 -587 554 0
-1347 531 -555 587 554 0
-1347 531 -555 -587 -554 0
-1347 -531 555 587 554 0
-1347 -531 555 -587 -554 0
-1347 -531 -555 587 -554 0
-1347 -531 -555 -587 554 0
1348 1347 0
-1348 -1347 0
531 555 587 1349 0
-531 -555 -587 1349 0
-1349 -531 555 0
-1349 531 -555 0
-1349 -531 587 0
-1349 531 -587 0
-1349 532 556 588 -555 0
-1349 532 556 -588 555 0
-1349 532 -556 588 555 0
-1349 532 -556 -588 -555 0
-1349 -532 556 588 555 0
-1349 -532 556 -588 -555 0
-1349 -532 -556 588 -555 0
-1349 -532 -556 -588 555 0
1350 1349 0
-1350 -1349 0
532 556 588 1351 0
-532 -556 -588 1351 0
-1351 -532 556 0
-1351 532 -556 0
-1351 -532 588 0
-1351 532 -588 0
-1351 533 557 589 -556 0
-1351 533 557 -589 556 0
-1351 533 -557 589 556 0
-1351 533 -557 -589 -556 0
-1351 -533 557 589 556 0
-1351 -533 557 -589 -556 0
-1351 -533 -557 589 -556 0
-1351 -533 -557 -589 556 0
1352 1351 0
-1352 -1351 0
533 557 589 1353 0
-533 -557 -589 1353 0
-1353 -533 557 0
-1353 533 -557 0
-1353 -533 589 0
-1353 533 -589 0
-1353 534 558 590 -557 0
-1353 534 558 -590 557 0
-1353 534 -558 590 557 0
-1353 534 -558 -590 -557 0
-1353 -534 558 590 557 0
-1353 -534 558 -590 -557 0
-1353 -534 -558 590 -557 0
-1353 -534 -558 -590 557 0
1354 1353 0
-1354 -1353 0
534 558 590 1355 0
-534 -558 -590 1355 0
-1355 -534 558 0
-1355 534 -558 0
-1355 -534 590 0
-1355 534 -590 0
-1355 535 559 591 -558 0
-1355 535 559 -591 558 0
-1355 535 -559 591 558 0
-1355 535 -559 -591 -558 0
-1355 -535 559 591 558 0
-1355 -535 559 -591 -558 0
-1355 -535 -559 591 -558 0
-1355 -535 -559 -591 558 0
1356 1355 0
-1356 -1355 0
535 559 591 1357 0
-535 -559 -591 1357 0
-1357 -535 559 0
-1357 535 -559 0
-1357 -535 591 0
-1357 535 -591 0
-1357 536 560 592 -559 0
-1357 536 560 -592 559 0
-1357 536 -560 592 559 0
-1357 536 -560 -592 -559 0
-1357 -536 560 592 559 0
-1357 -536 560 -592 -559 0
-1357 -536 -560 592 -559 0
-1357 -536 -560 -592 559 0
1358 1357 0
-1358 -1357 0
536 560 592 1359 0
-536 -560 -592 1359 0
-1359 -536 560 0
-1359 536 -560 0
-1359 -536 592 0
-1359 536 -592 0
-1359 537 561 593 -560 0
-1359 537 561 -593 560 0
-1359 537 -561 593 560 0
-1359 537 -561 -593 -560 0
-1359 -537 561 593 560 0
-1359 -537 561 -593 -560 0
-1359 -537 -561 593 -560 0
-1359 -537 -561 -593 560 0
1360 1359 0
-1360 -1359 0
537 561 593 1361 0
-537 -561 -593 1361 0
-1361 -537 561 0
-1361 537 -561 0
-1361 -537 593 0
-1361 537 -593 0
-1361 538 562 594 -561 0
-1361 538 562 -594 561 0
-1361 538 -562 594 561 0
-1361 538 -562 -594 -561 0
-1361 -538 562 594 561 0
-1361 -538 562 -594 -561 0
-1361 -538 -562 594 -561 0
-1361 -538 -562 -594 561 0
1362 1361 0
-1362 -1361 0
538 562 594 1363 0
-538 -562 -594 1363 0
-1363 -538 562 0
-1363 538 -562 0
-1363 -538 594 0
-1363 538 -594 0
-1363 539 563 595 -562 0
-1363 539 563 -595 562 0
-1363 539 -563 595 562 0
-1363 539 -563 -595 -562 0
-1363 -539 563 595 562 0
-1363 -539 563 -595 -562 0
-1363 -539 -563 595 -562 0
-1363 -539 -563 -595 562 0
1364 1363 0
-1364 -1363 0
539 563 595 1365 0
-539 -563 -595 1365 0
-1365 -539 563 0
-1365 539 -563 0
-1365 -539 595 0
-1365 539 -595 0
-1365 540 564 596 -563 0
-1365 540 564 -596 563 0
-1365 540 -564 596 563 0
-1365 540 -564 -596 -563 0
-1365 -540 564 596 563 0
-1365 -540 564 -596 -563 0
-1365 -540 -564 596 -563 0
-1365 -540 -564 -596 563 0
1366 1365 0
-1366 -1365 0
540 564 596 1367 0
-540 -564 -596 1367 0
-1367 -540 564 0
-1367 540 -564 0
-1367 -540 596 0
-1367 540 -596 0
-1367 541 565 597 -564 0
-1367 541 565 -597 564 0
-1367 541 -565 597 564 0
-1367 541 -565 -597 -564 0
-1367 -541 565 597 564 0
-1367 -541 565 -597 -564 0
-1367 -541 -565 597 -564 0
-1367 -541 -565 -597 564 0
1368 1367 0
-1368 -1367 0
541 565 597 1369 0
-541 -565 -597 1369 0
-1369 -541 565 0
-1369 541 -565 0
-1369 -541 597 0
-1369 541 -597 0
-1369 542 566 598 -565 0
-1369 542 566 -598 565 0
-1369 542 -566 598 565 0
-1369 542 -566 -598 -565 0
-1369 -542 566 598 565 0
-1369 -542 566 -598 -565 0
-1369 -542 -566 598 -565 0
-1369 -542 -566 -598 565 0
1370 1369 0
-1370 -1369 0
542 566 598 1371 0
-542 -566 -598 1371 0
-1371 -542 566 0
-1371 542 -566 0
-1371 -542 598 0
-1371 542 -598 0
-1371 543 567 599 -566 0
-1371 543 567 -599 566 0
-1371 543 -567 599 566 0
-1371 543 -567 -599 -566 0
-1371 -543 567 599 566 0
-1371 -543 567 -599 -566 0
-1371 -543 -567 599 -566 0
-1371 -543 -567 -599 566 0
1372 1371 0
-1372 -1371 0
543 567 599 1373 0
-543 -567 -599 1373 0
-1373 -543 567 0
-1373 543 -567 0
-1373 -543 599 0
-1373 543 -599 0
-1373 544 568 600 -567 0
-1373 544 568 -600 567 0
-1373 544 -568 600 567 0
-1373 544 -568 -600 -567 0
-1373 -544 568 600 567 0
-1373 -544 568 -600 -567 0
-1373 -544 -568 600 -567 0
-1373 -544 -568 -600 567 0
1374 1373 0
-1374 -1373 0
544 568 600 1375 0
-544 -568 -600 1375 0
-1375 -544 568 0
-1375 544 -568 0
-1375 -544 600 0
-1375 544 -600 0
-1375 513 569 601 -568 0
-1375 513 569 -601 568 0
-1375 513 -569 601 568 0
-1375 513 -569 -601 -568 0
-1375 -513 569 601 568 0
-1375 -513 569 -601 -568 0
-1375 -513 -569 601 -568 0
-1375 -513 -569 -601 568 0
1376 1375 0
-1376 -1375 0
513 569 601 1377 0
-513 -569 -601 1377 0
-1377 -513 569 0
-1377 513 -569 0
-1377 -513 601 0
-1377 513 -601 0
-1377 514 570 602 -569 0
-1377 514 570 -602 569 0
-1377 514 -570 602 569 0
-1377 514 -570 -602 -569 0
-1377 -514 570 602 569 0
-1377 -514 570 -602 -569 0
-1377 -514 -570 602 -569 0
-1377 -514 -570 -602 569 0
1378 1377 0
-1378 -1377 0
514 570 602 1379 0
-514 -570 -602 1379 0
-1379 -514 570 0
-1379 514 -570 0
-1379 -514 602 0
-1379 514 -602 0
-1379 515 571 603 -570 0
-1379 515 571 -603 570 0
-1379 515 -571 603 570 0
-1379 515 -571 -603 -570 0
-1379 -515 571 603 570 0
-1379 -515 571 -603 -570 0
-1379 -515 -571 603 -570 0
-1379 -515 -571 -603 570 0
1380 1379 0
-1380 -1379 0
515 571 603 1381 0
-515 -571 -603 1381 0
-1381 -515 571 0
-1381 515 -571 0
-1381 -515 603 0
-1381 515 -603 0
-1381 516 572 604 -571 0
-1381 516 572 -604 571 0
-1381 516 -572 604 571 0
-1381 516 -572 -604 -571 0
-1381 -516 572 604 571 0
-1381 -516 572 -604 -571 0
-1381 -516 -572 604 -571 0
-1381 -516 -572 -604 571 0
1382 1381 0
-1382 -1381 0
516 572 604 1383 0
-516 -572 -604 1383 0
-1383 -516 572 0
-1383 516 -572 0
-1383 -516 604 0
-1383 516 -604 0
-1383 517 573 605 -572 0
-1383 517 573 -605 572 0
-1383 517 -573 605 572 0
-1383 517 -573 -605 -572 0
-1383 -517 573 605 572 0
-1383 -517 573 -605 -572 0
-1383 -517 -573 605 -572 0
-1383 -517 -573 -605 572 0
1384 1383 0
-1384 -1383 0
517 573 605 1385 0
-517 -573 -605 1385 0
-1385 -517 573 0
-1385 517 -573 0
-1385 -517 605 0
-1385 517 -605 0
-1385 518 574 606 -573 0
-1385 518 574 -606 573 0
-1385 518 -574 606 573 0
-1385 518 -574 -606 -573 0
-1385 -518 574 606 573 0
-1385 -518 574 -606 -573 0
-1385 -518 -574 606 -573 0
-1385 -518 -574 -606 573 0
1386 1385 0
-1386 -1385 0
518 574 606 1387 0
-518 -574 -606 1387 0
-1387 -518 574 0
-1387 518 -574 0
-1387 -518 606 0
-1387 518 -606 0
-1387 519 575 607 -574 0
-1387 519 575 -607 574 0
-1387 519 -575 607 574 0
-1387 519 -575 -607 -574 0
-1387 -519 575 607 574 0
-1387 -519 575 -607 -574 0
-1387 -519 -575 607 -574 0
-1387 -519 -575 -607 574 0
1388 1387 0
-1388 -1387 0
519 575 607 1389 0
-519 -575 -607 1389 0
-1389 -519 575 0
-1389 519 -575 0
-1389 -519 607 0
-1389 519 -607 0
-1389 520 576 608 -575 0
-1389 520 576 -608 575 0
-1389 520 -576 608 575 0
-1389 520 -576 -608 -575 0
-1389 -520 576 608 575 0
-1389 -520 576 -608 -575 0
-1389 -520 -576 608 -575 0
-1389 -520 -576 -608 575 0
1390 1389 0
-1390 -1389 0
574 577 -609 0
574 -577 609 0
-574 577 609 0
-574 -577 -609 0
575 578 -610 0
575 -578 610 0
-575 578 610 0
-575 -578 -610 0
576 579 -611 0
576 -579 611 0
-576 579 611 0
-576 -579 -611 0
545 580 -612 0
545 -580 612 0
-545 580 612 0
-545 -580 -612 0
546 581 -613 0
546 -581 613 0
-546 581 613 0
-546 -581 -613 0
547 582 -614 0
547 -582 614 0
-547 582 614 0
-547 -582 -614 0
548 583 -615 0
548 -583 615 0
-548 583 615 0
-548 -583 -615 0
549 584 -616 0
549 -584 616 0
-549 584 616 0
-549 -584 -616 0
550 585 -617 0
550 -585 617 0
-550 585 617 0
-550 -585 -617 0
551 586 -618 0
551 -586 618 0
-551 586 618 0
-551 -586 -618 0
552 587 -619 0
552 -587 619 0
-552 587 619 0
-552 -587 -619 0
553 588 -620 0
553 -588 620 0
-553 588 620 0
-553 -588 -620 0
554 589 -621 0
554 -589 621 0
-554 589 621 0
-554 -589 -621 0
555 590 -622 0
555 -590 622 0
-555 590 622 0
-555 -590 -622 0
556 591 -623 0
556 -591 623 0
-556 591 623 0
-556 -591 -623 0
557 592 -624 0
557 -592 624 0
-557 592 624 0
-557 -592 -624 0
558 593 -625 0
558 -593 625 0
-558 593 625 0
-558 -593 -625 0
559 594 -626 0
559 -594 626 0
-559 594 626 0
-559 -594 -626 0
560 595 -627 0
560 -595 627 0
-560 595 627 0
-560 -595 -627 0
561 596 -628 0
561 -596 628 0
-561 596 628 0
-561 -596 -628 0
562 597 -629 0
562 -597 629 0
-562 597 629 0
-562 -597 -629 0
563 598 -630 0
563 -598 630 0
-563 598 630 0
-563 -598 -630 0
564 599 -631 0
564 -599 631 0
-564 599 631 0
-564 -599 -631 0
565 600 -632 0
565 -600 632 0
-565 600 632 0
-565 -600 -632 0
566 601 -633 0
566 -601 633 0
-566 601 633 0
-566 -601 -633 0
567 602 -634 0
567 -602 634 0
-567 602 634 0
-567 -602 -634 0
568 603 -635 0
568 -603 635 0
-568 603 635 0
-568 -603 -635 0
569 604 -636 0
569 -604 636 0
-569 604 636 0
-569 -604 -636 0
570 605 -637 0
570 -605 637 0
-570 605 637 0
-570 -605 -637 0
571 606 -638 0
571 -606 638 0
-571 606 638 0
-571 -606 -638 0
572 607 -639 0
572 -607 639 0
-572 607 639 0
-572 -607 -639 0
573 608 -640 0
573 -608 640 0
-573 608 640 0
-573 -608 -640 0
585 609 -641 0
585 -609 641 0
-585 609 641 0
-585 -609 -641 0
585 609 641 1391 0
-585 -609 -641 1391 0
-1391 -585 609 0
-1391 585 -609 0
-1391 -585 641 0
-1391 585 -641 0
-1391 586 610 642 -609 0
-1391 586 610 -642 609 0
-1391 586 -610 642 609 0
-1391 586 -610 -642 -609 0
-1391 -586 610 642 609 0
-1391 -586 610 -642 -609 0
-1391 -586 -610 642 -609 0
-1391 -586 -610 -642 609 0
1392 1391 0
-1392 -1391 0
586 610 642 1393 0
-586 -610 -642 1393 0
-1393 -586 610 0
-1393 586 -610 0
-1393 -586 642 0
-1393 586 -642 0
-1393 587 611 643 -610 0
-1393 587 611 -643 610 0
-1393 587 -611 643 610 0
-1393 587 -611 -643 -610 0
-1393 -587 611 643 610 0
-1393 -587 611 -643 -610 0
-1393 -587 -611 643 -610 0
-1393 -587 -611 -643 610 0
1394 1393 0
-1394 -1393 0
587 611 643 1395 0
-587 -611 -643 1395 0
-1395 -587 611 0
-1395 587 -611 0
-1395 -587 643 0
-1395 587 -643 0
-1395 588 612 644 -611 0
-1395 588 612 -644 611 0
-1395 588 -612 644 611 0
-1395 588 -612 -644 -611 0
-1395 -588 612 644 611 0
-1395 -588 612 -644 -611 0
-1395 -588 -612 644 -611 0
-1395 -588 -612 -644 611 0
1396 1395 0
-1396 -1395 0
588 612 644 1397 0
-588 -612 -644 1397 0
-1397 -588 612 0
-1397 588 -612 0
-1397 -588 644 0
-1397 588 -644 0
-1397 589 613 645 -612 0
-1397 589 613 -645 612 0
-1397 589 -613 645 612 0
-1397 589 -613 -645 -612 0
-1397 -589 613 645 612 0
-1397 -589 613 -645 -612 0
-1397 -589 -613 645 -612 0
-1397 -589 -613 -645 612 0
1398 1397 0
-1398 -1397 0
589 613 645 1399 0
-589 -613 -645 1399 0
-1399 -589 613 0
-1399 589 -613 0
-1399 -589 645 0
-1399 589 -645 0
-1399 590 614 646 -613 0
-1399 590 614 -646 613 0
-1399 590 -614 646 613 0
-1399 590 -614 -646 -613 0
-1399 -590 614 646 613 0
-1399 -590 614 -646 -613 0
-1399 -590 -614 646 -613 0
-1399 -590 -614 -646 613 0
1400 1399 0
-1400 -1399 0
590 614 646 1401 0
-590 -614 -646 1401 0
-1401 -590 614 0
-1401 590 -614 0
-1401 -590 646 0
-1401 590 -646 0
-1401 591 615 647 -614 0
-1401 591 615 -647 614 0
-1401 591 -615 647 614 0
-1401 591 -615 -647 -614 0
-1401 -591 615 647 614 0
-1401 -591 615 -647 -614 0
-1401 -591 -615 647 -614 0
-1401 -591 -615 -647 614 0
1402 1401 0
-1402 -1401 0
591 615 647 1403 0
-591 -615 -647 1403 0
-1403 -591 615 0
-1403 591 -615 0
-1403 -591 647 0
-1403 591 -647 0
-1403 592 616 648 -615 0
-1403 592 616 -648 615 0
-1403 592 -616 648 615 0
-1403 592 -616 -648 -615 0
-1403 -592 616 648 615 0
-1403 -592 616 -648 -615 0
-1403 -592 -616 648 -615 0
-1403 -592 -616 -648 615 0
1404 1403 0
-1404 -1403 0
592 616 648 1405 0
-592 -616 -648 1405 0
-1405 -592 616 0
-1405 592 -616 0
-1405 -592 648 0
-1405 592 -648 0
-1405 593 617 649 -616 0
-1405 593 617 -649 616 0
-1405 593 -617 649 616 0
-1405 593 -617 -649 -616 0
-1405 -593 617 649 616 0
-1405 -593 617 -649 -616 0
-1405 -593 -617 649 -616 0
-1405 -593 -617 -649 616 0
1406 1405 0
-1406 -1405 0
593 617 649 1407 0
-593 -617 -649 1407 0
-1407 -593 617 0
-1407 593 -617 0
-1407 -593 649 0
-1407 593 -649 0
-1407 594 618 650 -617 0
-1407 594 618 -650 617 0
-1407 594 -618 650 617 0
-1407 594 -618 -650 -617 0
-1407 -594 618 650 617 0
-1407 -594 618 -650 -617 0
-1407 -594 -618 650 -617 0
-1407 -594 -618 -650 617 0
1408 1407 0
-1408 -1407 0
594 618 650 1409 0
-594 -618 -650 1409 0
-1409 -594 618 0
-1409 594 -618 0
-1409 -594 650 0
-1409 594 -650 0
-1409 595 619 651 -618 0
-1409 595 619 -651 618 0
-1409 595 -619 651 618 0
-1409 595 -619 -651 -618 0
-1409 -595 619 651 618 0
-1409 -595 619 -651 -618 0
-1409 -595 -619 651 -618 0
-1409 -595 -619 -651 618 0
1410 1409 0
-1410 -1409 0
595 619 651 1411 0
-595 -619 -651 1411 0
-1411 -595 619 0
-1411 595 -619 0
-1411 -595 651 0
-1411 595 -651 0
-1411 596 620 652 -619 0
-1411 596 620 -652 619 0
-1411 596 -620 652 619 0
-1411 596 -620 -652 -619 0
-1411 -596 620 652 619 0
-1411 -596 620 -652 -619 0
-1411 -596 -620 652 -619 0
-1411 -596 -620 -652 619 0
1412 1411 0
-1412 -1411 0
596 620 652 1413 0
-596 -620 -652 1413 0
-1413 -596 620 0
-1413 596 -620 0
-1413 -596 652 0
-1413 596 -652 0
-1413 597 621 653 -620 0
-1413 597 621 -653 620 0
-1413 597 -621 653 620 0
-1413 597 -621 -653 -620 0
-1413 -597 621 653 620 0
-1413 -597 621 -653 -620 0
-1413 -597 -621 653 -620 0
-1413 -597 -621 -653 620 0
1414 1413 0
-1414 -1413 0
597 621 653 1415 0
-597 -621 -653 1415 0
-1415 -597 621 0
-1415 597 -621 0
-1415 -597 653 0
-1415 597 -653 0
-1415 598 622 654 -621 0
-1415 598 622 -654 621 0
-1415 598 -622 654 621 0
-1415 598 -622 -654 -621 0
-1415 -598 622 654 621 0
-1415 -598 622 -654 -621 0
-1415 -598 -622 654 -621 0
-1415 -598 -622 -654 621 0
1416 1415 0
-1416 -1415 0
598 622 654 1417 0
-598 -622 -654 1417 0
-1417 -598 622 0
-1417 598 -622 0
-1417 -598 654 0
-1417 598 -654 0
-1417 599 623 655 -622 0
-1417 599 623 -655 622 0
-1417 599 -623 655 622 0
-1417 599 -623 -655 -622 0
-1417 -599 623 655 622 0
-1417 -599 623 -655 -622 0
-1417 -599 -623 655 -622 0
-1417 -599 -623 -655 622 0
1418 1417 0
-1418 -1417 0
599 623 655 1419 0
-599 -623 -655 1419 0
-1419 -599 623 0
-1419 599 -623 0
-1419 -599 655 0
-1419 599 -655 0
-1419 600 624 656 -623 0
-1419 600 624 -656 623 0
-1419 600 -624 656 623 0
-1419 600 -624 -656 -623 0
-1419 -600 624 656 623 0
-1419 -600 624 -656 -623 0
-1419 -600 -624 656 -623 0
-1419 -600 -624 -656 623 0
1420 1419 0
-1420 -1419 0
600 624 656 1421 0
-600 -624 -656 1421 0
-1421 -600 624 0
-1421 600 -624 0
-1421 -600 656 0
-1421 600 -656 0
-1421 601 625 657 -624 0
-1421 601 625 -657 624 0
-1421 601 -625 657 624 0
-1421 601 -625 -657 -624 0
-1421 -601 625 657 624 0
-1421 -601 625 -657 -624 0
-1421 -601 -625 657 -624 0
-1421 -601 -625 -657 624 0
1422 1421 0
-1422 -1421 0
601 625 657 1423 0
-601 -625 -657 1423 0
-1423 -601 625 0
-1423 601 -625 0
-1423 -601 657 0
-1423 601 -657 0
-1423 602 626 658 -625 0
-1423 602 626 -658 625 0
-1423 602 -626 658 625 0
-1423 602 -626 -658 -625 0
-1423 -602 626 658 625 0
-1423 -602 626 -658 -625 0
-1423 -602 -626 658 -625 0
-1423 -602 -626 -658 625 0
1424 1423 0
-1424 -1423 0
602 626 658 1425 0
-602 -626 -658 1425 0
-1425 -602 626 0
-1425 602 -626 0
-1425 -602 658 0
-1425 602 -658 0
-1425 603 627 659 -626 0
-1425 603 627 -659 626 0
-1425 603 -627 659 626 0
-1425 603 -627 -659 -626 0
-1425 -603 627 659 626 0
-1425 -603 627 -659 -626 0
-1425 -603 -627 659 -626 0
-1425 -603 -627 -659 626 0
1426 1425 0
-1426 -1425 0
603 627 659 1427 0
-603 -627 -659 1427 0
-1427 -603 627 0
-1427 603 -627 0
-1427 -603 659 0
-1427 603 -659 0
-1427 604 628 660 -627 0
-1427 604 628 -660 627 0
-1427 604 -628 660 627 0
-1427 604 -628 -660 -627 0
-1427 -604 628 660 627 0
-1427 -604 628 -660 -627 0
-1427 -604 -628 660 -627 0
-1427 -604 -628 -660 627 0
1428 1427 0
-1428 -1427 0
604 628 660 1429 0
-604 -628 -660 1429 0
-1429 -604 628 0
-1429 604 -628 0
-1429 -604 660 0
-1429 604 -660 0
-1429 605 629 661 -628 0
-1429 605 629 -661 628 0
-1429 605 -629 661 628 0
-1429 605 -629 -661 -628 0
-1429 -605 629 661 628 0
-1429 -605 629 -661 -628 0
-1429 -605 -629 661 -628 0
-1429 -605 -629 -661 628 0
1430 1429 0
-1430 -1429 0
605 629 661 1431 0
-605 -629 -661 1431 0
-1431 -605 629 0
-1431 605 -629 0
-1431 -605 661 0
-1431 605 -661 0
-1431 606 630 662 -629 0
-1431 606 630 -662 629 0
-1431 606 -630 662 629 0
-1431 606 -630 -662 -629 0
-1431 -606 630 662 629 0
-1431 -606 630 -662 -629 0
-1431 -606 -630 662 -629 0
-1431 -606 -630 -662 629 0
1432 1431 0
-1432 -1431 0
606 630 662 1433 0
-606 -630 -662 1433 0
-1433 -606 630 0
-1433 606 -630 0
-1433 -606 662 0
-1433 606 -662 0
-1433 607 631 663 -630 0
-1433 607 631 -663 630 0
-1433 607 -631 663 630 0
-1433 607 -631 -663 -630 0
-1433 -607 631 663 630 0
-1433 -607 631 -663 -630 0
-1433 -607 -631 663 -630 0
-1433 -607 -631 -663 630 0
1434 1433 0
-1434 -1433 0
607 631 663 1435 0
-607 -631 -663 1435 0
-1435 -607 631 0
-1435 607 -631 0
-1435 -607 663 0
-1435 607 -663 0
-1435 608 632 664 -631 0
-1435 608 632 -664 631 0
-1435 608 -632 664 631 0
-1435 608 -632 -664 -631 0
-1435 -608 632 664 631 0
-1435 -608 632 -664 -631 0
-1435 -608 -632 664 -631 0
-1435 -608 -632 -664 631 0
1436 1435 0
-1436 -1435 0
608 632 664 1437 0
-608 -632 -664 1437 0
-1437 -608 632 0
-1437 608 -632 0
-1437 -608 664 0
-1437 608 -664 0
-1437 577 633 665 -632 0
-1437 577 633 -665 632 0
-1437 577 -633 665 632 0
-1437 577 -633 -665 -632 0
-1437 -577 633 665 632 0
-1437 -577 633 -665 -632 0
-1437 -577 -633 665 -632 0
-1437 -577 -633 -665 632 0
1438 1437 0
-1438 -1437 0
577 633 665 1439 0
-577 -633 -665 1439 0
-1439 -577 633 0
-1439 577 -633 0
-1439 -577 665 0
-1439 577 -665 0
-1439 578 634 666 -633 0
-1439 578 634 -666 633 0
-1439 578 -634 666 633 0
-1439 578 -634 -666 -633 0
-1439 -578 634 666 633 0
-1439 -578 634 -666 -633 0
-1439 -578 -634 666 -633 0
-1439 -578 -634 -666 633 0
1440 1439 0
-1440 -1439 0
578 634 666 1441 0
-578 -634 -666 1441 0
-1441 -578 634 0
-1441 578 -634 0
-1441 -578 666 0
-1441 578 -666 0
-1441 579 635 667 -634 0
-1441 579 635 -667 634 0
-1441 579 -635 667 634 0
-1441 579 -635 -667 -634 0
-1441 -579 635 667 634 0
-1441 -579 635 -667 -634 0
-1441 -579 -635 667 -634 0
-1441 -579 -635 -667 634 0
1442 1441 0
-1442 -1441 0
579 635 667 1443 0
-579 -635 -667 1443 0
-1443 -579 635 0
-1443 579 -635 0
-1443 -579 667 0
-1443 579 -667 0
-1443 580 636 668 -635 0
-1443 580 636 -668 635 0
-1443 580 -636 668 635 0
-1443 580 -636 -668 -635 0
-1443 -580 636 668 635 0
-1443 -580 636 -668 -635 0
-1443 -580 -636 668 -635 0
-1443 -580 -636 -668 635 0
1444 1443 0
-1444 -1443 0
580 636 668 1445 0
-580 -636 -668 1445 0
-1445 -580 636 0
-1445 580 -636 0
-1445 -580 668 0
-1445 580 -668 0
-1445 581 637 669 -636 0
-1445 581 637 -669 636 0
-1445 581 -637 669 636 0
-1445 581 -637 -669 -636 0
-1445 -581 637 669 636 0
-1445 -581 637 -669 -636 0
-1445 -581 -637 669 -636 0
-1445 -581 -637 -669 636 0
1446 1445 0
-1446 -1445 0
581 637 669 1447 0
-581 -637 -669 1447 0
-1447 -581 637 0
-1447 581 -637 0
-1447 -581 669 0
-1447 581 -669 0
-1447 582 638 670 -637 0
-1447 582 638 -670 637 0
-1447 582 -638 670 637 0
-1447 582 -638 -670 -637 0
-1447 -582 638 670 637 0
-1447 -582 638 -670 -637 0
-1447 -582 -638 670 -637 0
-1447 -582 -638 -670 637 0
1448 1447 0
-1448 -1447 0
582 638 670 1449 0
-582 -638 -670 1449 0
-1449 -582 638 0
-1449 582 -638 0
-1449 -582 670 0
-1449 582 -670 0
-1449 583 639 671 -638 0
-1449 583 639 -671 638 0
-1449 583 -639 671 638 0
-1449 583 -639 -671 -638 0
-1449 -583 639 671 638 0
-1449 -583 639 -671 -638 0
-1449 -583 -639 671 -638 0
-1449 -583 -639 -671 638 0
1450 1449 0
-1450 -1449 0
583 639 671 1451 0
-583 -639 -671 1451 0
-1451 -583 639 0
-1451 583 -639 0
-1451 -583 671 0
-1451 583 -671 0
-1451 584 640 672 -639 0
-1451 584 640 -672 639 0
-1451 584 -640 672 639 0
-1451 584 -640 -672 -639 0
-1451 -584 640 672 639 0
-1451 -584 640 -672 -639 0
-1451 -584 -640 672 -639 0
-1451 -584 -640 -672 639 0
1452 1451 0
-1452 -1451 0
638 641 -673 0
638 -641 673 0
-638 641 673 0
-638 -641 -673 0
639 642 -674 0
639 -642 674 0
-639 642 674 0
-639 -642 -674 0
640 643 -675 0
640 -643 675 0
-640 643 675 0
-640 -643 -675 0
609 644 -676 0
609 -644 676 0
-609 644 676 0
-609 -644 -676 0
610 645 -677 0
610 -645 677 0
-610 645 677 0
-610 -645 -677 0
611 646 -678 0
611 -646 678 0
-611 646 678 0
-611 -646 -678 0
612 647 -679 0
612 -647 679 0
-612 647 679 0
-612 -647 -679 0
613 648 -680 0
613 -648 680 0
-613 648 680 0
-613 -648 -680 0
614 649 -681 0
614 -649 681 0
-614 649 681 0
-614 -649 -681 0
615 650 -682 0
615 -650 682 0
-615 650 682 0
-615 -650 -682 0
616 651 -683 0
616 -651 683 0
-616 651 683 0
-616 -651 -683 0
617 652 -684 0
617 -652 684 0
-617 652 684 0
-617 -652 -684 0
618 653 -685 0
618 -653 685 0
-618 653 685 0
-618 -653 -685 0
619 654 -686 0
619 -654 686 0
-619 654 686 0
-619 -654 -686 0
620 655 -687 0
620 -655 687 0
-620 655 687 0
-620 -655 -687 0
621 656 -688 0
621 -656 688 0
-621 656 688 0
-621 -656 -688 0
622 657 -689 0
622 -657 689 0
-622 657 689 0
-622 -657 -689 0
623 658 -690 0
623 -658 690 0
-623 658 690 0
-623 -658 -690 0
624 659 -691 0
624 -659 691 0
-624 659 691 0
-624 -659 -691 0
625 660 -692 0
625 -660 692 0
-625 660 692 0
-625 -660 -692 0
626 661 -693 0
626 -661 693 0
-626 661 693 0
-626 -661 -693 0
627 662 -694 0
627 -662 694 0
-627 662 694 0
-627 -662 -694 0
628 663 -695 0
628 -663 695 0
-628 663 695 0
-628 -663 -695 0
629 664 -696 0
629 -664 696 0
-629 664 696 0
-629 -664 -696 0
630 665 -697 0
630 -665 697 0
-630 665 697 0
-630 -665 -697 0
631 666 -698 0
631 -666 698 0
-631 666 698 0
-631 -666 -698 0
632 667 -699 0
632 -667 699 0
-632 667 699 0
-632 -667 -699 0
633 668 -700 0
633 -668 700 0
-633 668 700 0
-633 -668 -700 0
634 669 -701 0
634 -669 701 0
-634 669 701 0
-634 -669 -701 0
635 670 -702 0
635 -670 702 0
-635 670 702 0
-635 -670 -702 0
636 671 -703 0
636 -671 703 0
-636 671 703 0
-636 -671 -703 0
637 672 -704 0
637 -672 704 0
-637 672 704 0
-637 -672 -704 0
649 673 -705 0
649 -673 705 0
-649 673 705 0
-649 -673 -705 0
649 673 705 1453 0
-649 -673 -705 1453 0
-1453 -649 673 0
-1453 649 -673 0
-1453 -649 705 0
-1453 649 -705 0
-1453 650 674 706 -673 0
-1453 650 674 -706 673 0
-1453 650 -674 706 673 0
-1453 650 -674 -706 -673 0
-1453 -650 674 706 673 0
-1453 -650 674 -706 -673 0
-1453 -650 -674 706 -673 0
-1453 -650 -674 -706 673 0
1454 1453 0
-1454 -1453 0
650 674 706 1455 0
-650 -674 -706 1455 0
-1455 -650 674 0
-1455 650 -674 0
-1455 -650 706 0
-1455 650 -706 0
-1455 651 675 707 -674 0
-1455 651 675 -707 674 0
-1455 651 -675 707 674 0
-1455 651 -675 -707 -674 0
-1455 -651 675 707 674 0
-1455 -651 675 -707 -674 0
-1455 -651 -675 707 -674 0
-1455 -651 -675 -707 674 0
1456 1455 0
-1456 -1455 0
651 675 707 1457 0
-651 -675 -707 1457 0
-1457 -651 675 0
-1457 651 -675 0
-1457 -651 707 0
-1457 651 -707 0
-1457 652 676 708 -675 0
-1457 652 676 -708 675 0
-1457 652 -676 708 675 0
-1457 652 -676 -708 -675 0
-1457 -652 676 708 675 0
-1457 -652 676 -708 -675 0
-1457 -652 -676 708 -675 0
-1457 -652 -676 -708 675 0
1458 1457 0
-1458 -1457 0
652 676 708 1459 0
-652 -676 -708 1459 0
-1459 -652 676 0
-1459 652 -676 0
-1459 -652 708 0
-1459 652 -708 0
-1459 653 677 709 -676 0
-1459 653 677 -709 676 0
-1459 653 -677 709 676 0
-1459 653 -677 -709 -676 0
-1459 -653 677 709 676 0
-1459 -653 677 -709 -676 0
-1459 -653 -677 709 -676 0
-1459 -653 -677 -709 676 0
1460 1459 0
-1460 -1459 0
653 677 709 1461 0
-653 -677 -709 1461 0
-1461 -653 677 0
-1461 653 -677 0
-1461 -653 709 0
-1461 653 -709 0
-1461 654 678 710 -677 0
-1461 654 678 -710 677 0
-1461 654 -678 710 677 0
-1461 654 -678 -710 -677 0
-1461 -654 678 710 677 0
-1461 -654 678 -710 -677 0
-1461 -654 -678 710 -677 0
-1461 -654 -678 -710 677 0
1462 1461 0
-1462 -1461 0
654 678 710 1463 0
-654 -678 -710 1463 0
-1463 -654 678 0
-1463 654 -678 0
-1463 -654 710 0
-1463 654 -710 0
-1463 655 679 711 -678 0
-1463 655 679 -711 678 0
-1463 655 -679 711 678 0
-1463 655 -679 -711 -678 0
-1463 -655 679 711 678 0
-1463 -655 679 -711 -678 0
-1463 -655 -679 711 -678 0
-1463 -655 -679 -711 678 0
1464 1463 0
-1464 -1463 0
655 679 711 1465 0
-655 -679 -711 1465 0
-1465 -655 679 0
-1465 655 -679 0
-1465 -655 711 0
-1465 655 -711 0
-1465 656 680 712 -679 0
-1465 656 680 -712 679 0
-1465 656 -680 712 679 0
-1465 656 -680 -712 -679 0
-1465 -656 680 712 679 0
-1465 -656 680 -712 -679 0
-1465 -656 -680 712 -679 0
-1465 -656 -680 -712 679 0
1466 1465 0
-1466 -1465 0
656 680 712 1467 0
-656 -680 -712 1467 0
-1467 -656 680 0
-1467 656 -680 0
-1467 -656 712 0
-1467 656 -712 0
-1467 657 681 713 -680 0
-1467 657 681 -713 680 0
-1467 657 -681 713 680 0
-1467 657 -681 -713 -680 0
-1467 -657 681 713 680 0
-1467 -657 681 -713 -680 0
-1467 -657 -681 713 -680 0
-1467 -657 -681 -713 680 0
1468 1467 0
-1468 -1467 0
657 681 713 1469 0
-657 -681 -713 1469 0
-1469 -657 681 0
-1469 657 -681 0
-1469 -657 713 0
-1469 657 -713 0
-1469 658 682 714 -681 0
-1469 658 682 -714 681 0
-1469 658 -682 714 681 0
-1469 658 -682 -714 -681 0
-1469 -658 682 714 681 0
-1469 -658 682 -714 -681 0
-1469 -658 -682 714 -681 0
-1469 -658 -682 -714 681 0
1470 1469 0
-1470 -1469 0
658 682 714 1471 0
-658 -682 -714 1471 0
-1471 -658 682 0
-1471 658 -682 0
-1471 -658 714 0
-1471 658 -714 0
-1471 659 683 715 -682 0
-1471 659 683 -715 682 0
-1471 659 -683 715 682 0
-1471 659 -683 -715 -682 0
-1471 -659 683 715 682 0
-1471 -659 683 -715 -682 0
-1471 -659 -683 715 -682 0
-1471 -659 -683 -715 682 0
1472 1471 0
-1472 -1471 0
659 683 715 1473 0
-659 -683 -715 1473 0
-1473 -659 683 0
-1473 659 -683 0
-1473 -659 715 0
-1473 659 -715 0
-1473 660 684 716 -683 0
-1473 660 684 -716 683 0
-1473 660 -684 716 683 0
-1473 660 -684 -716 -683 0
-1473 -660 684 716 683 0
-1473 -660 684 -716 -683 0
-1473 -660 -684 716 -683 0
-1473 -660 -684 -716 683 0
1474 1473 0
-1474 -1473 0
660 684 716 1475 0
-660 -684 -716 1475 0
-1475 -660 684 0
-1475 660 -684 0
-1475 -660 716 0
-1475 660 -716 0
-1475 661 685 717 -684 0
-1475 661 685 -717 684 0
-1475 661 -685 717 684 0
-1475 661 -685 -717 -684 0
-1475 -661 685 717 684 0
-1475 -661 685 -717 -684 0
-1475 -661 -685 717 -684 0
-1475 -661 -685 -717 684 0
1476 1475 0
-1476 -1475 0
661 685 717 1477 0
-661 -685 -717 1477 0
-1477 -661 685 0
-1477 661 -685 0
-1477 -661 717 0
-1477 661 -717 0
-1477 662 686 718 -685 0
-1477 662 686 -718 685 0
-1477 662 -686 718 685 0
-1477 662 -686 -718 -685 0
-1477 -662 686 718 685 0
-1477 -662 686 -718 -685 0
-1477 -662 -686 718 -685 0
-1477 -662 -686 -718 685 0
1478 1477 0
-1478 -1477 0
662 686 718 1479 0
-662 -686 -718 1479 0
-1479 -662 686 0
-1479 662 -686 0
-1479 -662 718 0
-1479 662 -718 0
-1479 663 687 719 -686 0
-1479 663 687 -719 686 0
-1479 663 -687 719 686 0
-1479 663 -687 -719 -686 0
-1479 -663 687 719 686 0
-1479 -663 687 -719 -686 0
-1479 -663 -687 719 -686 0
-1479 -663 -687 -719 686 0
1480 1479 0
-1480 -1479 0
663 687 719 1481 0
-663 -687 -719 1481 0
-1481 -663 687 0
-1481 663 -687 0
-1481 -663 719 0
-1481 663 -719 0
-1481 664 688 720 -687 0
-1481 664 688 -720 687 0
-1481 664 -688 720 687 0
-1481 664 -688 -720 -687 0
-1481 -664 688 720 687 0
-1481 -664 688 -720 -687 0
-1481 -664 -688 720 -687 0
-1481 -664 -688 -720 687 0
1482 1481 0
-1482 -1481 0
664 688 720 1483 0
-664 -688 -720 1483 0
-1483 -664 688 0
-1483 664 -688 0
-1483 -664 720 0
-1483 664 -720 0
-1483 665 689 721 -688 0
-1483 665 689 -721 688 0
-1483 665 -689 721 688 0
-1483 665 -689 -721 -688 0
-1483 -665 689 721 688 0
-1483 -665 689 -721 -688 0
-1483 -665 -689 721 -688 0
-1483 -665 -689 -721 688 0
1484 1483 0
-1484 -1483 0
665 689 721 1485 0
-665 -689 -721 1485 0
-1485 -665 689 0
-1485 665 -689 0
-1485 -665 721 0
-1485 665 -721 0
-1485 666 690 722 -689 0
-1485 666 690 -722 689 0
-1485 666 -690 722 689 0
-1485 666 -690 -722 -689 0
-1485 -666 690 722 689 0
-1485 -666 690 -722 -689 0
-1485 -666 -690 722 -689 0
-1485 -666 -690 -722 689 0
1486 1485 0
-1486 -1485 0
666 690 722 1487 0
-666 -690 -722 1487 0
-1487 -666 690 0
-1487 666 -690 0
-1487 -666 722 0
-1487 666 -722 0
-1487 667 691 723 -690 0
-1487 667 691 -723 690 0
-1487 667 -691 723 690 0
-1487 667 -691 -723 -690 0
-1487 -667 691 723 690 0
-1487 -667 691 -723 -690 0
-1487 -667 -691 723 -690 0
-1487 -667 -691 -723 690 0
1488 1487 0
-1488 -1487 0
667 691 723 1489 0
-667 -691 -723 1489 0
-1489 -667 691 0
-1489 667 -691 0
-1489 -667 723 0
-1489 667 -723 0
-1489 668 692 724 -691 0
-1489 668 692 -724 691 0
-1489 668 -692 724 691 0
-1489 668 -692 -724 -691 0
-1489 -668 692 724 691 0
-1489 -668 692 -724 -691 0
-1489 -668 -692 724 -691 0
-1489 -668 -692 -724 691 0
1490 1489 0
-1490 -1489 0
668 692 724 1491 0
-668 -692 -724 1491 0
-1491 -668 692 0
-1491 668 -692 0
-1491 -668 724 0
-1491 668 -724 0
-1491 669 693 725 -692 0
-1491 669 693 -725 692 0
-1491 669 -693 725 692 0
-1491 669 -693 -725 -692 0
-1491 -669 693 725 692 0
-1491 -669 693 -725 -692 0
-1491 -669 -693 725 -692 0
-1491 -669 -693 -725 692 0
1492 1491 0
-1492 -1491 0
669 693 725 1493 0
-669 -693 -725 1493 0
-1493 -669 693 0
-1493 669 -693 0
-1493 -669 725 0
-1493 669 -725 0
-1493 670 694 726 -693 0
-1493 670 694 -726 693 0
-1493 670 -694 726 693 0
-1493 670 -694 -726 -693 0
-1493 -670 694 726 693 0
-1493 -670 694 -726 -693 0
-1493 -670 -694 726 -693 0
-1493 -670 -694 -726 693 0
1494 1493 0
-1494 -1493 0
670 694 726 1495 0
-670 -694 -726 1495 0
-1495 -670 694 0
-1495 670 -694 0
-1495 -670 726 0
-1495 670 -726 0
-1495 671 695 727 -694 0
-1495 671 695 -727 694 0
-1495 671 -695 727 694 0
-1495 671 -695 -727 -694 0
-1495 -671 695 727 694 0
-1495 -671 695 -727 -694 0
-1495 -671 -695 727 -694 0
-1495 -671 -695 -727 694 0
1496 1495 0
-1496 -1495 0
671 695 727 1497 0
-671 -695 -727 1497 0
-1497 -671 695 0
-1497 671 -695 0
-1497 -671 727 0
-1497 671 -727 0
-1497 672 696 728 -695 0
-1497 672 696 -728 695 0
-1497 672 -696 728 695 0
-1497 672 -696 -728 -695 0
-1497 -672 696 728 695 0
-1497 -672 696 -728 -695 0
-1497 -672 -696 728 -695 0
-1497 -672 -696 -728 695 0
1498 1497 0
-1498 -1497 0
672 696 728 1499 0
-672 -696 -728 1499 0
-1499 -672 696 0
-1499 672 -696 0
-1499 -672 728 0
-1499 672 -728 0
-1499 641 697 729 -696 0
-1499 641 697 -729 696 0
-1499 641 -697 729 696 0
-1499 641 -697 -729 -696 0
-1499 -641 697 729 696 0
-1499 -641 697 -729 -696 0
-1499 -641 -697 729 -696 0
-1499 -641 -697 -729 696 0
1500 1499 0
-1500 -1499 0
641 697 729 1501 0
-641 -697 -729 1501 0
-1501 -641 697 0
-1501 641 -697 0
-1501 -641 729 0
-1501 641 -729 0
-1501 642 698 730 -697 0
-1501 642 698 -730 697 0
-1501 642 -698 730 697 0
-1501 642 -698 -730 -697 0
-1501 -642 698 730 697 0
-1501 -642 698 -730 -697 0
-1501 -642 -698 730 -697 0
-1501 -642 -698 -730 697 0
1502 1501 0
-1502 -1501 0
642 698 730 1503 0
-642 -698 -730 1503 0
-1503 -642 698 0
-1503 642 -698 0
-1503 -642 730 0
-1503 642 -730 0
-1503 643 699 731 -698 0
-1503 643 699 -731 698 0
-1503 643 -699 731 698 0
-1503 643 -699 -731 -698 0
-1503 -643 699 731 698 0
-1503 -643 699 -731 -698 0
-1503 -643 -699 731 -698 0
-1503 -643 -699 -731 698 0
1504 1503 0
-1504 -1503 0
643 699 731 1505 0
-643 -699 -731 1505 0
-1505 -643 699 0
-1505 643 -699 0
-1505 -643 731 0
-1505 643 -731 0
-1505 644 700 732 -699 0
-1505 644 700 -732 699 0
-1505 644 -700 732 699 0
-1505 644 -700 -732 -699 0
-1505 -644 700 732 699 0
-1505 -644 700 -732 -699 0
-1505 -644 -700 732 -699 0
-1505 -644 -700 -732 699 0
1506 1505 0
-1506 -1505 0
644 700 732 1507 0
-644 -700 -732 1507 0
-1507 -644 700 0
-1507 644 -700 0
-1507 -644 732 0
-1507 644 -732 0
-1507 645 701 733 -700 0
-1507 645 701 -733 700 0
-1507 645 -701 733 700 0
-1507 645 -701 -733 -700 0
-1507 -645 701 733 700 0
-1507 -645 701 -733 -700 0
-1507 -645 -701 733 -700 0
-1507 -645 -701 -733 700 0
1508 1507 0
-1508 -1507 0
645 701 733 1509 0
-645 -701 -733 1509 0
-1509 -645 701 0
-1509 645 -701 0
-1509 -645 733 0
-1509 645 -733 0
-1509 646 702 734 -701 0
-1509 646 702 -734 701 0
-1509 646 -702 734 701 0
-1509 646 -702 -734 -701 0
-1509 -646 702 734 701 0
-1509 -646 702 -734 -701 0
-1509 -646 -702 734 -701 0
-1509 -646 -702 -734 701 0
1510 1509 0
-1510 -1509 0
646 702 734 1511 0
-646 -702 -734 1511 0
-1511 -646 702 0
-1511 646 -702 0
-1511 -646 734 0
-1511 646 -734 0
-1511 647 703 735 -702 0
-1511 647 703 -735 702 0
-1511 647 -703 735 702 0
-1511 647 -703 -735 -702 0
-1511 -647 703 735 702 0
-1511 -647 703 -735 -702 0
-1511 -647 -703 735 -702 0
-1511 -647 -703 -735 702 0
1512 1511 0
-1512 -1511 0
647 703 735 1513 0
-647 -703 -735 1513 0
-1513 -647 703 0
-1513 647 -703 0
-1513 -647 735 0
-1513 647 -735 0
-1513 648 704 736 -703 0
-1513 648 704 -736 703 0
-1513 648 -704 736 703 0
-1513 648 -704 -736 -703 0
-1513 -648 704 736 703 0
-1513 -648 704 -736 -703 0
-1513 -648 -704 736 -703 0
-1513 -648 -704 -736 703 0
1514 1513 0
-1514 -1513 0
702 705 -737 0
702 -705 737 0
-702 705 737 0
-702 -705 -737 0
703 706 -738 0
703 -706 738 0
-703 706 738 0
-703 -706 -738 0
704 707 -739 0
704 -707 739 0
-704 707 739 0
-704 -707 -739 0
673 708 -740 0
673 -708 740 0
-673 708 740 0
-673 -708 -740 0
674 709 -741 0
674 -709 741 0
-674 709 741 0
-674 -709 -741 0
675 710 -742 0
675 -710 742 0
-675 710 742 0
-675 -710 -742 0
676 711 -743 0
676 -711 743 0
-676 711 743 0
-676 -711 -743 0
677 712 -744 0
677 -712 744 0
-677 712 744 0
-677 -712 -744 0
678 713 -745 0
678 -713 745 0
-678 713 745 0
-678 -713 -745 0
679 714 -746 0
679 -714 746 0
-679 714 746 0
-679 -714 -746 0
680 715 -747 0
680 -715 747 0
-680 715 747 0
-680 -715 -747 0
681 716 -748 0
681 -716 748 0
-681 716 748 0
-681 -716 -748 0
682 717 -749 0
682 -717 749 0
-682 717 749 0
-682 -717 -749 0
683 718 -750 0
683 -718 750 0
-683 718 750 0
-683 -718 -750 0
684 719 -751 0
684 -719 751 0
-684 719 751 0
-684 -719 -751 0
685 720 -752 0
685 -720 752 0
-685 720 752 0
-685 -720 -752 0
686 721 -753 0
686 -721 753 0
-686 721 753 0
-686 -721 -753 0
687 722 -754 0
687 -722 754 0
-687 722 754 0
-687 -722 -754 0
688 723 -755 0
688 -723 755 0
-688 723 755 0
-688 -723 -755 0
689 724 -756 0
689 -724 756 0
-689 724 756 0
-689 -724 -756 0
690 725 -757 0
690 -725 757 0
-690 725 757 0
-690 -725 -757 0
691 726 -758 0
691 -726 758 0
-691 726 758 0
-691 -726 -758 0
692 727 -759 0
692 -727 759 0
-692 727 759 0
-692 -727 -759 0
693 728 -760 0
693 -728 760 0
-693 728 760 0
-693 -728 -760 0
694 729 -761 0
694 -729 761 0
-694 729 761 0
-694 -729 -761 0
695 730 -762 0
695 -730 762 0
-695 730 762 0
-695 -730 -762 0
696 731 -763 0
696 -731 763 0
-696 731 763 0
-696 -731 -763 0
697 732 -764 0
697 -732 764 0
-697 732 764 0
-697 -732 -764 0
698 733 -765 0
698 -733 765 0
-698 733 765 0
-698 -733 -765 0
699 734 -766 0
699 -734 766 0
-699 734 766 0
-699 -734 -766 0
700 735 -767 0
700 -735 767 0
-700 735 767 0
-700 -735 -767 0
701 736 -768 0
701 -736 768 0
-701 736 768 0
-701 -736 -768 0
713 737 -769 0
713 -737 769 0
-713 737 769 0
-713 -737 -769 0
713 737 769 1515 0
-713 -737 -769 1515 0
-1515 -713 737 0
-1515 713 -737 0
-1515 -713 769 0
-1515 713 -769 0
-1515 714 738 770 -737 0
-1515 714 738 -770 737 0
-1515 714 -738 770 737 0
-1515 714 -738 -770 -737 0
-1515 -714 738 770 737 0
-1515 -714 738 -770 -737 0
-1515 -714 -738 770 -737 0
-1515 -714 -738 -770 737 0
1516 1515 0
-1516 -1515 0
714 738 770 1517 0
-714 -738 -770 1517 0
-1517 -714 738 0
-1517 714 -738 0
-1517 -714 770 0
-1517 714 -770 0
-1517 715 739 771 -738 0
-1517 715 739 -771 738 0
-1517 715 -739 771 738 0
-1517 715 -739 -771 -738 0
-1517 -715 739 771 738 0
-1517 -715 739 -771 -738 0
-1517 -715 -739 771 -738 0
-1517 -715 -739 -771 738 0
1518 1517 0
-1518 -1517 0
715 739 771 1519 0
-715 -739 -771 1519 0
-1519 -715 739 0
-1519 715 -739 0
-1519 -715 771 0
-1519 715 -771 0
-1519 716 740 772 -739 0
-1519 716 740 -772 739 0
-1519 716 -740 772 739 0
-1519 716 -740 -772 -739 0
-1519 -716 740 772 739 0
-1519 -716 740 -772 -739 0
-1519 -716 -740 772 -739 0
-1519 -716 -740 -772 739 0
1520 1519 0
-1520 -1519 0
716 740 772 1521 0
-716 -740 -772 1521 0
-1521 -716 740 0
-1521 716 -740 0
-1521 -716 772 0
-1521 716 -772 0
-1521 717 741 773 -740 0
-1521 717 741 -773 740 0
-1521 717 -741 773 740 0
-1521 717 -741 -773 -740 0
-1521 -717 741 773 740 0
-1521 -717 741 -773 -740 0
-1521 -717 -741 773 -740 0
-1521 -717 -741 -773 740 0
1522 1521 0
-1522 -1521 0
717 741 773 1523 0
-717 -741 -773 1523 0
-1523 -717 741 0
-1523 717 -741 0
-1523 -717 773 0
-1523 717 -773 0
-1523 718 742 774 -741 0
-1523 718 742 -774 741 0
-1523 718 -742 774 741 0
-1523 718 -742 -774 -741 0
-1523 -718 742 774 741 0
-1523 -718 742 -774 -741 0
-1523 -718 -742 774 -741 0
-1523 -718 -742 -774 741 0
1524 1523 0
-1524 -1523 0
718 742 774 1525 0
-718 -742 -774 1525 0
-1525 -718 742 0
-1525 718 -742 0
-1525 -718 774 0
-1525 718 -774 0
-1525 719 743 775 -742 0
-1525 719 743 -775 742 0
-1525 719 -743 775 742 0
-1525 719 -743 -775 -742 0
-1525 -719 743 775 742 0
-1525 -719 743 -775 -742 0
-1525 -719 -743 775 -742 0
-1525 -719 -743 -775 742 0
1526 1525 0
-1526 -1525 0
719 743 775 1527 0
-719 -743 -775 1527 0
-1527 -719 743 0
-1527 719 -743 0
-1527 -719 775 0
-1527 719 -775 0
-1527 720 744 776 -743 0
-1527 720 744 -776 743 0
-1527 720 -744 776 743 0
-1527 720 -744 -776 -743 0
-1527 -720 744 776 743 0
-1527 -720 744 -776 -743 0
-1527 -720 -744 776 -743 0
-1527 -720 -744 -776 743 0
1528 1527 0
-1528 -1527 0
720 744 776 1529 0
-720 -744 -776 1529 0
-1529 -720 744 0
-1529 720 -744 0
-1529 -720 776 0
-1529 720 -776 0
-1529 721 745 777 -744 0
-1529 721 745 -777 744 0
-1529 721 -745 777 744 0
-1529 721 -745 -777 -744 0
-1529 -721 745 777 744 0
-1529 -721 745 -777 -744 0
-1529 -721 -745 777 -744 0
-1529 -721 -745 -777 744 0
1530 1529 0
-1530 -1529 0
721 745 777 1531 0
-721 -745 -777 1531 0
-1531 -721 745 0
-1531 721 -745 0
-1531 -721 777 0
-1531 721 -777 0
-1531 722 746 778 -745 0
-1531 722 746 -778 745 0
-1531 722 -746 778 745 0
-1531 722 -746 -778 -745 0
-1531 -722 746 778 745 0
-1531 -722 746 -778 -745 0
-1531 -722 -746 778 -745 0
-1531 -722 -746 -778 745 0
1532 1531 0
-1532 -1531 0
722 746 778 1533 0
-722 -746 -778 1533 0
-1533 -722 746 0
-1533 722 -746 0
-1533 -722 778 0
-1533 722 -778 0
-1533 723 747 779 -746 0
-1533 723 747 -779 746 0
-1533 723 -747 779 746 0
-1533 723 -747 -779 -746 0
-1533 -723 747 779 746 0
-1533 -723 747 -779 -746 0
-1533 -723 -747 779 -746 0
-1533 -723 -747 -779 746 0
1534 1533 0
-1534 -1533 0
723 747 779 1535 0
-723 -747 -779 1535 0
-1535 -723 747 0
-1535 723 -747 0
-1535 -723 779 0
-1535 723 -779 0
-1535 724 748 780 -747 0
-1535 724 748 -780 747 0
-1535 724 -748 780 747 0
-1535 724 -748 -780 -747 0
-1535 -724 748 780 747 0
-1535 -724 748 -780 -747 0
-1535 -724 -748 780 -747 0
-1535 -724 -748 -780 747 0
1536 1535 0
-1536 -1535 0
724 748 780 1537 0
-724 -748 -780 1537 0
-1537 -724 748 0
-1537 724 -748 0
-1537 -724 780 0
-1537 724 -780 0
-1537 725 749 781 -748 0
-1537 725 749 -781 748 0
-1537 725 -749 781 748 0
-1537 725 -749 -781 -748 0
-1537 -725 749 781 748 0
-1537 -725 749 -781 -748 0
-1537 -725 -749 781 -748 0
-1537 -725 -749 -781 748 0
1538 1537 0
-1538 -1537 0
725 749 781 1539 0
-725 -749 -781 1539 0
-1539 -725 749 0
-1539 725 -749 0
-1539 -725 781 0
-1539 725 -781 0
-1539 726 750 782 -749 0
-1539 726 750 -782 749 0
-1539 726 -750 782 749 0
-1539 726 -750 -782 -749 0
-1539 -726 750 782 749 0
-1539 -726 750 -782 -749 0
-1539 -726 -750 782 -749 0
-1539 -726 -750 -782 749 0
1540 1539 0
-1540 -1539 0
726 750 782 1541 0
-726 -750 -782 1541 0
-1541 -726 750 0
-1541 726 -750 0
-1541 -726 782 0
-1541 726 -782 0
-1541 727 751 783 -750 0
-1541 727 751 -783 750 0
-1541 727 -751 783 750 0
-1541 727 -751 -783 -750 0
-1541 -727 751 783 750 0
-1541 -727 751 -783 -750 0
-1541 -727 -751 783 -750 0
-1541 -727 -751 -783 750 0
1542 1541 0
-1542 -1541 0
727 751 783 1543 0
-727 -751 -783 1543 0
-1543 -727 751 0
-1543 727 -751 0
-1543 -727 783 0
-1543 727 -783 0
-1543 728 752 784 -751 0
-1543 728 752 -784 751 0
-1543 728 -752 784 751 0
-1543 728 -752 -784 -751 0
-1543 -728 752 784 751 0
-1543 -728 752 -784 -751 0
-1543 -728 -752 784 -751 0
-1543 -728 -752 -784 751 0
1544 1543 0
-1544 -1543 0
728 752 784 1545 0
-728 -752 -784 1545 0
-1545 -728 752 0
-1545 728 -752 0
-1545 -728 784 0
-1545 728 -784 0
-1545 729 753 785 -752 0
-1545 729 753 -785 752 0
-1545 729 -753 785 752 0
-1545 729 -753 -785 -752 0
-1545 -729 753 785 752 0
-1545 -729 753 -785 -752 0
-1545 -729 -753 785 -752 0
-1545 -729 -753 -785 752 0
1546 1545 0
-1546 -1545 0
729 753 785 1547 0
-729 -753 -785 1547 0
-1547 -729 753 0
-1547 729 -753 0
-1547 -729 785 0
-1547 729 -785 0
-1547 730 754 786 -753 0
-1547 730 754 -786 753 0
-1547 730 -754 786 753 0
-1547 730 -754 -786 -753 0
-1547 -730 754 786 753 0
-1547 -730 754 -786 -753 0
-1547 -730 -754 786 -753 0
-1547 -730 -754 -786 753 0
1548 1547 0
-1548 -1547 0
730 754 786 1549 0
-730 -754 -786 1549 0
-1549 -730 754 0
-1549 730 -754 0
-1549 -730 786 0
-1549 730 -786 0
-1549 731 755 787 -754 0
-1549 731 755 -787 754 0
-1549 731 -755 787 754 0
-1549 731 -755 -787 -754 0
-1549 -731 755 787 754 0
-1549 -731 755 -787 -754 0
-1549 -731 -755 787 -754 0
-1549 -731 -755 -787 754 0
1550 1549 0
-1550 -1549 0
731 755 787 1551 0
-731 -755 -787 1551 0
-1551 -731 755 0
-1551 731 -755 0
-1551 -731 787 0
-1551 731 -787 0
-1551 732 756 788 -755 0
-1551 732 756 -788 755 0
-1551 732 -756 788 755 0
-1551 732 -756 -788 -755 0
-1551 -732 756 788 755 0
-1551 -732 756 -788 -755 0
-1551 -732 -756 788 -755 0
-1551 -732 -756 -788 755 0
1552 1551 0
-1552 -1551 0
732 756 788 1553 0
-732 -756 -788 1553 0
-1553 -732 756 0
-1553 732 -756 0
-1553 -732 788 0
-1553 732 -788 0
-1553 733 757 789 -756 0
-1553 733 757 -789 756 0
-1553 733 -757 789 756 0
-1553 733 -757 -789 -756 0
-1553 -733 757 789 756 0
-1553 -733 757 -789 -756 0
-1553 -733 -757 789 -756 0
-1553 -733 -757 -789 756 0
1554 1553 0
-1554 -1553 0
733 757 789 1555 0
-733 -757 -789 1555 0
-1555 -733 757 0
-1555 733 -757 0
-1555 -733 789 0
-1555 733 -789 0
-1555 734 758 790 -757 0
-1555 734 758 -790 757 0
-1555 734 -758 790 757 0
-1555 734 -758 -790 -757 0
-1555 -734 758 790 757 0
-1555 -734 758 -790 -757 0
-1555 -734 -758 790 -757 0
-1555 -734 -758 -790 757 0
1556 1555 0
-1556 -1555 0
734 758 790 1557 0
-734 -758 -790 1557 0
-1557 -734 758 0
-1557 734 -758 0
-1557 -734 790 0
-1557 734 -790 0
-1557 735 759 791 -758 0
-1557 735 759 -791 758 0
-1557 735 -759 791 758 0
-1557 735 -759 -791 -758 0
-1557 -735 759 791 758 0
-1557 -735 759 -791 -758 0
-1557 -735 -759 791 -758 0
-1557 -735 -759 -791 758 0
1558 1557 0
-1558 -1557 0
735 759 791 1559 0
-735 -759 -791 1559 0
-1559 -735 759 0
-1559 735 -759 0
-1559 -735 791 0
-1559 735 -791 0
-1559 736 760 792 -759 0
-1559 736 760 -792 759 0
-1559 736 -760 792 759 0
-1559 736 -760 -792 -759 0
-1559 -736 760 792 759 0
-1559 -736 760 -792 -759 0
-1559 -736 -760 792 -759 0
-1559 -736 -760 -792 759 0
1560 1559 0
-1560 -1559 0
736 760 792 1561 0
-736 -760 -792 1561 0
-1561 -736 760 0
-1561 736 -760 0
-1561 -736 792 0
-1561 736 -792 0
-1561 705 761 793 -760 0
-1561 705 761 -793 760 0
-1561 705 -761 793 760 0
-1561 705 -761 -793 -760 0
-1561 -705 761 793 760 0
-1561 -705 761 -793 -760 0
-1561 -705 -761 793 -760 0
-1561 -705 -761 -793 760 0
1562 1561 0
-1562 -1561 0
705 761 793 1563 0
-705 -761 -793 1563 0
-1563 -705 761 0
-1563 705 -761 0
-1563 -705 793 0
-1563 705 -793 0
-1563 706 762 794 -761 0
-1563 706 762 -794 761 0
-1563 706 -762 794 761 0
-1563 706 -762 -794 -761 0
-1563 -706 762 794 761 0
-1563 -706 762 -794 -761 0
-1563 -706 -762 794 -761 0
-1563 -706 -762 -794 761 0
1564 1563 0
-1564 -1563 0
706 762 794 1565 0
-706 -762 -794 1565 0
-1565 -706 762 0
-1565 706 -762 0
-1565 -706 794 0
-1565 706 -794 0
-1565 707 763 795 -762 0
-1565 707 763 -795 762 0
-1565 707 -763 795 762 0
-1565 707 -763 -795 -762 0
-1565 -707 763 795 762 0
-1565 -707 763 -795 -762 0
-1565 -707 -763 795 -762 0
-1565 -707 -763 -795 762 0
1566 1565 0
-1566 -1565 0
707 763 795 1567 0
-707 -763 -795 1567 0
-1567 -707 763 0
-1567 707 -763 0
-1567 -707 795 0
-1567 707 -795 0
-1567 708 764 796 -763 0
-1567 708 764 -796 763 0
-1567 708 -764 796 763 0
-1567 708 -764 -796 -763 0
-1567 -708 764 796 763 0
-1567 -708 764 -796 -763 0
-1567 -708 -764 796 -763 0
-1567 -708 -764 -796 763 0
1568 1567 0
-1568 -1567 0
708 764 796 1569 0
-708 -764 -796 1569 0
-1569 -708 764 0
-1569 708 -764 0
-1569 -708 796 0
-1569 708 -796 0
-1569 709 765 797 -764 0
-1569 709 765 -797 764 0
-1569 709 -765 797 764 0
-1569 709 -765 -797 -764 0
-1569 -709 765 797 764 0
-1569 -709 765 -797 -764 0
-1569 -709 -765 797 -764 0
-1569 -709 -765 -797 764 0
1570 1569 0
-1570 -1569 0
709 765 797 1571 0
-709 -765 -797 1571 0
-1571 -709 765 0
-1571 709 -765 0
-1571 -709 797 0
-1571 709 -797 0
-1571 710 766 798 -765 0
-1571 710 766 -798 765 0
-1571 710 -766 798 765 0
-1571 710 -766 -798 -765 0
-1571 -710 766 798 765 0
-1571 -710 766 -798 -765 0
-1571 -710 -766 798 -765 0
-1571 -710 -766 -798 765 0
1572 1571 0
-1572 -1571 0
710 766 798 1573 0
-710 -766 -798 1573 0
-1573 -710 766 0
-1573 710 -766 0
-1573 -710 798 0
-1573 710 -798 0
-1573 711 767 799 -766 0
-1573 711 767 -799 766 0
-1573 711 -767 799 766 0
-1573 711 -767 -799 -766 0
-1573 -711 767 799 766 0
-1573 -711 767 -799 -766 0
-1573 -711 -767 799 -766 0
-1573 -711 -767 -799 766 0
1574 1573 0
-1574 -1573 0
711 767 799 1575 0
-711 -767 -799 1575 0
-1575 -711 767 0
-1575 711 -767 0
-1575 -711 799 0
-1575 711 -799 0
-1575 712 768 800 -767 0
-1575 712 768 -800 767 0
-1575 712 -768 800 767 0
-1575 712 -768 -800 -767 0
-1575 -712 768 800 767 0
-1575 -712 768 -800 -767 0
-1575 -712 -768 800 -767 0
-1575 -712 -768 -800 767 0
1576 1575 0
-1576 -1575 0
766 769 -801 0
766 -769 801 0
-766 769 801 0
-766 -769 -801 0
767 770 -802 0
767 -770 802 0
-767 770 802 0
-767 -770 -802 0
768 771 -803 0
768 -771 803 0
-768 771 803 0
-768 -771 -803 0
737 772 -804 0
737 -772 804 0
-737 772 804 0
-737 -772 -804 0
738 773 -805 0
738 -773 805 0
-738 773 805 0
-738 -773 -805 0
739 774 -806 0
739 -774 806 0
-739 774 806 0
-739 -774 -806 0
740 775 -807 0
740 -775 807 0
-740 775 807 0
-740 -775 -807 0
741 776 -808 0
741 -776 808 0
-741 776 808 0
-741 -776 -808 0
742 777 -809 0
742 -777 809 0
-742 777 809 0
-742 -777 -809 0
743 778 -810 0
743 -778 810 0
-743 778 810 0
-743 -778 -810 0
744 779 -811 0
744 -779 811 0
-744 779 811 0
-744 -779 -811 0
745 780 -812 0
745 -780 812 0
-745 780 812 0
-745 -780 -812 0
746 781 -813 0
746 -781 813 0
-746 781 813 0
-746 -781 -813 0
747 782 -814 0
747 -782 814 0
-747 782 814 0
-747 -782 -814 0
748 783 -815 0
748 -783 815 0
-748 783 815 0
-748 -783 -815 0
749 784 -816 0
749 -784 816 0
-749 784 816 0
-749 -784 -816 0
750 785 -817 0
750 -785 817 0
-750 785 817 0
-750 -785 -817 0
751 786 -818 0
751 -786 818 0
-751 786 818 0
-751 -786 -818 0
752 787 -819 0
752 -787 819 0
-752 787 819 0
-752 -787 -819 0
753 788 -820 0
753 -788 820 0
-753 788 820 0
-753 -788 -820 0
754 789 -821 0
754 -789 821 0
-754 789 821 0
-754 -789 -821 0
755 790 -822 0
755 -790 822 0
-755 790 822 0
-755 -790 -822 0
756 791 -823 0
756 -791 823 0
-756 791 823 0
-756 -791 -823 0
757 792 -824 0
757 -792 824 0
-757 792 824 0
-757 -792 -824 0
758 793 -825 0
758 -793 825 0
-758 793 825 0
-758 -793 -825 0
759 794 -826 0
759 -794 826 0
-759 794 826 0
-759 -794 -826 0
760 795 -827 0
760 -795 827 0
-760 795 827 0
-760 -795 -827 0
761 796 -828 0
761 -796 828 0
-761 796 828 0
-761 -796 -828 0
762 797 -829 0
762 -797 829 0
-762 797 829 0
-762 -797 -829 0
763 798 -830 0
763 -798 830 0
-763 798 830 0
-763 -798 -830 0
764 799 -831 0
764 -799 831 0
-764 799 831 0
-764 -799 -831 0
765 800 -832 0
765 -800 832 0
-765 800 832 0
-765 -800 -832 0
-1578 0
-1579 0
-1580 0
-1581 0
-1582 0
-1583 0
-1584 0
-1585 0
-1586 0
-1587 0
-1588 0
-1589 0
-1590 0
-1591 0
-1592 0
-1593 0
-1594 0
-1595 0
-1596 0
-1597 0
-1598 0
-1599 0
-1600 0
-1601 0
-1602 0
-1603 0
-1604 0
-1605 0
-1606 0
-1607 0
-1608 0
-1609 0
-1610 0
-1611 0
-1612 0
-1613 0
-1614 0
-1615 0
-1616 0
-1617 0
-1618 0
-1619 0
-1620 0
-1621 0
-1622 0
-1623 0
-1624 0
-1625 0
-1626 0
-1627 0
-834 1577 0
-836 1628 0
-838 1679 0
-840 1730 0
-842 1781 0
-844 1832 0
-846 1883 0
-848 1934 0
-850 1985 0
-852 2036 0
-854 2087 0
-856 2138 0
-858 2189 0
-860 2240 0
-862 2291 0
-864 2342 0
-866 2393 0
-868 2444 0
-870 2495 0
-872 2546 0
-874 2597 0
-876 2648 0
-878 2699 0
-880 2750 0
-882 2801 0
-884 2852 0
-886 2903 0
-888 2954 0
-890 3005 0
-892 3056 0
-894 3107 0
-896 3158 0
-898 3209 0
-900 3260 0
-902 3311 0
-904 3362 0
-906 3413 0
-908 3464 0
-910 3515 0
-912 3566 0
-914 3617 0
-916 3668 0
-918 3719 0
-920 3770 0
-922 3821 0
-924 3872 0
-926 3923 0
-928 3974 0
-930 4025 0
-932 4076 0
-934 4127 0
-936 4178 0
-938 4229 0
-940 4280 0
-942 4331 0
-944 4382 0
-946 4433 0
-948 4484 0
-950 4535 0
-952 4586 0
-954 4637 0
-956 4688 0
-958 4739 0
-960 4790 0
-962 4841 0
-964 4892 0
-966 4943 0
-968 4994 0
-970 5045 0
-972 5096 0
-974 5147 0
-976 5198 0
-978 5249 0
-980 5300 0
-982 5351 0
-984 5402 0
-986 5453 0
-988 5504 0
-990 5555 0
-992 5606 0
-994 5657 0
-996 5708 0
-998 5759 0
-1000 5810 0
-1002 5861 0
-1004 5912 0
-1006 5963 0
-1008 6014 0
-1010 6065 0
-1012 6116 0
-1014 6167 0
-1016 6218 0
-1018 6269 0
-1020 6320 0
-1022 6371 0
-1024 6422 0
-1026 6473 0
-1028 6524 0
-1030 6575 0
-1032 6626 0
-1034 6677 0
-1036 6728 0
-1038 6779 0
-1040 6830 0
-1042 6881 0
-1044 6932 0
-1046 6983 0
-1048 7034 0
-1050 7085 0
-1052 7136 0
-1054 7187 0
-1056 7238 0
-1058 7289 0
-1060 7340 0
-1062 7391 0
-1064 7442 0
-1066 7493 0
-1068 7544 0
-1070 7595 0
-1072 7646 0
-1074 7697 0
-1076 7748 0
-1078 7799 0
-1080 7850 0
-1082 7901 0
-1084 7952 0
-1086 8003 0
-1088 8054 0
-1090 8105 0
-1092 8156 0
-1094 8207 0
-1096 8258 0
-1098 8309 0
-1100 8360 0
-1102 8411 0
-1104 8462 0
-1106 8513 0
-1108 8564 0
-1110 8615 0
-1112 8666 0
-1114 8717 0
-1116 8768 0
-1118 8819 0
-1120 8870 0
-1122 8921 0
-1124 8972 0
-1126 9023 0
-1128 9074 0
-1130 9125 0
-1132 9176 0
-1134 9227 0
-1136 9278 0
-1138 9329 0
-1140 9380 0
-1142 9431 0
-1144 9482 0
-1146 9533 0
-1148 9584 0
-1150 9635 0
-1152 9686 0
-1154 9737 0
-1156 9788 0
-1158 9839 0
-1160 9890 0
-1162 9941 0
-1164 9992 0
-1166 10043 0
-1168 10094 0
-1170 10145 0
-1172 10196 0
-1174 10247 0
-1176 10298 0
-1178 10349 0
-1180 10400 0
-1182 10451 0
-1184 10502 0
-1186 10553 0
-1188 10604 0
-1190 10655 0
-1192 10706 0
-1194 10757 0
-1196 10808 0
-1198 10859 0
-1200 10910 0
-1202 10961 0
-1204 11012 0
-1206 11063 0
-1208 11114 0
-1210 11165 0
-1212 11216 0
-1214 11267 0
-1216 11318 0
-1218 11369 0
-1220 11420 0
-1222 11471 0
-1224 11522 0
-1226 11573 0
-1228 11624 0
-1230 11675 0
-1232 11726 0
-1234 11777 0
-1236 11828 0
-1238 11879 0
-1240 11930 0
-1242 11981 0
-1244 12032 0
-1246 12083 0
-1248 12134 0
-1250 12185 0
-1252 12236 0
-1254 12287 0
-1256 12338 0
-1258 12389 0
-1260 12440 0
-1262 12491 0
-1264 12542 0
-1266 12593 0
-1268 12644 0
-1270 12695 0
-1272 12746 0
-1274 12797 0
-1276 12848 0
-1278 12899 0
-1280 12950 0
-1282 13001 0
-1284 13052 0
-1286 13103 0
-1288 13154 0
-1290 13205 0
-1292 13256 0
-1294 13307 0
-1296 13358 0
-1298 13409 0
-1300 13460 0
-1302 13511 0
-1304 13562 0
-1306 13613 0
-1308 13664 0
-1310 13715 0
-1312 13766 0
-1314 13817 0
-1316 13868 0
-1318 13919 0
-1320 13970 0
-1322 14021 0
-1324 14072 0
-1326 14123 0
-1328 14174 0
-1330 14225 0
-1332 14276 0
-1334 14327 0
-1336 14378 0
-1338 14429 0
-1340 14480 0
-1342 14531 0
-1344 14582 0
-1346 14633 0
-1348 14684 0
-1350 14735 0
-1352 14786 0
-1354 14837 0
-1356 14888 0
-1358 14939 0
-1360 14990 0
-1362 15041 0
-1364 15092 0
-1366 15143 0
-1368 15194 0
-1370 15245 0
-1372 15296 0
-1374 15347 0
-1376 15398 0
-1378 15449 0
-1380 15500 0
-1382 15551 0
-1384 15602 0
-1386 15653 0
-1388 15704 0
-1390 15755 0
-1392 15806 0
-1394 15857 0
-1396 15908 0
-1398 15959 0
-1400 16010 0
-1402 16061 0
-1404 16112 0
-1406 16163 0
-1408 16214 0
-1410 16265 0
-1412 16316 0
-1414 16367 0
-1416 16418 0
-1418 16469 0
-1420 16520 0
-1422 16571 0
-1424 16622 0
-1426 16673 0
-1428 16724 0
-1430 16775 0
-1432 16826 0
-1434 16877 0
-1436 16928 0
-1438 16979 0
-1440 17030 0
-1442 17081 0
-1444 17132 0
-1446 17183 0
-1448 17234 0
-1450 17285 0
-1452 17336 0
-1454 17387 0
-1456 17438 0
-1458 17489 0
-1460 17540 0
-1462 17591 0
-1464 17642 0
-1466 17693 0
-1468 17744 0
-1470 17795 0
-1472 17846 0
-1474 17897 0
-1476 17948 0
-1478 17999 0
-1480 18050 0
-1482 18101 0
-1484 18152 0
-1486 18203 0
-1488 18254 0
-1490 18305 0
-1492 18356 0
-1494 18407 0
-1496 18458 0
-1498 18509 0
-1500 18560 0
-1502 18611 0
-1504 18662 0
-1506 18713 0
-1508 18764 0
-1510 18815 0
-1512 18866 0
-1514 18917 0
-1516 18968 0
-1518 19019 0
-1520 19070 0
-1522 19121 0
-1524 19172 0
-1526 19223 0
-1528 19274 0
-1530 19325 0
-1532 19376 0
-1534 19427 0
-1536 19478 0
-1538 19529 0
-1540 19580 0
-1542 19631 0
-1544 19682 0
-1546 19733 0
-1548 19784 0
-1550 19835 0
-1552 19886 0
-1554 19937 0
-1556 19988 0
-1558 20039 0
-1560 20090 0
-1562 20141 0
-1564 20192 0
-1566 20243 0
-1568 20294 0
-1570 20345 0
-1572 20396 0
-1574 20447 0
-1576 20498 0
-1577 1628 0
-1578 1629 0
-1579 1630 0
-1580 1631 0
-1581 1632 0
-1582 1633 0
-1583 1634 0
-1584 1635 0
-1585 1636 0
-1586 1637 0
-1587 1638 0
-1588 1639 0
-1589 1640 0
-1590 1641 0
-1591 1642 0
-1592 1643 0
-1593 1644 0
-1594 1645 0
-1595 1646 0
-1596 1647 0
-1597 1648 0
-1598 1649 0
-1599 1650 0
-1600 1651 0
-1601 1652 0
-1602 1653 0
-1603 1654 0
-1604 1655 0
-1605 1656 0
-1606 1657 0
-1607 1658 0
-1608 1659 0
-1609 1660 0
-1610 1661 0
-1611 1662 0
-1612 1663 0
-1613 1664 0
-1614 1665 0
-1615 1666 0
-1616 1667 0
-1617 1668 0
-1618 1669 0
-1619 1670 0
-1620 1671 0
-1621 1672 0
-1622 1673 0
-1623 1674 0
-1624 1675 0
-1625 1676 0
-1626 1677 0
-1627 1678 0
-836 -1577 1629 0
-836 -1578 1630 0
-836 -1579 1631 0
-836 -1580 1632 0
-836 -1581 1633 0
-836 -1582 1634 0
-836 -1583 1635 0
-836 -1584 1636 0
-836 -1585 1637 0
-836 -1586 1638 0
-836 -1587 1639 0
-836 -1588 1640 0
-836 -1589 1641 0
-836 -1590 1642 0
-836 -1591 1643 0
-836 -1592 1644 0
-836 -1593 1645 0
-836 -1594 1646 0
-836 -1595 1647 0
-836 -1596 1648 0
-836 -1597 1649 0
-836 -1598 1650 0
-836 -1599 1651 0
-836 -1600 1652 0
-836 -1601 1653 0
-836 -1602 1654 0
-836 -1603 1655 0
-836 -1604 1656 0
-836 -1605 1657 0
-836 -1606 1658 0
-836 -1607 1659 0
-836 -1608 1660 0
-836 -1609 1661 0
-836 -1610 1662 0
-836 -1611 1663 0
-836 -1612 1664 0
-836 -1613 1665 0
-836 -1614 1666 0
-836 -1615 1667 0
-836 -1616 1668 0
-836 -1617 1669 0
-836 -1618 1670 0
-836 -1619 1671 0
-836 -1620 1672 0
-836 -1621 1673 0
-836 -1622 1674 0
-836 -1623 1675 0
-836 -1624 1676 0
-836 -1625 1677 0
-836 -1626 1678 0
-836 -1627 0
-1628 1679 0
-1629 1680 0
-1630 1681 0
-1631 1682 0
-1632 1683 0
-1633 1684 0
-1634 1685 0
-1635 1686 0
-1636 1687 0
-1637 1688 0
-1638 1689 0
-1639 1690 0
-1640 1691 0
-1641 1692 0
-1642 1693 0
-1643 1694 0
-1644 1695 0
-1645 1696 0
-1646 1697 0
-1647 1698 0
-1648 1699 0
-1649 1700 0
-1650 1701 0
-1651 1702 0
-1652 1703 0
-1653 1704 0
-1654 1705 0
-1655 1706 0
-1656 1707 0
-1657 1708 0
-1658 1709 0
-1659 1710 0
-1660 1711 0
-1661 1712 0
-1662 1713 0
-1663 1714 0
-1664 1715 0
-1665 1716 0
-1666 1717 0
-1667 1718 0
-1668 1719 0
-1669 1720 0
-1670 1721 0
-1671 1722 0
-1672 1723 0
-1673 1724 0
-1674 1725 0
-1675 1726 0
-1676 1727 0
-1677 1728 0
-1678 1729 0
-838 -1628 1680 0
-838 -1629 1681 0
-838 -1630 1682 0
-838 -1631 1683 0
-838 -1632 1684 0
-838 -1633 1685 0
-838 -1634 1686 0
-838 -1635 1687 0
-838 -1636 1688 0
-838 -1637 1689 0
-838 -1638 1690 0
-838 -1639 1691 0
-838 -1640 1692 0
-838 -1641 1693 0
-838 -1642 1694 0
-838 -1643 1695 0
-838 -1644 1696 0
-838 -1645 1697 0
-838 -1646 1698 0
-838 -1647 1699 0
-838 -1648 1700 0
-838 -1649 1701 0
-838 -1650 1702 0
-838 -1651 1703 0
-838 -1652 1704 0
-838 -1653 1705 0
-838 -1654 1706 0
-838 -1655 1707 0
-838 -1656 1708 0
-838 -1657 1709 0
-838 -1658 1710 0
-838 -1659 1711 0
-838 -1660 1712 0
-838 -1661 1713 0
-838 -1662 1714 0
-838 -1663 1715 0
-838 -1664 1716 0
-838 -1665 1717 0
-838 -1666 1718 0
-838 -1667 1719 0
-838 -1668 1720 0
-838 -1669 1721 0
-838 -1670 1722 0
-838 -1671 1723 0
-838 -1672 1724 0
-838 -1673 1725 0
-838 -1674 1726 0
-838 -1675 1727 0
-838 -1676 1728 0
-838 -1677 1729 0
-838 -1678 0
-1679 1730 0
-1680 1731 0
-1681 1732 0
-1682 1733 0
-1683 1734 0
-1684 1735 0
-1685 1736 0
-1686 1737 0
-1687 1738 0
-1688 1739 0
-1689 1740 0
-1690 1741 0
-1691 1742 0
-1692 1743 0
-1693 1744 0
-1694 1745 0
-1695 1746 0
-1696 1747 0
-1697 1748 0
-1698 1749 0
-1699 1750 0
-1700 1751 0
-1701 1752 0
-1702 1753 0
-1703 1754 0
-1704 1755 0
-1705 1756 0
-1706 1757 0
-1707 1758 0
-1708 1759 0
-1709 1760 0
-1710 1761 0
-1711 1762 0
-1712 1763 0
-1713 1764 0
-1714 1765 0
-1715 1766 0
-1716 1767 0
-1717 1768 0
-1718 1769 0
-1719 1770 0
-1720 1771 0
-1721 1772 0
-1722 1773 0
-1723 1774 0
-1724 1775 0
-1725 1776 0
-1726 1777 0
-1727 1778 0
-1728 1779 0
-1729 1780 0
-840 -1679 1731 0
-840 -1680 1732 0
-840 -1681 1733 0
-840 -1682 1734 0
-840 -1683 1735 0
-840 -1684 1736 0
-840 -1685 1737 0
-840 -1686 1738 0
-840 -1687 1739 0
-840 -1688 1740 0
-840 -1689 1741 0
-840 -1690 1742 0
-840 -1691 1743 0
-840 -1692 1744 0
-840 -1693 1745 0
-840 -1694 1746 0
-840 -1695 1747 0
-840 -1696 1748 0
-840 -1697 1749 0
-840 -1698 1750 0
-840 -1699 1751 0
-840 -1700 1752 0
-840 -1701 1753 0
-840 -1702 1754 0
-840 -1703 1755 0
-840 -1704 1756 0
-840 -1705 1757 0
-840 -1706 1758 0
-840 -1707 1759 0
-840 -1708 1760 0
-840 -1709 1761 0
-840 -1710 1762 0
-840 -1711 1763 0
-840 -1712 1764 0
-840 -1713 1765 0
-840 -1714 1766 0
-840 -1715 1767 0
-840 -1716 1768 0
-840 -1717 1769 0
-840 -1718 1770 0
-840 -1719 1771 0
-840 -1720 1772 0
-840 -1721 1773 0
-840 -1722 1774 0
-840 -1723 1775 0
-840 -1724 1776 0
-840 -1725 1777 0
-840 -1726 1778 0
-840 -1727 1779 0
-840 -1728 1780 0
-840 -1729 0
-1730 1781 0
-1731 1782 0
-1732 1783 0
-1733 1784 0
-1734 1785 0
-1735 1786 0
-1736 1787 0
-1737 1788 0
-1738 1789 0
-1739 1790 0
-1740 1791 0
-1741 1792 0
-1742 1793 0
-1743 1794 0
-1744 1795 0
-1745 1796 0
-1746 1797 0
-1747 1798 0
-1748 1799 0
-1749 1800 0
-1750 1801 0
-1751 1802 0
-1752 1803 0
-1753 1804 0
-1754 1805 0
-1755 1806 0
-1756 1807 0
-1757 1808 0
-1758 1809 0
-1759 1810 0
-1760 1811 0
-1761 1812 0
-1762 1813 0
-1763 1814 0
-1764 1815 0
-1765 1816 0
-1766 1817 0
-1767 1818 0
-1768 1819 0
-1769 1820 0
-1770 1821 0
-1771 1822 0
-1772 1823 0
-1773 1824 0
-1774 1825 0
-1775 1826 0
-1776 1827 0
-1777 1828 0
-1778 1829 0
-1779 1830 0
-1780 1831 0
-842 -1730 1782 0
-842 -1731 1783 0
-842 -1732 1784 0
-842 -1733 1785 0
-842 -1734 1786 0
-842 -1735 1787 0
-842 -1736 1788 0
-842 -1737 1789 0
-842 -1738 1790 0
-842 -1739 1791 0
-842 -1740 1792 0
-842 -1741 1793 0
-842 -1742 1794 0
-842 -1743 1795 0
-842 -1744 1796 0
-842 -1745 1797 0
-842 -1746 1798 0
-842 -1747 1799 0
-842 -1748 1800 0
-842 -1749 1801 0
-842 -1750 1802 0
-842 -1751 1803 0
-842 -1752 1804 0
-842 -1753 1805 0
-842 -1754 1806 0
-842 -1755 1807 0
-842 -1756 1808 0
-842 -1757 1809 0
-842 -1758 1810 0
-842 -1759 1811 0
-842 -1760 1812 0
-842 -1761 1813 0
-842 -1762 1814 0
-842 -1763 1815 0
-842 -1764 1816 0
-842 -1765 1817 0
-842 -1766 1818 0
-842 -1767 1819 0
-842 -1768 1820 0
-842 -1769 1821 0
-842 -1770 1822 0
-842 -1771 1823 0
-842 -1772 1824 0
-842 -1773 1825 0
-842 -1774 1826 0
-842 -1775 1827 0
-842 -1776 1828 0
-842 -1777 1829 0
-842 -1778 1830 0
-842 -1779 1831 0
-842 -1780 0
-1781 1832 0
-1782 1833 0
-1783 1834 0
-1784 1835 0
-1785 1836 0
-1786 1837 0
-1787 1838 0
-1788 1839 0
-1789 1840 0
-1790 1841 0
-1791 1842 0
-1792 1843 0
-1793 1844 0
-1794 1845 0
-1795 1846 0
-1796 1847 0
-1797 1848 0
-1798 1849 0
-1799 1850 0
-1800 1851 0
-1801 1852 0
-1802 1853 0
-1803 1854 0
-1804 1855 0
-1805 1856 0
-1806 1857 0
-1807 1858 0
-1808 1859 0
-1809 1860 0
-1810 1861 0
-1811 1862 0
-1812 1863 0
-1813 1864 0
-1814 1865 0
-1815 1866 0
-1816 1867 0
-1817 1868 0
-1818 1869 0
-1819 1870 0
-1820 1871 0
-1821 1872 0
-1822 1873 0
-1823 1874 0
-1824 1875 0
-1825 1876 0
-1826 1877 0
-1827 1878 0
-1828 1879 0
-1829 1880 0
-1830 1881 0
-1831 1882 0
-844 -1781 1833 0
-844 -1782 1834 0
-844 -1783 1835 0
-844 -1784 1836 0
-844 -1785 1837 0
-844 -1786 1838 0
-844 -1787 1839 0
-844 -1788 1840 0
-844 -1789 1841 0
-844 -1790 1842 0
-844 -1791 1843 0
-844 -1792 1844 0
-844 -1793 1845 0
-844 -1794 1846 0
-844 -1795 1847 0
-844 -1796 1848 0
-844 -1797 1849 0
-844 -1798 1850 0
-844 -1799 1851 0
-844 -1800 1852 0
-844 -1801 1853 0
-844 -1802 1854 0
-844 -1803 1855 0
-844 -1804 1856 0
-844 -1805 1857 0
-844 -1806 1858 0
-844 -1807 1859 0
-844 -1808 1860 0
-844 -1809 1861 0
-844 -1810 1862 0
-844 -1811 1863 0
-844 -1812 1864 0
-844 -1813 1865 0
-844 -1814 1866 0
-844 -1815 1867 0
-844 -1816 1868 0
-844 -1817 1869 0
-844 -1818 1870 0
-844 -1819 1871 0
-844 -1820 1872 0
-844 -1821 1873 0
-844 -1822 1874 0
-844 -1823 1875 0
-844 -1824 1876 0
-844 -1825 1877 0
-844 -1826 1878 0
-844 -1827 1879 0
-844 -1828 1880 0
-844 -1829 1881 0
-844 -1830 1882 0
-844 -1831 0
-1832 1883 0
-1833 1884 0
-1834 1885 0
-1835 1886 0
-1836 1887 0
-1837 1888 0
-1838 1889 0
-1839 1890 0
-1840 1891 0
-1841 1892 0
-1842 1893 0
-1843 1894 0
-1844 1895 0
-1845 1896 0
-1846 1897 0
-1847 1898 0
-1848 1899 0
-1849 1900 0
-1850 1901 0
-1851 1902 0
-1852 1903 0
-1853 1904 0
-1854 1905 0
-1855 1906 0
-1856 1907 0
-1857 1908 0
-1858 1909 0
-1859 1910 0
-1860 1911 0
-1861 1912 0
-1862 1913 0
-1863 1914 0
-1864 1915 0
-1865 1916 0
-1866 1917 0
-1867 1918 0
-1868 1919 0
-1869 1920 0
-1870 1921 0
-1871 1922 0
-1872 1923 0
-1873 1924 0
-1874 1925 0
-1875 1926 0
-1876 1927 0
-1877 1928 0
-1878 1929 0
-1879 1930 0
-1880 1931 0
-1881 1932 0
-1882 1933 0
-846 -1832 1884 0
-846 -1833 1885 0
-846 -1834 1886 0
-846 -1835 1887 0
-846 -1836 1888 0
-846 -1837 1889 0
-846 -1838 1890 0
-846 -1839 1891 0
-846 -1840 1892 0
-846 -1841 1893 0
-846 -1842 1894 0
-846 -1843 1895 0
-846 -1844 1896 0
-846 -1845 1897 0
-846 -1846 1898 0
-846 -1847 1899 0
-846 -1848 1900 0
-846 -1849 1901 0
-846 -1850 1902 0
-846 -1851 1903 0
-846 -1852 1904 0
-846 -1853 1905 0
-846 -1854 1906 0
-846 -1855 1907 0
-846 -1856 1908 0
-846 -1857 1909 0
-846 -1858 1910 0
-846 -1859 1911 0
-846 -1860 1912 0
-846 -1861 1913 0
-846 -1862 1914 0
-846 -1863 1915 0
-846 -1864 1916 0
-846 -1865 1917 0
-846 -1866 1918 0
-846 -1867 1919 0
-846 -1868 1920 0
-846 -1869 1921 0
-846 -1870 1922 0
-846 -1871 1923 0
-846 -1872 1924 0
-846 -1873 1925 0
-846 -1874 1926 0
-846 -1875 1927 0
-846 -1876 1928 0
-846 -1877 1929 0
-846 -1878 1930 0
-846 -1879 1931 0
-846 -1880 1932 0
-846 -1881 1933 0
-846 -1882 0
-1883 1934 0
-1884 1935 0
-1885 1936 0
-1886 1937 0
-1887 1938 0
-1888 1939 0
-1889 1940 0
-1890 1941 0
-1891 1942 0
-1892 1943 0
-1893 1944 0
-1894 1945 0
-1895 1946 0
-1896 1947 0
-1897 1948 0
-1898 1949 0
-1899 1950 0
-1900 1951 0
-1901 1952 0
-1902 1953 0
-1903 1954 0
-1904 1955 0
-1905 1956 0
-1906 1957 0
-1907 1958 0
-1908 1959 0
-1909 1960 0
-1910 1961 0
-1911 1962 0
-1912 1963 0
-1913 1964 0
-1914 1965 0
-1915 1966 0
-1916 1967 0
-1917 1968 0
-1918 1969 0
-1919 1970 0
-1920 1971 0
-1921 1972 0
-1922 1973 0
-1923 1974 0
-1924 1975 0
-1925 1976 0
-1926 1977 0
-1927 1978 0
-1928 1979 0
-1929 1980 0
-1930 1981 0
-1931 1982 0
-1932 1983 0
-1933 1984 0
-848 -1883 1935 0
-848 -1884 1936 0
-848 -1885 1937 0
-848 -1886 1938 0
-848 -1887 1939 0
-848 -1888 1940 0
-848 -1889 1941 0
-848 -1890 1942 0
-848 -1891 1943 0
-848 -1892 1944 0
-848 -1893 1945 0
-848 -1894 1946 0
-848 -1895 1947 0
-848 -1896 1948 0
-848 -1897 1949 0
-848 -1898 1950 0
-848 -1899 1951 0
-848 -1900 1952 0
-848 -1901 1953 0
-848 -1902 1954 0
-848 -1903 1955 0
-848 -1904 1956 0
-848 -1905 1957 0
-848 -1906 1958 0
-848 -1907 1959 0
-848 -1908 1960 0
-848 -1909 1961 0
-848 -1910 1962 0
-848 -1911 1963 0
-848 -1912 1964 0
-848 -1913 1965 0
-848 -1914 1966 0
-848 -1915 1967 0
-848 -1916 1968 0
-848 -1917 1969 0
-848 -1918 1970 0
-848 -1919 1971 0
-848 -1920 1972 0
-848 -1921 1973 0
-848 -1922 1974 0
-848 -1923 1975 0
-848 -1924 1976 0
-848 -1925 1977 0
-848 -1926 1978 0
-848 -1927 1979 0
-848 -1928 1980 0
-848 -1929 1981 0
-848 -1930 1982 0
-848 -1931 1983 0
-848 -1932 1984 0
-848 -1933 0
-1934 1985 0
-1935 1986 0
-1936 1987 0
-1937 1988 0
-1938 1989 0
-1939 1990 0
-1940 1991 0
-1941 1992 0
-1942 1993 0
-1943 1994 0
-1944 1995 0
-1945 1996 0
-1946 1997 0
-1947 1998 0
-1948 1999 0
-1949 2000 0
-1950 2001 0
-1951 2002 0
-1952 2003 0
-1953 2004 0
-1954 2005 0
-1955 2006 0
-1956 2007 0
-1957 2008 0
-1958 2009 0
-1959 2010 0
-1960 2011 0
-1961 2012 0
-1962 2013 0
-1963 2014 0
-1964 2015 0
-1965 2016 0
-1966 2017 0
-1967 2018 0
-1968 2019 0
-1969 2020 0
-1970 2021 0
-1971 2022 0
-1972 2023 0
-1973 2024 0
-1974 2025 0
-1975 2026 0
-1976 2027 0
-1977 2028 0
-1978 2029 0
-1979 2030 0
-1980 2031 0
-1981 2032 0
-1982 2033 0
-1983 2034 0
-1984 2035 0
-850 -1934 1986 0
-850 -1935 1987 0
-850 -1936 1988 0
-850 -1937 1989 0
-850 -1938 1990 0
-850 -1939 1991 0
-850 -1940 1992 0
-850 -1941 1993 0
-850 -1942 1994 0
-850 -1943 1995 0
-850 -1944 1996 0
-850 -1945 1997 0
-850 -1946 1998 0
-850 -1947 1999 0
-850 -1948 2000 0
-850 -1949 2001 0
-850 -1950 2002 0
-850 -1951 2003 0
-850 -1952 2004 0
-850 -1953 2005 0
-850 -1954 2006 0
-850 -1955 2007 0
-850 -1956 2008 0
-850 -1957 2009 0
-850 -1958 2010 0
-850 -1959 2011 0
-850 -1960 2012 0
-850 -1961 2013 0
-850 -1962 2014 0
-850 -1963 2015 0
-850 -1964 2016 0
-850 -1965 2017 0
-850 -1966 2018 0
-850 -1967 2019 0
-850 -1968 2020 0
-850 -1969 2021 0
-850 -1970 2022 0
-850 -1971 2023 0
-850 -1972 2024 0
-850 -1973 2025 0
-850 -1974 2026 0
-850 -1975 2027 0
-850 -1976 2028 0
-850 -1977 2029 0
-850 -1978 2030 0
-850 -1979 2031 0
-850 -1980 2032 0
-850 -1981 2033 0
-850 -1982 2034 0
-850 -1983 2035 0
-850 -1984 0
-1985 2036 0
-1986 2037 0
-1987 2038 0
-1988 2039 0
-1989 2040 0
-1990 2041 0
-1991 2042 0
-1992 2043 0
-1993 2044 0
-1994 2045 0
-1995 2046 0
-1996 2047 0
-1997 2048 0
-1998 2049 0
-1999 2050 0
-2000 2051 0
-2001 2052 0
-2002 2053 0
-2003 2054 0
-2004 2055 0
-2005 2056 0
-2006 2057 0
-2007 2058 0
-2008 2059 0
-2009 2060 0
-2010 2061 0
-2011 2062 0
-2012 2063 0
-2013 2064 0
-2014 2065 0
-2015 2066 0
-2016 2067 0
-2017 2068 0
-2018 2069 0
-2019 2070 0
-2020 2071 0
-2021 2072 0
-2022 2073 0
-2023 2074 0
-2024 2075 0
-2025 2076 0
-2026 2077 0
-2027 2078 0
-2028 2079 0
-2029 2080 0
-2030 2081 0
-2031 2082 0
-2032 2083 0
-2033 2084 0
-2034 2085 0
-2035 2086 0
-852 -1985 2037 0
-852 -1986 2038 0
-852 -1987 2039 0
-852 -1988 2040 0
-852 -1989 2041 0
-852 -1990 2042 0
-852 -1991 2043 0
-852 -1992 2044 0
-852 -1993 2045 0
-852 -1994 2046 0
-852 -1995 2047 0
-852 -1996 2048 0
-852 -1997 2049 0
-852 -1998 2050 0
-852 -1999 2051 0
-852 -2000 2052 0
-852 -2001 2053 0
-852 -2002 2054 0
-852 -2003 2055 0
-852 -2004 2056 0
-852 -2005 2057 0
-852 -2006 2058 0
-852 -2007 2059 0
-852 -2008 2060 0
-852 -2009 2061 0
-852 -2010 2062 0
-852 -2011 2063 0
-852 -2012 2064 0
-852 -2013 2065 0
-852 -2014 2066 0
-852 -2015 2067 0
-852 -2016 2068 0
-852 -2017 2069 0
-852 -2018 2070 0
-852 -2019 2071 0
-852 -2020 2072 0
-852 -2021 2073 0
-852 -2022 2074 0
-852 -2023 2075 0
-852 -2024 2076 0
-852 -2025 2077 0
-852 -2026 2078 0
-852 -2027 2079 0
-852 -2028 2080 0
-852 -2029 2081 0
-852 -2030 2082 0
-852 -2031 2083 0
-852 -2032 2084 0
-852 -2033 2085 0
-852 -2034 2086 0
-852 -2035 0
-2036 2087 0
-2037 2088 0
-2038 2089 0
-2039 2090 0
-2040 2091 0
-2041 2092 0
-2042 2093 0
-2043 2094 0
-2044 2095 0
-2045 2096 0
-2046 2097 0
-2047 2098 0
-2048 2099 0
-2049 2100 0
-2050 2101 0
-2051 2102 0
-2052 2103 0
-2053 2104 0
-2054 2105 0
-2055 2106 0
-2056 2107 0
-2057 2108 0
-2058 2109 0
-2059 2110 0
-2060 2111 0
-2061 2112 0
-2062 2113 0
-2063 2114 0
-2064 2115 0
-2065 2116 0
-2066 2117 0
-2067 2118 0
-2068 2119 0
-2069 2120 0
-2070 2121 0
-2071 2122 0
-2072 2123 0
-2073 2124 0
-2074 2125 0
-2075 2126 0
-2076 2127 0
-2077 2128 0
-2078 2129 0
-2079 2130 0
-2080 2131 0
-2081 2132 0
-2082 2133 0
-2083 2134 0
-2084 2135 0
-2085 2136 0
-2086 2137 0
-854 -2036 2088 0
-854 -2037 2089 0
-854 -2038 2090 0
-854 -2039 2091 0
-854 -2040 2092 0
-854 -2041 2093 0
-854 -2042 2094 0
-854 -2043 2095 0
-854 -2044 2096 0
-854 -2045 2097 0
-854 -2046 2098 0
-854 -2047 2099 0
-854 -2048 2100 0
-854 -2049 2101 0
-854 -2050 2102 0
-854 -2051 2103 0
-854 -2052 2104 0
-854 -2053 2105 0
-854 -2054 2106 0
-854 -2055 2107 0
-854 -2056 2108 0
-854 -2057 2109 0
-854 -2058 2110 0
-854 -2059 2111 0
-854 -2060 2112 0
-854 -2061 2113 0
-854 -2062 2114 0
-854 -2063 2115 0
-854 -2064 2116 0
-854 -2065 2117 0
-854 -2066 2118 0
-854 -2067 2119 0
-854 -2068 2120 0
-854 -2069 2121 0
-854 -2070 2122 0
-854 -2071 2123 0
-854 -2072 2124 0
-854 -2073 2125 0
-854 -2074 2126 0
-854 -2075 2127 0
-854 -2076 2128 0
-854 -2077 2129 0
-854 -2078 2130 0
-854 -2079 2131 0
-854 -2080 2132 0
-854 -2081 2133 0
-854 -2082 2134 0
-854 -2083 2135 0
-854 -2084 2136 0
-854 -2085 2137 0
-854 -2086 0
-2087 2138 0
-2088 2139 0
-2089 2140 0
-2090 2141 0
-2091 2142 0
-2092 2143 0
-2093 2144 0
-2094 2145 0
-2095 2146 0
-2096 2147 0
-2097 2148 0
-2098 2149 0
-2099 2150 0
-2100 2151 0
-2101 2152 0
-2102 2153 0
-2103 2154 0
-2104 2155 0
-2105 2156 0
-2106 2157 0
-2107 2158 0
-2108 2159 0
-2109 2160 0
-2110 2161 0
-2111 2162 0
-2112 2163 0
-2113 2164 0
-2114 2165 0
-2115 2166 0
-2116 2167 0
-2117 2168 0
-2118 2169 0
-2119 2170 0
-2120 2171 0
-2121 2172 0
-2122 2173 0
-2123 2174 0
-2124 2175 0
-2125 2176 0
-2126 2177 0
-2127 2178 0
-2128 2179 0
-2129 2180 0
-2130 2181 0
-2131 2182 0
-2132 2183 0
-2133 2184 0
-2134 2185 0
-2135 2186 0
-2136 2187 0
-2137 2188 0
-856 -2087 2139 0
-856 -2088 2140 0
-856 -2089 2141 0
-856 -2090 2142 0
-856 -2091 2143 0
-856 -2092 2144 0
-856 -2093 2145 0
-856 -2094 2146 0
-856 -2095 2147 0
-856 -2096 2148 0
-856 -2097 2149 0
-856 -2098 2150 0
-856 -2099 2151 0
-856 -2100 2152 0
-856 -2101 2153 0
-856 -2102 2154 0
-856 -2103 2155 0
-856 -2104 2156 0
-856 -2105 2157 0
-856 -2106 2158 0
-856 -2107 2159 0
-856 -2108 2160 0
-856 -2109 2161 0
-856 -2110 2162 0
-856 -2111 2163 0
-856 -2112 2164 0
-856 -2113 2165 0
-856 -2114 2166 0
-856 -2115 2167 0
-856 -2116 2168 0
-856 -2117 2169 0
-856 -2118 2170 0
-856 -2119 2171 0
-856 -2120 2172 0
-856 -2121 2173 0
-856 -2122 2174 0
-856 -2123 2175 0
-856 -2124 2176 0
-856 -2125 2177 0
-856 -2126 2178 0
-856 -2127 2179 0
-856 -2128 2180 0
-856 -2129 2181 0
-856 -2130 2182 0
-856 -2131 2183 0
-856 -2132 2184 0
-856 -2133 2185 0
-856 -2134 2186 0
-856 -2135 2187 0
-856 -2136 2188 0
-856 -2137 0
-2138 2189 0
-2139 2190 0
-2140 2191 0
-2141 2192 0
-2142 2193 0
-2143 2194 0
-2144 2195 0
-2145 2196 0
-2146 2197 0
-2147 2198 0
-2148 2199 0
-2149 2200 0
-2150 2201 0
-2151 2202 0
-2152 2203 0
-2153 2204 0
-2154 2205 0
-2155 2206 0
-2156 2207 0
-2157 2208 0
-2158 2209 0
-2159 2210 0
-2160 2211 0
-2161 2212 0
-2162 2213 0
-2163 2214 0
-2164 2215 0
-2165 2216 0
-2166 2217 0
-2167 2218 0
-2168 2219 0
-2169 2220 0
-2170 2221 0
-2171 2222 0
-2172 2223 0
-2173 2224 0
-2174 2225 0
-2175 2226 0
-2176 2227 0
-2177 2228 0
-2178 2229 0
-2179 2230 0
-2180 2231 0
-2181 2232 0
-2182 2233 0
-2183 2234 0
-2184 2235 0
-2185 2236 0
-2186 2237 0
-2187 2238 0
-2188 2239 0
-858 -2138 2190 0
-858 -2139 2191 0
-858 -2140 2192 0
-858 -2141 2193 0
-858 -2142 2194 0
-858 -2143 2195 0
-858 -2144 2196 0
-858 -2145 2197 0
-858 -2146 2198 0
-858 -2147 2199 0
-858 -2148 2200 0
-858 -2149 2201 0
-858 -2150 2202 0
-858 -2151 2203 0
-858 -2152 2204 0
-858 -2153 2205 0
-858 -2154 2206 0
-858 -2155 2207 0
-858 -2156 2208 0
-858 -2157 2209 0
-858 -2158 2210 0
-858 -2159 2211 0
-858 -2160 2212 0
-858 -2161 2213 0
-858 -2162 2214 0
-858 -2163 2215 0
-858 -2164 2216 0
-858 -2165 2217 0
-858 -2166 2218 0
-858 -2167 2219 0
-858 -2168 2220 0
-858 -2169 2221 0
-858 -2170 2222 0
-858 -2171 2223 0
-858 -2172 2224 0
-858 -2173 2225 0
-858 -2174 2226 0
-858 -2175 2227 0
-858 -2176 2228 0
-858 -2177 2229 0
-858 -2178 2230 0
-858 -2179 2231 0
-858 -2180 2232 0
-858 -2181 2233 0
-858 -2182 2234 0
-858 -2183 2235 0
-858 -2184 2236 0
-858 -2185 2237 0
-858 -2186 2238 0
-858 -2187 2239 0
-858 -2188 0
-2189 2240 0
-2190 2241 0
-2191 2242 0
-2192 2243 0
-2193 2244 0
-2194 2245 0
-2195 2246 0
-2196 2247 0
-2197 2248 0
-2198 2249 0
-2199 2250 0
-2200 2251 0
-2201 2252 0
-2202 2253 0
-2203 2254 0
-2204 2255 0
-2205 2256 0
-2206 2257 0
-2207 2258 0
-2208 2259 0
-2209 2260 0
-2210 2261 0
-2211 2262 0
-2212 2263 0
-2213 2264 0
-2214 2265 0
-2215 2266 0
-2216 2267 0
-2217 2268 0
-2218 2269 0
-2219 2270 0
-2220 2271 0
-2221 2272 0
-2222 2273 0
-2223 2274 0
-2224 2275 0
-2225 2276 0
-2226 2277 0
-2227 2278 0
-2228 2279 0
-2229 2280 0
-2230 2281 0
-2231 2282 0
-2232 2283 0
-2233 2284 0
-2234 2285 0
-2235 2286 0
-2236 2287 0
-2237 2288 0
-2238 2289 0
-2239 2290 0
-860 -2189 2241 0
-860 -2190 2242 0
-860 -2191 2243 0
-860 -2192 2244 0
-860 -2193 2245 0
-860 -2194 2246 0
-860 -2195 2247 0
-860 -2196 2248 0
-860 -2197 2249 0
-860 -2198 2250 0
-860 -2199 2251 0
-860 -2200 2252 0
-860 -2201 2253 0
-860 -2202 2254 0
-860 -2203 2255 0
-860 -2204 2256 0
-860 -2205 2257 0
-860 -2206 2258 0
-860 -2207 2259 0
-860 -2208 2260 0
-860 -2209 2261 0
-860 -2210 2262 0
-860 -2211 2263 0
-860 -2212 2264 0
-860 -2213 2265 0
-860 -2214 2266 0
-860 -2215 2267 0
-860 -2216 2268 0
-860 -2217 2269 0
-860 -2218 2270 0
-860 -2219 2271 0
-860 -2220 2272 0
-860 -2221 2273 0
-860 -2222 2274 0
-860 -2223 2275 0
-860 -2224 2276 0
-860 -2225 2277 0
-860 -2226 2278 0
-860 -2227 2279 0
-860 -2228 2280 0
-860 -2229 2281 0
-860 -2230 2282 0
-860 -2231 2283 0
-860 -2232 2284 0
-860 -2233 2285 0
-860 -2234 2286 0
-860 -2235 2287 0
-860 -2236 2288 0
-860 -2237 2289 0
-860 -2238 2290 0
-860 -2239 0
-2240 2291 0
-2241 2292 0
-2242 2293 0
-2243 2294 0
-2244 2295 0
-2245 2296 0
-2246 2297 0
-2247 2298 0
-2248 2299 0
-2249 2300 0
-2250 2301 0
-2251 2302 0
-2252 2303 0
-2253 2304 0
-2254 2305 0
-2255 2306 0
-2256 2307 0
-2257 2308 0
-2258 2309 0
-2259 2310 0
-2260 2311 0
-2261 2312 0
-2262 2313 0
-2263 2314 0
-2264 2315 0
-2265 2316 0
-2266 2317 0
-2267 2318 0
-2268 2319 0
-2269 2320 0
-2270 2321 0
-2271 2322 0
-2272 2323 0
-2273 2324 0
-2274 2325 0
-2275 2326 0
-2276 2327 0
-2277 2328 0
-2278 2329 0
-2279 2330 0
-2280 2331 0
-2281 2332 0
-2282 2333 0
-2283 2334 0
-2284 2335 0
-2285 2336 0
-2286 2337 0
-2287 2338 0
-2288 2339 0
-2289 2340 0
-2290 2341 0
-862 -2240 2292 0
-862 -2241 2293 0
-862 -2242 2294 0
-862 -2243 2295 0
-862 -2244 2296 0
-862 -2245 2297 0
-862 -2246 2298 0
-862 -2247 2299 0
-862 -2248 2300 0
-862 -2249 2301 0
-862 -2250 2302 0
-862 -2251 2303 0
-862 -2252 2304 0
-862 -2253 2305 0
-862 -2254 2306 0
-862 -2255 2307 0
-862 -2256 2308 0
-862 -2257 2309 0
-862 -2258 2310 0
-862 -2259 2311 0
-862 -2260 2312 0
-862 -2261 2313 0
-862 -2262 2314 0
-862 -2263 2315 0
-862 -2264 2316 0
-862 -2265 2317 0
-862 -2266 2318 0
-862 -2267 2319 0
-862 -2268 2320 0
-862 -2269 2321 0
-862 -2270 2322 0
-862 -2271 2323 0
-862 -2272 2324 0
-862 -2273 2325 0
-862 -2274 2326 0
-862 -2275 2327 0
-862 -2276 2328 0
-862 -2277 2329 0
-862 -2278 2330 0
-862 -2279 2331 0
-862 -2280 2332 0
-862 -2281 2333 0
-862 -2282 2334 0
-862 -2283 2335 0
-862 -2284 2336 0
-862 -2285 2337 0
-862 -2286 2338 0
-862 -2287 2339 0
-862 -2288 2340 0
-862 -2289 2341 0
-862 -2290 0
-2291 2342 0
-2292 2343 0
-2293 2344 0
-2294 2345 0
-2295 2346 0
-2296 2347 0
-2297 2348 0
-2298 2349 0
-2299 2350 0
-2300 2351 0
-2301 2352 0
-2302 2353 0
-2303 2354 0
-2304 2355 0
-2305 2356 0
-2306 2357 0
-2307 2358 0
-2308 2359 0
-2309 2360 0
-2310 2361 0
-2311 2362 0
-2312 2363 0
-2313 2364 0
-2314 2365 0
-2315 2366 0
-2316 2367 0
-2317 2368 0
-2318 2369 0
-2319 2370 0
-2320 2371 0
-2321 2372 0
-2322 2373 0
-2323 2374 0
-2324 2375 0
-2325 2376 0
-2326 2377 0
-2327 2378 0
-2328 2379 0
-2329 2380 0
-2330 2381 0
-2331 2382 0
-2332 2383 0
-2333 2384 0
-2334 2385 0
-2335 2386 0
-2336 2387 0
-2337 2388 0
-2338 2389 0
-2339 2390 0
-2340 2391 0
-2341 2392 0
-864 -2291 2343 0
-864 -2292 2344 0
-864 -2293 2345 0
-864 -2294 2346 0
-864 -2295 2347 0
-864 -2296 2348 0
-864 -2297 2349 0
-864 -2298 2350 0
-864 -2299 2351 0
-864 -2300 2352 0
-864 -2301 2353 0
-864 -2302 2354 0
-864 -2303 2355 0
-864 -2304 2356 0
-864 -2305 2357 0
-864 -2306 2358 0
-864 -2307 2359 0
-864 -2308 2360 0
-864 -2309 2361 0
-864 -2310 2362 0
-864 -2311 2363 0
-864 -2312 2364 0
-864 -2313 2365 0
-864 -2314 2366 0
-864 -2315 2367 0
-864 -2316 2368 0
-864 -2317 2369 0
-864 -2318 2370 0
-864 -2319 2371 0
-864 -2320 2372 0
-864 -2321 2373 0
-864 -2322 2374 0
-864 -2323 2375 0
-864 -2324 2376 0
-864 -2325 2377 0
-864 -2326 2378 0
-864 -2327 2379 0
-864 -2328 2380 0
-864 -2329 2381 0
-864 -2330 2382 0
-864 -2331 2383 0
-864 -2332 2384 0
-864 -2333 2385 0
-864 -2334 2386 0
-864 -2335 2387 0
-864 -2336 2388 0
-864 -2337 2389 0
-864 -2338 2390 0
-864 -2339 2391 0
-864 -2340 2392 0
-864 -2341 0
-2342 2393 0
-2343 2394 0
-2344 2395 0
-2345 2396 0
-2346 2397 0
-2347 2398 0
-2348 2399 0
-2349 2400 0
-2350 2401 0
-2351 2402 0
-2352 2403 0
-2353 2404 0
-2354 2405 0
-2355 2406 0
-2356 2407 0
-2357 2408 0
-2358 2409 0
-2359 2410 0
-2360 2411 0
-2361 2412 0
-2362 2413 0
-2363 2414 0
-2364 2415 0
-2365 2416 0
-2366 2417 0
-2367 2418 0
-2368 2419 0
-2369 2420 0
-2370 2421 0
-2371 2422 0
-2372 2423 0
-2373 2424 0
-2374 2425 0
-2375 2426 0
-2376 2427 0
-2377 2428 0
-2378 2429 0
-2379 2430 0
-2380 2431 0
-2381 2432 0
-2382 2433 0
-2383 2434 0
-2384 2435 0
-2385 2436 0
-2386 2437 0
-2387 2438 0
-2388 2439 0
-2389 2440 0
-2390 2441 0
-2391 2442 0
-2392 2443 0
-866 -2342 2394 0
-866 -2343 2395 0
-866 -2344 2396 0
-866 -2345 2397 0
-866 -2346 2398 0
-866 -2347 2399 0
-866 -2348 2400 0
-866 -2349 2401 0
-866 -2350 2402 0
-866 -2351 2403 0
-866 -2352 2404 0
-866 -2353 2405 0
-866 -2354 2406 0
-866 -2355 2407 0
-866 -2356 2408 0
-866 -2357 2409 0
-866 -2358 2410 0
-866 -2359 2411 0
-866 -2360 2412 0
-866 -2361 2413 0
-866 -2362 2414 0
-866 -2363 2415 0
-866 -2364 2416 0
-866 -2365 2417 0
-866 -2366 2418 0
-866 -2367 2419 0
-866 -2368 2420 0
-866 -2369 2421 0
-866 -2370 2422 0
-866 -2371 2423 0
-866 -2372 2424 0
-866 -2373 2425 0
-866 -2374 2426 0
-866 -2375 2427 0
-866 -2376 2428 0
-866 -2377 2429 0
-866 -2378 2430 0
-866 -2379 2431 0
-866 -2380 2432 0
-866 -2381 2433 0
-866 -2382 2434 0
-866 -2383 2435 0
-866 -2384 2436 0
-866 -2385 2437 0
-866 -2386 2438 0
-866 -2387 2439 0
-866 -2388 2440 0
-866 -2389 2441 0
-866 -2390 2442 0
-866 -2391 2443 0
-866 -2392 0
-2393 2444 0
-2394 2445 0
-2395 2446 0
-2396 2447 0
-2397 2448 0
-2398 2449 0
-2399 2450 0
-2400 2451 0
-2401 2452 0
-2402 2453 0
-2403 2454 0
-2404 2455 0
-2405 2456 0
-2406 2457 0
-2407 2458 0
-2408 2459 0
-2409 2460 0
-2410 2461 0
-2411 2462 0
-2412 2463 0
-2413 2464 0
-2414 2465 0
-2415 2466 0
-2416 2467 0
-2417 2468 0
-2418 2469 0
-2419 2470 0
-2420 2471 0
-2421 2472 0
-2422 2473 0
-2423 2474 0
-2424 2475 0
-2425 2476 0
-2426 2477 0
-2427 2478 0
-2428 2479 0
-2429 2480 0
-2430 2481 0
-2431 2482 0
-2432 2483 0
-2433 2484 0
-2434 2485 0
-2435 2486 0
-2436 2487 0
-2437 2488 0
-2438 2489 0
-2439 2490 0
-2440 2491 0
-2441 2492 0
-2442 2493 0
-2443 2494 0
-868 -2393 2445 0
-868 -2394 2446 0
-868 -2395 2447 0
-868 -2396 2448 0
-868 -2397 2449 0
-868 -2398 2450 0
-868 -2399 2451 0
-868 -2400 2452 0
-868 -2401 2453 0
-868 -2402 2454 0
-868 -2403 2455 0
-868 -2404 2456 0
-868 -2405 2457 0
-868 -2406 2458 0
-868 -2407 2459 0
-868 -2408 2460 0
-868 -2409 2461 0
-868 -2410 2462 0
-868 -2411 2463 0
-868 -2412 2464 0
-868 -2413 2465 0
-868 -2414 2466 0
-868 -2415 2467 0
-868 -2416 2468 0
-868 -2417 2469 0
-868 -2418 2470 0
-868 -2419 2471 0
-868 -2420 2472 0
-868 -2421 2473 0
-868 -2422 2474 0
-868 -2423 2475 0
-868 -2424 2476 0
-868 -2425 2477 0
-868 -2426 2478 0
-868 -2427 2479 0
-868 -2428 2480 0
-868 -2429 2481 0
-868 -2430 2482 0
-868 -2431 2483 0
-868 -2432 2484 0
-868 -2433 2485 0
-868 -2434 2486 0
-868 -2435 2487 0
-868 -2436 2488 0
-868 -2437 2489 0
-868 -2438 2490 0
-868 -2439 2491 0
-868 -2440 2492 0
-868 -2441 2493 0
-868 -2442 2494 0
-868 -2443 0
-2444 2495 0
-2445 2496 0
-2446 2497 0
-2447 2498 0
-2448 2499 0
-2449 2500 0
-2450 2501 0
-2451 2502 0
-2452 2503 0
-2453 2504 0
-2454 2505 0
-2455 2506 0
-2456 2507 0
-2457 2508 0
-2458 2509 0
-2459 2510 0
-2460 2511 0
-2461 2512 0
-2462 2513 0
-2463 2514 0
-2464 2515 0
-2465 2516 0
-2466 2517 0
-2467 2518 0
-2468 2519 0
-2469 2520 0
-2470 2521 0
-2471 2522 0
-2472 2523 0
-2473 2524 0
-2474 2525 0
-2475 2526 0
-2476 2527 0
-2477 2528 0
-2478 2529 0
-2479 2530 0
-2480 2531 0
-2481 2532 0
-2482 2533 0
-2483 2534 0
-2484 2535 0
-2485 2536 0
-2486 2537 0
-2487 2538 0
-2488 2539 0
-2489 2540 0
-2490 2541 0
-2491 2542 0
-2492 2543 0
-2493 2544 0
-2494 2545 0
-870 -2444 2496 0
-870 -2445 2497 0
-870 -2446 2498 0
-870 -2447 2499 0
-870 -2448 2500 0
-870 -2449 2501 0
-870 -2450 2502 0
-870 -2451 2503 0
-870 -2452 2504 0
-870 -2453 2505 0
-870 -2454 2506 0
-870 -2455 2507 0
-870 -2456 2508 0
-870 -2457 2509 0
-870 -2458 2510 0
-870 -2459 2511 0
-870 -2460 2512 0
-870 -2461 2513 0
-870 -2462 2514 0
-870 -2463 2515 0
-870 -2464 2516 0
-870 -2465 2517 0
-870 -2466 2518 0
-870 -2467 2519 0
-870 -2468 2520 0
-870 -2469 2521 0
-870 -2470 2522 0
-870 -2471 2523 0
-870 -2472 2524 0
-870 -2473 2525 0
-870 -2474 2526 0
-870 -2475 2527 0
-870 -2476 2528 0
-870 -2477 2529 0
-870 -2478 2530 0
-870 -2479 2531 0
-870 -2480 2532 0
-870 -2481 2533 0
-870 -2482 2534 0
-870 -2483 2535 0
-870 -2484 2536 0
-870 -2485 2537 0
-870 -2486 2538 0
-870 -2487 2539 0
-870 -2488 2540 0
-870 -2489 2541 0
-870 -2490 2542 0
-870 -2491 2543 0
-870 -2492 2544 0
-870 -2493 2545 0
-870 -2494 0
-2495 2546 0
-2496 2547 0
-2497 2548 0
-2498 2549 0
-2499 2550 0
-2500 2551 0
-2501 2552 0
-2502 2553 0
-2503 2554 0
-2504 2555 0
-2505 2556 0
-2506 2557 0
-2507 2558 0
-2508 2559 0
-2509 2560 0
-2510 2561 0
-2511 2562 0
-2512 2563 0
-2513 2564 0
-2514 2565 0
-2515 2566 0
-2516 2567 0
-2517 2568 0
-2518 2569 0
-2519 2570 0
-2520 2571 0
-2521 2572 0
-2522 2573 0
-2523 2574 0
-2524 2575 0
-2525 2576 0
-2526 2577 0
-2527 2578 0
-2528 2579 0
-2529 2580 0
-2530 2581 0
-2531 2582 0
-2532 2583 0
-2533 2584 0
-2534 2585 0
-2535 2586 0
-2536 2587 0
-2537 2588 0
-2538 2589 0
-2539 2590 0
-2540 2591 0
-2541 2592 0
-2542 2593 0
-2543 2594 0
-2544 2595 0
-2545 2596 0
-872 -2495 2547 0
-872 -2496 2548 0
-872 -2497 2549 0
-872 -2498 2550 0
-872 -2499 2551 0
-872 -2500 2552 0
-872 -2501 2553 0
-872 -2502 2554 0
-872 -2503 2555 0
-872 -2504 2556 0
-872 -2505 2557 0
-872 -2506 2558 0
-872 -2507 2559 0
-872 -2508 2560 0
-872 -2509 2561 0
-872 -2510 2562 0
-872 -2511 2563 0
-872 -2512 2564 0
-872 -2513 2565 0
-872 -2514 2566 0
-872 -2515 2567 0
-872 -2516 2568 0
-872 -2517 2569 0
-872 -2518 2570 0
-872 -2519 2571 0
-872 -2520 2572 0
-872 -2521 2573 0
-872 -2522 2574 0
-872 -2523 2575 0
-872 -2524 2576 0
-872 -2525 2577 0
-872 -2526 2578 0
-872 -2527 2579 0
-872 -2528 2580 0
-872 -2529 2581 0
-872 -2530 2582 0
-872 -2531 2583 0
-872 -2532 2584 0
-872 -2533 2585 0
-872 -2534 2586 0
-872 -2535 2587 0
-872 -2536 2588 0
-872 -2537 2589 0
-872 -2538 2590 0
-872 -2539 2591 0
-872 -2540 2592 0
-872 -2541 2593 0
-872 -2542 2594 0
-872 -2543 2595 0
-872 -2544 2596 0
-872 -2545 0
-2546 2597 0
-2547 2598 0
-2548 2599 0
-2549 2600 0
-2550 2601 0
-2551 2602 0
-2552 2603 0
-2553 2604 0
-2554 2605 0
-2555 2606 0
-2556 2607 0
-2557 2608 0
-2558 2609 0
-2559 2610 0
-2560 2611 0
-2561 2612 0
-2562 2613 0
-2563 2614 0
-2564 2615 0
-2565 2616 0
-2566 2617 0
-2567 2618 0
-2568 2619 0
-2569 2620 0
-2570 2621 0
-2571 2622 0
-2572 2623 0
-2573 2624 0
-2574 2625 0
-2575 2626 0
-2576 2627 0
-2577 2628 0
-2578 2629 0
-2579 2630 0
-2580 2631 0
-2581 2632 0
-2582 2633 0
-2583 2634 0
-2584 2635 0
-2585 2636 0
-2586 2637 0
-2587 2638 0
-2588 2639 0
-2589 2640 0
-2590 2641 0
-2591 2642 0
-2592 2643 0
-2593 2644 0
-2594 2645 0
-2595 2646 0
-2596 2647 0
-874 -2546 2598 0
-874 -2547 2599 0
-874 -2548 2600 0
-874 -2549 2601 0
-874 -2550 2602 0
-874 -2551 2603 0
-874 -2552 2604 0
-874 -2553 2605 0
-874 -2554 2606 0
-874 -2555 2607 0
-874 -2556 2608 0
-874 -2557 2609 0
-874 -2558 2610 0
-874 -2559 2611 0
-874 -2560 2612 0
-874 -2561 2613 0
-874 -2562 2614 0
-874 -2563 2615 0
-874 -2564 2616 0
-874 -2565 2617 0
-874 -2566 2618 0
-874 -2567 2619 0
-874 -2568 2620 0
-874 -2569 2621 0
-874 -2570 2622 0
-874 -2571 2623 0
-874 -2572 2624 0
-874 -2573 2625 0
-874 -2574 2626 0
-874 -2575 2627 0
-874 -2576 2628 0
-874 -2577 2629 0
-874 -2578 2630 0
-874 -2579 2631 0
-874 -2580 2632 0
-874 -2581 2633 0
-874 -2582 2634 0
-874 -2583 2635 0
-874 -2584 2636 0
-874 -2585 2637 0
-874 -2586 2638 0
-874 -2587 2639 0
-874 -2588 2640 0
-874 -2589 2641 0
-874 -2590 2642 0
-874 -2591 2643 0
-874 -2592 2644 0
-874 -2593 2645 0
-874 -2594 2646 0
-874 -2595 2647 0
-874 -2596 0
-2597 2648 0
-2598 2649 0
-2599 2650 0
-2600 2651 0
-2601 2652 0
-2602 2653 0
-2603 2654 0
-2604 2655 0
-2605 2656 0
-2606 2657 0
-2607 2658 0
-2608 2659 0
-2609 2660 0
-2610 2661 0
-2611 2662 0
-2612 2663 0
-2613 2664 0
-2614 2665 0
-2615 2666 0
-2616 2667 0
-2617 2668 0
-2618 2669 0
-2619 2670 0
-2620 2671 0
-2621 2672 0
-2622 2673 0
-2623 2674 0
-2624 2675 0
-2625 2676 0
-2626 2677 0
-2627 2678 0
-2628 2679 0
-2629 2680 0
-2630 2681 0
-2631 2682 0
-2632 2683 0
-2633 2684 0
-2634 2685 0
-2635 2686 0
-2636 2687 0
-2637 2688 0
-2638 2689 0
-2639 2690 0
-2640 2691 0
-2641 2692 0
-2642 2693 0
-2643 2694 0
-2644 2695 0
-2645 2696 0
-2646 2697 0
-2647 2698 0
-876 -2597 2649 0
-876 -2598 2650 0
-876 -2599 2651 0
-876 -2600 2652 0
-876 -2601 2653 0
-876 -2602 2654 0
-876 -2603 2655 0
-876 -2604 2656 0
-876 -2605 2657 0
-876 -2606 2658 0
-876 -2607 2659 0
-876 -2608 2660 0
-876 -2609 2661 0
-876 -2610 2662 0
-876 -2611 2663 0
-876 -2612 2664 0
-876 -2613 2665 0
-876 -2614 2666 0
-876 -2615 2667 0
-876 -2616 2668 0
-876 -2617 2669 0
-876 -2618 2670 0
-876 -2619 2671 0
-876 -2620 2672 0
-876 -2621 2673 0
-876 -2622 2674 0
-876 -2623 2675 0
-876 -2624 2676 0
-876 -2625 2677 0
-876 -2626 2678 0
-876 -2627 2679 0
-876 -2628 2680 0
-876 -2629 2681 0
-876 -2630 2682 0
-876 -2631 2683 0
-876 -2632 2684 0
-876 -2633 2685 0
-876 -2634 2686 0
-876 -2635 2687 0
-876 -2636 2688 0
-876 -2637 2689 0
-876 -2638 2690 0
-876 -2639 2691 0
-876 -2640 2692 0
-876 -2641 2693 0
-876 -2642 2694 0
-876 -2643 2695 0
-876 -2644 2696 0
-876 -2645 2697 0
-876 -2646 2698 0
-876 -2647 0
-2648 2699 0
-2649 2700 0
-2650 2701 0
-2651 2702 0
-2652 2703 0
-2653 2704 0
-2654 2705 0
-2655 2706 0
-2656 2707 0
-2657 2708 0
-2658 2709 0
-2659 2710 0
-2660 2711 0
-2661 2712 0
-2662 2713 0
-2663 2714 0
-2664 2715 0
-2665 2716 0
-2666 2717 0
-2667 2718 0
-2668 2719 0
-2669 2720 0
-2670 2721 0
-2671 2722 0
-2672 2723 0
-2673 2724 0
-2674 2725 0
-2675 2726 0
-2676 2727 0
-2677 2728 0
-2678 2729 0
-2679 2730 0
-2680 2731 0
-2681 2732 0
-2682 2733 0
-2683 2734 0
-2684 2735 0
-2685 2736 0
-2686 2737 0
-2687 2738 0
-2688 2739 0
-2689 2740 0
-2690 2741 0
-2691 2742 0
-2692 2743 0
-2693 2744 0
-2694 2745 0
-2695 2746 0
-2696 2747 0
-2697 2748 0
-2698 2749 0
-878 -2648 2700 0
-878 -2649 2701 0
-878 -2650 2702 0
-878 -2651 2703 0
-878 -2652 2704 0
-878 -2653 2705 0
-878 -2654 2706 0
-878 -2655 2707 0
-878 -2656 2708 0
-878 -2657 2709 0
-878 -2658 2710 0
-878 -2659 2711 0
-878 -2660 2712 0
-878 -2661 2713 0
-878 -2662 2714 0
-878 -2663 2715 0
-878 -2664 2716 0
-878 -2665 2717 0
-878 -2666 2718 0
-878 -2667 2719 0
-878 -2668 2720 0
-878 -2669 2721 0
-878 -2670 2722 0
-878 -2671 2723 0
-878 -2672 2724 0
-878 -2673 2725 0
-878 -2674 2726 0
-878 -2675 2727 0
-878 -2676 2728 0
-878 -2677 2729 0
-878 -2678 2730 0
-878 -2679 2731 0
-878 -2680 2732 0
-878 -2681 2733 0
-878 -2682 2734 0
-878 -2683 2735 0
-878 -2684 2736 0
-878 -2685 2737 0
-878 -2686 2738 0
-878 -2687 2739 0
-878 -2688 2740 0
-878 -2689 2741 0
-878 -2690 2742 0
-878 -2691 2743 0
-878 -2692 2744 0
-878 -2693 2745 0
-878 -2694 2746 0
-878 -2695 2747 0
-878 -2696 2748 0
-878 -2697 2749 0
-878 -2698 0
-2699 2750 0
-2700 2751 0
-2701 2752 0
-2702 2753 0
-2703 2754 0
-2704 2755 0
-2705 2756 0
-2706 2757 0
-2707 2758 0
-2708 2759 0
-2709 2760 0
-2710 2761 0
-2711 2762 0
-2712 2763 0
-2713 2764 0
-2714 2765 0
-2715 2766 0
-2716 2767 0
-2717 2768 0
-2718 2769 0
-2719 2770 0
-2720 2771 0
-2721 2772 0
-2722 2773 0
-2723 2774 0
-2724 2775 0
-2725 2776 0
-2726 2777 0
-2727 2778 0
-2728 2779 0
-2729 2780 0
-2730 2781 0
-2731 2782 0
-2732 2783 0
-2733 2784 0
-2734 2785 0
-2735 2786 0
-2736 2787 0
-2737 2788 0
-2738 2789 0
-2739 2790 0
-2740 2791 0
-2741 2792 0
-2742 2793 0
-2743 2794 0
-2744 2795 0
-2745 2796 0
-2746 2797 0
-2747 2798 0
-2748 2799 0
-2749 2800 0
-880 -2699 2751 0
-880 -2700 2752 0
-880 -2701 2753 0
-880 -2702 2754 0
-880 -2703 2755 0
-880 -2704 2756 0
-880 -2705 2757 0
-880 -2706 2758 0
-880 -2707 2759 0
-880 -2708 2760 0
-880 -2709 2761 0
-880 -2710 2762 0
-880 -2711 2763 0
-880 -2712 2764 0
-880 -2713 2765 0
-880 -2714 2766 0
-880 -2715 2767 0
-880 -2716 2768 0
-880 -2717 2769 0
-880 -2718 2770 0
-880 -2719 2771 0
-880 -2720 2772 0
-880 -2721 2773 0
-880 -2722 2774 0
-880 -2723 2775 0
-880 -2724 2776 0
-880 -2725 2777 0
-880 -2726 2778 0
-880 -2727 2779 0
-880 -2728 2780 0
-880 -2729 2781 0
-880 -2730 2782 0
-880 -2731 2783 0
-880 -2732 2784 0
-880 -2733 2785 0
-880 -2734 2786 0
-880 -2735 2787 0
-880 -2736 2788 0
-880 -2737 2789 0
-880 -2738 2790 0
-880 -2739 2791 0
-880 -2740 2792 0
-880 -2741 2793 0
-880 -2742 2794 0
-880 -2743 2795 0
-880 -2744 2796 0
-880 -2745 2797 0
-880 -2746 2798 0
-880 -2747 2799 0
-880 -2748 2800 0
-880 -2749 0
-2750 2801 0
-2751 2802 0
-2752 2803 0
-2753 2804 0
-2754 2805 0
-2755 2806 0
-2756 2807 0
-2757 2808 0
-2758 2809 0
-2759 2810 0
-2760 2811 0
-2761 2812 0
-2762 2813 0
-2763 2814 0
-2764 2815 0
-2765 2816 0
-2766 2817 0
-2767 2818 0
-2768 2819 0
-2769 2820 0
-2770 2821 0
-2771 2822 0
-2772 2823 0
-2773 2824 0
-2774 2825 0
-2775 2826 0
-2776 2827 0
-2777 2828 0
-2778 2829 0
-2779 2830 0
-2780 2831 0
-2781 2832 0
-2782 2833 0
-2783 2834 0
-2784 2835 0
-2785 2836 0
-2786 2837 0
-2787 2838 0
-2788 2839 0
-2789 2840 0
-2790 2841 0
-2791 2842 0
-2792 2843 0
-2793 2844 0
-2794 2845 0
-2795 2846 0
-2796 2847 0
-2797 2848 0
-2798 2849 0
-2799 2850 0
-2800 2851 0
-882 -2750 2802 0
-882 -2751 2803 0
-882 -2752 2804 0
-882 -2753 2805 0
-882 -2754 2806 0
-882 -2755 2807 0
-882 -2756 2808 0
-882 -2757 2809 0
-882 -2758 2810 0
-882 -2759 2811 0
-882 -2760 2812 0
-882 -2761 2813 0
-882 -2762 2814 0
-882 -2763 2815 0
-882 -2764 2816 0
-882 -2765 2817 0
-882 -2766 2818 0
-882 -2767 2819 0
-882 -2768 2820 0
-882 -2769 2821 0
-882 -2770 2822 0
-882 -2771 2823 0
-882 -2772 2824 0
-882 -2773 2825 0
-882 -2774 2826 0
-882 -2775 2827 0
-882 -2776 2828 0
-882 -2777 2829 0
-882 -2778 2830 0
-882 -2779 2831 0
-882 -2780 2832 0
-882 -2781 2833 0
-882 -2782 2834 0
-882 -2783 2835 0
-882 -2784 2836 0
-882 -2785 2837 0
-882 -2786 2838 0
-882 -2787 2839 0
-882 -2788 2840 0
-882 -2789 2841 0
-882 -2790 2842 0
-882 -2791 2843 0
-882 -2792 2844 0
-882 -2793 2845 0
-882 -2794 2846 0
-882 -2795 2847 0
-882 -2796 2848 0
-882 -2797 2849 0
-882 -2798 2850 0
-882 -2799 2851 0
-882 -2800 0
-2801 2852 0
-2802 2853 0
-2803 2854 0
-2804 2855 0
-2805 2856 0
-2806 2857 0
-2807 2858 0
-2808 2859 0
-2809 2860 0
-2810 2861 0
-2811 2862 0
-2812 2863 0
-2813 2864 0
-2814 2865 0
-2815 2866 0
-2816 2867 0
-2817 2868 0
-2818 2869 0
-2819 2870 0
-2820 2871 0
-2821 2872 0
-2822 2873 0
-2823 2874 0
-2824 2875 0
-2825 2876 0
-2826 2877 0
-2827 2878 0
-2828 2879 0
-2829 2880 0
-2830 2881 0
-2831 2882 0
-2832 2883 0
-2833 2884 0
-2834 2885 0
-2835 2886 0
-2836 2887 0
-2837 2888 0
-2838 2889 0
-2839 2890 0
-2840 2891 0
-2841 2892 0
-2842 2893 0
-2843 2894 0
-2844 2895 0
-2845 2896 0
-2846 2897 0
-2847 2898 0
-2848 2899 0
-2849 2900 0
-2850 2901 0
-2851 2902 0
-884 -2801 2853 0
-884 -2802 2854 0
-884 -2803 2855 0
-884 -2804 2856 0
-884 -2805 2857 0
-884 -2806 2858 0
-884 -2807 2859 0
-884 -2808 2860 0
-884 -2809 2861 0
-884 -2810 2862 0
-884 -2811 2863 0
-884 -2812 2864 0
-884 -2813 2865 0
-884 -2814 2866 0
-884 -2815 2867 0
-884 -2816 2868 0
-884 -2817 2869 0
-884 -2818 2870 0
-884 -2819 2871 0
-884 -2820 2872 0
-884 -2821 2873 0
-884 -2822 2874 0
-884 -2823 2875 0
-884 -2824 2876 0
-884 -2825 2877 0
-884 -2826 2878 0
-884 -2827 2879 0
-884 -2828 2880 0
-884 -2829 2881 0
-884 -2830 2882 0
-884 -2831 2883 0
-884 -2832 2884 0
-884 -2833 2885 0
-884 -2834 2886 0
-884 -2835 2887 0
-884 -2836 2888 0
-884 -2837 2889 0
-884 -2838 2890 0
-884 -2839 2891 0
-884 -2840 2892 0
-884 -2841 2893 0
-884 -2842 2894 0
-884 -2843 2895 0
-884 -2844 2896 0
-884 -2845 2897 0
-884 -2846 2898 0
-884 -2847 2899 0
-884 -2848 2900 0
-884 -2849 2901 0
-884 -2850 2902 0
-884 -2851 0
-2852 2903 0
-2853 2904 0
-2854 2905 0
-2855 2906 0
-2856 2907 0
-2857 2908 0
-2858 2909 0
-2859 2910 0
-2860 2911 0
-2861 2912 0
-2862 2913 0
-2863 2914 0
-2864 2915 0
-2865 2916 0
-2866 2917 0
-2867 2918 0
-2868 2919 0
-2869 2920 0
-2870 2921 0
-2871 2922 0
-2872 2923 0
-2873 2924 0
-2874 2925 0
-2875 2926 0
-2876 2927 0
-2877 2928 0
-2878 2929 0
-2879 2930 0
-2880 2931 0
-2881 2932 0
-2882 2933 0
-2883 2934 0
-2884 2935 0
-2885 2936 0
-2886 2937 0
-2887 2938 0
-2888 2939 0
-2889 2940 0
-2890 2941 0
-2891 2942 0
-2892 2943 0
-2893 2944 0
-2894 2945 0
-2895 2946 0
-2896 2947 0
-2897 2948 0
-2898 2949 0
-2899 2950 0
-2900 2951 0
-2901 2952 0
-2902 2953 0
-886 -2852 2904 0
-886 -2853 2905 0
-886 -2854 2906 0
-886 -2855 2907 0
-886 -2856 2908 0
-886 -2857 2909 0
-886 -2858 2910 0
-886 -2859 2911 0
-886 -2860 2912 0
-886 -2861 2913 0
-886 -2862 2914 0
-886 -2863 2915 0
-886 -2864 2916 0
-886 -2865 2917 0
-886 -2866 2918 0
-886 -2867 2919 0
-886 -2868 2920 0
-886 -2869 2921 0
-886 -2870 2922 0
-886 -2871 2923 0
-886 -2872 2924 0
-886 -2873 2925 0
-886 -2874 2926 0
-886 -2875 2927 0
-886 -2876 2928 0
-886 -2877 2929 0
-886 -2878 2930 0
-886 -2879 2931 0
-886 -2880 2932 0
-886 -2881 2933 0
-886 -2882 2934 0
-886 -2883 2935 0
-886 -2884 2936 0
-886 -2885 2937 0
-886 -2886 2938 0
-886 -2887 2939 0
-886 -2888 2940 0
-886 -2889 2941 0
-886 -2890 2942 0
-886 -2891 2943 0
-886 -2892 2944 0
-886 -2893 2945 0
-886 -2894 2946 0
-886 -2895 2947 0
-886 -2896 2948 0
-886 -2897 2949 0
-886 -2898 2950 0
-886 -2899 2951 0
-886 -2900 2952 0
-886 -2901 2953 0
-886 -2902 0
-2903 2954 0
-2904 2955 0
-2905 2956 0
-2906 2957 0
-2907 2958 0
-2908 2959 0
-2909 2960 0
-2910 2961 0
-2911 2962 0
-2912 2963 0
-2913 2964 0
-2914 2965 0
-2915 2966 0
-2916 2967 0
-2917 2968 0
-2918 2969 0
-2919 2970 0
-2920 2971 0
-2921 2972 0
-2922 2973 0
-2923 2974 0
-2924 2975 0
-2925 2976 0
-2926 2977 0
-2927 2978 0
-2928 2979 0
-2929 2980 0
-2930 2981 0
-2931 2982 0
-2932 2983 0
-2933 2984 0
-2934 2985 0
-2935 2986 0
-2936 2987 0
-2937 2988 0
-2938 2989 0
-2939 2990 0
-2940 2991 0
-2941 2992 0
-2942 2993 0
-2943 2994 0
-2944 2995 0
-2945 2996 0
-2946 2997 0
-2947 2998 0
-2948 2999 0
-2949 3000 0
-2950 3001 0
-2951 3002 0
-2952 3003 0
-2953 3004 0
-888 -2903 2955 0
-888 -2904 2956 0
-888 -2905 2957 0
-888 -2906 2958 0
-888 -2907 2959 0
-888 -2908 2960 0
-888 -2909 2961 0
-888 -2910 2962 0
-888 -2911 2963 0
-888 -2912 2964 0
-888 -2913 2965 0
-888 -2914 2966 0
-888 -2915 2967 0
-888 -2916 2968 0
-888 -2917 2969 0
-888 -2918 2970 0
-888 -2919 2971 0
-888 -2920 2972 0
-888 -2921 2973 0
-888 -2922 2974 0
-888 -2923 2975 0
-888 -2924 2976 0
-888 -2925 2977 0
-888 -2926 2978 0
-888 -2927 2979 0
-888 -2928 2980 0
-888 -2929 2981 0
-888 -2930 2982 0
-888 -2931 2983 0
-888 -2932 2984 0
-888 -2933 2985 0
-888 -2934 2986 0
-888 -2935 2987 0
-888 -2936 2988 0
-888 -2937 2989 0
-888 -2938 2990 0
-888 -2939 2991 0
-888 -2940 2992 0
-888 -2941 2993 0
-888 -2942 2994 0
-888 -2943 2995 0
-888 -2944 2996 0
-888 -2945 2997 0
-888 -2946 2998 0
-888 -2947 2999 0
-888 -2948 3000 0
-888 -2949 3001 0
-888 -2950 3002 0
-888 -2951 3003 0
-888 -2952 3004 0
-888 -2953 0
-2954 3005 0
-2955 3006 0
-2956 3007 0
-2957 3008 0
-2958 3009 0
-2959 3010 0
-2960 3011 0
-2961 3012 0
-2962 3013 0
-2963 3014 0
-2964 3015 0
-2965 3016 0
-2966 3017 0
-2967 3018 0
-2968 3019 0
-2969 3020 0
-2970 3021 0
-2971 3022 0
-2972 3023 0
-2973 3024 0
-2974 3025 0
-2975 3026 0
-2976 3027 0
-2977 3028 0
-2978 3029 0
-2979 3030 0
-2980 3031 0
-2981 3032 0
-2982 3033 0
-2983 3034 0
-2984 3035 0
-2985 3036 0
-2986 3037 0
-2987 3038 0
-2988 3039 0
-2989 3040 0
-2990 3041 0
-2991 3042 0
-2992 3043 0
-2993 3044 0
-2994 3045 0
-2995 3046 0
-2996 3047 0
-2997 3048 0
-2998 3049 0
-2999 3050 0
-3000 3051 0
-3001 3052 0
-3002 3053 0
-3003 3054 0
-3004 3055 0
-890 -2954 3006 0
-890 -2955 3007 0
-890 -2956 3008 0
-890 -2957 3009 0
-890 -2958 3010 0
-890 -2959 3011 0
-890 -2960 3012 0
-890 -2961 3013 0
-890 -2962 3014 0
-890 -2963 3015 0
-890 -2964 3016 0
-890 -2965 3017 0
-890 -2966 3018 0
-890 -2967 3019 0
-890 -2968 3020 0
-890 -2969 3021 0
-890 -2970 3022 0
-890 -2971 3023 0
-890 -2972 3024 0
-890 -2973 3025 0
-890 -2974 3026 0
-890 -2975 3027 0
-890 -2976 3028 0
-890 -2977 3029 0
-890 -2978 3030 0
-890 -2979 3031 0
-890 -2980 3032 0
-890 -2981 3033 0
-890 -2982 3034 0
-890 -2983 3035 0
-890 -2984 3036 0
-890 -2985 3037 0
-890 -2986 3038 0
-890 -2987 3039 0
-890 -2988 3040 0
-890 -2989 3041 0
-890 -2990 3042 0
-890 -2991 3043 0
-890 -2992 3044 0
-890 -2993 3045 0
-890 -2994 3046 0
-890 -2995 3047 0
-890 -2996 3048 0
-890 -2997 3049 0
-890 -2998 3050 0
-890 -2999 3051 0
-890 -3000 3052 0
-890 -3001 3053 0
-890 -3002 3054 0
-890 -3003 3055 0
-890 -3004 0
-3005 3056 0
-3006 3057 0
-3007 3058 0
-3008 3059 0
-3009 3060 0
-3010 3061 0
-3011 3062 0
-3012 3063 0
-3013 3064 0
-3014 3065 0
-3015 3066 0
-3016 3067 0
-3017 3068 0
-3018 3069 0
-3019 3070 0
-3020 3071 0
-3021 3072 0
-3022 3073 0
-3023 3074 0
-3024 3075 0
-3025 3076 0
-3026 3077 0
-3027 3078 0
-3028 3079 0
-3029 3080 0
-3030 3081 0
-3031 3082 0
-3032 3083 0
-3033 3084 0
-3034 3085 0
-3035 3086 0
-3036 3087 0
-3037 3088 0
-3038 3089 0
-3039 3090 0
-3040 3091 0
-3041 3092 0
-3042 3093 0
-3043 3094 0
-3044 3095 0
-3045 3096 0
-3046 3097 0
-3047 3098 0
-3048 3099 0
-3049 3100 0
-3050 3101 0
-3051 3102 0
-3052 3103 0
-3053 3104 0
-3054 3105 0
-3055 3106 0
-892 -3005 3057 0
-892 -3006 3058 0
-892 -3007 3059 0
-892 -3008 3060 0
-892 -3009 3061 0
-892 -3010 3062 0
-892 -3011 3063 0
-892 -3012 3064 0
-892 -3013 3065 0
-892 -3014 3066 0
-892 -3015 3067 0
-892 -3016 3068 0
-892 -3017 3069 0
-892 -3018 3070 0
-892 -3019 3071 0
-892 -3020 3072 0
-892 -3021 3073 0
-892 -3022 3074 0
-892 -3023 3075 0
-892 -3024 3076 0
-892 -3025 3077 0
-892 -3026 3078 0
-892 -3027 3079 0
-892 -3028 3080 0
-892 -3029 3081 0
-892 -3030 3082 0
-892 -3031 3083 0
-892 -3032 3084 0
-892 -3033 3085 0
-892 -3034 3086 0
-892 -3035 3087 0
-892 -3036 3088 0
-892 -3037 3089 0
-892 -3038 3090 0
-892 -3039 3091 0
-892 -3040 3092 0
-892 -3041 3093 0
-892 -3042 3094 0
-892 -3043 3095 0
-892 -3044 3096 0
-892 -3045 3097 0
-892 -3046 3098 0
-892 -3047 3099 0
-892 -3048 3100 0
-892 -3049 3101 0
-892 -3050 3102 0
-892 -3051 3103 0
-892 -3052 3104 0
-892 -3053 3105 0
-892 -3054 3106 0
-892 -3055 0
-3056 3107 0
-3057 3108 0
-3058 3109 0
-3059 3110 0
-3060 3111 0
-3061 3112 0
-3062 3113 0
-3063 3114 0
-3064 3115 0
-3065 3116 0
-3066 3117 0
-3067 3118 0
-3068 3119 0
-3069 3120 0
-3070 3121 0
-3071 3122 0
-3072 3123 0
-3073 3124 0
-3074 3125 0
-3075 3126 0
-3076 3127 0
-3077 3128 0
-3078 3129 0
-3079 3130 0
-3080 3131 0
-3081 3132 0
-3082 3133 0
-3083 3134 0
-3084 3135 0
-3085 3136 0
-3086 3137 0
-3087 3138 0
-3088 3139 0
-3089 3140 0
-3090 3141 0
-3091 3142 0
-3092 3143 0
-3093 3144 0
-3094 3145 0
-3095 3146 0
-3096 3147 0
-3097 3148 0
-3098 3149 0
-3099 3150 0
-3100 3151 0
-3101 3152 0
-3102 3153 0
-3103 3154 0
-3104 3155 0
-3105 3156 0
-3106 3157 0
-894 -3056 3108 0
-894 -3057 3109 0
-894 -3058 3110 0
-894 -3059 3111 0
-894 -3060 3112 0
-894 -3061 3113 0
-894 -3062 3114 0
-894 -3063 3115 0
-894 -3064 3116 0
-894 -3065 3117 0
-894 -3066 3118 0
-894 -3067 3119 0
-894 -3068 3120 0
-894 -3069 3121 0
-894 -3070 3122 0
-894 -3071 3123 0
-894 -3072 3124 0
-894 -3073 3125 0
-894 -3074 3126 0
-894 -3075 3127 0
-894 -3076 3128 0
-894 -3077 3129 0
-894 -3078 3130 0
-894 -3079 3131 0
-894 -3080 3132 0
-894 -3081 3133 0
-894 -3082 3134 0
-894 -3083 3135 0
-894 -3084 3136 0
-894 -3085 3137 0
-894 -3086 3138 0
-894 -3087 3139 0
-894 -3088 3140 0
-894 -3089 3141 0
-894 -3090 3142 0
-894 -3091 3143 0
-894 -3092 3144 0
-894 -3093 3145 0
-894 -3094 3146 0
-894 -3095 3147 0
-894 -3096 3148 0
-894 -3097 3149 0
-894 -3098 3150 0
-894 -3099 3151 0
-894 -3100 3152 0
-894 -3101 3153 0
-894 -3102 3154 0
-894 -3103 3155 0
-894 -3104 3156 0
-894 -3105 3157 0
-894 -3106 0
-3107 3158 0
-3108 3159 0
-3109 3160 0
-3110 3161 0
-3111 3162 0
-3112 3163 0
-3113 3164 0
-3114 3165 0
-3115 3166 0
-3116 3167 0
-3117 3168 0
-3118 3169 0
-3119 3170 0
-3120 3171 0
-3121 3172 0
-3122 3173 0
-3123 3174 0
-3124 3175 0
-3125 3176 0
-3126 3177 0
-3127 3178 0
-3128 3179 0
-3129 3180 0
-3130 3181 0
-3131 3182 0
-3132 3183 0
-3133 3184 0
-3134 3185 0
-3135 3186 0
-3136 3187 0
-3137 3188 0
-3138 3189 0
-3139 3190 0
-3140 3191 0
-3141 3192 0
-3142 3193 0
-3143 3194 0
-3144 3195 0
-3145 3196 0
-3146 3197 0
-3147 3198 0
-3148 3199 0
-3149 3200 0
-3150 3201 0
-3151 3202 0
-3152 3203 0
-3153 3204 0
-3154 3205 0
-3155 3206 0
-3156 3207 0
-3157 3208 0
-896 -3107 3159 0
-896 -3108 3160 0
-896 -3109 3161 0
-896 -3110 3162 0
-896 -3111 3163 0
-896 -3112 3164 0
-896 -3113 3165 0
-896 -3114 3166 0
-896 -3115 3167 0
-896 -3116 3168 0
-896 -3117 3169 0
-896 -3118 3170 0
-896 -3119 3171 0
-896 -3120 3172 0
-896 -3121 3173 0
-896 -3122 3174 0
-896 -3123 3175 0
-896 -3124 3176 0
-896 -3125 3177 0
-896 -3126 3178 0
-896 -3127 3179 0
-896 -3128 3180 0
-896 -3129 3181 0
-896 -3130 3182 0
-896 -3131 3183 0
-896 -3132 3184 0
-896 -3133 3185 0
-896 -3134 3186 0
-896 -3135 3187 0
-896 -3136 3188 0
-896 -3137 3189 0
-896 -3138 3190 0
-896 -3139 3191 0
-896 -3140 3192 0
-896 -3141 3193 0
-896 -3142 3194 0
-896 -3143 3195 0
-896 -3144 3196 0
-896 -3145 3197 0
-896 -3146 3198 0
-896 -3147 3199 0
-896 -3148 3200 0
-896 -3149 3201 0
-896 -3150 3202 0
-896 -3151 3203 0
-896 -3152 3204 0
-896 -3153 3205 0
-896 -3154 3206 0
-896 -3155 3207 0
-896 -3156 3208 0
-896 -3157 0
-3158 3209 0
-3159 3210 0
-3160 3211 0
-3161 3212 0
-3162 3213 0
-3163 3214 0
-3164 3215 0
-3165 3216 0
-3166 3217 0
-3167 3218 0
-3168 3219 0
-3169 3220 0
-3170 3221 0
-3171 3222 0
-3172 3223 0
-3173 3224 0
-3174 3225 0
-3175 3226 0
-3176 3227 0
-3177 3228 0
-3178 3229 0
-3179 3230 0
-3180 3231 0
-3181 3232 0
-3182 3233 0
-3183 3234 0
-3184 3235 0
-3185 3236 0
-3186 3237 0
-3187 3238 0
-3188 3239 0
-3189 3240 0
-3190 3241 0
-3191 3242 0
-3192 3243 0
-3193 3244 0
-3194 3245 0
-3195 3246 0
-3196 3247 0
-3197 3248 0
-3198 3249 0
-3199 3250 0
-3200 3251 0
-3201 3252 0
-3202 3253 0
-3203 3254 0
-3204 3255 0
-3205 3256 0
-3206 3257 0
-3207 3258 0
-3208 3259 0
-898 -3158 3210 0
-898 -3159 3211 0
-898 -3160 3212 0
-898 -3161 3213 0
-898 -3162 3214 0
-898 -3163 3215 0
-898 -3164 3216 0
-898 -3165 3217 0
-898 -3166 3218 0
-898 -3167 3219 0
-898 -3168 3220 0
-898 -3169 3221 0
-898 -3170 3222 0
-898 -3171 3223 0
-898 -3172 3224 0
-898 -3173 3225 0
-898 -3174 3226 0
-898 -3175 3227 0
-898 -3176 3228 0
-898 -3177 3229 0
-898 -3178 3230 0
-898 -3179 3231 0
-898 -3180 3232 0
-898 -3181 3233 0
-898 -3182 3234 0
-898 -3183 3235 0
-898 -3184 3236 0
-898 -3185 3237 0
-898 -3186 3238 0
-898 -3187 3239 0
-898 -3188 3240 0
-898 -3189 3241 0
-898 -3190 3242 0
-898 -3191 3243 0
-898 -3192 3244 0
-898 -3193 3245 0
-898 -3194 3246 0
-898 -3195 3247 0
-898 -3196 3248 0
-898 -3197 3249 0
-898 -3198 3250 0
-898 -3199 3251 0
-898 -3200 3252 0
-898 -3201 3253 0
-898 -3202 3254 0
-898 -3203 3255 0
-898 -3204 3256 0
-898 -3205 3257 0
-898 -3206 3258 0
-898 -3207 3259 0
-898 -3208 0
-3209 3260 0
-3210 3261 0
-3211 3262 0
-3212 3263 0
-3213 3264 0
-3214 3265 0
-3215 3266 0
-3216 3267 0
-3217 3268 0
-3218 3269 0
-3219 3270 0
-3220 3271 0
-3221 3272 0
-3222 3273 0
-3223 3274 0
-3224 3275 0
-3225 3276 0
-3226 3277 0
-3227 3278 0
-3228 3279 0
-3229 3280 0
-3230 3281 0
-3231 3282 0
-3232 3283 0
-3233 3284 0
-3234 3285 0
-3235 3286 0
-3236 3287 0
-3237 3288 0
-3238 3289 0
-3239 3290 0
-3240 3291 0
-3241 3292 0
-3242 3293 0
-3243 3294 0
-3244 3295 0
-3245 3296 0
-3246 3297 0
-3247 3298 0
-3248 3299 0
-3249 3300 0
-3250 3301 0
-3251 3302 0
-3252 3303 0
-3253 3304 0
-3254 3305 0
-3255 3306 0
-3256 3307 0
-3257 3308 0
-3258 3309 0
-3259 3310 0
-900 -3209 3261 0
-900 -3210 3262 0
-900 -3211 3263 0
-900 -3212 3264 0
-900 -3213 3265 0
-900 -3214 3266 0
-900 -3215 3267 0
-900 -3216 3268 0
-900 -3217 3269 0
-900 -3218 3270 0
-900 -3219 3271 0
-900 -3220 3272 0
-900 -3221 3273 0
-900 -3222 3274 0
-900 -3223 3275 0
-900 -3224 3276 0
-900 -3225 3277 0
-900 -3226 3278 0
-900 -3227 3279 0
-900 -3228 3280 0
-900 -3229 3281 0
-900 -3230 3282 0
-900 -3231 3283 0
-900 -3232 3284 0
-900 -3233 3285 0
-900 -3234 3286 0
-900 -3235 3287 0
-900 -3236 3288 0
-900 -3237 3289 0
-900 -3238 3290 0
-900 -3239 3291 0
-900 -3240 3292 0
-900 -3241 3293 0
-900 -3242 3294 0
-900 -3243 3295 0
-900 -3244 3296 0
-900 -3245 3297 0
-900 -3246 3298 0
-900 -3247 3299 0
-900 -3248 3300 0
-900 -3249 3301 0
-900 -3250 3302 0
-900 -3251 3303 0
-900 -3252 3304 0
-900 -3253 3305 0
-900 -3254 3306 0
-900 -3255 3307 0
-900 -3256 3308 0
-900 -3257 3309 0
-900 -3258 3310 0
-900 -3259 0
-3260 3311 0
-3261 3312 0
-3262 3313 0
-3263 3314 0
-3264 3315 0
-3265 3316 0
-3266 3317 0
-3267 3318 0
-3268 3319 0
-3269 3320 0
-3270 3321 0
-3271 3322 0
-3272 3323 0
-3273 3324 0
-3274 3325 0
-3275 3326 0
-3276 3327 0
-3277 3328 0
-3278 3329 0
-3279 3330 0
-3280 3331 0
-3281 3332 0
-3282 3333 0
-3283 3334 0
-3284 3335 0
-3285 3336 0
-3286 3337 0
-3287 3338 0
-3288 3339 0
-3289 3340 0
-3290 3341 0
-3291 3342 0
-3292 3343 0
-3293 3344 0
-3294 3345 0
-3295 3346 0
-3296 3347 0
-3297 3348 0
-3298 3349 0
-3299 3350 0
-3300 3351 0
-3301 3352 0
-3302 3353 0
-3303 3354 0
-3304 3355 0
-3305 3356 0
-3306 3357 0
-3307 3358 0
-3308 3359 0
-3309 3360 0
-3310 3361 0
-902 -3260 3312 0
-902 -3261 3313 0
-902 -3262 3314 0
-902 -3263 3315 0
-902 -3264 3316 0
-902 -3265 3317 0
-902 -3266 3318 0
-902 -3267 3319 0
-902 -3268 3320 0
-902 -3269 3321 0
-902 -3270 3322 0
-902 -3271 3323 0
-902 -3272 3324 0
-902 -3273 3325 0
-902 -3274 3326 0
-902 -3275 3327 0
-902 -3276 3328 0
-902 -3277 3329 0
-902 -3278 3330 0
-902 -3279 3331 0
-902 -3280 3332 0
-902 -3281 3333 0
-902 -3282 3334 0
-902 -3283 3335 0
-902 -3284 3336 0
-902 -3285 3337 0
-902 -3286 3338 0
-902 -3287 3339 0
-902 -3288 3340 0
-902 -3289 3341 0
-902 -3290 3342 0
-902 -3291 3343 0
-902 -3292 3344 0
-902 -3293 3345 0
-902 -3294 3346 0
-902 -3295 3347 0
-902 -3296 3348 0
-902 -3297 3349 0
-902 -3298 3350 0
-902 -3299 3351 0
-902 -3300 3352 0
-902 -3301 3353 0
-902 -3302 3354 0
-902 -3303 3355 0
-902 -3304 3356 0
-902 -3305 3357 0
-902 -3306 3358 0
-902 -3307 3359 0
-902 -3308 3360 0
-902 -3309 3361 0
-902 -3310 0
-3311 3362 0
-3312 3363 0
-3313 3364 0
-3314 3365 0
-3315 3366 0
-3316 3367 0
-3317 3368 0
-3318 3369 0
-3319 3370 0
-3320 3371 0
-3321 3372 0
-3322 3373 0
-3323 3374 0
-3324 3375 0
-3325 3376 0
-3326 3377 0
-3327 3378 0
-3328 3379 0
-3329 3380 0
-3330 3381 0
-3331 3382 0
-3332 3383 0
-3333 3384 0
-3334 3385 0
-3335 3386 0
-3336 3387 0
-3337 3388 0
-3338 3389 0
-3339 3390 0
-3340 3391 0
-3341 3392 0
-3342 3393 0
-3343 3394 0
-3344 3395 0
-3345 3396 0
-3346 3397 0
-3347 3398 0
-3348 3399 0
-3349 3400 0
-3350 3401 0
-3351 3402 0
-3352 3403 0
-3353 3404 0
-3354 3405 0
-3355 3406 0
-3356 3407 0
-3357 3408 0
-3358 3409 0
-3359 3410 0
-3360 3411 0
-3361 3412 0
-904 -3311 3363 0
-904 -3312 3364 0
-904 -3313 3365 0
-904 -3314 3366 0
-904 -3315 3367 0
-904 -3316 3368 0
-904 -3317 3369 0
-904 -3318 3370 0
-904 -3319 3371 0
-904 -3320 3372 0
-904 -3321 3373 0
-904 -3322 3374 0
-904 -3323 3375 0
-904 -3324 3376 0
-904 -3325 3377 0
-904 -3326 3378 0
-904 -3327 3379 0
-904 -3328 3380 0
-904 -3329 3381 0
-904 -3330 3382 0
-904 -3331 3383 0
-904 -3332 3384 0
-904 -3333 3385 0
-904 -3334 3386 0
-904 -3335 3387 0
-904 -3336 3388 0
-904 -3337 3389 0
-904 -3338 3390 0
-904 -3339 3391 0
-904 -3340 3392 0
-904 -3341 3393 0
-904 -3342 3394 0
-904 -3343 3395 0
-904 -3344 3396 0
-904 -3345 3397 0
-904 -3346 3398 0
-904 -3347 3399 0
-904 -3348 3400 0
-904 -3349 3401 0
-904 -3350 3402 0
-904 -3351 3403 0
-904 -3352 3404 0
-904 -3353 3405 0
-904 -3354 3406 0
-904 -3355 3407 0
-904 -3356 3408 0
-904 -3357 3409 0
-904 -3358 3410 0
-904 -3359 3411 0
-904 -3360 3412 0
-904 -3361 0
-3362 3413 0
-3363 3414 0
-3364 3415 0
-3365 3416 0
-3366 3417 0
-3367 3418 0
-3368 3419 0
-3369 3420 0
-3370 3421 0
-3371 3422 0
-3372 3423 0
-3373 3424 0
-3374 3425 0
-3375 3426 0
-3376 3427 0
-3377 3428 0
-3378 3429 0
-3379 3430 0
-3380 3431 0
-3381 3432 0
-3382 3433 0
-3383 3434 0
-3384 3435 0
-3385 3436 0
-3386 3437 0
-3387 3438 0
-3388 3439 0
-3389 3440 0
-3390 3441 0
-3391 3442 0
-3392 3443 0
-3393 3444 0
-3394 3445 0
-3395 3446 0
-3396 3447 0
-3397 3448 0
-3398 3449 0
-3399 3450 0
-3400 3451 0
-3401 3452 0
-3402 3453 0
-3403 3454 0
-3404 3455 0
-3405 3456 0
-3406 3457 0
-3407 3458 0
-3408 3459 0
-3409 3460 0
-3410 3461 0
-3411 3462 0
-3412 3463 0
-906 -3362 3414 0
-906 -3363 3415 0
-906 -3364 3416 0
-906 -3365 3417 0
-906 -3366 3418 0
-906 -3367 3419 0
-906 -3368 3420 0
-906 -3369 3421 0
-906 -3370 3422 0
-906 -3371 3423 0
-906 -3372 3424 0
-906 -3373 3425 0
-906 -3374 3426 0
-906 -3375 3427 0
-906 -3376 3428 0
-906 -3377 3429 0
-906 -3378 3430 0
-906 -3379 3431 0
-906 -3380 3432 0
-906 -3381 3433 0
-906 -3382 3434 0
-906 -3383 3435 0
-906 -3384 3436 0
-906 -3385 3437 0
-906 -3386 3438 0
-906 -3387 3439 0
-906 -3388 3440 0
-906 -3389 3441 0
-906 -3390 3442 0
-906 -3391 3443 0
-906 -3392 3444 0
-906 -3393 3445 0
-906 -3394 3446 0
-906 -3395 3447 0
-906 -3396 3448 0
-906 -3397 3449 0
-906 -3398 3450 0
-906 -3399 3451 0
-906 -3400 3452 0
-906 -3401 3453 0
-906 -3402 3454 0
-906 -3403 3455 0
-906 -3404 3456 0
-906 -3405 3457 0
-906 -3406 3458 0
-906 -3407 3459 0
-906 -3408 3460 0
-906 -3409 3461 0
-906 -3410 3462 0
-906 -3411 3463 0
-906 -3412 0
-3413 3464 0
-3414 3465 0
-3415 3466 0
-3416 3467 0
-3417 3468 0
-3418 3469 0
-3419 3470 0
-3420 3471 0
-3421 3472 0
-3422 3473 0
-3423 3474 0
-3424 3475 0
-3425 3476 0
-3426 3477 0
-3427 3478 0
-3428 3479 0
-3429 3480 0
-3430 3481 0
-3431 3482 0
-3432 3483 0
-3433 3484 0
-3434 3485 0
-3435 3486 0
-3436 3487 0
-3437 3488 0
-3438 3489 0
-3439 3490 0
-3440 3491 0
-3441 3492 0
-3442 3493 0
-3443 3494 0
-3444 3495 0
-3445 3496 0
-3446 3497 0
-3447 3498 0
-3448 3499 0
-3449 3500 0
-3450 3501 0
-3451 3502 0
-3452 3503 0
-3453 3504 0
-3454 3505 0
-3455 3506 0
-3456 3507 0
-3457 3508 0
-3458 3509 0
-3459 3510 0
-3460 3511 0
-3461 3512 0
-3462 3513 0
-3463 3514 0
-908 -3413 3465 0
-908 -3414 3466 0
-908 -3415 3467 0
-908 -3416 3468 0
-908 -3417 3469 0
-908 -3418 3470 0
-908 -3419 3471 0
-908 -3420 3472 0
-908 -3421 3473 0
-908 -3422 3474 0
-908 -3423 3475 0
-908 -3424 3476 0
-908 -3425 3477 0
-908 -3426 3478 0
-908 -3427 3479 0
-908 -3428 3480 0
-908 -3429 3481 0
-908 -3430 3482 0
-908 -3431 3483 0
-908 -3432 3484 0
-908 -3433 3485 0
-908 -3434 3486 0
-908 -3435 3487 0
-908 -3436 3488 0
-908 -3437 3489 0
-908 -3438 3490 0
-908 -3439 3491 0
-908 -3440 3492 0
-908 -3441 3493 0
-908 -3442 3494 0
-908 -3443 3495 0
-908 -3444 3496 0
-908 -3445 3497 0
-908 -3446 3498 0
-908 -3447 3499 0
-908 -3448 3500 0
-908 -3449 3501 0
-908 -3450 3502 0
-908 -3451 3503 0
-908 -3452 3504 0
-908 -3453 3505 0
-908 -3454 3506 0
-908 -3455 3507 0
-908 -3456 3508 0
-908 -3457 3509 0
-908 -3458 3510 0
-908 -3459 3511 0
-908 -3460 3512 0
-908 -3461 3513 0
-908 -3462 3514 0
-908 -3463 0
-3464 3515 0
-3465 3516 0
-3466 3517 0
-3467 3518 0
-3468 3519 0
-3469 3520 0
-3470 3521 0
-3471 3522 0
-3472 3523 0
-3473 3524 0
-3474 3525 0
-3475 3526 0
-3476 3527 0
-3477 3528 0
-3478 3529 0
-3479 3530 0
-3480 3531 0
-3481 3532 0
-3482 3533 0
-3483 3534 0
-3484 3535 0
-3485 3536 0
-3486 3537 0
-3487 3538 0
-3488 3539 0
-3489 3540 0
-3490 3541 0
-3491 3542 0
-3492 3543 0
-3493 3544 0
-3494 3545 0
-3495 3546 0
-3496 3547 0
-3497 3548 0
-3498 3549 0
-3499 3550 0
-3500 3551 0
-3501 3552 0
-3502 3553 0
-3503 3554 0
-3504 3555 0
-3505 3556 0
-3506 3557 0
-3507 3558 0
-3508 3559 0
-3509 3560 0
-3510 3561 0
-3511 3562 0
-3512 3563 0
-3513 3564 0
-3514 3565 0
-910 -3464 3516 0
-910 -3465 3517 0
-910 -3466 3518 0
-910 -3467 3519 0
-910 -3468 3520 0
-910 -3469 3521 0
-910 -3470 3522 0
-910 -3471 3523 0
-910 -3472 3524 0
-910 -3473 3525 0
-910 -3474 3526 0
-910 -3475 3527 0
-910 -3476 3528 0
-910 -3477 3529 0
-910 -3478 3530 0
-910 -3479 3531 0
-910 -3480 3532 0
-910 -3481 3533 0
-910 -3482 3534 0
-910 -3483 3535 0
-910 -3484 3536 0
-910 -3485 3537 0
-910 -3486 3538 0
-910 -3487 3539 0
-910 -3488 3540 0
-910 -3489 3541 0
-910 -3490 3542 0
-910 -3491 3543 0
-910 -3492 3544 0
-910 -3493 3545 0
-910 -3494 3546 0
-910 -3495 3547 0
-910 -3496 3548 0
-910 -3497 3549 0
-910 -3498 3550 0
-910 -3499 3551 0
-910 -3500 3552 0
-910 -3501 3553 0
-910 -3502 3554 0
-910 -3503 3555 0
-910 -3504 3556 0
-910 -3505 3557 0
-910 -3506 3558 0
-910 -3507 3559 0
-910 -3508 3560 0
-910 -3509 3561 0
-910 -3510 3562 0
-910 -3511 3563 0
-910 -3512 3564 0
-910 -3513 3565 0
-910 -3514 0
-3515 3566 0
-3516 3567 0
-3517 3568 0
-3518 3569 0
-3519 3570 0
-3520 3571 0
-3521 3572 0
-3522 3573 0
-3523 3574 0
-3524 3575 0
-3525 3576 0
-3526 3577 0
-3527 3578 0
-3528 3579 0
-3529 3580 0
-3530 3581 0
-3531 3582 0
-3532 3583 0
-3533 3584 0
-3534 3585 0
-3535 3586 0
-3536 3587 0
-3537 3588 0
-3538 3589 0
-3539 3590 0
-3540 3591 0
-3541 3592 0
-3542 3593 0
-3543 3594 0
-3544 3595 0
-3545 3596 0
-3546 3597 0
-3547 3598 0
-3548 3599 0
-3549 3600 0
-3550 3601 0
-3551 3602 0
-3552 3603 0
-3553 3604 0
-3554 3605 0
-3555 3606 0
-3556 3607 0
-3557 3608 0
-3558 3609 0
-3559 3610 0
-3560 3611 0
-3561 3612 0
-3562 3613 0
-3563 3614 0
-3564 3615 0
-3565 3616 0
-912 -3515 3567 0
-912 -3516 3568 0
-912 -3517 3569 0
-912 -3518 3570 0
-912 -3519 3571 0
-912 -3520 3572 0
-912 -3521 3573 0
-912 -3522 3574 0
-912 -3523 3575 0
-912 -3524 3576 0
-912 -3525 3577 0
-912 -3526 3578 0
-912 -3527 3579 0
-912 -3528 3580 0
-912 -3529 3581 0
-912 -3530 3582 0
-912 -3531 3583 0
-912 -3532 3584 0
-912 -3533 3585 0
-912 -3534 3586 0
-912 -3535 3587 0
-912 -3536 3588 0
-912 -3537 3589 0
-912 -3538 3590 0
-912 -3539 3591 0
-912 -3540 3592 0
-912 -3541 3593 0
-912 -3542 3594 0
-912 -3543 3595 0
-912 -3544 3596 0
-912 -3545 3597 0
-912 -3546 3598 0
-912 -3547 3599 0
-912 -3548 3600 0
-912 -3549 3601 0
-912 -3550 3602 0
-912 -3551 3603 0
-912 -3552 3604 0
-912 -3553 3605 0
-912 -3554 3606 0
-912 -3555 3607 0
-912 -3556 3608 0
-912 -3557 3609 0
-912 -3558 3610 0
-912 -3559 3611 0
-912 -3560 3612 0
-912 -3561 3613 0
-912 -3562 3614 0
-912 -3563 3615 0
-912 -3564 3616 0
-912 -3565 0
-3566 3617 0
-3567 3618 0
-3568 3619 0
-3569 3620 0
-3570 3621 0
-3571 3622 0
-3572 3623 0
-3573 3624 0
-3574 3625 0
-3575 3626 0
-3576 3627 0
-3577 3628 0
-3578 3629 0
-3579 3630 0
-3580 3631 0
-3581 3632 0
-3582 3633 0
-3583 3634 0
-3584 3635 0
-3585 3636 0
-3586 3637 0
-3587 3638 0
-3588 3639 0
-3589 3640 0
-3590 3641 0
-3591 3642 0
-3592 3643 0
-3593 3644 0
-3594 3645 0
-3595 3646 0
-3596 3647 0
-3597 3648 0
-3598 3649 0
-3599 3650 0
-3600 3651 0
-3601 3652 0
-3602 3653 0
-3603 3654 0
-3604 3655 0
-3605 3656 0
-3606 3657 0
-3607 3658 0
-3608 3659 0
-3609 3660 0
-3610 3661 0
-3611 3662 0
-3612 3663 0
-3613 3664 0
-3614 3665 0
-3615 3666 0
-3616 3667 0
-914 -3566 3618 0
-914 -3567 3619 0
-914 -3568 3620 0
-914 -3569 3621 0
-914 -3570 3622 0
-914 -3571 3623 0
-914 -3572 3624 0
-914 -3573 3625 0
-914 -3574 3626 0
-914 -3575 3627 0
-914 -3576 3628 0
-914 -3577 3629 0
-914 -3578 3630 0
-914 -3579 3631 0
-914 -3580 3632 0
-914 -3581 3633 0
-914 -3582 3634 0
-914 -3583 3635 0
-914 -3584 3636 0
-914 -3585 3637 0
-914 -3586 3638 0
-914 -3587 3639 0
-914 -3588 3640 0
-914 -3589 3641 0
-914 -3590 3642 0
-914 -3591 3643 0
-914 -3592 3644 0
-914 -3593 3645 0
-914 -3594 3646 0
-914 -3595 3647 0
-914 -3596 3648 0
-914 -3597 3649 0
-914 -3598 3650 0
-914 -3599 3651 0
-914 -3600 3652 0
-914 -3601 3653 0
-914 -3602 3654 0
-914 -3603 3655 0
-914 -3604 3656 0
-914 -3605 3657 0
-914 -3606 3658 0
-914 -3607 3659 0
-914 -3608 3660 0
-914 -3609 3661 0
-914 -3610 3662 0
-914 -3611 3663 0
-914 -3612 3664 0
-914 -3613 3665 0
-914 -3614 3666 0
-914 -3615 3667 0
-914 -3616 0
-3617 3668 0
-3618 3669 0
-3619 3670 0
-3620 3671 0
-3621 3672 0
-3622 3673 0
-3623 3674 0
-3624 3675 0
-3625 3676 0
-3626 3677 0
-3627 3678 0
-3628 3679 0
-3629 3680 0
-3630 3681 0
-3631 3682 0
-3632 3683 0
-3633 3684 0
-3634 3685 0
-3635 3686 0
-3636 3687 0
-3637 3688 0
-3638 3689 0
-3639 3690 0
-3640 3691 0
-3641 3692 0
-3642 3693 0
-3643 3694 0
-3644 3695 0
-3645 3696 0
-3646 3697 0
-3647 3698 0
-3648 3699 0
-3649 3700 0
-3650 3701 0
-3651 3702 0
-3652 3703 0
-3653 3704 0
-3654 3705 0
-3655 3706 0
-3656 3707 0
-3657 3708 0
-3658 3709 0
-3659 3710 0
-3660 3711 0
-3661 3712 0
-3662 3713 0
-3663 3714 0
-3664 3715 0
-3665 3716 0
-3666 3717 0
-3667 3718 0
-916 -3617 3669 0
-916 -3618 3670 0
-916 -3619 3671 0
-916 -3620 3672 0
-916 -3621 3673 0
-916 -3622 3674 0
-916 -3623 3675 0
-916 -3624 3676 0
-916 -3625 3677 0
-916 -3626 3678 0
-916 -3627 3679 0
-916 -3628 3680 0
-916 -3629 3681 0
-916 -3630 3682 0
-916 -3631 3683 0
-916 -3632 3684 0
-916 -3633 3685 0
-916 -3634 3686 0
-916 -3635 3687 0
-916 -3636 3688 0
-916 -3637 3689 0
-916 -3638 3690 0
-916 -3639 3691 0
-916 -3640 3692 0
-916 -3641 3693 0
-916 -3642 3694 0
-916 -3643 3695 0
-916 -3644 3696 0
-916 -3645 3697 0
-916 -3646 3698 0
-916 -3647 3699 0
-916 -3648 3700 0
-916 -3649 3701 0
-916 -3650 3702 0
-916 -3651 3703 0
-916 -3652 3704 0
-916 -3653 3705 0
-916 -3654 3706 0
-916 -3655 3707 0
-916 -3656 3708 0
-916 -3657 3709 0
-916 -3658 3710 0
-916 -3659 3711 0
-916 -3660 3712 0
-916 -3661 3713 0
-916 -3662 3714 0
-916 -3663 3715 0
-916 -3664 3716 0
-916 -3665 3717 0
-916 -3666 3718 0
-916 -3667 0
-3668 3719 0
-3669 3720 0
-3670 3721 0
-3671 3722 0
-3672 3723 0
-3673 3724 0
-3674 3725 0
-3675 3726 0
-3676 3727 0
-3677 3728 0
-3678 3729 0
-3679 3730 0
-3680 3731 0
-3681 3732 0
-3682 3733 0
-3683 3734 0
-3684 3735 0
-3685 3736 0
-3686 3737 0
-3687 3738 0
-3688 3739 0
-3689 3740 0
-3690 3741 0
-3691 3742 0
-3692 3743 0
-3693 3744 0
-3694 3745 0
-3695 3746 0
-3696 3747 0
-3697 3748 0
-3698 3749 0
-3699 3750 0
-3700 3751 0
-3701 3752 0
-3702 3753 0
-3703 3754 0
-3704 3755 0
-3705 3756 0
-3706 3757 0
-3707 3758 0
-3708 3759 0
-3709 3760 0
-3710 3761 0
-3711 3762 0
-3712 3763 0
-3713 3764 0
-3714 3765 0
-3715 3766 0
-3716 3767 0
-3717 3768 0
-3718 3769 0
-918 -3668 3720 0
-918 -3669 3721 0
-918 -3670 3722 0
-918 -3671 3723 0
-918 -3672 3724 0
-918 -3673 3725 0
-918 -3674 3726 0
-918 -3675 3727 0
-918 -3676 3728 0
-918 -3677 3729 0
-918 -3678 3730 0
-918 -3679 3731 0
-918 -3680 3732 0
-918 -3681 3733 0
-918 -3682 3734 0
-918 -3683 3735 0
-918 -3684 3736 0
-918 -3685 3737 0
-918 -3686 3738 0
-918 -3687 3739 0
-918 -3688 3740 0
-918 -3689 3741 0
-918 -3690 3742 0
-918 -3691 3743 0
-918 -3692 3744 0
-918 -3693 3745 0
-918 -3694 3746 0
-918 -3695 3747 0
-918 -3696 3748 0
-918 -3697 3749 0
-918 -3698 3750 0
-918 -3699 3751 0
-918 -3700 3752 0
-918 -3701 3753 0
-918 -3702 3754 0
-918 -3703 3755 0
-918 -3704 3756 0
-918 -3705 3757 0
-918 -3706 3758 0
-918 -3707 3759 0
-918 -3708 3760 0
-918 -3709 3761 0
-918 -3710 3762 0
-918 -3711 3763 0
-918 -3712 3764 0
-918 -3713 3765 0
-918 -3714 3766 0
-918 -3715 3767 0
-918 -3716 3768 0
-918 -3717 3769 0
-918 -3718 0
-3719 3770 0
-3720 3771 0
-3721 3772 0
-3722 3773 0
-3723 3774 0
-3724 3775 0
-3725 3776 0
-3726 3777 0
-3727 3778 0
-3728 3779 0
-3729 3780 0
-3730 3781 0
-3731 3782 0
-3732 3783 0
-3733 3784 0
-3734 3785 0
-3735 3786 0
-3736 3787 0
-3737 3788 0
-3738 3789 0
-3739 3790 0
-3740 3791 0
-3741 3792 0
-3742 3793 0
-3743 3794 0
-3744 3795 0
-3745 3796 0
-3746 3797 0
-3747 3798 0
-3748 3799 0
-3749 3800 0
-3750 3801 0
-3751 3802 0
-3752 3803 0
-3753 3804 0
-3754 3805 0
-3755 3806 0
-3756 3807 0
-3757 3808 0
-3758 3809 0
-3759 3810 0
-3760 3811 0
-3761 3812 0
-3762 3813 0
-3763 3814 0
-3764 3815 0
-3765 3816 0
-3766 3817 0
-3767 3818 0
-3768 3819 0
-3769 3820 0
-920 -3719 3771 0
-920 -3720 3772 0
-920 -3721 3773 0
-920 -3722 3774 0
-920 -3723 3775 0
-920 -3724 3776 0
-920 -3725 3777 0
-920 -3726 3778 0
-920 -3727 3779 0
-920 -3728 3780 0
-920 -3729 3781 0
-920 -3730 3782 0
-920 -3731 3783 0
-920 -3732 3784 0
-920 -3733 3785 0
-920 -3734 3786 0
-920 -3735 3787 0
-920 -3736 3788 0
-920 -3737 3789 0
-920 -3738 3790 0
-920 -3739 3791 0
-920 -3740 3792 0
-920 -3741 3793 0
-920 -3742 3794 0
-920 -3743 3795 0
-920 -3744 3796 0
-920 -3745 3797 0
-920 -3746 3798 0
-920 -3747 3799 0
-920 -3748 3800 0
-920 -3749 3801 0
-920 -3750 3802 0
-920 -3751 3803 0
-920 -3752 3804 0
-920 -3753 3805 0
-920 -3754 3806 0
-920 -3755 3807 0
-920 -3756 3808 0
-920 -3757 3809 0
-920 -3758 3810 0
-920 -3759 3811 0
-920 -3760 3812 0
-920 -3761 3813 0
-920 -3762 3814 0
-920 -3763 3815 0
-920 -3764 3816 0
-920 -3765 3817 0
-920 -3766 3818 0
-920 -3767 3819 0
-920 -3768 3820 0
-920 -3769 0
-3770 3821 0
-3771 3822 0
-3772 3823 0
-3773 3824 0
-3774 3825 0
-3775 3826 0
-3776 3827 0
-3777 3828 0
-3778 3829 0
-3779 3830 0
-3780 3831 0
-3781 3832 0
-3782 3833 0
-3783 3834 0
-3784 3835 0
-3785 3836 0
-3786 3837 0
-3787 3838 0
-3788 3839 0
-3789 3840 0
-3790 3841 0
-3791 3842 0
-3792 3843 0
-3793 3844 0
-3794 3845 0
-3795 3846 0
-3796 3847 0
-3797 3848 0
-3798 3849 0
-3799 3850 0
-3800 3851 0
-3801 3852 0
-3802 3853 0
-3803 3854 0
-3804 3855 0
-3805 3856 0
-3806 3857 0
-3807 3858 0
-3808 3859 0
-3809 3860 0
-3810 3861 0
-3811 3862 0
-3812 3863 0
-3813 3864 0
-3814 3865 0
-3815 3866 0
-3816 3867 0
-3817 3868 0
-3818 3869 0
-3819 3870 0
-3820 3871 0
-922 -3770 3822 0
-922 -3771 3823 0
-922 -3772 3824 0
-922 -3773 3825 0
-922 -3774 3826 0
-922 -3775 3827 0
-922 -3776 3828 0
-922 -3777 3829 0
-922 -3778 3830 0
-922 -3779 3831 0
-922 -3780 3832 0
-922 -3781 3833 0
-922 -3782 3834 0
-922 -3783 3835 0
-922 -3784 3836 0
-922 -3785 3837 0
-922 -3786 3838 0
-922 -3787 3839 0
-922 -3788 3840 0
-922 -3789 3841 0
-922 -3790 3842 0
-922 -3791 3843 0
-922 -3792 3844 0
-922 -3793 3845 0
-922 -3794 3846 0
-922 -3795 3847 0
-922 -3796 3848 0
-922 -3797 3849 0
-922 -3798 3850 0
-922 -3799 3851 0
-922 -3800 3852 0
-922 -3801 3853 0
-922 -3802 3854 0
-922 -3803 3855 0
-922 -3804 3856 0
-922 -3805 3857 0
-922 -3806 3858 0
-922 -3807 3859 0
-922 -3808 3860 0
-922 -3809 3861 0
-922 -3810 3862 0
-922 -3811 3863 0
-922 -3812 3864 0
-922 -3813 3865 0
-922 -3814 3866 0
-922 -3815 3867 0
-922 -3816 3868 0
-922 -3817 3869 0
-922 -3818 3870 0
-922 -3819 3871 0
-922 -3820 0
-3821 3872 0
-3822 3873 0
-3823 3874 0
-3824 3875 0
-3825 3876 0
-3826 3877 0
-3827 3878 0
-3828 3879 0
-3829 3880 0
-3830 3881 0
-3831 3882 0
-3832 3883 0
-3833 3884 0
-3834 3885 0
-3835 3886 0
-3836 3887 0
-3837 3888 0
-3838 3889 0
-3839 3890 0
-3840 3891 0
-3841 3892 0
-3842 3893 0
-3843 3894 0
-3844 3895 0
-3845 3896 0
-3846 3897 0
-3847 3898 0
-3848 3899 0
-3849 3900 0
-3850 3901 0
-3851 3902 0
-3852 3903 0
-3853 3904 0
-3854 3905 0
-3855 3906 0
-3856 3907 0
-3857 3908 0
-3858 3909 0
-3859 3910 0
-3860 3911 0
-3861 3912 0
-3862 3913 0
-3863 3914 0
-3864 3915 0
-3865 3916 0
-3866 3917 0
-3867 3918 0
-3868 3919 0
-3869 3920 0
-3870 3921 0
-3871 3922 0
-924 -3821 3873 0
-924 -3822 3874 0
-924 -3823 3875 0
-924 -3824 3876 0
-924 -3825 3877 0
-924 -3826 3878 0
-924 -3827 3879 0
-924 -3828 3880 0
-924 -3829 3881 0
-924 -3830 3882 0
-924 -3831 3883 0
-924 -3832 3884 0
-924 -3833 3885 0
-924 -3834 3886 0
-924 -3835 3887 0
-924 -3836 3888 0
-924 -3837 3889 0
-924 -3838 3890 0
-924 -3839 3891 0
-924 -3840 3892 0
-924 -3841 3893 0
-924 -3842 3894 0
-924 -3843 3895 0
-924 -3844 3896 0
-924 -3845 3897 0
-924 -3846 3898 0
-924 -3847 3899 0
-924 -3848 3900 0
-924 -3849 3901 0
-924 -3850 3902 0
-924 -3851 3903 0
-924 -3852 3904 0
-924 -3853 3905 0
-924 -3854 3906 0
-924 -3855 3907 0
-924 -3856 3908 0
-924 -3857 3909 0
-924 -3858 3910 0
-924 -3859 3911 0
-924 -3860 3912 0
-924 -3861 3913 0
-924 -3862 3914 0
-924 -3863 3915 0
-924 -3864 3916 0
-924 -3865 3917 0
-924 -3866 3918 0
-924 -3867 3919 0
-924 -3868 3920 0
-924 -3869 3921 0
-924 -3870 3922 0
-924 -3871 0
-3872 3923 0
-3873 3924 0
-3874 3925 0
-3875 3926 0
-3876 3927 0
-3877 3928 0
-3878 3929 0
-3879 3930 0
-3880 3931 0
-3881 3932 0
-3882 3933 0
-3883 3934 0
-3884 3935 0
-3885 3936 0
-3886 3937 0
-3887 3938 0
-3888 3939 0
-3889 3940 0
-3890 3941 0
-3891 3942 0
-3892 3943 0
-3893 3944 0
-3894 3945 0
-3895 3946 0
-3896 3947 0
-3897 3948 0
-3898 3949 0
-3899 3950 0
-3900 3951 0
-3901 3952 0
-3902 3953 0
-3903 3954 0
-3904 3955 0
-3905 3956 0
-3906 3957 0
-3907 3958 0
-3908 3959 0
-3909 3960 0
-3910 3961 0
-3911 3962 0
-3912 3963 0
-3913 3964 0
-3914 3965 0
-3915 3966 0
-3916 3967 0
-3917 3968 0
-3918 3969 0
-3919 3970 0
-3920 3971 0
-3921 3972 0
-3922 3973 0
-926 -3872 3924 0
-926 -3873 3925 0
-926 -3874 3926 0
-926 -3875 3927 0
-926 -3876 3928 0
-926 -3877 3929 0
-926 -3878 3930 0
-926 -3879 3931 0
-926 -3880 3932 0
-926 -3881 3933 0
-926 -3882 3934 0
-926 -3883 3935 0
-926 -3884 3936 0
-926 -3885 3937 0
-926 -3886 3938 0
-926 -3887 3939 0
-926 -3888 3940 0
-926 -3889 3941 0
-926 -3890 3942 0
-926 -3891 3943 0
-926 -3892 3944 0
-926 -3893 3945 0
-926 -3894 3946 0
-926 -3895 3947 0
-926 -3896 3948 0
-926 -3897 3949 0
-926 -3898 3950 0
-926 -3899 3951 0
-926 -3900 3952 0
-926 -3901 3953 0
-926 -3902 3954 0
-926 -3903 3955 0
-926 -3904 3956 0
-926 -3905 3957 0
-926 -3906 3958 0
-926 -3907 3959 0
-926 -3908 3960 0
-926 -3909 3961 0
-926 -3910 3962 0
-926 -3911 3963 0
-926 -3912 3964 0
-926 -3913 3965 0
-926 -3914 3966 0
-926 -3915 3967 0
-926 -3916 3968 0
-926 -3917 3969 0
-926 -3918 3970 0
-926 -3919 3971 0
-926 -3920 3972 0
-926 -3921 3973 0
-926 -3922 0
-3923 3974 0
-3924 3975 0
-3925 3976 0
-3926 3977 0
-3927 3978 0
-3928 3979 0
-3929 3980 0
-3930 3981 0
-3931 3982 0
-3932 3983 0
-3933 3984 0
-3934 3985 0
-3935 3986 0
-3936 3987 0
-3937 3988 0
-3938 3989 0
-3939 3990 0
-3940 3991 0
-3941 3992 0
-3942 3993 0
-3943 3994 0
-3944 3995 0
-3945 3996 0
-3946 3997 0
-3947 3998 0
-3948 3999 0
-3949 4000 0
-3950 4001 0
-3951 4002 0
-3952 4003 0
-3953 4004 0
-3954 4005 0
-3955 4006 0
-3956 4007 0
-3957 4008 0
-3958 4009 0
-3959 4010 0
-3960 4011 0
-3961 4012 0
-3962 4013 0
-3963 4014 0
-3964 4015 0
-3965 4016 0
-3966 4017 0
-3967 4018 0
-3968 4019 0
-3969 4020 0
-3970 4021 0
-3971 4022 0
-3972 4023 0
-3973 4024 0
-928 -3923 3975 0
-928 -3924 3976 0
-928 -3925 3977 0
-928 -3926 3978 0
-928 -3927 3979 0
-928 -3928 3980 0
-928 -3929 3981 0
-928 -3930 3982 0
-928 -3931 3983 0
-928 -3932 3984 0
-928 -3933 3985 0
-928 -3934 3986 0
-928 -3935 3987 0
-928 -3936 3988 0
-928 -3937 3989 0
-928 -3938 3990 0
-928 -3939 3991 0
-928 -3940 3992 0
-928 -3941 3993 0
-928 -3942 3994 0
-928 -3943 3995 0
-928 -3944 3996 0
-928 -3945 3997 0
-928 -3946 3998 0
-928 -3947 3999 0
-928 -3948 4000 0
-928 -3949 4001 0
-928 -3950 4002 0
-928 -3951 4003 0
-928 -3952 4004 0
-928 -3953 4005 0
-928 -3954 4006 0
-928 -3955 4007 0
-928 -3956 4008 0
-928 -3957 4009 0
-928 -3958 4010 0
-928 -3959 4011 0
-928 -3960 4012 0
-928 -3961 4013 0
-928 -3962 4014 0
-928 -3963 4015 0
-928 -3964 4016 0
-928 -3965 4017 0
-928 -3966 4018 0
-928 -3967 4019 0
-928 -3968 4020 0
-928 -3969 4021 0
-928 -3970 4022 0
-928 -3971 4023 0
-928 -3972 4024 0
-928 -3973 0
-3974 4025 0
-3975 4026 0
-3976 4027 0
-3977 4028 0
-3978 4029 0
-3979 4030 0
-3980 4031 0
-3981 4032 0
-3982 4033 0
-3983 4034 0
-3984 4035 0
-3985 4036 0
-3986 4037 0
-3987 4038 0
-3988 4039 0
-3989 4040 0
-3990 4041 0
-3991 4042 0
-3992 4043 0
-3993 4044 0
-3994 4045 0
-3995 4046 0
-3996 4047 0
-3997 4048 0
-3998 4049 0
-3999 4050 0
-4000 4051 0
-4001 4052 0
-4002 4053 0
-4003 4054 0
-4004 4055 0
-4005 4056 0
-4006 4057 0
-4007 4058 0
-4008 4059 0
-4009 4060 0
-4010 4061 0
-4011 4062 0
-4012 4063 0
-4013 4064 0
-4014 4065 0
-4015 4066 0
-4016 4067 0
-4017 4068 0
-4018 4069 0
-4019 4070 0
-4020 4071 0
-4021 4072 0
-4022 4073 0
-4023 4074 0
-4024 4075 0
-930 -3974 4026 0
-930 -3975 4027 0
-930 -3976 4028 0
-930 -3977 4029 0
-930 -3978 4030 0
-930 -3979 4031 0
-930 -3980 4032 0
-930 -3981 4033 0
-930 -3982 4034 0
-930 -3983 4035 0
-930 -3984 4036 0
-930 -3985 4037 0
-930 -3986 4038 0
-930 -3987 4039 0
-930 -3988 4040 0
-930 -3989 4041 0
-930 -3990 4042 0
-930 -3991 4043 0
-930 -3992 4044 0
-930 -3993 4045 0
-930 -3994 4046 0
-930 -3995 4047 0
-930 -3996 4048 0
-930 -3997 4049 0
-930 -3998 4050 0
-930 -3999 4051 0
-930 -4000 4052 0
-930 -4001 4053 0
-930 -4002 4054 0
-930 -4003 4055 0
-930 -4004 4056 0
-930 -4005 4057 0
-930 -4006 4058 0
-930 -4007 4059 0
-930 -4008 4060 0
-930 -4009 4061 0
-930 -4010 4062 0
-930 -4011 4063 0
-930 -4012 4064 0
-930 -4013 4065 0
-930 -4014 4066 0
-930 -4015 4067 0
-930 -4016 4068 0
-930 -4017 4069 0
-930 -4018 4070 0
-930 -4019 4071 0
-930 -4020 4072 0
-930 -4021 4073 0
-930 -4022 4074 0
-930 -4023 4075 0
-930 -4024 0
-4025 4076 0
-4026 4077 0
-4027 4078 0
-4028 4079 0
-4029 4080 0
-4030 4081 0
-4031 4082 0
-4032 4083 0
-4033 4084 0
-4034 4085 0
-4035 4086 0
-4036 4087 0
-4037 4088 0
-4038 4089 0
-4039 4090 0
-4040 4091 0
-4041 4092 0
-4042 4093 0
-4043 4094 0
-4044 4095 0
-4045 4096 0
-4046 4097 0
-4047 4098 0
-4048 4099 0
-4049 4100 0
-4050 4101 0
-4051 4102 0
-4052 4103 0
-4053 4104 0
-4054 4105 0
-4055 4106 0
-4056 4107 0
-4057 4108 0
-4058 4109 0
-4059 4110 0
-4060 4111 0
-4061 4112 0
-4062 4113 0
-4063 4114 0
-4064 4115 0
-4065 4116 0
-4066 4117 0
-4067 4118 0
-4068 4119 0
-4069 4120 0
-4070 4121 0
-4071 4122 0
-4072 4123 0
-4073 4124 0
-4074 4125 0
-4075 4126 0
-932 -4025 4077 0
-932 -4026 4078 0
-932 -4027 4079 0
-932 -4028 4080 0
-932 -4029 4081 0
-932 -4030 4082 0
-932 -4031 4083 0
-932 -4032 4084 0
-932 -4033 4085 0
-932 -4034 4086 0
-932 -4035 4087 0
-932 -4036 4088 0
-932 -4037 4089 0
-932 -4038 4090 0
-932 -4039 4091 0
-932 -4040 4092 0
-932 -4041 4093 0
-932 -4042 4094 0
-932 -4043 4095 0
-932 -4044 4096 0
-932 -4045 4097 0
-932 -4046 4098 0
-932 -4047 4099 0
-932 -4048 4100 0
-932 -4049 4101 0
-932 -4050 4102 0
-932 -4051 4103 0
-932 -4052 4104 0
-932 -4053 4105 0
-932 -4054 4106 0
-932 -4055 4107 0
-932 -4056 4108 0
-932 -4057 4109 0
-932 -4058 4110 0
-932 -4059 4111 0
-932 -4060 4112 0
-932 -4061 4113 0
-932 -4062 4114 0
-932 -4063 4115 0
-932 -4064 4116 0
-932 -4065 4117 0
-932 -4066 4118 0
-932 -4067 4119 0
-932 -4068 4120 0
-932 -4069 4121 0
-932 -4070 4122 0
-932 -4071 4123 0
-932 -4072 4124 0
-932 -4073 4125 0
-932 -4074 4126 0
-932 -4075 0
-4076 4127 0
-4077 4128 0
-4078 4129 0
-4079 4130 0
-4080 4131 0
-4081 4132 0
-4082 4133 0
-4083 4134 0
-4084 4135 0
-4085 4136 0
-4086 4137 0
-4087 4138 0
-4088 4139 0
-4089 4140 0
-4090 4141 0
-4091 4142 0
-4092 4143 0
-4093 4144 0
-4094 4145 0
-4095 4146 0
-4096 4147 0
-4097 4148 0
-4098 4149 0
-4099 4150 0
-4100 4151 0
-4101 4152 0
-4102 4153 0
-4103 4154 0
-4104 4155 0
-4105 4156 0
-4106 4157 0
-4107 4158 0
-4108 4159 0
-4109 4160 0
-4110 4161 0
-4111 4162 0
-4112 4163 0
-4113 4164 0
-4114 4165 0
-4115 4166 0
-4116 4167 0
-4117 4168 0
-4118 4169 0
-4119 4170 0
-4120 4171 0
-4121 4172 0
-4122 4173 0
-4123 4174 0
-4124 4175 0
-4125 4176 0
-4126 4177 0
-934 -4076 4128 0
-934 -4077 4129 0
-934 -4078 4130 0
-934 -4079 4131 0
-934 -4080 4132 0
-934 -4081 4133 0
-934 -4082 4134 0
-934 -4083 4135 0
-934 -4084 4136 0
-934 -4085 4137 0
-934 -4086 4138 0
-934 -4087 4139 0
-934 -4088 4140 0
-934 -4089 4141 0
-934 -4090 4142 0
-934 -4091 4143 0
-934 -4092 4144 0
-934 -4093 4145 0
-934 -4094 4146 0
-934 -4095 4147 0
-934 -4096 4148 0
-934 -4097 4149 0
-934 -4098 4150 0
-934 -4099 4151 0
-934 -4100 4152 0
-934 -4101 4153 0
-934 -4102 4154 0
-934 -4103 4155 0
-934 -4104 4156 0
-934 -4105 4157 0
-934 -4106 4158 0
-934 -4107 4159 0
-934 -4108 4160 0
-934 -4109 4161 0
-934 -4110 4162 0
-934 -4111 4163 0
-934 -4112 4164 0
-934 -4113 4165 0
-934 -4114 4166 0
-934 -4115 4167 0
-934 -4116 4168 0
-934 -4117 4169 0
-934 -4118 4170 0
-934 -4119 4171 0
-934 -4120 4172 0
-934 -4121 4173 0
-934 -4122 4174 0
-934 -4123 4175 0
-934 -4124 4176 0
-934 -4125 4177 0
-934 -4126 0
-4127 4178 0
-4128 4179 0
-4129 4180 0
-4130 4181 0
-4131 4182 0
-4132 4183 0
-4133 4184 0
-4134 4185 0
-4135 4186 0
-4136 4187 0
-4137 4188 0
-4138 4189 0
-4139 4190 0
-4140 4191 0
-4141 4192 0
-4142 4193 0
-4143 4194 0
-4144 4195 0
-4145 4196 0
-4146 4197 0
-4147 4198 0
-4148 4199 0
-4149 4200 0
-4150 4201 0
-4151 4202 0
-4152 4203 0
-4153 4204 0
-4154 4205 0
-4155 4206 0
-4156 4207 0
-4157 4208 0
-4158 4209 0
-4159 4210 0
-4160 4211 0
-4161 4212 0
-4162 4213 0
-4163 4214 0
-4164 4215 0
-4165 4216 0
-4166 4217 0
-4167 4218 0
-4168 4219 0
-4169 4220 0
-4170 4221 0
-4171 4222 0
-4172 4223 0
-4173 4224 0
-4174 4225 0
-4175 4226 0
-4176 4227 0
-4177 4228 0
-936 -4127 4179 0
-936 -4128 4180 0
-936 -4129 4181 0
-936 -4130 4182 0
-936 -4131 4183 0
-936 -4132 4184 0
-936 -4133 4185 0
-936 -4134 4186 0
-936 -4135 4187 0
-936 -4136 4188 0
-936 -4137 4189 0
-936 -4138 4190 0
-936 -4139 4191 0
-936 -4140 4192 0
-936 -4141 4193 0
-936 -4142 4194 0
-936 -4143 4195 0
-936 -4144 4196 0
-936 -4145 4197 0
-936 -4146 4198 0
-936 -4147 4199 0
-936 -4148 4200 0
-936 -4149 4201 0
-936 -4150 4202 0
-936 -4151 4203 0
-936 -4152 4204 0
-936 -4153 4205 0
-936 -4154 4206 0
-936 -4155 4207 0
-936 -4156 4208 0
-936 -4157 4209 0
-936 -4158 4210 0
-936 -4159 4211 0
-936 -4160 4212 0
-936 -4161 4213 0
-936 -4162 4214 0
-936 -4163 4215 0
-936 -4164 4216 0
-936 -4165 4217 0
-936 -4166 4218 0
-936 -4167 4219 0
-936 -4168 4220 0
-936 -4169 4221 0
-936 -4170 4222 0
-936 -4171 4223 0
-936 -4172 4224 0
-936 -4173 4225 0
-936 -4174 4226 0
-936 -4175 4227 0
-936 -4176 4228 0
-936 -4177 0
-4178 4229 0
-4179 4230 0
-4180 4231 0
-4181 4232 0
-4182 4233 0
-4183 4234 0
-4184 4235 0
-4185 4236 0
-4186 4237 0
-4187 4238 0
-4188 4239 0
-4189 4240 0
-4190 4241 0
-4191 4242 0
-4192 4243 0
-4193 4244 0
-4194 4245 0
-4195 4246 0
-4196 4247 0
-4197 4248 0
-4198 4249 0
-4199 4250 0
-4200 4251 0
-4201 4252 0
-4202 4253 0
-4203 4254 0
-4204 4255 0
-4205 4256 0
-4206 4257 0
-4207 4258 0
-4208 4259 0
-4209 4260 0
-4210 4261 0
-4211 4262 0
-4212 4263 0
-4213 4264 0
-4214 4265 0
-4215 4266 0
-4216 4267 0
-4217 4268 0
-4218 4269 0
-4219 4270 0
-4220 4271 0
-4221 4272 0
-4222 4273 0
-4223 4274 0
-4224 4275 0
-4225 4276 0
-4226 4277 0
-4227 4278 0
-4228 4279 0
-938 -4178 4230 0
-938 -4179 4231 0
-938 -4180 4232 0
-938 -4181 4233 0
-938 -4182 4234 0
-938 -4183 4235 0
-938 -4184 4236 0
-938 -4185 4237 0
-938 -4186 4238 0
-938 -4187 4239 0
-938 -4188 4240 0
-938 -4189 4241 0
-938 -4190 4242 0
-938 -4191 4243 0
-938 -4192 4244 0
-938 -4193 4245 0
-938 -4194 4246 0
-938 -4195 4247 0
-938 -4196 4248 0
-938 -4197 4249 0
-938 -4198 4250 0
-938 -4199 4251 0
-938 -4200 4252 0
-938 -4201 4253 0
-938 -4202 4254 0
-938 -4203 4255 0
-938 -4204 4256 0
-938 -4205 4257 0
-938 -4206 4258 0
-938 -4207 4259 0
-938 -4208 4260 0
-938 -4209 4261 0
-938 -4210 4262 0
-938 -4211 4263 0
-938 -4212 4264 0
-938 -4213 4265 0
-938 -4214 4266 0
-938 -4215 4267 0
-938 -4216 4268 0
-938 -4217 4269 0
-938 -4218 4270 0
-938 -4219 4271 0
-938 -4220 4272 0
-938 -4221 4273 0
-938 -4222 4274 0
-938 -4223 4275 0
-938 -4224 4276 0
-938 -4225 4277 0
-938 -4226 4278 0
-938 -4227 4279 0
-938 -4228 0
-4229 4280 0
-4230 4281 0
-4231 4282 0
-4232 4283 0
-4233 4284 0
-4234 4285 0
-4235 4286 0
-4236 4287 0
-4237 4288 0
-4238 4289 0
-4239 4290 0
-4240 4291 0
-4241 4292 0
-4242 4293 0
-4243 4294 0
-4244 4295 0
-4245 4296 0
-4246 4297 0
-4247 4298 0
-4248 4299 0
-4249 4300 0
-4250 4301 0
-4251 4302 0
-4252 4303 0
-4253 4304 0
-4254 4305 0
-4255 4306 0
-4256 4307 0
-4257 4308 0
-4258 4309 0
-4259 4310 0
-4260 4311 0
-4261 4312 0
-4262 4313 0
-4263 4314 0
-4264 4315 0
-4265 4316 0
-4266 4317 0
-4267 4318 0
-4268 4319 0
-4269 4320 0
-4270 4321 0
-4271 4322 0
-4272 4323 0
-4273 4324 0
-4274 4325 0
-4275 4326 0
-4276 4327 0
-4277 4328 0
-4278 4329 0
-4279 4330 0
-940 -4229 4281 0
-940 -4230 4282 0
-940 -4231 4283 0
-940 -4232 4284 0
-940 -4233 4285 0
-940 -4234 4286 0
-940 -4235 4287 0
-940 -4236 4288 0
-940 -4237 4289 0
-940 -4238 4290 0
-940 -4239 4291 0
-940 -4240 4292 0
-940 -4241 4293 0
-940 -4242 4294 0
-940 -4243 4295 0
-940 -4244 4296 0
-940 -4245 4297 0
-940 -4246 4298 0
-940 -4247 4299 0
-940 -4248 4300 0
-940 -4249 4301 0
-940 -4250 4302 0
-940 -4251 4303 0
-940 -4252 4304 0
-940 -4253 4305 0
-940 -4254 4306 0
-940 -4255 4307 0
-940 -4256 4308 0
-940 -4257 4309 0
-940 -4258 4310 0
-940 -4259 4311 0
-940 -4260 4312 0
-940 -4261 4313 0
-940 -4262 4314 0
-940 -4263 4315 0
-940 -4264 4316 0
-940 -4265 4317 0
-940 -4266 4318 0
-940 -4267 4319 0
-940 -4268 4320 0
-940 -4269 4321 0
-940 -4270 4322 0
-940 -4271 4323 0
-940 -4272 4324 0
-940 -4273 4325 0
-940 -4274 4326 0
-940 -4275 4327 0
-940 -4276 4328 0
-940 -4277 4329 0
-940 -4278 4330 0
-940 -4279 0
-4280 4331 0
-4281 4332 0
-4282 4333 0
-4283 4334 0
-4284 4335 0
-4285 4336 0
-4286 4337 0
-4287 4338 0
-4288 4339 0
-4289 4340 0
-4290 4341 0
-4291 4342 0
-4292 4343 0
-4293 4344 0
-4294 4345 0
-4295 4346 0
-4296 4347 0
-4297 4348 0
-4298 4349 0
-4299 4350 0
-4300 4351 0
-4301 4352 0
-4302 4353 0
-4303 4354 0
-4304 4355 0
-4305 4356 0
-4306 4357 0
-4307 4358 0
-4308 4359 0
-4309 4360 0
-4310 4361 0
-4311 4362 0
-4312 4363 0
-4313 4364 0
-4314 4365 0
-4315 4366 0
-4316 4367 0
-4317 4368 0
-4318 4369 0
-4319 4370 0
-4320 4371 0
-4321 4372 0
-4322 4373 0
-4323 4374 0
-4324 4375 0
-4325 4376 0
-4326 4377 0
-4327 4378 0
-4328 4379 0
-4329 4380 0
-4330 4381 0
-942 -4280 4332 0
-942 -4281 4333 0
-942 -4282 4334 0
-942 -4283 4335 0
-942 -4284 4336 0
-942 -4285 4337 0
-942 -4286 4338 0
-942 -4287 4339 0
-942 -4288 4340 0
-942 -4289 4341 0
-942 -4290 4342 0
-942 -4291 4343 0
-942 -4292 4344 0
-942 -4293 4345 0
-942 -4294 4346 0
-942 -4295 4347 0
-942 -4296 4348 0
-942 -4297 4349 0
-942 -4298 4350 0
-942 -4299 4351 0
-942 -4300 4352 0
-942 -4301 4353 0
-942 -4302 4354 0
-942 -4303 4355 0
-942 -4304 4356 0
-942 -4305 4357 0
-942 -4306 4358 0
-942 -4307 4359 0
-942 -4308 4360 0
-942 -4309 4361 0
-942 -4310 4362 0
-942 -4311 4363 0
-942 -4312 4364 0
-942 -4313 4365 0
-942 -4314 4366 0
-942 -4315 4367 0
-942 -4316 4368 0
-942 -4317 4369 0
-942 -4318 4370 0
-942 -4319 4371 0
-942 -4320 4372 0
-942 -4321 4373 0
-942 -4322 4374 0
-942 -4323 4375 0
-942 -4324 4376 0
-942 -4325 4377 0
-942 -4326 4378 0
-942 -4327 4379 0
-942 -4328 4380 0
-942 -4329 4381 0
-942 -4330 0
-4331 4382 0
-4332 4383 0
-4333 4384 0
-4334 4385 0
-4335 4386 0
-4336 4387 0
-4337 4388 0
-4338 4389 0
-4339 4390 0
-4340 4391 0
-4341 4392 0
-4342 4393 0
-4343 4394 0
-4344 4395 0
-4345 4396 0
-4346 4397 0
-4347 4398 0
-4348 4399 0
-4349 4400 0
-4350 4401 0
-4351 4402 0
-4352 4403 0
-4353 4404 0
-4354 4405 0
-4355 4406 0
-4356 4407 0
-4357 4408 0
-4358 4409 0
-4359 4410 0
-4360 4411 0
-4361 4412 0
-4362 4413 0
-4363 4414 0
-4364 4415 0
-4365 4416 0
-4366 4417 0
-4367 4418 0
-4368 4419 0
-4369 4420 0
-4370 4421 0
-4371 4422 0
-4372 4423 0
-4373 4424 0
-4374 4425 0
-4375 4426 0
-4376 4427 0
-4377 4428 0
-4378 4429 0
-4379 4430 0
-4380 4431 0
-4381 4432 0
-944 -4331 4383 0
-944 -4332 4384 0
-944 -4333 4385 0
-944 -4334 4386 0
-944 -4335 4387 0
-944 -4336 4388 0
-944 -4337 4389 0
-944 -4338 4390 0
-944 -4339 4391 0
-944 -4340 4392 0
-944 -4341 4393 0
-944 -4342 4394 0
-944 -4343 4395 0
-944 -4344 4396 0
-944 -4345 4397 0
-944 -4346 4398 0
-944 -4347 4399 0
-944 -4348 4400 0
-944 -4349 4401 0
-944 -4350 4402 0
-944 -4351 4403 0
-944 -4352 4404 0
-944 -4353 4405 0
-944 -4354 4406 0
-944 -4355 4407 0
-944 -4356 4408 0
-944 -4357 4409 0
-944 -4358 4410 0
-944 -4359 4411 0
-944 -4360 4412 0
-944 -4361 4413 0
-944 -4362 4414 0
-944 -4363 4415 0
-944 -4364 4416 0
-944 -4365 4417 0
-944 -4366 4418 0
-944 -4367 4419 0
-944 -4368 4420 0
-944 -4369 4421 0
-944 -4370 4422 0
-944 -4371 4423 0
-944 -4372 4424 0
-944 -4373 4425 0
-944 -4374 4426 0
-944 -4375 4427 0
-944 -4376 4428 0
-944 -4377 4429 0
-944 -4378 4430 0
-944 -4379 4431 0
-944 -4380 4432 0
-944 -4381 0
-4382 4433 0
-4383 4434 0
-4384 4435 0
-4385 4436 0
-4386 4437 0
-4387 4438 0
-4388 4439 0
-4389 4440 0
-4390 4441 0
-4391 4442 0
-4392 4443 0
-4393 4444 0
-4394 4445 0
-4395 4446 0
-4396 4447 0
-4397 4448 0
-4398 4449 0
-4399 4450 0
-4400 4451 0
-4401 4452 0
-4402 4453 0
-4403 4454 0
-4404 4455 0
-4405 4456 0
-4406 4457 0
-4407 4458 0
-4408 4459 0
-4409 4460 0
-4410 4461 0
-4411 4462 0
-4412 4463 0
-4413 4464 0
-4414 4465 0
-4415 4466 0
-4416 4467 0
-4417 4468 0
-4418 4469 0
-4419 4470 0
-4420 4471 0
-4421 4472 0
-4422 4473 0
-4423 4474 0
-4424 4475 0
-4425 4476 0
-4426 4477 0
-4427 4478 0
-4428 4479 0
-4429 4480 0
-4430 4481 0
-4431 4482 0
-4432 4483 0
-946 -4382 4434 0
-946 -4383 4435 0
-946 -4384 4436 0
-946 -4385 4437 0
-946 -4386 4438 0
-946 -4387 4439 0
-946 -4388 4440 0
-946 -4389 4441 0
-946 -4390 4442 0
-946 -4391 4443 0
-946 -4392 4444 0
-946 -4393 4445 0
-946 -4394 4446 0
-946 -4395 4447 0
-946 -4396 4448 0
-946 -4397 4449 0
-946 -4398 4450 0
-946 -4399 4451 0
-946 -4400 4452 0
-946 -4401 4453 0
-946 -4402 4454 0
-946 -4403 4455 0
-946 -4404 4456 0
-946 -4405 4457 0
-946 -4406 4458 0
-946 -4407 4459 0
-946 -4408 4460 0
-946 -4409 4461 0
-946 -4410 4462 0
-946 -4411 4463 0
-946 -4412 4464 0
-946 -4413 4465 0
-946 -4414 4466 0
-946 -4415 4467 0
-946 -4416 4468 0
-946 -4417 4469 0
-946 -4418 4470 0
-946 -4419 4471 0
-946 -4420 4472 0
-946 -4421 4473 0
-946 -4422 4474 0
-946 -4423 4475 0
-946 -4424 4476 0
-946 -4425 4477 0
-946 -4426 4478 0
-946 -4427 4479 0
-946 -4428 4480 0
-946 -4429 4481 0
-946 -4430 4482 0
-946 -4431 4483 0
-946 -4432 0
-4433 4484 0
-4434 4485 0
-4435 4486 0
-4436 4487 0
-4437 4488 0
-4438 4489 0
-4439 4490 0
-4440 4491 0
-4441 4492 0
-4442 4493 0
-4443 4494 0
-4444 4495 0
-4445 4496 0
-4446 4497 0
-4447 4498 0
-4448 4499 0
-4449 4500 0
-4450 4501 0
-4451 4502 0
-4452 4503 0
-4453 4504 0
-4454 4505 0
-4455 4506 0
-4456 4507 0
-4457 4508 0
-4458 4509 0
-4459 4510 0
-4460 4511 0
-4461 4512 0
-4462 4513 0
-4463 4514 0
-4464 4515 0
-4465 4516 0
-4466 4517 0
-4467 4518 0
-4468 4519 0
-4469 4520 0
-4470 4521 0
-4471 4522 0
-4472 4523 0
-4473 4524 0
-4474 4525 0
-4475 4526 0
-4476 4527 0
-4477 4528 0
-4478 4529 0
-4479 4530 0
-4480 4531 0
-4481 4532 0
-4482 4533 0
-4483 4534 0
-948 -4433 4485 0
-948 -4434 4486 0
-948 -4435 4487 0
-948 -4436 4488 0
-948 -4437 4489 0
-948 -4438 4490 0
-948 -4439 4491 0
-948 -4440 4492 0
-948 -4441 4493 0
-948 -4442 4494 0
-948 -4443 4495 0
-948 -4444 4496 0
-948 -4445 4497 0
-948 -4446 4498 0
-948 -4447 4499 0
-948 -4448 4500 0
-948 -4449 4501 0
-948 -4450 4502 0
-948 -4451 4503 0
-948 -4452 4504 0
-948 -4453 4505 0
-948 -4454 4506 0
-948 -4455 4507 0
-948 -4456 4508 0
-948 -4457 4509 0
-948 -4458 4510 0
-948 -4459 4511 0
-948 -4460 4512 0
-948 -4461 4513 0
-948 -4462 4514 0
-948 -4463 4515 0
-948 -4464 4516 0
-948 -4465 4517 0
-948 -4466 4518 0
-948 -4467 4519 0
-948 -4468 4520 0
-948 -4469 4521 0
-948 -4470 4522 0
-948 -4471 4523 0
-948 -4472 4524 0
-948 -4473 4525 0
-948 -4474 4526 0
-948 -4475 4527 0
-948 -4476 4528 0
-948 -4477 4529 0
-948 -4478 4530 0
-948 -4479 4531 0
-948 -4480 4532 0
-948 -4481 4533 0
-948 -4482 4534 0
-948 -4483 0
-4484 4535 0
-4485 4536 0
-4486 4537 0
-4487 4538 0
-4488 4539 0
-4489 4540 0
-4490 4541 0
-4491 4542 0
-4492 4543 0
-4493 4544 0
-4494 4545 0
-4495 4546 0
-4496 4547 0
-4497 4548 0
-4498 4549 0
-4499 4550 0
-4500 4551 0
-4501 4552 0
-4502 4553 0
-4503 4554 0
-4504 4555 0
-4505 4556 0
-4506 4557 0
-4507 4558 0
-4508 4559 0
-4509 4560 0
-4510 4561 0
-4511 4562 0
-4512 4563 0
-4513 4564 0
-4514 4565 0
-4515 4566 0
-4516 4567 0
-4517 4568 0
-4518 4569 0
-4519 4570 0
-4520 4571 0
-4521 4572 0
-4522 4573 0
-4523 4574 0
-4524 4575 0
-4525 4576 0
-4526 4577 0
-4527 4578 0
-4528 4579 0
-4529 4580 0
-4530 4581 0
-4531 4582 0
-4532 4583 0
-4533 4584 0
-4534 4585 0
-950 -4484 4536 0
-950 -4485 4537 0
-950 -4486 4538 0
-950 -4487 4539 0
-950 -4488 4540 0
-950 -4489 4541 0
-950 -4490 4542 0
-950 -4491 4543 0
-950 -4492 4544 0
-950 -4493 4545 0
-950 -4494 4546 0
-950 -4495 4547 0
-950 -4496 4548 0
-950 -4497 4549 0
-950 -4498 4550 0
-950 -4499 4551 0
-950 -4500 4552 0
-950 -4501 4553 0
-950 -4502 4554 0
-950 -4503 4555 0
-950 -4504 4556 0
-950 -4505 4557 0
-950 -4506 4558 0
-950 -4507 4559 0
-950 -4508 4560 0
-950 -4509 4561 0
-950 -4510 4562 0
-950 -4511 4563 0
-950 -4512 4564 0
-950 -4513 4565 0
-950 -4514 4566 0
-950 -4515 4567 0
-950 -4516 4568 0
-950 -4517 4569 0
-950 -4518 4570 0
-950 -4519 4571 0
-950 -4520 4572 0
-950 -4521 4573 0
-950 -4522 4574 0
-950 -4523 4575 0
-950 -4524 4576 0
-950 -4525 4577 0
-950 -4526 4578 0
-950 -4527 4579 0
-950 -4528 4580 0
-950 -4529 4581 0
-950 -4530 4582 0
-950 -4531 4583 0
-950 -4532 4584 0
-950 -4533 4585 0
-950 -4534 0
-4535 4586 0
-4536 4587 0
-4537 4588 0
-4538 4589 0
-4539 4590 0
-4540 4591 0
-4541 4592 0
-4542 4593 0
-4543 4594 0
-4544 4595 0
-4545 4596 0
-4546 4597 0
-4547 4598 0
-4548 4599 0
-4549 4600 0
-4550 4601 0
-4551 4602 0
-4552 4603 0
-4553 4604 0
-4554 4605 0
-4555 4606 0
-4556 4607 0
-4557 4608 0
-4558 4609 0
-4559 4610 0
-4560 4611 0
-4561 4612 0
-4562 4613 0
-4563 4614 0
-4564 4615 0
-4565 4616 0
-4566 4617 0
-4567 4618 0
-4568 4619 0
-4569 4620 0
-4570 4621 0
-4571 4622 0
-4572 4623 0
-4573 4624 0
-4574 4625 0
-4575 4626 0
-4576 4627 0
-4577 4628 0
-4578 4629 0
-4579 4630 0
-4580 4631 0
-4581 4632 0
-4582 4633 0
-4583 4634 0
-4584 4635 0
-4585 4636 0
-952 -4535 4587 0
-952 -4536 4588 0
-952 -4537 4589 0
-952 -4538 4590 0
-952 -4539 4591 0
-952 -4540 4592 0
-952 -4541 4593 0
-952 -4542 4594 0
-952 -4543 4595 0
-952 -4544 4596 0
-952 -4545 4597 0
-952 -4546 4598 0
-952 -4547 4599 0
-952 -4548 4600 0
-952 -4549 4601 0
-952 -4550 4602 0
-952 -4551 4603 0
-952 -4552 4604 0
-952 -4553 4605 0
-952 -4554 4606 0
-952 -4555 4607 0
-952 -4556 4608 0
-952 -4557 4609 0
-952 -4558 4610 0
-952 -4559 4611 0
-952 -4560 4612 0
-952 -4561 4613 0
-952 -4562 4614 0
-952 -4563 4615 0
-952 -4564 4616 0
-952 -4565 4617 0
-952 -4566 4618 0
-952 -4567 4619 0
-952 -4568 4620 0
-952 -4569 4621 0
-952 -4570 4622 0
-952 -4571 4623 0
-952 -4572 4624 0
-952 -4573 4625 0
-952 -4574 4626 0
-952 -4575 4627 0
-952 -4576 4628 0
-952 -4577 4629 0
-952 -4578 4630 0
-952 -4579 4631 0
-952 -4580 4632 0
-952 -4581 4633 0
-952 -4582 4634 0
-952 -4583 4635 0
-952 -4584 4636 0
-952 -4585 0
-4586 4637 0
-4587 4638 0
-4588 4639 0
-4589 4640 0
-4590 4641 0
-4591 4642 0
-4592 4643 0
-4593 4644 0
-4594 4645 0
-4595 4646 0
-4596 4647 0
-4597 4648 0
-4598 4649 0
-4599 4650 0
-4600 4651 0
-4601 4652 0
-4602 4653 0
-4603 4654 0
-4604 4655 0
-4605 4656 0
-4606 4657 0
-4607 4658 0
-4608 4659 0
-4609 4660 0
-4610 4661 0
-4611 4662 0
-4612 4663 0
-4613 4664 0
-4614 4665 0
-4615 4666 0
-4616 4667 0
-4617 4668 0
-4618 4669 0
-4619 4670 0
-4620 4671 0
-4621 4672 0
-4622 4673 0
-4623 4674 0
-4624 4675 0
-4625 4676 0
-4626 4677 0
-4627 4678 0
-4628 4679 0
-4629 4680 0
-4630 4681 0
-4631 4682 0
-4632 4683 0
-4633 4684 0
-4634 4685 0
-4635 4686 0
-4636 4687 0
-954 -4586 4638 0
-954 -4587 4639 0
-954 -4588 4640 0
-954 -4589 4641 0
-954 -4590 4642 0
-954 -4591 4643 0
-954 -4592 4644 0
-954 -4593 4645 0
-954 -4594 4646 0
-954 -4595 4647 0
-954 -4596 4648 0
-954 -4597 4649 0
-954 -4598 4650 0
-954 -4599 4651 0
-954 -4600 4652 0
-954 -4601 4653 0
-954 -4602 4654 0
-954 -4603 4655 0
-954 -4604 4656 0
-954 -4605 4657 0
-954 -4606 4658 0
-954 -4607 4659 0
-954 -4608 4660 0
-954 -4609 4661 0
-954 -4610 4662 0
-954 -4611 4663 0
-954 -4612 4664 0
-954 -4613 4665 0
-954 -4614 4666 0
-954 -4615 4667 0
-954 -4616 4668 0
-954 -4617 4669 0
-954 -4618 4670 0
-954 -4619 4671 0
-954 -4620 4672 0
-954 -4621 4673 0
-954 -4622 4674 0
-954 -4623 4675 0
-954 -4624 4676 0
-954 -4625 4677 0
-954 -4626 4678 0
-954 -4627 4679 0
-954 -4628 4680 0
-954 -4629 4681 0
-954 -4630 4682 0
-954 -4631 4683 0
-954 -4632 4684 0
-954 -4633 4685 0
-954 -4634 4686 0
-954 -4635 4687 0
-954 -4636 0
-4637 4688 0
-4638 4689 0
-4639 4690 0
-4640 4691 0
-4641 4692 0
-4642 4693 0
-4643 4694 0
-4644 4695 0
-4645 4696 0
-4646 4697 0
-4647 4698 0
-4648 4699 0
-4649 4700 0
-4650 4701 0
-4651 4702 0
-4652 4703 0
-4653 4704 0
-4654 4705 0
-4655 4706 0
-4656 4707 0
-4657 4708 0
-4658 4709 0
-4659 4710 0
-4660 4711 0
-4661 4712 0
-4662 4713 0
-4663 4714 0
-4664 4715 0
-4665 4716 0
-4666 4717 0
-4667 4718 0
-4668 4719 0
-4669 4720 0
-4670 4721 0
-4671 4722 0
-4672 4723 0
-4673 4724 0
-4674 4725 0
-4675 4726 0
-4676 4727 0
-4677 4728 0
-4678 4729 0
-4679 4730 0
-4680 4731 0
-4681 4732 0
-4682 4733 0
-4683 4734 0
-4684 4735 0
-4685 4736 0
-4686 4737 0
-4687 4738 0
-956 -4637 4689 0
-956 -4638 4690 0
-956 -4639 4691 0
-956 -4640 4692 0
-956 -4641 4693 0
-956 -4642 4694 0
-956 -4643 4695 0
-956 -4644 4696 0
-956 -4645 4697 0
-956 -4646 4698 0
-956 -4647 4699 0
-956 -4648 4700 0
-956 -4649 4701 0
-956 -4650 4702 0
-956 -4651 4703 0
-956 -4652 4704 0
-956 -4653 4705 0
-956 -4654 4706 0
-956 -4655 4707 0
-956 -4656 4708 0
-956 -4657 4709 0
-956 -4658 4710 0
-956 -4659 4711 0
-956 -4660 4712 0
-956 -4661 4713 0
-956 -4662 4714 0
-956 -4663 4715 0
-956 -4664 4716 0
-956 -4665 4717 0
-956 -4666 4718 0
-956 -4667 4719 0
-956 -4668 4720 0
-956 -4669 4721 0
-956 -4670 4722 0
-956 -4671 4723 0
-956 -4672 4724 0
-956 -4673 4725 0
-956 -4674 4726 0
-956 -4675 4727 0
-956 -4676 4728 0
-956 -4677 4729 0
-956 -4678 4730 0
-956 -4679 4731 0
-956 -4680 4732 0
-956 -4681 4733 0
-956 -4682 4734 0
-956 -4683 4735 0
-956 -4684 4736 0
-956 -4685 4737 0
-956 -4686 4738 0
-956 -4687 0
-4688 4739 0
-4689 4740 0
-4690 4741 0
-4691 4742 0
-4692 4743 0
-4693 4744 0
-4694 4745 0
-4695 4746 0
-4696 4747 0
-4697 4748 0
-4698 4749 0
-4699 4750 0
-4700 4751 0
-4701 4752 0
-4702 4753 0
-4703 4754 0
-4704 4755 0
-4705 4756 0
-4706 4757 0
-4707 4758 0
-4708 4759 0
-4709 4760 0
-4710 4761 0
-4711 4762 0
-4712 4763 0
-4713 4764 0
-4714 4765 0
-4715 4766 0
-4716 4767 0
-4717 4768 0
-4718 4769 0
-4719 4770 0
-4720 4771 0
-4721 4772 0
-4722 4773 0
-4723 4774 0
-4724 4775 0
-4725 4776 0
-4726 4777 0
-4727 4778 0
-4728 4779 0
-4729 4780 0
-4730 4781 0
-4731 4782 0
-4732 4783 0
-4733 4784 0
-4734 4785 0
-4735 4786 0
-4736 4787 0
-4737 4788 0
-4738 4789 0
-958 -4688 4740 0
-958 -4689 4741 0
-958 -4690 4742 0
-958 -4691 4743 0
-958 -4692 4744 0
-958 -4693 4745 0
-958 -4694 4746 0
-958 -4695 4747 0
-958 -4696 4748 0
-958 -4697 4749 0
-958 -4698 4750 0
-958 -4699 4751 0
-958 -4700 4752 0
-958 -4701 4753 0
-958 -4702 4754 0
-958 -4703 4755 0
-958 -4704 4756 0
-958 -4705 4757 0
-958 -4706 4758 0
-958 -4707 4759 0
-958 -4708 4760 0
-958 -4709 4761 0
-958 -4710 4762 0
-958 -4711 4763 0
-958 -4712 4764 0
-958 -4713 4765 0
-958 -4714 4766 0
-958 -4715 4767 0
-958 -4716 4768 0
-958 -4717 4769 0
-958 -4718 4770 0
-958 -4719 4771 0
-958 -4720 4772 0
-958 -4721 4773 0
-958 -4722 4774 0
-958 -4723 4775 0
-958 -4724 4776 0
-958 -4725 4777 0
-958 -4726 4778 0
-958 -4727 4779 0
-958 -4728 4780 0
-958 -4729 4781 0
-958 -4730 4782 0
-958 -4731 4783 0
-958 -4732 4784 0
-958 -4733 4785 0
-958 -4734 4786 0
-958 -4735 4787 0
-958 -4736 4788 0
-958 -4737 4789 0
-958 -4738 0
-4739 4790 0
-4740 4791 0
-4741 4792 0
-4742 4793 0
-4743 4794 0
-4744 4795 0
-4745 4796 0
-4746 4797 0
-4747 4798 0
-4748 4799 0
-4749 4800 0
-4750 4801 0
-4751 4802 0
-4752 4803 0
-4753 4804 0
-4754 4805 0
-4755 4806 0
-4756 4807 0
-4757 4808 0
-4758 4809 0
-4759 4810 0
-4760 4811 0
-4761 4812 0
-4762 4813 0
-4763 4814 0
-4764 4815 0
-4765 4816 0
-4766 4817 0
-4767 4818 0
-4768 4819 0
-4769 4820 0
-4770 4821 0
-4771 4822 0
-4772 4823 0
-4773 4824 0
-4774 4825 0
-4775 4826 0
-4776 4827 0
-4777 4828 0
-4778 4829 0
-4779 4830 0
-4780 4831 0
-4781 4832 0
-4782 4833 0
-4783 4834 0
-4784 4835 0
-4785 4836 0
-4786 4837 0
-4787 4838 0
-4788 4839 0
-4789 4840 0
-960 -4739 4791 0
-960 -4740 4792 0
-960 -4741 4793 0
-960 -4742 4794 0
-960 -4743 4795 0
-960 -4744 4796 0
-960 -4745 4797 0
-960 -4746 4798 0
-960 -4747 4799 0
-960 -4748 4800 0
-960 -4749 4801 0
-960 -4750 4802 0
-960 -4751 4803 0
-960 -4752 4804 0
-960 -4753 4805 0
-960 -4754 4806 0
-960 -4755 4807 0
-960 -4756 4808 0
-960 -4757 4809 0
-960 -4758 4810 0
-960 -4759 4811 0
-960 -4760 4812 0
-960 -4761 4813 0
-960 -4762 4814 0
-960 -4763 4815 0
-960 -4764 4816 0
-960 -4765 4817 0
-960 -4766 4818 0
-960 -4767 4819 0
-960 -4768 4820 0
-960 -4769 4821 0
-960 -4770 4822 0
-960 -4771 4823 0
-960 -4772 4824 0
-960 -4773 4825 0
-960 -4774 4826 0
-960 -4775 4827 0
-960 -4776 4828 0
-960 -4777 4829 0
-960 -4778 4830 0
-960 -4779 4831 0
-960 -4780 4832 0
-960 -4781 4833 0
-960 -4782 4834 0
-960 -4783 4835 0
-960 -4784 4836 0
-960 -4785 4837 0
-960 -4786 4838 0
-960 -4787 4839 0
-960 -4788 4840 0
-960 -4789 0
-4790 4841 0
-4791 4842 0
-4792 4843 0
-4793 4844 0
-4794 4845 0
-4795 4846 0
-4796 4847 0
-4797 4848 0
-4798 4849 0
-4799 4850 0
-4800 4851 0
-4801 4852 0
-4802 4853 0
-4803 4854 0
-4804 4855 0
-4805 4856 0
-4806 4857 0
-4807 4858 0
-4808 4859 0
-4809 4860 0
-4810 4861 0
-4811 4862 0
-4812 4863 0
-4813 4864 0
-4814 4865 0
-4815 4866 0
-4816 4867 0
-4817 4868 0
-4818 4869 0
-4819 4870 0
-4820 4871 0
-4821 4872 0
-4822 4873 0
-4823 4874 0
-4824 4875 0
-4825 4876 0
-4826 4877 0
-4827 4878 0
-4828 4879 0
-4829 4880 0
-4830 4881 0
-4831 4882 0
-4832 4883 0
-4833 4884 0
-4834 4885 0
-4835 4886 0
-4836 4887 0
-4837 4888 0
-4838 4889 0
-4839 4890 0
-4840 4891 0
-962 -4790 4842 0
-962 -4791 4843 0
-962 -4792 4844 0
-962 -4793 4845 0
-962 -4794 4846 0
-962 -4795 4847 0
-962 -4796 4848 0
-962 -4797 4849 0
-962 -4798 4850 0
-962 -4799 4851 0
-962 -4800 4852 0
-962 -4801 4853 0
-962 -4802 4854 0
-962 -4803 4855 0
-962 -4804 4856 0
-962 -4805 4857 0
-962 -4806 4858 0
-962 -4807 4859 0
-962 -4808 4860 0
-962 -4809 4861 0
-962 -4810 4862 0
-962 -4811 4863 0
-962 -4812 4864 0
-962 -4813 4865 0
-962 -4814 4866 0
-962 -4815 4867 0
-962 -4816 4868 0
-962 -4817 4869 0
-962 -4818 4870 0
-962 -4819 4871 0
-962 -4820 4872 0
-962 -4821 4873 0
-962 -4822 4874 0
-962 -4823 4875 0
-962 -4824 4876 0
-962 -4825 4877 0
-962 -4826 4878 0
-962 -4827 4879 0
-962 -4828 4880 0
-962 -4829 4881 0
-962 -4830 4882 0
-962 -4831 4883 0
-962 -4832 4884 0
-962 -4833 4885 0
-962 -4834 4886 0
-962 -4835 4887 0
-962 -4836 4888 0
-962 -4837 4889 0
-962 -4838 4890 0
-962 -4839 4891 0
-962 -4840 0
-4841 4892 0
-4842 4893 0
-4843 4894 0
-4844 4895 0
-4845 4896 0
-4846 4897 0
-4847 4898 0
-4848 4899 0
-4849 4900 0
-4850 4901 0
-4851 4902 0
-4852 4903 0
-4853 4904 0
-4854 4905 0
-4855 4906 0
-4856 4907 0
-4857 4908 0
-4858 4909 0
-4859 4910 0
-4860 4911 0
-4861 4912 0
-4862 4913 0
-4863 4914 0
-4864 4915 0
-4865 4916 0
-4866 4917 0
-4867 4918 0
-4868 4919 0
-4869 4920 0
-4870 4921 0
-4871 4922 0
-4872 4923 0
-4873 4924 0
-4874 4925 0
-4875 4926 0
-4876 4927 0
-4877 4928 0
-4878 4929 0
-4879 4930 0
-4880 4931 0
-4881 4932 0
-4882 4933 0
-4883 4934 0
-4884 4935 0
-4885 4936 0
-4886 4937 0
-4887 4938 0
-4888 4939 0
-4889 4940 0
-4890 4941 0
-4891 4942 0
-964 -4841 4893 0
-964 -4842 4894 0
-964 -4843 4895 0
-964 -4844 4896 0
-964 -4845 4897 0
-964 -4846 4898 0
-964 -4847 4899 0
-964 -4848 4900 0
-964 -4849 4901 0
-964 -4850 4902 0
-964 -4851 4903 0
-964 -4852 4904 0
-964 -4853 4905 0
-964 -4854 4906 0
-964 -4855 4907 0
-964 -4856 4908 0
-964 -4857 4909 0
-964 -4858 4910 0
-964 -4859 4911 0
-964 -4860 4912 0
-964 -4861 4913 0
-964 -4862 4914 0
-964 -4863 4915 0
-964 -4864 4916 0
-964 -4865 4917 0
-964 -4866 4918 0
-964 -4867 4919 0
-964 -4868 4920 0
-964 -4869 4921 0
-964 -4870 4922 0
-964 -4871 4923 0
-964 -4872 4924 0
-964 -4873 4925 0
-964 -4874 4926 0
-964 -4875 4927 0
-964 -4876 4928 0
-964 -4877 4929 0
-964 -4878 4930 0
-964 -4879 4931 0
-964 -4880 4932 0
-964 -4881 4933 0
-964 -4882 4934 0
-964 -4883 4935 0
-964 -4884 4936 0
-964 -4885 4937 0
-964 -4886 4938 0
-964 -4887 4939 0
-964 -4888 4940 0
-964 -4889 4941 0
-964 -4890 4942 0
-964 -4891 0
-4892 4943 0
-4893 4944 0
-4894 4945 0
-4895 4946 0
-4896 4947 0
-4897 4948 0
-4898 4949 0
-4899 4950 0
-4900 4951 0
-4901 4952 0
-4902 4953 0
-4903 4954 0
-4904 4955 0
-4905 4956 0
-4906 4957 0
-4907 4958 0
-4908 4959 0
-4909 4960 0
-4910 4961 0
-4911 4962 0
-4912 4963 0
-4913 4964 0
-4914 4965 0
-4915 4966 0
-4916 4967 0
-4917 4968 0
-4918 4969 0
-4919 4970 0
-4920 4971 0
-4921 4972 0
-4922 4973 0
-4923 4974 0
-4924 4975 0
-4925 4976 0
-4926 4977 0
-4927 4978 0
-4928 4979 0
-4929 4980 0
-4930 4981 0
-4931 4982 0
-4932 4983 0
-4933 4984 0
-4934 4985 0
-4935 4986 0
-4936 4987 0
-4937 4988 0
-4938 4989 0
-4939 4990 0
-4940 4991 0
-4941 4992 0
-4942 4993 0
-966 -4892 4944 0
-966 -4893 4945 0
-966 -4894 4946 0
-966 -4895 4947 0
-966 -4896 4948 0
-966 -4897 4949 0
-966 -4898 4950 0
-966 -4899 4951 0
-966 -4900 4952 0
-966 -4901 4953 0
-966 -4902 4954 0
-966 -4903 4955 0
-966 -4904 4956 0
-966 -4905 4957 0
-966 -4906 4958 0
-966 -4907 4959 0
-966 -4908 4960 0
-966 -4909 4961 0
-966 -4910 4962 0
-966 -4911 4963 0
-966 -4912 4964 0
-966 -4913 4965 0
-966 -4914 4966 0
-966 -4915 4967 0
-966 -4916 4968 0
-966 -4917 4969 0
-966 -4918 4970 0
-966 -4919 4971 0
-966 -4920 4972 0
-966 -4921 4973 0
-966 -4922 4974 0
-966 -4923 4975 0
-966 -4924 4976 0
-966 -4925 4977 0
-966 -4926 4978 0
-966 -4927 4979 0
-966 -4928 4980 0
-966 -4929 4981 0
-966 -4930 4982 0
-966 -4931 4983 0
-966 -4932 4984 0
-966 -4933 4985 0
-966 -4934 4986 0
-966 -4935 4987 0
-966 -4936 4988 0
-966 -4937 4989 0
-966 -4938 4990 0
-966 -4939 4991 0
-966 -4940 4992 0
-966 -4941 4993 0
-966 -4942 0
-4943 4994 0
-4944 4995 0
-4945 4996 0
-4946 4997 0
-4947 4998 0
-4948 4999 0
-4949 5000 0
-4950 5001 0
-4951 5002 0
-4952 5003 0
-4953 5004 0
-4954 5005 0
-4955 5006 0
-4956 5007 0
-4957 5008 0
-4958 5009 0
-4959 5010 0
-4960 5011 0
-4961 5012 0
-4962 5013 0
-4963 5014 0
-4964 5015 0
-4965 5016 0
-4966 5017 0
-4967 5018 0
-4968 5019 0
-4969 5020 0
-4970 5021 0
-4971 5022 0
-4972 5023 0
-4973 5024 0
-4974 5025 0
-4975 5026 0
-4976 5027 0
-4977 5028 0
-4978 5029 0
-4979 5030 0
-4980 5031 0
-4981 5032 0
-4982 5033 0
-4983 5034 0
-4984 5035 0
-4985 5036 0
-4986 5037 0
-4987 5038 0
-4988 5039 0
-4989 5040 0
-4990 5041 0
-4991 5042 0
-4992 5043 0
-4993 5044 0
-968 -4943 4995 0
-968 -4944 4996 0
-968 -4945 4997 0
-968 -4946 4998 0
-968 -4947 4999 0
-968 -4948 5000 0
-968 -4949 5001 0
-968 -4950 5002 0
-968 -4951 5003 0
-968 -4952 5004 0
-968 -4953 5005 0
-968 -4954 5006 0
-968 -4955 5007 0
-968 -4956 5008 0
-968 -4957 5009 0
-968 -4958 5010 0
-968 -4959 5011 0
-968 -4960 5012 0
-968 -4961 5013 0
-968 -4962 5014 0
-968 -4963 5015 0
-968 -4964 5016 0
-968 -4965 5017 0
-968 -4966 5018 0
-968 -4967 5019 0
-968 -4968 5020 0
-968 -4969 5021 0
-968 -4970 5022 0
-968 -4971 5023 0
-968 -4972 5024 0
-968 -4973 5025 0
-968 -4974 5026 0
-968 -4975 5027 0
-968 -4976 5028 0
-968 -4977 5029 0
-968 -4978 5030 0
-968 -4979 5031 0
-968 -4980 5032 0
-968 -4981 5033 0
-968 -4982 5034 0
-968 -4983 5035 0
-968 -4984 5036 0
-968 -4985 5037 0
-968 -4986 5038 0
-968 -4987 5039 0
-968 -4988 5040 0
-968 -4989 5041 0
-968 -4990 5042 0
-968 -4991 5043 0
-968 -4992 5044 0
-968 -4993 0
-4994 5045 0
-4995 5046 0
-4996 5047 0
-4997 5048 0
-4998 5049 0
-4999 5050 0
-5000 5051 0
-5001 5052 0
-5002 5053 0
-5003 5054 0
-5004 5055 0
-5005 5056 0
-5006 5057 0
-5007 5058 0
-5008 5059 0
-5009 5060 0
-5010 5061 0
-5011 5062 0
-5012 5063 0
-5013 5064 0
-5014 5065 0
-5015 5066 0
-5016 5067 0
-5017 5068 0
-5018 5069 0
-5019 5070 0
-5020 5071 0
-5021 5072 0
-5022 5073 0
-5023 5074 0
-5024 5075 0
-5025 5076 0
-5026 5077 0
-5027 5078 0
-5028 5079 0
-5029 5080 0
-5030 5081 0
-5031 5082 0
-5032 5083 0
-5033 5084 0
-5034 5085 0
-5035 5086 0
-5036 5087 0
-5037 5088 0
-5038 5089 0
-5039 5090 0
-5040 5091 0
-5041 5092 0
-5042 5093 0
-5043 5094 0
-5044 5095 0
-970 -4994 5046 0
-970 -4995 5047 0
-970 -4996 5048 0
-970 -4997 5049 0
-970 -4998 5050 0
-970 -4999 5051 0
-970 -5000 5052 0
-970 -5001 5053 0
-970 -5002 5054 0
-970 -5003 5055 0
-970 -5004 5056 0
-970 -5005 5057 0
-970 -5006 5058 0
-970 -5007 5059 0
-970 -5008 5060 0
-970 -5009 5061 0
-970 -5010 5062 0
-970 -5011 5063 0
-970 -5012 5064 0
-970 -5013 5065 0
-970 -5014 5066 0
-970 -5015 5067 0
-970 -5016 5068 0
-970 -5017 5069 0
-970 -5018 5070 0
-970 -5019 5071 0
-970 -5020 5072 0
-970 -5021 5073 0
-970 -5022 5074 0
-970 -5023 5075 0
-970 -5024 5076 0
-970 -5025 5077 0
-970 -5026 5078 0
-970 -5027 5079 0
-970 -5028 5080 0
-970 -5029 5081 0
-970 -5030 5082 0
-970 -5031 5083 0
-970 -5032 5084 0
-970 -5033 5085 0
-970 -5034 5086 0
-970 -5035 5087 0
-970 -5036 5088 0
-970 -5037 5089 0
-970 -5038 5090 0
-970 -5039 5091 0
-970 -5040 5092 0
-970 -5041 5093 0
-970 -5042 5094 0
-970 -5043 5095 0
-970 -5044 0
-5045 5096 0
-5046 5097 0
-5047 5098 0
-5048 5099 0
-5049 5100 0
-5050 5101 0
-5051 5102 0
-5052 5103 0
-5053 5104 0
-5054 5105 0
-5055 5106 0
-5056 5107 0
-5057 5108 0
-5058 5109 0
-5059 5110 0
-5060 5111 0
-5061 5112 0
-5062 5113 0
-5063 5114 0
-5064 5115 0
-5065 5116 0
-5066 5117 0
-5067 5118 0
-5068 5119 0
-5069 5120 0
-5070 5121 0
-5071 5122 0
-5072 5123 0
-5073 5124 0
-5074 5125 0
-5075 5126 0
-5076 5127 0
-5077 5128 0
-5078 5129 0
-5079 5130 0
-5080 5131 0
-5081 5132 0
-5082 5133 0
-5083 5134 0
-5084 5135 0
-5085 5136 0
-5086 5137 0
-5087 5138 0
-5088 5139 0
-5089 5140 0
-5090 5141 0
-5091 5142 0
-5092 5143 0
-5093 5144 0
-5094 5145 0
-5095 5146 0
-972 -5045 5097 0
-972 -5046 5098 0
-972 -5047 5099 0
-972 -5048 5100 0
-972 -5049 5101 0
-972 -5050 5102 0
-972 -5051 5103 0
-972 -5052 5104 0
-972 -5053 5105 0
-972 -5054 5106 0
-972 -5055 5107 0
-972 -5056 5108 0
-972 -5057 5109 0
-972 -5058 5110 0
-972 -5059 5111 0
-972 -5060 5112 0
-972 -5061 5113 0
-972 -5062 5114 0
-972 -5063 5115 0
-972 -5064 5116 0
-972 -5065 5117 0
-972 -5066 5118 0
-972 -5067 5119 0
-972 -5068 5120 0
-972 -5069 5121 0
-972 -5070 5122 0
-972 -5071 5123 0
-972 -5072 5124 0
-972 -5073 5125 0
-972 -5074 5126 0
-972 -5075 5127 0
-972 -5076 5128 0
-972 -5077 5129 0
-972 -5078 5130 0
-972 -5079 5131 0
-972 -5080 5132 0
-972 -5081 5133 0
-972 -5082 5134 0
-972 -5083 5135 0
-972 -5084 5136 0
-972 -5085 5137 0
-972 -5086 5138 0
-972 -5087 5139 0
-972 -5088 5140 0
-972 -5089 5141 0
-972 -5090 5142 0
-972 -5091 5143 0
-972 -5092 5144 0
-972 -5093 5145 0
-972 -5094 5146 0
-972 -5095 0
-5096 5147 0
-5097 5148 0
-5098 5149 0
-5099 5150 0
-5100 5151 0
-5101 5152 0
-5102 5153 0
-5103 5154 0
-5104 5155 0
-5105 5156 0
-5106 5157 0
-5107 5158 0
-5108 5159 0
-5109 5160 0
-5110 5161 0
-5111 5162 0
-5112 5163 0
-5113 5164 0
-5114 5165 0
-5115 5166 0
-5116 5167 0
-5117 5168 0
-5118 5169 0
-5119 5170 0
-5120 5171 0
-5121 5172 0
-5122 5173 0
-5123 5174 0
-5124 5175 0
-5125 5176 0
-5126 5177 0
-5127 5178 0
-5128 5179 0
-5129 5180 0
-5130 5181 0
-5131 5182 0
-5132 5183 0
-5133 5184 0
-5134 5185 0
-5135 5186 0
-5136 5187 0
-5137 5188 0
-5138 5189 0
-5139 5190 0
-5140 5191 0
-5141 5192 0
-5142 5193 0
-5143 5194 0
-5144 5195 0
-5145 5196 0
-5146 5197 0
-974 -5096 5148 0
-974 -5097 5149 0
-974 -5098 5150 0
-974 -5099 5151 0
-974 -5100 5152 0
-974 -5101 5153 0
-974 -5102 5154 0
-974 -5103 5155 0
-974 -5104 5156 0
-974 -5105 5157 0
-974 -5106 5158 0
-974 -5107 5159 0
-974 -5108 5160 0
-974 -5109 5161 0
-974 -5110 5162 0
-974 -5111 5163 0
-974 -5112 5164 0
-974 -5113 5165 0
-974 -5114 5166 0
-974 -5115 5167 0
-974 -5116 5168 0
-974 -5117 5169 0
-974 -5118 5170 0
-974 -5119 5171 0
-974 -5120 5172 0
-974 -5121 5173 0
-974 -5122 5174 0
-974 -5123 5175 0
-974 -5124 5176 0
-974 -5125 5177 0
-974 -5126 5178 0
-974 -5127 5179 0
-974 -5128 5180 0
-974 -5129 5181 0
-974 -5130 5182 0
-974 -5131 5183 0
-974 -5132 5184 0
-974 -5133 5185 0
-974 -5134 5186 0
-974 -5135 5187 0
-974 -5136 5188 0
-974 -5137 5189 0
-974 -5138 5190 0
-974 -5139 5191 0
-974 -5140 5192 0
-974 -5141 5193 0
-974 -5142 5194 0
-974 -5143 5195 0
-974 -5144 5196 0
-974 -5145 5197 0
-974 -5146 0
-5147 5198 0
-5148 5199 0
-5149 5200 0
-5150 5201 0
-5151 5202 0
-5152 5203 0
-5153 5204 0
-5154 5205 0
-5155 5206 0
-5156 5207 0
-5157 5208 0
-5158 5209 0
-5159 5210 0
-5160 5211 0
-5161 5212 0
-5162 5213 0
-5163 5214 0
-5164 5215 0
-5165 5216 0
-5166 5217 0
-5167 5218 0
-5168 5219 0
-5169 5220 0
-5170 5221 0
-5171 5222 0
-5172 5223 0
-5173 5224 0
-5174 5225 0
-5175 5226 0
-5176 5227 0
-5177 5228 0
-5178 5229 0
-5179 5230 0
-5180 5231 0
-5181 5232 0
-5182 5233 0
-5183 5234 0
-5184 5235 0
-5185 5236 0
-5186 5237 0
-5187 5238 0
-5188 5239 0
-5189 5240 0
-5190 5241 0
-5191 5242 0
-5192 5243 0
-5193 5244 0
-5194 5245 0
-5195 5246 0
-5196 5247 0
-5197 5248 0
-976 -5147 5199 0
-976 -5148 5200 0
-976 -5149 5201 0
-976 -5150 5202 0
-976 -5151 5203 0
-976 -5152 5204 0
-976 -5153 5205 0
-976 -5154 5206 0
-976 -5155 5207 0
-976 -5156 5208 0
-976 -5157 5209 0
-976 -5158 5210 0
-976 -5159 5211 0
-976 -5160 5212 0
-976 -5161 5213 0
-976 -5162 5214 0
-976 -5163 5215 0
-976 -5164 5216 0
-976 -5165 5217 0
-976 -5166 5218 0
-976 -5167 5219 0
-976 -5168 5220 0
-976 -5169 5221 0
-976 -5170 5222 0
-976 -5171 5223 0
-976 -5172 5224 0
-976 -5173 5225 0
-976 -5174 5226 0
-976 -5175 5227 0
-976 -5176 5228 0
-976 -5177 5229 0
-976 -5178 5230 0
-976 -5179 5231 0
-976 -5180 5232 0
-976 -5181 5233 0
-976 -5182 5234 0
-976 -5183 5235 0
-976 -5184 5236 0
-976 -5185 5237 0
-976 -5186 5238 0
-976 -5187 5239 0
-976 -5188 5240 0
-976 -5189 5241 0
-976 -5190 5242 0
-976 -5191 5243 0
-976 -5192 5244 0
-976 -5193 5245 0
-976 -5194 5246 0
-976 -5195 5247 0
-976 -5196 5248 0
-976 -5197 0
-5198 5249 0
-5199 5250 0
-5200 5251 0
-5201 5252 0
-5202 5253 0
-5203 5254 0
-5204 5255 0
-5205 5256 0
-5206 5257 0
-5207 5258 0
-5208 5259 0
-5209 5260 0
-5210 5261 0
-5211 5262 0
-5212 5263 0
-5213 5264 0
-5214 5265 0
-5215 5266 0
-5216 5267 0
-5217 5268 0
-5218 5269 0
-5219 5270 0
-5220 5271 0
-5221 5272 0
-5222 5273 0
-5223 5274 0
-5224 5275 0
-5225 5276 0
-5226 5277 0
-5227 5278 0
-5228 5279 0
-5229 5280 0
-5230 5281 0
-5231 5282 0
-5232 5283 0
-5233 5284 0
-5234 5285 0
-5235 5286 0
-5236 5287 0
-5237 5288 0
-5238 5289 0
-5239 5290 0
-5240 5291 0
-5241 5292 0
-5242 5293 0
-5243 5294 0
-5244 5295 0
-5245 5296 0
-5246 5297 0
-5247 5298 0
-5248 5299 0
-978 -5198 5250 0
-978 -5199 5251 0
-978 -5200 5252 0
-978 -5201 5253 0
-978 -5202 5254 0
-978 -5203 5255 0
-978 -5204 5256 0
-978 -5205 5257 0
-978 -5206 5258 0
-978 -5207 5259 0
-978 -5208 5260 0
-978 -5209 5261 0
-978 -5210 5262 0
-978 -5211 5263 0
-978 -5212 5264 0
-978 -5213 5265 0
-978 -5214 5266 0
-978 -5215 5267 0
-978 -5216 5268 0
-978 -5217 5269 0
-978 -5218 5270 0
-978 -5219 5271 0
-978 -5220 5272 0
-978 -5221 5273 0
-978 -5222 5274 0
-978 -5223 5275 0
-978 -5224 5276 0
-978 -5225 5277 0
-978 -5226 5278 0
-978 -5227 5279 0
-978 -5228 5280 0
-978 -5229 5281 0
-978 -5230 5282 0
-978 -5231 5283 0
-978 -5232 5284 0
-978 -5233 5285 0
-978 -5234 5286 0
-978 -5235 5287 0
-978 -5236 5288 0
-978 -5237 5289 0
-978 -5238 5290 0
-978 -5239 5291 0
-978 -5240 5292 0
-978 -5241 5293 0
-978 -5242 5294 0
-978 -5243 5295 0
-978 -5244 5296 0
-978 -5245 5297 0
-978 -5246 5298 0
-978 -5247 5299 0
-978 -5248 0
-5249 5300 0
-5250 5301 0
-5251 5302 0
-5252 5303 0
-5253 5304 0
-5254 5305 0
-5255 5306 0
-5256 5307 0
-5257 5308 0
-5258 5309 0
-5259 5310 0
-5260 5311 0
-5261 5312 0
-5262 5313 0
-5263 5314 0
-5264 5315 0
-5265 5316 0
-5266 5317 0
-5267 5318 0
-5268 5319 0
-5269 5320 0
-5270 5321 0
-5271 5322 0
-5272 5323 0
-5273 5324 0
-5274 5325 0
-5275 5326 0
-5276 5327 0
-5277 5328 0
-5278 5329 0
-5279 5330 0
-5280 5331 0
-5281 5332 0
-5282 5333 0
-5283 5334 0
-5284 5335 0
-5285 5336 0
-5286 5337 0
-5287 5338 0
-5288 5339 0
-5289 5340 0
-5290 5341 0
-5291 5342 0
-5292 5343 0
-5293 5344 0
-5294 5345 0
-5295 5346 0
-5296 5347 0
-5297 5348 0
-5298 5349 0
-5299 5350 0
-980 -5249 5301 0
-980 -5250 5302 0
-980 -5251 5303 0
-980 -5252 5304 0
-980 -5253 5305 0
-980 -5254 5306 0
-980 -5255 5307 0
-980 -5256 5308 0
-980 -5257 5309 0
-980 -5258 5310 0
-980 -5259 5311 0
-980 -5260 5312 0
-980 -5261 5313 0
-980 -5262 5314 0
-980 -5263 5315 0
-980 -5264 5316 0
-980 -5265 5317 0
-980 -5266 5318 0
-980 -5267 5319 0
-980 -5268 5320 0
-980 -5269 5321 0
-980 -5270 5322 0
-980 -5271 5323 0
-980 -5272 5324 0
-980 -5273 5325 0
-980 -5274 5326 0
-980 -5275 5327 0
-980 -5276 5328 0
-980 -5277 5329 0
-980 -5278 5330 0
-980 -5279 5331 0
-980 -5280 5332 0
-980 -5281 5333 0
-980 -5282 5334 0
-980 -5283 5335 0
-980 -5284 5336 0
-980 -5285 5337 0
-980 -5286 5338 0
-980 -5287 5339 0
-980 -5288 5340 0
-980 -5289 5341 0
-980 -5290 5342 0
-980 -5291 5343 0
-980 -5292 5344 0
-980 -5293 5345 0
-980 -5294 5346 0
-980 -5295 5347 0
-980 -5296 5348 0
-980 -5297 5349 0
-980 -5298 5350 0
-980 -5299 0
-5300 5351 0
-5301 5352 0
-5302 5353 0
-5303 5354 0
-5304 5355 0
-5305 5356 0
-5306 5357 0
-5307 5358 0
-5308 5359 0
-5309 5360 0
-5310 5361 0
-5311 5362 0
-5312 5363 0
-5313 5364 0
-5314 5365 0
-5315 5366 0
-5316 5367 0
-5317 5368 0
-5318 5369 0
-5319 5370 0
-5320 5371 0
-5321 5372 0
-5322 5373 0
-5323 5374 0
-5324 5375 0
-5325 5376 0
-5326 5377 0
-5327 5378 0
-5328 5379 0
-5329 5380 0
-5330 5381 0
-5331 5382 0
-5332 5383 0
-5333 5384 0
-5334 5385 0
-5335 5386 0
-5336 5387 0
-5337 5388 0
-5338 5389 0
-5339 5390 0
-5340 5391 0
-5341 5392 0
-5342 5393 0
-5343 5394 0
-5344 5395 0
-5345 5396 0
-5346 5397 0
-5347 5398 0
-5348 5399 0
-5349 5400 0
-5350 5401 0
-982 -5300 5352 0
-982 -5301 5353 0
-982 -5302 5354 0
-982 -5303 5355 0
-982 -5304 5356 0
-982 -5305 5357 0
-982 -5306 5358 0
-982 -5307 5359 0
-982 -5308 5360 0
-982 -5309 5361 0
-982 -5310 5362 0
-982 -5311 5363 0
-982 -5312 5364 0
-982 -5313 5365 0
-982 -5314 5366 0
-982 -5315 5367 0
-982 -5316 5368 0
-982 -5317 5369 0
-982 -5318 5370 0
-982 -5319 5371 0
-982 -5320 5372 0
-982 -5321 5373 0
-982 -5322 5374 0
-982 -5323 5375 0
-982 -5324 5376 0
-982 -5325 5377 0
-982 -5326 5378 0
-982 -5327 5379 0
-982 -5328 5380 0
-982 -5329 5381 0
-982 -5330 5382 0
-982 -5331 5383 0
-982 -5332 5384 0
-982 -5333 5385 0
-982 -5334 5386 0
-982 -5335 5387 0
-982 -5336 5388 0
-982 -5337 5389 0
-982 -5338 5390 0
-982 -5339 5391 0
-982 -5340 5392 0
-982 -5341 5393 0
-982 -5342 5394 0
-982 -5343 5395 0
-982 -5344 5396 0
-982 -5345 5397 0
-982 -5346 5398 0
-982 -5347 5399 0
-982 -5348 5400 0
-982 -5349 5401 0
-982 -5350 0
-5351 5402 0
-5352 5403 0
-5353 5404 0
-5354 5405 0
-5355 5406 0
-5356 5407 0
-5357 5408 0
-5358 5409 0
-5359 5410 0
-5360 5411 0
-5361 5412 0
-5362 5413 0
-5363 5414 0
-5364 5415 0
-5365 5416 0
-5366 5417 0
-5367 5418 0
-5368 5419 0
-5369 5420 0
-5370 5421 0
-5371 5422 0
-5372 5423 0
-5373 5424 0
-5374 5425 0
-5375 5426 0
-5376 5427 0
-5377 5428 0
-5378 5429 0
-5379 5430 0
-5380 5431 0
-5381 5432 0
-5382 5433 0
-5383 5434 0
-5384 5435 0
-5385 5436 0
-5386 5437 0
-5387 5438 0
-5388 5439 0
-5389 5440 0
-5390 5441 0
-5391 5442 0
-5392 5443 0
-5393 5444 0
-5394 5445 0
-5395 5446 0
-5396 5447 0
-5397 5448 0
-5398 5449 0
-5399 5450 0
-5400 5451 0
-5401 5452 0
-984 -5351 5403 0
-984 -5352 5404 0
-984 -5353 5405 0
-984 -5354 5406 0
-984 -5355 5407 0
-984 -5356 5408 0
-984 -5357 5409 0
-984 -5358 5410 0
-984 -5359 5411 0
-984 -5360 5412 0
-984 -5361 5413 0
-984 -5362 5414 0
-984 -5363 5415 0
-984 -5364 5416 0
-984 -5365 5417 0
-984 -5366 5418 0
-984 -5367 5419 0
-984 -5368 5420 0
-984 -5369 5421 0
-984 -5370 5422 0
-984 -5371 5423 0
-984 -5372 5424 0
-984 -5373 5425 0
-984 -5374 5426 0
-984 -5375 5427 0
-984 -5376 5428 0
-984 -5377 5429 0
-984 -5378 5430 0
-984 -5379 5431 0
-984 -5380 5432 0
-984 -5381 5433 0
-984 -5382 5434 0
-984 -5383 5435 0
-984 -5384 5436 0
-984 -5385 5437 0
-984 -5386 5438 0
-984 -5387 5439 0
-984 -5388 5440 0
-984 -5389 5441 0
-984 -5390 5442 0
-984 -5391 5443 0
-984 -5392 5444 0
-984 -5393 5445 0
-984 -5394 5446 0
-984 -5395 5447 0
-984 -5396 5448 0
-984 -5397 5449 0
-984 -5398 5450 0
-984 -5399 5451 0
-984 -5400 5452 0
-984 -5401 0
-5402 5453 0
-5403 5454 0
-5404 5455 0
-5405 5456 0
-5406 5457 0
-5407 5458 0
-5408 5459 0
-5409 5460 0
-5410 5461 0
-5411 5462 0
-5412 5463 0
-5413 5464 0
-5414 5465 0
-5415 5466 0
-5416 5467 0
-5417 5468 0
-5418 5469 0
-5419 5470 0
-5420 5471 0
-5421 5472 0
-5422 5473 0
-5423 5474 0
-5424 5475 0
-5425 5476 0
-5426 5477 0
-5427 5478 0
-5428 5479 0
-5429 5480 0
-5430 5481 0
-5431 5482 0
-5432 5483 0
-5433 5484 0
-5434 5485 0
-5435 5486 0
-5436 5487 0
-5437 5488 0
-5438 5489 0
-5439 5490 0
-5440 5491 0
-5441 5492 0
-5442 5493 0
-5443 5494 0
-5444 5495 0
-5445 5496 0
-5446 5497 0
-5447 5498 0
-5448 5499 0
-5449 5500 0
-5450 5501 0
-5451 5502 0
-5452 5503 0
-986 -5402 5454 0
-986 -5403 5455 0
-986 -5404 5456 0
-986 -5405 5457 0
-986 -5406 5458 0
-986 -5407 5459 0
-986 -5408 5460 0
-986 -5409 5461 0
-986 -5410 5462 0
-986 -5411 5463 0
-986 -5412 5464 0
-986 -5413 5465 0
-986 -5414 5466 0
-986 -5415 5467 0
-986 -5416 5468 0
-986 -5417 5469 0
-986 -5418 5470 0
-986 -5419 5471 0
-986 -5420 5472 0
-986 -5421 5473 0
-986 -5422 5474 0
-986 -5423 5475 0
-986 -5424 5476 0
-986 -5425 5477 0
-986 -5426 5478 0
-986 -5427 5479 0
-986 -5428 5480 0
-986 -5429 5481 0
-986 -5430 5482 0
-986 -5431 5483 0
-986 -5432 5484 0
-986 -5433 5485 0
-986 -5434 5486 0
-986 -5435 5487 0
-986 -5436 5488 0
-986 -5437 5489 0
-986 -5438 5490 0
-986 -5439 5491 0
-986 -5440 5492 0
-986 -5441 5493 0
-986 -5442 5494 0
-986 -5443 5495 0
-986 -5444 5496 0
-986 -5445 5497 0
-986 -5446 5498 0
-986 -5447 5499 0
-986 -5448 5500 0
-986 -5449 5501 0
-986 -5450 5502 0
-986 -5451 5503 0
-986 -5452 0
-5453 5504 0
-5454 5505 0
-5455 5506 0
-5456 5507 0
-5457 5508 0
-5458 5509 0
-5459 5510 0
-5460 5511 0
-5461 5512 0
-5462 5513 0
-5463 5514 0
-5464 5515 0
-5465 5516 0
-5466 5517 0
-5467 5518 0
-5468 5519 0
-5469 5520 0
-5470 5521 0
-5471 5522 0
-5472 5523 0
-5473 5524 0
-5474 5525 0
-5475 5526 0
-5476 5527 0
-5477 5528 0
-5478 5529 0
-5479 5530 0
-5480 5531 0
-5481 5532 0
-5482 5533 0
-5483 5534 0
-5484 5535 0
-5485 5536 0
-5486 5537 0
-5487 5538 0
-5488 5539 0
-5489 5540 0
-5490 5541 0
-5491 5542 0
-5492 5543 0
-5493 5544 0
-5494 5545 0
-5495 5546 0
-5496 5547 0
-5497 5548 0
-5498 5549 0
-5499 5550 0
-5500 5551 0
-5501 5552 0
-5502 5553 0
-5503 5554 0
-988 -5453 5505 0
-988 -5454 5506 0
-988 -5455 5507 0
-988 -5456 5508 0
-988 -5457 5509 0
-988 -5458 5510 0
-988 -5459 5511 0
-988 -5460 5512 0
-988 -5461 5513 0
-988 -5462 5514 0
-988 -5463 5515 0
-988 -5464 5516 0
-988 -5465 5517 0
-988 -5466 5518 0
-988 -5467 5519 0
-988 -5468 5520 0
-988 -5469 5521 0
-988 -5470 5522 0
-988 -5471 5523 0
-988 -5472 5524 0
-988 -5473 5525 0
-988 -5474 5526 0
-988 -5475 5527 0
-988 -5476 5528 0
-988 -5477 5529 0
-988 -5478 5530 0
-988 -5479 5531 0
-988 -5480 5532 0
-988 -5481 5533 0
-988 -5482 5534 0
-988 -5483 5535 0
-988 -5484 5536 0
-988 -5485 5537 0
-988 -5486 5538 0
-988 -5487 5539 0
-988 -5488 5540 0
-988 -5489 5541 0
-988 -5490 5542 0
-988 -5491 5543 0
-988 -5492 5544 0
-988 -5493 5545 0
-988 -5494 5546 0
-988 -5495 5547 0
-988 -5496 5548 0
-988 -5497 5549 0
-988 -5498 5550 0
-988 -5499 5551 0
-988 -5500 5552 0
-988 -5501 5553 0
-988 -5502 5554 0
-988 -5503 0
-5504 5555 0
-5505 5556 0
-5506 5557 0
-5507 5558 0
-5508 5559 0
-5509 5560 0
-5510 5561 0
-5511 5562 0
-5512 5563 0
-5513 5564 0
-5514 5565 0
-5515 5566 0
-5516 5567 0
-5517 5568 0
-5518 5569 0
-5519 5570 0
-5520 5571 0
-5521 5572 0
-5522 5573 0
-5523 5574 0
-5524 5575 0
-5525 5576 0
-5526 5577 0
-5527 5578 0
-5528 5579 0
-5529 5580 0
-5530 5581 0
-5531 5582 0
-5532 5583 0
-5533 5584 0
-5534 5585 0
-5535 5586 0
-5536 5587 0
-5537 5588 0
-5538 5589 0
-5539 5590 0
-5540 5591 0
-5541 5592 0
-5542 5593 0
-5543 5594 0
-5544 5595 0
-5545 5596 0
-5546 5597 0
-5547 5598 0
-5548 5599 0
-5549 5600 0
-5550 5601 0
-5551 5602 0
-5552 5603 0
-5553 5604 0
-5554 5605 0
-990 -5504 5556 0
-990 -5505 5557 0
-990 -5506 5558 0
-990 -5507 5559 0
-990 -5508 5560 0
-990 -5509 5561 0
-990 -5510 5562 0
-990 -5511 5563 0
-990 -5512 5564 0
-990 -5513 5565 0
-990 -5514 5566 0
-990 -5515 5567 0
-990 -5516 5568 0
-990 -5517 5569 0
-990 -5518 5570 0
-990 -5519 5571 0
-990 -5520 5572 0
-990 -5521 5573 0
-990 -5522 5574 0
-990 -5523 5575 0
-990 -5524 5576 0
-990 -5525 5577 0
-990 -5526 5578 0
-990 -5527 5579 0
-990 -5528 5580 0
-990 -5529 5581 0
-990 -5530 5582 0
-990 -5531 5583 0
-990 -5532 5584 0
-990 -5533 5585 0
-990 -5534 5586 0
-990 -5535 5587 0
-990 -5536 5588 0
-990 -5537 5589 0
-990 -5538 5590 0
-990 -5539 5591 0
-990 -5540 5592 0
-990 -5541 5593 0
-990 -5542 5594 0
-990 -5543 5595 0
-990 -5544 5596 0
-990 -5545 5597 0
-990 -5546 5598 0
-990 -5547 5599 0
-990 -5548 5600 0
-990 -5549 5601 0
-990 -5550 5602 0
-990 -5551 5603 0
-990 -5552 5604 0
-990 -5553 5605 0
-990 -5554 0
-5555 5606 0
-5556 5607 0
-5557 5608 0
-5558 5609 0
-5559 5610 0
-5560 5611 0
-5561 5612 0
-5562 5613 0
-5563 5614 0
-5564 5615 0
-5565 5616 0
-5566 5617 0
-5567 5618 0
-5568 5619 0
-5569 5620 0
-5570 5621 0
-5571 5622 0
-5572 5623 0
-5573 5624 0
-5574 5625 0
-5575 5626 0
-5576 5627 0
-5577 5628 0
-5578 5629 0
-5579 5630 0
-5580 5631 0
-5581 5632 0
-5582 5633 0
-5583 5634 0
-5584 5635 0
-5585 5636 0
-5586 5637 0
-5587 5638 0
-5588 5639 0
-5589 5640 0
-5590 5641 0
-5591 5642 0
-5592 5643 0
-5593 5644 0
-5594 5645 0
-5595 5646 0
-5596 5647 0
-5597 5648 0
-5598 5649 0
-5599 5650 0
-5600 5651 0
-5601 5652 0
-5602 5653 0
-5603 5654 0
-5604 5655 0
-5605 5656 0
-992 -5555 5607 0
-992 -5556 5608 0
-992 -5557 5609 0
-992 -5558 5610 0
-992 -5559 5611 0
-992 -5560 5612 0
-992 -5561 5613 0
-992 -5562 5614 0
-992 -5563 5615 0
-992 -5564 5616 0
-992 -5565 5617 0
-992 -5566 5618 0
-992 -5567 5619 0
-992 -5568 5620 0
-992 -5569 5621 0
-992 -5570 5622 0
-992 -5571 5623 0
-992 -5572 5624 0
-992 -5573 5625 0
-992 -5574 5626 0
-992 -5575 5627 0
-992 -5576 5628 0
-992 -5577 5629 0
-992 -5578 5630 0
-992 -5579 5631 0
-992 -5580 5632 0
-992 -5581 5633 0
-992 -5582 5634 0
-992 -5583 5635 0
-992 -5584 5636 0
-992 -5585 5637 0
-992 -5586 5638 0
-992 -5587 5639 0
-992 -5588 5640 0
-992 -5589 5641 0
-992 -5590 5642 0
-992 -5591 5643 0
-992 -5592 5644 0
-992 -5593 5645 0
-992 -5594 5646 0
-992 -5595 5647 0
-992 -5596 5648 0
-992 -5597 5649 0
-992 -5598 5650 0
-992 -5599 5651 0
-992 -5600 5652 0
-992 -5601 5653 0
-992 -5602 5654 0
-992 -5603 5655 0
-992 -5604 5656 0
-992 -5605 0
-5606 5657 0
-5607 5658 0
-5608 5659 0
-5609 5660 0
-5610 5661 0
-5611 5662 0
-5612 5663 0
-5613 5664 0
-5614 5665 0
-5615 5666 0
-5616 5667 0
-5617 5668 0
-5618 5669 0
-5619 5670 0
-5620 5671 0
-5621 5672 0
-5622 5673 0
-5623 5674 0
-5624 5675 0
-5625 5676 0
-5626 5677 0
-5627 5678 0
-5628 5679 0
-5629 5680 0
-5630 5681 0
-5631 5682 0
-5632 5683 0
-5633 5684 0
-5634 5685 0
-5635 5686 0
-5636 5687 0
-5637 5688 0
-5638 5689 0
-5639 5690 0
-5640 5691 0
-5641 5692 0
-5642 5693 0
-5643 5694 0
-5644 5695 0
-5645 5696 0
-5646 5697 0
-5647 5698 0
-5648 5699 0
-5649 5700 0
-5650 5701 0
-5651 5702 0
-5652 5703 0
-5653 5704 0
-5654 5705 0
-5655 5706 0
-5656 5707 0
-994 -5606 5658 0
-994 -5607 5659 0
-994 -5608 5660 0
-994 -5609 5661 0
-994 -5610 5662 0
-994 -5611 5663 0
-994 -5612 5664 0
-994 -5613 5665 0
-994 -5614 5666 0
-994 -5615 5667 0
-994 -5616 5668 0
-994 -5617 5669 0
-994 -5618 5670 0
-994 -5619 5671 0
-994 -5620 5672 0
-994 -5621 5673 0
-994 -5622 5674 0
-994 -5623 5675 0
-994 -5624 5676 0
-994 -5625 5677 0
-994 -5626 5678 0
-994 -5627 5679 0
-994 -5628 5680 0
-994 -5629 5681 0
-994 -5630 5682 0
-994 -5631 5683 0
-994 -5632 5684 0
-994 -5633 5685 0
-994 -5634 5686 0
-994 -5635 5687 0
-994 -5636 5688 0
-994 -5637 5689 0
-994 -5638 5690 0
-994 -5639 5691 0
-994 -5640 5692 0
-994 -5641 5693 0
-994 -5642 5694 0
-994 -5643 5695 0
-994 -5644 5696 0
-994 -5645 5697 0
-994 -5646 5698 0
-994 -5647 5699 0
-994 -5648 5700 0
-994 -5649 5701 0
-994 -5650 5702 0
-994 -5651 5703 0
-994 -5652 5704 0
-994 -5653 5705 0
-994 -5654 5706 0
-994 -5655 5707 0
-994 -5656 0
-5657 5708 0
-5658 5709 0
-5659 5710 0
-5660 5711 0
-5661 5712 0
-5662 5713 0
-5663 5714 0
-5664 5715 0
-5665 5716 0
-5666 5717 0
-5667 5718 0
-5668 5719 0
-5669 5720 0
-5670 5721 0
-5671 5722 0
-5672 5723 0
-5673 5724 0
-5674 5725 0
-5675 5726 0
-5676 5727 0
-5677 5728 0
-5678 5729 0
-5679 5730 0
-5680 5731 0
-5681 5732 0
-5682 5733 0
-5683 5734 0
-5684 5735 0
-5685 5736 0
-5686 5737 0
-5687 5738 0
-5688 5739 0
-5689 5740 0
-5690 5741 0
-5691 5742 0
-5692 5743 0
-5693 5744 0
-5694 5745 0
-5695 5746 0
-5696 5747 0
-5697 5748 0
-5698 5749 0
-5699 5750 0
-5700 5751 0
-5701 5752 0
-5702 5753 0
-5703 5754 0
-5704 5755 0
-5705 5756 0
-5706 5757 0
-5707 5758 0
-996 -5657 5709 0
-996 -5658 5710 0
-996 -5659 5711 0
-996 -5660 5712 0
-996 -5661 5713 0
-996 -5662 5714 0
-996 -5663 5715 0
-996 -5664 5716 0
-996 -5665 5717 0
-996 -5666 5718 0
-996 -5667 5719 0
-996 -5668 5720 0
-996 -5669 5721 0
-996 -5670 5722 0
-996 -5671 5723 0
-996 -5672 5724 0
-996 -5673 5725 0
-996 -5674 5726 0
-996 -5675 5727 0
-996 -5676 5728 0
-996 -5677 5729 0
-996 -5678 5730 0
-996 -5679 5731 0
-996 -5680 5732 0
-996 -5681 5733 0
-996 -5682 5734 0
-996 -5683 5735 0
-996 -5684 5736 0
-996 -5685 5737 0
-996 -5686 5738 0
-996 -5687 5739 0
-996 -5688 5740 0
-996 -5689 5741 0
-996 -5690 5742 0
-996 -5691 5743 0
-996 -5692 5744 0
-996 -5693 5745 0
-996 -5694 5746 0
-996 -5695 5747 0
-996 -5696 5748 0
-996 -5697 5749 0
-996 -5698 5750 0
-996 -5699 5751 0
-996 -5700 5752 0
-996 -5701 5753 0
-996 -5702 5754 0
-996 -5703 5755 0
-996 -5704 5756 0
-996 -5705 5757 0
-996 -5706 5758 0
-996 -5707 0
-5708 5759 0
-5709 5760 0
-5710 5761 0
-5711 5762 0
-5712 5763 0
-5713 5764 0
-5714 5765 0
-5715 5766 0
-5716 5767 0
-5717 5768 0
-5718 5769 0
-5719 5770 0
-5720 5771 0
-5721 5772 0
-5722 5773 0
-5723 5774 0
-5724 5775 0
-5725 5776 0
-5726 5777 0
-5727 5778 0
-5728 5779 0
-5729 5780 0
-5730 5781 0
-5731 5782 0
-5732 5783 0
-5733 5784 0
-5734 5785 0
-5735 5786 0
-5736 5787 0
-5737 5788 0
-5738 5789 0
-5739 5790 0
-5740 5791 0
-5741 5792 0
-5742 5793 0
-5743 5794 0
-5744 5795 0
-5745 5796 0
-5746 5797 0
-5747 5798 0
-5748 5799 0
-5749 5800 0
-5750 5801 0
-5751 5802 0
-5752 5803 0
-5753 5804 0
-5754 5805 0
-5755 5806 0
-5756 5807 0
-5757 5808 0
-5758 5809 0
-998 -5708 5760 0
-998 -5709 5761 0
-998 -5710 5762 0
-998 -5711 5763 0
-998 -5712 5764 0
-998 -5713 5765 0
-998 -5714 5766 0
-998 -5715 5767 0
-998 -5716 5768 0
-998 -5717 5769 0
-998 -5718 5770 0
-998 -5719 5771 0
-998 -5720 5772 0
-998 -5721 5773 0
-998 -5722 5774 0
-998 -5723 5775 0
-998 -5724 5776 0
-998 -5725 5777 0
-998 -5726 5778 0
-998 -5727 5779 0
-998 -5728 5780 0
-998 -5729 5781 0
-998 -5730 5782 0
-998 -5731 5783 0
-998 -5732 5784 0
-998 -5733 5785 0
-998 -5734 5786 0
-998 -5735 5787 0
-998 -5736 5788 0
-998 -5737 5789 0
-998 -5738 5790 0
-998 -5739 5791 0
-998 -5740 5792 0
-998 -5741 5793 0
-998 -5742 5794 0
-998 -5743 5795 0
-998 -5744 5796 0
-998 -5745 5797 0
-998 -5746 5798 0
-998 -5747 5799 0
-998 -5748 5800 0
-998 -5749 5801 0
-998 -5750 5802 0
-998 -5751 5803 0
-998 -5752 5804 0
-998 -5753 5805 0
-998 -5754 5806 0
-998 -5755 5807 0
-998 -5756 5808 0
-998 -5757 5809 0
-998 -5758 0
-5759 5810 0
-5760 5811 0
-5761 5812 0
-5762 5813 0
-5763 5814 0
-5764 5815 0
-5765 5816 0
-5766 5817 0
-5767 5818 0
-5768 5819 0
-5769 5820 0
-5770 5821 0
-5771 5822 0
-5772 5823 0
-5773 5824 0
-5774 5825 0
-5775 5826 0
-5776 5827 0
-5777 5828 0
-5778 5829 0
-5779 5830 0
-5780 5831 0
-5781 5832 0
-5782 5833 0
-5783 5834 0
-5784 5835 0
-5785 5836 0
-5786 5837 0
-5787 5838 0
-5788 5839 0
-5789 5840 0
-5790 5841 0
-5791 5842 0
-5792 5843 0
-5793 5844 0
-5794 5845 0
-5795 5846 0
-5796 5847 0
-5797 5848 0
-5798 5849 0
-5799 5850 0
-5800 5851 0
-5801 5852 0
-5802 5853 0
-5803 5854 0
-5804 5855 0
-5805 5856 0
-5806 5857 0
-5807 5858 0
-5808 5859 0
-5809 5860 0
-1000 -5759 5811 0
-1000 -5760 5812 0
-1000 -5761 5813 0
-1000 -5762 5814 0
-1000 -5763 5815 0
-1000 -5764 5816 0
-1000 -5765 5817 0
-1000 -5766 5818 0
-1000 -5767 5819 0
-1000 -5768 5820 0
-1000 -5769 5821 0
-1000 -5770 5822 0
-1000 -5771 5823 0
-1000 -5772 5824 0
-1000 -5773 5825 0
-1000 -5774 5826 0
-1000 -5775 5827 0
-1000 -5776 5828 0
-1000 -5777 5829 0
-1000 -5778 5830 0
-1000 -5779 5831 0
-1000 -5780 5832 0
-1000 -5781 5833 0
-1000 -5782 5834 0
-1000 -5783 5835 0
-1000 -5784 5836 0
-1000 -5785 5837 0
-1000 -5786 5838 0
-1000 -5787 5839 0
-1000 -5788 5840 0
-1000 -5789 5841 0
-1000 -5790 5842 0
-1000 -5791 5843 0
-1000 -5792 5844 0
-1000 -5793 5845 0
-1000 -5794 5846 0
-1000 -5795 5847 0
-1000 -5796 5848 0
-1000 -5797 5849 0
-1000 -5798 5850 0
-1000 -5799 5851 0
-1000 -5800 5852 0
-1000 -5801 5853 0
-1000 -5802 5854 0
-1000 -5803 5855 0
-1000 -5804 5856 0
-1000 -5805 5857 0
-1000 -5806 5858 0
-1000 -5807 5859 0
-1000 -5808 5860 0
-1000 -5809 0
-5810 5861 0
-5811 5862 0
-5812 5863 0
-5813 5864 0
-5814 5865 0
-5815 5866 0
-5816 5867 0
-5817 5868 0
-5818 5869 0
-5819 5870 0
-5820 5871 0
-5821 5872 0
-5822 5873 0
-5823 5874 0
-5824 5875 0
-5825 5876 0
-5826 5877 0
-5827 5878 0
-5828 5879 0
-5829 5880 0
-5830 5881 0
-5831 5882 0
-5832 5883 0
-5833 5884 0
-5834 5885 0
-5835 5886 0
-5836 5887 0
-5837 5888 0
-5838 5889 0
-5839 5890 0
-5840 5891 0
-5841 5892 0
-5842 5893 0
-5843 5894 0
-5844 5895 0
-5845 5896 0
-5846 5897 0
-5847 5898 0
-5848 5899 0
-5849 5900 0
-5850 5901 0
-5851 5902 0
-5852 5903 0
-5853 5904 0
-5854 5905 0
-5855 5906 0
-5856 5907 0
-5857 5908 0
-5858 5909 0
-5859 5910 0
-5860 5911 0
-1002 -5810 5862 0
-1002 -5811 5863 0
-1002 -5812 5864 0
-1002 -5813 5865 0
-1002 -5814 5866 0
-1002 -5815 5867 0
-1002 -5816 5868 0
-1002 -5817 5869 0
-1002 -5818 5870 0
-1002 -5819 5871 0
-1002 -5820 5872 0
-1002 -5821 5873 0
-1002 -5822 5874 0
-1002 -5823 5875 0
-1002 -5824 5876 0
-1002 -5825 5877 0
-1002 -5826 5878 0
-1002 -5827 5879 0
-1002 -5828 5880 0
-1002 -5829 5881 0
-1002 -5830 5882 0
-1002 -5831 5883 0
-1002 -5832 5884 0
-1002 -5833 5885 0
-1002 -5834 5886 0
-1002 -5835 5887 0
-1002 -5836 5888 0
-1002 -5837 5889 0
-1002 -5838 5890 0
-1002 -5839 5891 0
-1002 -5840 5892 0
-1002 -5841 5893 0
-1002 -5842 5894 0
-1002 -5843 5895 0
-1002 -5844 5896 0
-1002 -5845 5897 0
-1002 -5846 5898 0
-1002 -5847 5899 0
-1002 -5848 5900 0
-1002 -5849 5901 0
-1002 -5850 5902 0
-1002 -5851 5903 0
-1002 -5852 5904 0
-1002 -5853 5905 0
-1002 -5854 5906 0
-1002 -5855 5907 0
-1002 -5856 5908 0
-1002 -5857 5909 0
-1002 -5858 5910 0
-1002 -5859 5911 0
-1002 -5860 0
-5861 5912 0
-5862 5913 0
-5863 5914 0
-5864 5915 0
-5865 5916 0
-5866 5917 0
-5867 5918 0
-5868 5919 0
-5869 5920 0
-5870 5921 0
-5871 5922 0
-5872 5923 0
-5873 5924 0
-5874 5925 0
-5875 5926 0
-5876 5927 0
-5877 5928 0
-5878 5929 0
-5879 5930 0
-5880 5931 0
-5881 5932 0
-5882 5933 0
-5883 5934 0
-5884 5935 0
-5885 5936 0
-5886 5937 0
-5887 5938 0
-5888 5939 0
-5889 5940 0
-5890 5941 0
-5891 5942 0
-5892 5943 0
-5893 5944 0
-5894 5945 0
-5895 5946 0
-5896 5947 0
-5897 5948 0
-5898 5949 0
-5899 5950 0
-5900 5951 0
-5901 5952 0
-5902 5953 0
-5903 5954 0
-5904 5955 0
-5905 5956 0
-5906 5957 0
-5907 5958 0
-5908 5959 0
-5909 5960 0
-5910 5961 0
-5911 5962 0
-1004 -5861 5913 0
-1004 -5862 5914 0
-1004 -5863 5915 0
-1004 -5864 5916 0
-1004 -5865 5917 0
-1004 -5866 5918 0
-1004 -5867 5919 0
-1004 -5868 5920 0
-1004 -5869 5921 0
-1004 -5870 5922 0
-1004 -5871 5923 0
-1004 -5872 5924 0
-1004 -5873 5925 0
-1004 -5874 5926 0
-1004 -5875 5927 0
-1004 -5876 5928 0
-1004 -5877 5929 0
-1004 -5878 5930 0
-1004 -5879 5931 0
-1004 -5880 5932 0
-1004 -5881 5933 0
-1004 -5882 5934 0
-1004 -5883 5935 0
-1004 -5884 5936 0
-1004 -5885 5937 0
-1004 -5886 5938 0
-1004 -5887 5939 0
-1004 -5888 5940 0
-1004 -5889 5941 0
-1004 -5890 5942 0
-1004 -5891 5943 0
-1004 -5892 5944 0
-1004 -5893 5945 0
-1004 -5894 5946 0
-1004 -5895 5947 0
-1004 -5896 5948 0
-1004 -5897 5949 0
-1004 -5898 5950 0
-1004 -5899 5951 0
-1004 -5900 5952 0
-1004 -5901 5953 0
-1004 -5902 5954 0
-1004 -5903 5955 0
-1004 -5904 5956 0
-1004 -5905 5957 0
-1004 -5906 5958 0
-1004 -5907 5959 0
-1004 -5908 5960 0
-1004 -5909 5961 0
-1004 -5910 5962 0
-1004 -5911 0
-5912 5963 0
-5913 5964 0
-5914 5965 0
-5915 5966 0
-5916 5967 0
-5917 5968 0
-5918 5969 0
-5919 5970 0
-5920 5971 0
-5921 5972 0
-5922 5973 0
-5923 5974 0
-5924 5975 0
-5925 5976 0
-5926 5977 0
-5927 5978 0
-5928 5979 0
-5929 5980 0
-5930 5981 0
-5931 5982 0
-5932 5983 0
-5933 5984 0
-5934 5985 0
-5935 5986 0
-5936 5987 0
-5937 5988 0
-5938 5989 0
-5939 5990 0
-5940 5991 0
-5941 5992 0
-5942 5993 0
-5943 5994 0
-5944 5995 0
-5945 5996 0
-5946 5997 0
-5947 5998 0
-5948 5999 0
-5949 6000 0
-5950 6001 0
-5951 6002 0
-5952 6003 0
-5953 6004 0
-5954 6005 0
-5955 6006 0
-5956 6007 0
-5957 6008 0
-5958 6009 0
-5959 6010 0
-5960 6011 0
-5961 6012 0
-5962 6013 0
-1006 -5912 5964 0
-1006 -5913 5965 0
-1006 -5914 5966 0
-1006 -5915 5967 0
-1006 -5916 5968 0
-1006 -5917 5969 0
-1006 -5918 5970 0
-1006 -5919 5971 0
-1006 -5920 5972 0
-1006 -5921 5973 0
-1006 -5922 5974 0
-1006 -5923 5975 0
-1006 -5924 5976 0
-1006 -5925 5977 0
-1006 -5926 5978 0
-1006 -5927 5979 0
-1006 -5928 5980 0
-1006 -5929 5981 0
-1006 -5930 5982 0
-1006 -5931 5983 0
-1006 -5932 5984 0
-1006 -5933 5985 0
-1006 -5934 5986 0
-1006 -5935 5987 0
-1006 -5936 5988 0
-1006 -5937 5989 0
-1006 -5938 5990 0
-1006 -5939 5991 0
-1006 -5940 5992 0
-1006 -5941 5993 0
-1006 -5942 5994 0
-1006 -5943 5995 0
-1006 -5944 5996 0
-1006 -5945 5997 0
-1006 -5946 5998 0
-1006 -5947 5999 0
-1006 -5948 6000 0
-1006 -5949 6001 0
-1006 -5950 6002 0
-1006 -5951 6003 0
-1006 -5952 6004 0
-1006 -5953 6005 0
-1006 -5954 6006 0
-1006 -5955 6007 0
-1006 -5956 6008 0
-1006 -5957 6009 0
-1006 -5958 6010 0
-1006 -5959 6011 0
-1006 -5960 6012 0
-1006 -5961 6013 0
-1006 -5962 0
-5963 6014 0
-5964 6015 0
-5965 6016 0
-5966 6017 0
-5967 6018 0
-5968 6019 0
-5969 6020 0
-5970 6021 0
-5971 6022 0
-5972 6023 0
-5973 6024 0
-5974 6025 0
-5975 6026 0
-5976 6027 0
-5977 6028 0
-5978 6029 0
-5979 6030 0
-5980 6031 0
-5981 6032 0
-5982 6033 0
-5983 6034 0
-5984 6035 0
-5985 6036 0
-5986 6037 0
-5987 6038 0
-5988 6039 0
-5989 6040 0
-5990 6041 0
-5991 6042 0
-5992 6043 0
-5993 6044 0
-5994 6045 0
-5995 6046 0
-5996 6047 0
-5997 6048 0
-5998 6049 0
-5999 6050 0
-6000 6051 0
-6001 6052 0
-6002 6053 0
-6003 6054 0
-6004 6055 0
-6005 6056 0
-6006 6057 0
-6007 6058 0
-6008 6059 0
-6009 6060 0
-6010 6061 0
-6011 6062 0
-6012 6063 0
-6013 6064 0
-1008 -5963 6015 0
-1008 -5964 6016 0
-1008 -5965 6017 0
-1008 -5966 6018 0
-1008 -5967 6019 0
-1008 -5968 6020 0
-1008 -5969 6021 0
-1008 -5970 6022 0
-1008 -5971 6023 0
-1008 -5972 6024 0
-1008 -5973 6025 0
-1008 -5974 6026 0
-1008 -5975 6027 0
-1008 -5976 6028 0
-1008 -5977 6029 0
-1008 -5978 6030 0
-1008 -5979 6031 0
-1008 -5980 6032 0
-1008 -5981 6033 0
-1008 -5982 6034 0
-1008 -5983 6035 0
-1008 -5984 6036 0
-1008 -5985 6037 0
-1008 -5986 6038 0
-1008 -5987 6039 0
-1008 -5988 6040 0
-1008 -5989 6041 0
-1008 -5990 6042 0
-1008 -5991 6043 0
-1008 -5992 6044 0
-1008 -5993 6045 0
-1008 -5994 6046 0
-1008 -5995 6047 0
-1008 -5996 6048 0
-1008 -5997 6049 0
-1008 -5998 6050 0
-1008 -5999 6051 0
-1008 -6000 6052 0
-1008 -6001 6053 0
-1008 -6002 6054 0
-1008 -6003 6055 0
-1008 -6004 6056 0
-1008 -6005 6057 0
-1008 -6006 6058 0
-1008 -6007 6059 0
-1008 -6008 6060 0
-1008 -6009 6061 0
-1008 -6010 6062 0
-1008 -6011 6063 0
-1008 -6012 6064 0
-1008 -6013 0
-6014 6065 0
-6015 6066 0
-6016 6067 0
-6017 6068 0
-6018 6069 0
-6019 6070 0
-6020 6071 0
-6021 6072 0
-6022 6073 0
-6023 6074 0
-6024 6075 0
-6025 6076 0
-6026 6077 0
-6027 6078 0
-6028 6079 0
-6029 6080 0
-6030 6081 0
-6031 6082 0
-6032 6083 0
-6033 6084 0
-6034 6085 0
-6035 6086 0
-6036 6087 0
-6037 6088 0
-6038 6089 0
-6039 6090 0
-6040 6091 0
-6041 6092 0
-6042 6093 0
-6043 6094 0
-6044 6095 0
-6045 6096 0
-6046 6097 0
-6047 6098 0
-6048 6099 0
-6049 6100 0
-6050 6101 0
-6051 6102 0
-6052 6103 0
-6053 6104 0
-6054 6105 0
-6055 6106 0
-6056 6107 0
-6057 6108 0
-6058 6109 0
-6059 6110 0
-6060 6111 0
-6061 6112 0
-6062 6113 0
-6063 6114 0
-6064 6115 0
-1010 -6014 6066 0
-1010 -6015 6067 0
-1010 -6016 6068 0
-1010 -6017 6069 0
-1010 -6018 6070 0
-1010 -6019 6071 0
-1010 -6020 6072 0
-1010 -6021 6073 0
-1010 -6022 6074 0
-1010 -6023 6075 0
-1010 -6024 6076 0
-1010 -6025 6077 0
-1010 -6026 6078 0
-1010 -6027 6079 0
-1010 -6028 6080 0
-1010 -6029 6081 0
-1010 -6030 6082 0
-1010 -6031 6083 0
-1010 -6032 6084 0
-1010 -6033 6085 0
-1010 -6034 6086 0
-1010 -6035 6087 0
-1010 -6036 6088 0
-1010 -6037 6089 0
-1010 -6038 6090 0
-1010 -6039 6091 0
-1010 -6040 6092 0
-1010 -6041 6093 0
-1010 -6042 6094 0
-1010 -6043 6095 0
-1010 -6044 6096 0
-1010 -6045 6097 0
-1010 -6046 6098 0
-1010 -6047 6099 0
-1010 -6048 6100 0
-1010 -6049 6101 0
-1010 -6050 6102 0
-1010 -6051 6103 0
-1010 -6052 6104 0
-1010 -6053 6105 0
-1010 -6054 6106 0
-1010 -6055 6107 0
-1010 -6056 6108 0
-1010 -6057 6109 0
-1010 -6058 6110 0
-1010 -6059 6111 0
-1010 -6060 6112 0
-1010 -6061 6113 0
-1010 -6062 6114 0
-1010 -6063 6115 0
-1010 -6064 0
-6065 6116 0
-6066 6117 0
-6067 6118 0
-6068 6119 0
-6069 6120 0
-6070 6121 0
-6071 6122 0
-6072 6123 0
-6073 6124 0
-6074 6125 0
-6075 6126 0
-6076 6127 0
-6077 6128 0
-6078 6129 0
-6079 6130 0
-6080 6131 0
-6081 6132 0
-6082 6133 0
-6083 6134 0
-6084 6135 0
-6085 6136 0
-6086 6137 0
-6087 6138 0
-6088 6139 0
-6089 6140 0
-6090 6141 0
-6091 6142 0
-6092 6143 0
-6093 6144 0
-6094 6145 0
-6095 6146 0
-6096 6147 0
-6097 6148 0
-6098 6149 0
-6099 6150 0
-6100 6151 0
-6101 6152 0
-6102 6153 0
-6103 6154 0
-6104 6155 0
-6105 6156 0
-6106 6157 0
-6107 6158 0
-6108 6159 0
-6109 6160 0
-6110 6161 0
-6111 6162 0
-6112 6163 0
-6113 6164 0
-6114 6165 0
-6115 6166 0
-1012 -6065 6117 0
-1012 -6066 6118 0
-1012 -6067 6119 0
-1012 -6068 6120 0
-1012 -6069 6121 0
-1012 -6070 6122 0
-1012 -6071 6123 0
-1012 -6072 6124 0
-1012 -6073 6125 0
-1012 -6074 6126 0
-1012 -6075 6127 0
-1012 -6076 6128 0
-1012 -6077 6129 0
-1012 -6078 6130 0
-1012 -6079 6131 0
-1012 -6080 6132 0
-1012 -6081 6133 0
-1012 -6082 6134 0
-1012 -6083 6135 0
-1012 -6084 6136 0
-1012 -6085 6137 0
-1012 -6086 6138 0
-1012 -6087 6139 0
-1012 -6088 6140 0
-1012 -6089 6141 0
-1012 -6090 6142 0
-1012 -6091 6143 0
-1012 -6092 6144 0
-1012 -6093 6145 0
-1012 -6094 6146 0
-1012 -6095 6147 0
-1012 -6096 6148 0
-1012 -6097 6149 0
-1012 -6098 6150 0
-1012 -6099 6151 0
-1012 -6100 6152 0
-1012 -6101 6153 0
-1012 -6102 6154 0
-1012 -6103 6155 0
-1012 -6104 6156 0
-1012 -6105 6157 0
-1012 -6106 6158 0
-1012 -6107 6159 0
-1012 -6108 6160 0
-1012 -6109 6161 0
-1012 -6110 6162 0
-1012 -6111 6163 0
-1012 -6112 6164 0
-1012 -6113 6165 0
-1012 -6114 6166 0
-1012 -6115 0
-6116 6167 0
-6117 6168 0
-6118 6169 0
-6119 6170 0
-6120 6171 0
-6121 6172 0
-6122 6173 0
-6123 6174 0
-6124 6175 0
-6125 6176 0
-6126 6177 0
-6127 6178 0
-6128 6179 0
-6129 6180 0
-6130 6181 0
-6131 6182 0
-6132 6183 0
-6133 6184 0
-6134 6185 0
-6135 6186 0
-6136 6187 0
-6137 6188 0
-6138 6189 0
-6139 6190 0
-6140 6191 0
-6141 6192 0
-6142 6193 0
-6143 6194 0
-6144 6195 0
-6145 6196 0
-6146 6197 0
-6147 6198 0
-6148 6199 0
-6149 6200 0
-6150 6201 0
-6151 6202 0
-6152 6203 0
-6153 6204 0
-6154 6205 0
-6155 6206 0
-6156 6207 0
-6157 6208 0
-6158 6209 0
-6159 6210 0
-6160 6211 0
-6161 6212 0
-6162 6213 0
-6163 6214 0
-6164 6215 0
-6165 6216 0
-6166 6217 0
-1014 -6116 6168 0
-1014 -6117 6169 0
-1014 -6118 6170 0
-1014 -6119 6171 0
-1014 -6120 6172 0
-1014 -6121 6173 0
-1014 -6122 6174 0
-1014 -6123 6175 0
-1014 -6124 6176 0
-1014 -6125 6177 0
-1014 -6126 6178 0
-1014 -6127 6179 0
-1014 -6128 6180 0
-1014 -6129 6181 0
-1014 -6130 6182 0
-1014 -6131 6183 0
-1014 -6132 6184 0
-1014 -6133 6185 0
-1014 -6134 6186 0
-1014 -6135 6187 0
-1014 -6136 6188 0
-1014 -6137 6189 0
-1014 -6138 6190 0
-1014 -6139 6191 0
-1014 -6140 6192 0
-1014 -6141 6193 0
-1014 -6142 6194 0
-1014 -6143 6195 0
-1014 -6144 6196 0
-1014 -6145 6197 0
-1014 -6146 6198 0
-1014 -6147 6199 0
-1014 -6148 6200 0
-1014 -6149 6201 0
-1014 -6150 6202 0
-1014 -6151 6203 0
-1014 -6152 6204 0
-1014 -6153 6205 0
-1014 -6154 6206 0
-1014 -6155 6207 0
-1014 -6156 6208 0
-1014 -6157 6209 0
-1014 -6158 6210 0
-1014 -6159 6211 0
-1014 -6160 6212 0
-1014 -6161 6213 0
-1014 -6162 6214 0
-1014 -6163 6215 0
-1014 -6164 6216 0
-1014 -6165 6217 0
-1014 -6166 0
-6167 6218 0
-6168 6219 0
-6169 6220 0
-6170 6221 0
-6171 6222 0
-6172 6223 0
-6173 6224 0
-6174 6225 0
-6175 6226 0
-6176 6227 0
-6177 6228 0
-6178 6229 0
-6179 6230 0
-6180 6231 0
-6181 6232 0
-6182 6233 0
-6183 6234 0
-6184 6235 0
-6185 6236 0
-6186 6237 0
-6187 6238 0
-6188 6239 0
-6189 6240 0
-6190 6241 0
-6191 6242 0
-6192 6243 0
-6193 6244 0
-6194 6245 0
-6195 6246 0
-6196 6247 0
-6197 6248 0
-6198 6249 0
-6199 6250 0
-6200 6251 0
-6201 6252 0
-6202 6253 0
-6203 6254 0
-6204 6255 0
-6205 6256 0
-6206 6257 0
-6207 6258 0
-6208 6259 0
-6209 6260 0
-6210 6261 0
-6211 6262 0
-6212 6263 0
-6213 6264 0
-6214 6265 0
-6215 6266 0
-6216 6267 0
-6217 6268 0
-1016 -6167 6219 0
-1016 -6168 6220 0
-1016 -6169 6221 0
-1016 -6170 6222 0
-1016 -6171 6223 0
-1016 -6172 6224 0
-1016 -6173 6225 0
-1016 -6174 6226 0
-1016 -6175 6227 0
-1016 -6176 6228 0
-1016 -6177 6229 0
-1016 -6178 6230 0
-1016 -6179 6231 0
-1016 -6180 6232 0
-1016 -6181 6233 0
-1016 -6182 6234 0
-1016 -6183 6235 0
-1016 -6184 6236 0
-1016 -6185 6237 0
-1016 -6186 6238 0
-1016 -6187 6239 0
-1016 -6188 6240 0
-1016 -6189 6241 0
-1016 -6190 6242 0
-1016 -6191 6243 0
-1016 -6192 6244 0
-1016 -6193 6245 0
-1016 -6194 6246 0
-1016 -6195 6247 0
-1016 -6196 6248 0
-1016 -6197 6249 0
-1016 -6198 6250 0
-1016 -6199 6251 0
-1016 -6200 6252 0
-1016 -6201 6253 0
-1016 -6202 6254 0
-1016 -6203 6255 0
-1016 -6204 6256 0
-1016 -6205 6257 0
-1016 -6206 6258 0
-1016 -6207 6259 0
-1016 -6208 6260 0
-1016 -6209 6261 0
-1016 -6210 6262 0
-1016 -6211 6263 0
-1016 -6212 6264 0
-1016 -6213 6265 0
-1016 -6214 6266 0
-1016 -6215 6267 0
-1016 -6216 6268 0
-1016 -6217 0
-6218 6269 0
-6219 6270 0
-6220 6271 0
-6221 6272 0
-6222 6273 0
-6223 6274 0
-6224 6275 0
-6225 6276 0
-6226 6277 0
-6227 6278 0
-6228 6279 0
-6229 6280 0
-6230 6281 0
-6231 6282 0
-6232 6283 0
-6233 6284 0
-6234 6285 0
-6235 6286 0
-6236 6287 0
-6237 6288 0
-6238 6289 0
-6239 6290 0
-6240 6291 0
-6241 6292 0
-6242 6293 0
-6243 6294 0
-6244 6295 0
-6245 6296 0
-6246 6297 0
-6247 6298 0
-6248 6299 0
-6249 6300 0
-6250 6301 0
-6251 6302 0
-6252 6303 0
-6253 6304 0
-6254 6305 0
-6255 6306 0
-6256 6307 0
-6257 6308 0
-6258 6309 0
-6259 6310 0
-6260 6311 0
-6261 6312 0
-6262 6313 0
-6263 6314 0
-6264 6315 0
-6265 6316 0
-6266 6317 0
-6267 6318 0
-6268 6319 0
-1018 -6218 6270 0
-1018 -6219 6271 0
-1018 -6220 6272 0
-1018 -6221 6273 0
-1018 -6222 6274 0
-1018 -6223 6275 0
-1018 -6224 6276 0
-1018 -6225 6277 0
-1018 -6226 6278 0
-1018 -6227 6279 0
-1018 -6228 6280 0
-1018 -6229 6281 0
-1018 -6230 6282 0
-1018 -6231 6283 0
-1018 -6232 6284 0
-1018 -6233 6285 0
-1018 -6234 6286 0
-1018 -6235 6287 0
-1018 -6236 6288 0
-1018 -6237 6289 0
-1018 -6238 6290 0
-1018 -6239 6291 0
-1018 -6240 6292 0
-1018 -6241 6293 0
-1018 -6242 6294 0
-1018 -6243 6295 0
-1018 -6244 6296 0
-1018 -6245 6297 0
-1018 -6246 6298 0
-1018 -6247 6299 0
-1018 -6248 6300 0
-1018 -6249 6301 0
-1018 -6250 6302 0
-1018 -6251 6303 0
-1018 -6252 6304 0
-1018 -6253 6305 0
-1018 -6254 6306 0
-1018 -6255 6307 0
-1018 -6256 6308 0
-1018 -6257 6309 0
-1018 -6258 6310 0
-1018 -6259 6311 0
-1018 -6260 6312 0
-1018 -6261 6313 0
-1018 -6262 6314 0
-1018 -6263 6315 0
-1018 -6264 6316 0
-1018 -6265 6317 0
-1018 -6266 6318 0
-1018 -6267 6319 0
-1018 -6268 0
-6269 6320 0
-6270 6321 0
-6271 6322 0
-6272 6323 0
-6273 6324 0
-6274 6325 0
-6275 6326 0
-6276 6327 0
-6277 6328 0
-6278 6329 0
-6279 6330 0
-6280 6331 0
-6281 6332 0
-6282 6333 0
-6283 6334 0
-6284 6335 0
-6285 6336 0
-6286 6337 0
-6287 6338 0
-6288 6339 0
-6289 6340 0
-6290 6341 0
-6291 6342 0
-6292 6343 0
-6293 6344 0
-6294 6345 0
-6295 6346 0
-6296 6347 0
-6297 6348 0
-6298 6349 0
-6299 6350 0
-6300 6351 0
-6301 6352 0
-6302 6353 0
-6303 6354 0
-6304 6355 0
-6305 6356 0
-6306 6357 0
-6307 6358 0
-6308 6359 0
-6309 6360 0
-6310 6361 0
-6311 6362 0
-6312 6363 0
-6313 6364 0
-6314 6365 0
-6315 6366 0
-6316 6367 0
-6317 6368 0
-6318 6369 0
-6319 6370 0
-1020 -6269 6321 0
-1020 -6270 6322 0
-1020 -6271 6323 0
-1020 -6272 6324 0
-1020 -6273 6325 0
-1020 -6274 6326 0
-1020 -6275 6327 0
-1020 -6276 6328 0
-1020 -6277 6329 0
-1020 -6278 6330 0
-1020 -6279 6331 0
-1020 -6280 6332 0
-1020 -6281 6333 0
-1020 -6282 6334 0
-1020 -6283 6335 0
-1020 -6284 6336 0
-1020 -6285 6337 0
-1020 -6286 6338 0
-1020 -6287 6339 0
-1020 -6288 6340 0
-1020 -6289 6341 0
-1020 -6290 6342 0
-1020 -6291 6343 0
-1020 -6292 6344 0
-1020 -6293 6345 0
-1020 -6294 6346 0
-1020 -6295 6347 0
-1020 -6296 6348 0
-1020 -6297 6349 0
-1020 -6298 6350 0
-1020 -6299 6351 0
-1020 -6300 6352 0
-1020 -6301 6353 0
-1020 -6302 6354 0
-1020 -6303 6355 0
-1020 -6304 6356 0
-1020 -6305 6357 0
-1020 -6306 6358 0
-1020 -6307 6359 0
-1020 -6308 6360 0
-1020 -6309 6361 0
-1020 -6310 6362 0
-1020 -6311 6363 0
-1020 -6312 6364 0
-1020 -6313 6365 0
-1020 -6314 6366 0
-1020 -6315 6367 0
-1020 -6316 6368 0
-1020 -6317 6369 0
-1020 -6318 6370 0
-1020 -6319 0
-6320 6371 0
-6321 6372 0
-6322 6373 0
-6323 6374 0
-6324 6375 0
-6325 6376 0
-6326 6377 0
-6327 6378 0
-6328 6379 0
-6329 6380 0
-6330 6381 0
-6331 6382 0
-6332 6383 0
-6333 6384 0
-6334 6385 0
-6335 6386 0
-6336 6387 0
-6337 6388 0
-6338 6389 0
-6339 6390 0
-6340 6391 0
-6341 6392 0
-6342 6393 0
-6343 6394 0
-6344 6395 0
-6345 6396 0
-6346 6397 0
-6347 6398 0
-6348 6399 0
-6349 6400 0
-6350 6401 0
-6351 6402 0
-6352 6403 0
-6353 6404 0
-6354 6405 0
-6355 6406 0
-6356 6407 0
-6357 6408 0
-6358 6409 0
-6359 6410 0
-6360 6411 0
-6361 6412 0
-6362 6413 0
-6363 6414 0
-6364 6415 0
-6365 6416 0
-6366 6417 0
-6367 6418 0
-6368 6419 0
-6369 6420 0
-6370 6421 0
-1022 -6320 6372 0
-1022 -6321 6373 0
-1022 -6322 6374 0
-1022 -6323 6375 0
-1022 -6324 6376 0
-1022 -6325 6377 0
-1022 -6326 6378 0
-1022 -6327 6379 0
-1022 -6328 6380 0
-1022 -6329 6381 0
-1022 -6330 6382 0
-1022 -6331 6383 0
-1022 -6332 6384 0
-1022 -6333 6385 0
-1022 -6334 6386 0
-1022 -6335 6387 0
-1022 -6336 6388 0
-1022 -6337 6389 0
-1022 -6338 6390 0
-1022 -6339 6391 0
-1022 -6340 6392 0
-1022 -6341 6393 0
-1022 -6342 6394 0
-1022 -6343 6395 0
-1022 -6344 6396 0
-1022 -6345 6397 0
-1022 -6346 6398 0
-1022 -6347 6399 0
-1022 -6348 6400 0
-1022 -6349 6401 0
-1022 -6350 6402 0
-1022 -6351 6403 0
-1022 -6352 6404 0
-1022 -6353 6405 0
-1022 -6354 6406 0
-1022 -6355 6407 0
-1022 -6356 6408 0
-1022 -6357 6409 0
-1022 -6358 6410 0
-1022 -6359 6411 0
-1022 -6360 6412 0
-1022 -6361 6413 0
-1022 -6362 6414 0
-1022 -6363 6415 0
-1022 -6364 6416 0
-1022 -6365 6417 0
-1022 -6366 6418 0
-1022 -6367 6419 0
-1022 -6368 6420 0
-1022 -6369 6421 0
-1022 -6370 0
-6371 6422 0
-6372 6423 0
-6373 6424 0
-6374 6425 0
-6375 6426 0
-6376 6427 0
-6377 6428 0
-6378 6429 0
-6379 6430 0
-6380 6431 0
-6381 6432 0
-6382 6433 0
-6383 6434 0
-6384 6435 0
-6385 6436 0
-6386 6437 0
-6387 6438 0
-6388 6439 0
-6389 6440 0
-6390 6441 0
-6391 6442 0
-6392 6443 0
-6393 6444 0
-6394 6445 0
-6395 6446 0
-6396 6447 0
-6397 6448 0
-6398 6449 0
-6399 6450 0
-6400 6451 0
-6401 6452 0
-6402 6453 0
-6403 6454 0
-6404 6455 0
-6405 6456 0
-6406 6457 0
-6407 6458 0
-6408 6459 0
-6409 6460 0
-6410 6461 0
-6411 6462 0
-6412 6463 0
-6413 6464 0
-6414 6465 0
-6415 6466 0
-6416 6467 0
-6417 6468 0
-6418 6469 0
-6419 6470 0
-6420 6471 0
-6421 6472 0
-1024 -6371 6423 0
-1024 -6372 6424 0
-1024 -6373 6425 0
-1024 -6374 6426 0
-1024 -6375 6427 0
-1024 -6376 6428 0
-1024 -6377 6429 0
-1024 -6378 6430 0
-1024 -6379 6431 0
-1024 -6380 6432 0
-1024 -6381 6433 0
-1024 -6382 6434 0
-1024 -6383 6435 0
-1024 -6384 6436 0
-1024 -6385 6437 0
-1024 -6386 6438 0
-1024 -6387 6439 0
-1024 -6388 6440 0
-1024 -6389 6441 0
-1024 -6390 6442 0
-1024 -6391 6443 0
-1024 -6392 6444 0
-1024 -6393 6445 0
-1024 -6394 6446 0
-1024 -6395 6447 0
-1024 -6396 6448 0
-1024 -6397 6449 0
-1024 -6398 6450 0
-1024 -6399 6451 0
-1024 -6400 6452 0
-1024 -6401 6453 0
-1024 -6402 6454 0
-1024 -6403 6455 0
-1024 -6404 6456 0
-1024 -6405 6457 0
-1024 -6406 6458 0
-1024 -6407 6459 0
-1024 -6408 6460 0
-1024 -6409 6461 0
-1024 -6410 6462 0
-1024 -6411 6463 0
-1024 -6412 6464 0
-1024 -6413 6465 0
-1024 -6414 6466 0
-1024 -6415 6467 0
-1024 -6416 6468 0
-1024 -6417 6469 0
-1024 -6418 6470 0
-1024 -6419 6471 0
-1024 -6420 6472 0
-1024 -6421 0
-6422 6473 0
-6423 6474 0
-6424 6475 0
-6425 6476 0
-6426 6477 0
-6427 6478 0
-6428 6479 0
-6429 6480 0
-6430 6481 0
-6431 6482 0
-6432 6483 0
-6433 6484 0
-6434 6485 0
-6435 6486 0
-6436 6487 0
-6437 6488 0
-6438 6489 0
-6439 6490 0
-6440 6491 0
-6441 6492 0
-6442 6493 0
-6443 6494 0
-6444 6495 0
-6445 6496 0
-6446 6497 0
-6447 6498 0
-6448 6499 0
-6449 6500 0
-6450 6501 0
-6451 6502 0
-6452 6503 0
-6453 6504 0
-6454 6505 0
-6455 6506 0
-6456 6507 0
-6457 6508 0
-6458 6509 0
-6459 6510 0
-6460 6511 0
-6461 6512 0
-6462 6513 0
-6463 6514 0
-6464 6515 0
-6465 6516 0
-6466 6517 0
-6467 6518 0
-6468 6519 0
-6469 6520 0
-6470 6521 0
-6471 6522 0
-6472 6523 0
-1026 -6422 6474 0
-1026 -6423 6475 0
-1026 -6424 6476 0
-1026 -6425 6477 0
-1026 -6426 6478 0
-1026 -6427 6479 0
-1026 -6428 6480 0
-1026 -6429 6481 0
-1026 -6430 6482 0
-1026 -6431 6483 0
-1026 -6432 6484 0
-1026 -6433 6485 0
-1026 -6434 6486 0
-1026 -6435 6487 0
-1026 -6436 6488 0
-1026 -6437 6489 0
-1026 -6438 6490 0
-1026 -6439 6491 0
-1026 -6440 6492 0
-1026 -6441 6493 0
-1026 -6442 6494 0
-1026 -6443 6495 0
-1026 -6444 6496 0
-1026 -6445 6497 0
-1026 -6446 6498 0
-1026 -6447 6499 0
-1026 -6448 6500 0
-1026 -6449 6501 0
-1026 -6450 6502 0
-1026 -6451 6503 0
-1026 -6452 6504 0
-1026 -6453 6505 0
-1026 -6454 6506 0
-1026 -6455 6507 0
-1026 -6456 6508 0
-1026 -6457 6509 0
-1026 -6458 6510 0
-1026 -6459 6511 0
-1026 -6460 6512 0
-1026 -6461 6513 0
-1026 -6462 6514 0
-1026 -6463 6515 0
-1026 -6464 6516 0
-1026 -6465 6517 0
-1026 -6466 6518 0
-1026 -6467 6519 0
-1026 -6468 6520 0
-1026 -6469 6521 0
-1026 -6470 6522 0
-1026 -6471 6523 0
-1026 -6472 0
-6473 6524 0
-6474 6525 0
-6475 6526 0
-6476 6527 0
-6477 6528 0
-6478 6529 0
-6479 6530 0
-6480 6531 0
-6481 6532 0
-6482 6533 0
-6483 6534 0
-6484 6535 0
-6485 6536 0
-6486 6537 0
-6487 6538 0
-6488 6539 0
-6489 6540 0
-6490 6541 0
-6491 6542 0
-6492 6543 0
-6493 6544 0
-6494 6545 0
-6495 6546 0
-6496 6547 0
-6497 6548 0
-6498 6549 0
-6499 6550 0
-6500 6551 0
-6501 6552 0
-6502 6553 0
-6503 6554 0
-6504 6555 0
-6505 6556 0
-6506 6557 0
-6507 6558 0
-6508 6559 0
-6509 6560 0
-6510 6561 0
-6511 6562 0
-6512 6563 0
-6513 6564 0
-6514 6565 0
-6515 6566 0
-6516 6567 0
-6517 6568 0
-6518 6569 0
-6519 6570 0
-6520 6571 0
-6521 6572 0
-6522 6573 0
-6523 6574 0
-1028 -6473 6525 0
-1028 -6474 6526 0
-1028 -6475 6527 0
-1028 -6476 6528 0
-1028 -6477 6529 0
-1028 -6478 6530 0
-1028 -6479 6531 0
-1028 -6480 6532 0
-1028 -6481 6533 0
-1028 -6482 6534 0
-1028 -6483 6535 0
-1028 -6484 6536 0
-1028 -6485 6537 0
-1028 -6486 6538 0
-1028 -6487 6539 0
-1028 -6488 6540 0
-1028 -6489 6541 0
-1028 -6490 6542 0
-1028 -6491 6543 0
-1028 -6492 6544 0
-1028 -6493 6545 0
-1028 -6494 6546 0
-1028 -6495 6547 0
-1028 -6496 6548 0
-1028 -6497 6549 0
-1028 -6498 6550 0
-1028 -6499 6551 0
-1028 -6500 6552 0
-1028 -6501 6553 0
-1028 -6502 6554 0
-1028 -6503 6555 0
-1028 -6504 6556 0
-1028 -6505 6557 0
-1028 -6506 6558 0
-1028 -6507 6559 0
-1028 -6508 6560 0
-1028 -6509 6561 0
-1028 -6510 6562 0
-1028 -6511 6563 0
-1028 -6512 6564 0
-1028 -6513 6565 0
-1028 -6514 6566 0
-1028 -6515 6567 0
-1028 -6516 6568 0
-1028 -6517 6569 0
-1028 -6518 6570 0
-1028 -6519 6571 0
-1028 -6520 6572 0
-1028 -6521 6573 0
-1028 -6522 6574 0
-1028 -6523 0
-6524 6575 0
-6525 6576 0
-6526 6577 0
-6527 6578 0
-6528 6579 0
-6529 6580 0
-6530 6581 0
-6531 6582 0
-6532 6583 0
-6533 6584 0
-6534 6585 0
-6535 6586 0
-6536 6587 0
-6537 6588 0
-6538 6589 0
-6539 6590 0
-6540 6591 0
-6541 6592 0
-6542 6593 0
-6543 6594 0
-6544 6595 0
-6545 6596 0
-6546 6597 0
-6547 6598 0
-6548 6599 0
-6549 6600 0
-6550 6601 0
-6551 6602 0
-6552 6603 0
-6553 6604 0
-6554 6605 0
-6555 6606 0
-6556 6607 0
-6557 6608 0
-6558 6609 0
-6559 6610 0
-6560 6611 0
-6561 6612 0
-6562 6613 0
-6563 6614 0
-6564 6615 0
-6565 6616 0
-6566 6617 0
-6567 6618 0
-6568 6619 0
-6569 6620 0
-6570 6621 0
-6571 6622 0
-6572 6623 0
-6573 6624 0
-6574 6625 0
-1030 -6524 6576 0
-1030 -6525 6577 0
-1030 -6526 6578 0
-1030 -6527 6579 0
-1030 -6528 6580 0
-1030 -6529 6581 0
-1030 -6530 6582 0
-1030 -6531 6583 0
-1030 -6532 6584 0
-1030 -6533 6585 0
-1030 -6534 6586 0
-1030 -6535 6587 0
-1030 -6536 6588 0
-1030 -6537 6589 0
-1030 -6538 6590 0
-1030 -6539 6591 0
-1030 -6540 6592 0
-1030 -6541 6593 0
-1030 -6542 6594 0
-1030 -6543 6595 0
-1030 -6544 6596 0
-1030 -6545 6597 0
-1030 -6546 6598 0
-1030 -6547 6599 0
-1030 -6548 6600 0
-1030 -6549 6601 0
-1030 -6550 6602 0
-1030 -6551 6603 0
-1030 -6552 6604 0
-1030 -6553 6605 0
-1030 -6554 6606 0
-1030 -6555 6607 0
-1030 -6556 6608 0
-1030 -6557 6609 0
-1030 -6558 6610 0
-1030 -6559 6611 0
-1030 -6560 6612 0
-1030 -6561 6613 0
-1030 -6562 6614 0
-1030 -6563 6615 0
-1030 -6564 6616 0
-1030 -6565 6617 0
-1030 -6566 6618 0
-1030 -6567 6619 0
-1030 -6568 6620 0
-1030 -6569 6621 0
-1030 -6570 6622 0
-1030 -6571 6623 0
-1030 -6572 6624 0
-1030 -6573 6625 0
-1030 -6574 0
-6575 6626 0
-6576 6627 0
-6577 6628 0
-6578 6629 0
-6579 6630 0
-6580 6631 0
-6581 6632 0
-6582 6633 0
-6583 6634 0
-6584 6635 0
-6585 6636 0
-6586 6637 0
-6587 6638 0
-6588 6639 0
-6589 6640 0
-6590 6641 0
-6591 6642 0
-6592 6643 0
-6593 6644 0
-6594 6645 0
-6595 6646 0
-6596 6647 0
-6597 6648 0
-6598 6649 0
-6599 6650 0
-6600 6651 0
-6601 6652 0
-6602 6653 0
-6603 6654 0
-6604 6655 0
-6605 6656 0
-6606 6657 0
-6607 6658 0
-6608 6659 0
-6609 6660 0
-6610 6661 0
-6611 6662 0
-6612 6663 0
-6613 6664 0
-6614 6665 0
-6615 6666 0
-6616 6667 0
-6617 6668 0
-6618 6669 0
-6619 6670 0
-6620 6671 0
-6621 6672 0
-6622 6673 0
-6623 6674 0
-6624 6675 0
-6625 6676 0
-1032 -6575 6627 0
-1032 -6576 6628 0
-1032 -6577 6629 0
-1032 -6578 6630 0
-1032 -6579 6631 0
-1032 -6580 6632 0
-1032 -6581 6633 0
-1032 -6582 6634 0
-1032 -6583 6635 0
-1032 -6584 6636 0
-1032 -6585 6637 0
-1032 -6586 6638 0
-1032 -6587 6639 0
-1032 -6588 6640 0
-1032 -6589 6641 0
-1032 -6590 6642 0
-1032 -6591 6643 0
-1032 -6592 6644 0
-1032 -6593 6645 0
-1032 -6594 6646 0
-1032 -6595 6647 0
-1032 -6596 6648 0
-1032 -6597 6649 0
-1032 -6598 6650 0
-1032 -6599 6651 0
-1032 -6600 6652 0
-1032 -6601 6653 0
-1032 -6602 6654 0
-1032 -6603 6655 0
-1032 -6604 6656 0
-1032 -6605 6657 0
-1032 -6606 6658 0
-1032 -6607 6659 0
-1032 -6608 6660 0
-1032 -6609 6661 0
-1032 -6610 6662 0
-1032 -6611 6663 0
-1032 -6612 6664 0
-1032 -6613 6665 0
-1032 -6614 6666 0
-1032 -6615 6667 0
-1032 -6616 6668 0
-1032 -6617 6669 0
-1032 -6618 6670 0
-1032 -6619 6671 0
-1032 -6620 6672 0
-1032 -6621 6673 0
-1032 -6622 6674 0
-1032 -6623 6675 0
-1032 -6624 6676 0
-1032 -6625 0
-6626 6677 0
-6627 6678 0
-6628 6679 0
-6629 6680 0
-6630 6681 0
-6631 6682 0
-6632 6683 0
-6633 6684 0
-6634 6685 0
-6635 6686 0
-6636 6687 0
-6637 6688 0
-6638 6689 0
-6639 6690 0
-6640 6691 0
-6641 6692 0
-6642 6693 0
-6643 6694 0
-6644 6695 0
-6645 6696 0
-6646 6697 0
-6647 6698 0
-6648 6699 0
-6649 6700 0
-6650 6701 0
-6651 6702 0
-6652 6703 0
-6653 6704 0
-6654 6705 0
-6655 6706 0
-6656 6707 0
-6657 6708 0
-6658 6709 0
-6659 6710 0
-6660 6711 0
-6661 6712 0
-6662 6713 0
-6663 6714 0
-6664 6715 0
-6665 6716 0
-6666 6717 0
-6667 6718 0
-6668 6719 0
-6669 6720 0
-6670 6721 0
-6671 6722 0
-6672 6723 0
-6673 6724 0
-6674 6725 0
-6675 6726 0
-6676 6727 0
-1034 -6626 6678 0
-1034 -6627 6679 0
-1034 -6628 6680 0
-1034 -6629 6681 0
-1034 -6630 6682 0
-1034 -6631 6683 0
-1034 -6632 6684 0
-1034 -6633 6685 0
-1034 -6634 6686 0
-1034 -6635 6687 0
-1034 -6636 6688 0
-1034 -6637 6689 0
-1034 -6638 6690 0
-1034 -6639 6691 0
-1034 -6640 6692 0
-1034 -6641 6693 0
-1034 -6642 6694 0
-1034 -6643 6695 0
-1034 -6644 6696 0
-1034 -6645 6697 0
-1034 -6646 6698 0
-1034 -6647 6699 0
-1034 -6648 6700 0
-1034 -6649 6701 0
-1034 -6650 6702 0
-1034 -6651 6703 0
-1034 -6652 6704 0
-1034 -6653 6705 0
-1034 -6654 6706 0
-1034 -6655 6707 0
-1034 -6656 6708 0
-1034 -6657 6709 0
-1034 -6658 6710 0
-1034 -6659 6711 0
-1034 -6660 6712 0
-1034 -6661 6713 0
-1034 -6662 6714 0
-1034 -6663 6715 0
-1034 -6664 6716 0
-1034 -6665 6717 0
-1034 -6666 6718 0
-1034 -6667 6719 0
-1034 -6668 6720 0
-1034 -6669 6721 0
-1034 -6670 6722 0
-1034 -6671 6723 0
-1034 -6672 6724 0
-1034 -6673 6725 0
-1034 -6674 6726 0
-1034 -6675 6727 0
-1034 -6676 0
-6677 6728 0
-6678 6729 0
-6679 6730 0
-6680 6731 0
-6681 6732 0
-6682 6733 0
-6683 6734 0
-6684 6735 0
-6685 6736 0
-6686 6737 0
-6687 6738 0
-6688 6739 0
-6689 6740 0
-6690 6741 0
-6691 6742 0
-6692 6743 0
-6693 6744 0
-6694 6745 0
-6695 6746 0
-6696 6747 0
-6697 6748 0
-6698 6749 0
-6699 6750 0
-6700 6751 0
-6701 6752 0
-6702 6753 0
-6703 6754 0
-6704 6755 0
-6705 6756 0
-6706 6757 0
-6707 6758 0
-6708 6759 0
-6709 6760 0
-6710 6761 0
-6711 6762 0
-6712 6763 0
-6713 6764 0
-6714 6765 0
-6715 6766 0
-6716 6767 0
-6717 6768 0
-6718 6769 0
-6719 6770 0
-6720 6771 0
-6721 6772 0
-6722 6773 0
-6723 6774 0
-6724 6775 0
-6725 6776 0
-6726 6777 0
-6727 6778 0
-1036 -6677 6729 0
-1036 -6678 6730 0
-1036 -6679 6731 0
-1036 -6680 6732 0
-1036 -6681 6733 0
-1036 -6682 6734 0
-1036 -6683 6735 0
-1036 -6684 6736 0
-1036 -6685 6737 0
-1036 -6686 6738 0
-1036 -6687 6739 0
-1036 -6688 6740 0
-1036 -6689 6741 0
-1036 -6690 6742 0
-1036 -6691 6743 0
-1036 -6692 6744 0
-1036 -6693 6745 0
-1036 -6694 6746 0
-1036 -6695 6747 0
-1036 -6696 6748 0
-1036 -6697 6749 0
-1036 -6698 6750 0
-1036 -6699 6751 0
-1036 -6700 6752 0
-1036 -6701 6753 0
-1036 -6702 6754 0
-1036 -6703 6755 0
-1036 -6704 6756 0
-1036 -6705 6757 0
-1036 -6706 6758 0
-1036 -6707 6759 0
-1036 -6708 6760 0
-1036 -6709 6761 0
-1036 -6710 6762 0
-1036 -6711 6763 0
-1036 -6712 6764 0
-1036 -6713 6765 0
-1036 -6714 6766 0
-1036 -6715 6767 0
-1036 -6716 6768 0
-1036 -6717 6769 0
-1036 -6718 6770 0
-1036 -6719 6771 0
-1036 -6720 6772 0
-1036 -6721 6773 0
-1036 -6722 6774 0
-1036 -6723 6775 0
-1036 -6724 6776 0
-1036 -6725 6777 0
-1036 -6726 6778 0
-1036 -6727 0
-6728 6779 0
-6729 6780 0
-6730 6781 0
-6731 6782 0
-6732 6783 0
-6733 6784 0
-6734 6785 0
-6735 6786 0
-6736 6787 0
-6737 6788 0
-6738 6789 0
-6739 6790 0
-6740 6791 0
-6741 6792 0
-6742 6793 0
-6743 6794 0
-6744 6795 0
-6745 6796 0
-6746 6797 0
-6747 6798 0
-6748 6799 0
-6749 6800 0
-6750 6801 0
-6751 6802 0
-6752 6803 0
-6753 6804 0
-6754 6805 0
-6755 6806 0
-6756 6807 0
-6757 6808 0
-6758 6809 0
-6759 6810 0
-6760 6811 0
-6761 6812 0
-6762 6813 0
-6763 6814 0
-6764 6815 0
-6765 6816 0
-6766 6817 0
-6767 6818 0
-6768 6819 0
-6769 6820 0
-6770 6821 0
-6771 6822 0
-6772 6823 0
-6773 6824 0
-6774 6825 0
-6775 6826 0
-6776 6827 0
-6777 6828 0
-6778 6829 0
-1038 -6728 6780 0
-1038 -6729 6781 0
-1038 -6730 6782 0
-1038 -6731 6783 0
-1038 -6732 6784 0
-1038 -6733 6785 0
-1038 -6734 6786 0
-1038 -6735 6787 0
-1038 -6736 6788 0
-1038 -6737 6789 0
-1038 -6738 6790 0
-1038 -6739 6791 0
-1038 -6740 6792 0
-1038 -6741 6793 0
-1038 -6742 6794 0
-1038 -6743 6795 0
-1038 -6744 6796 0
-1038 -6745 6797 0
-1038 -6746 6798 0
-1038 -6747 6799 0
-1038 -6748 6800 0
-1038 -6749 6801 0
-1038 -6750 6802 0
-1038 -6751 6803 0
-1038 -6752 6804 0
-1038 -6753 6805 0
-1038 -6754 6806 0
-1038 -6755 6807 0
-1038 -6756 6808 0
-1038 -6757 6809 0
-1038 -6758 6810 0
-1038 -6759 6811 0
-1038 -6760 6812 0
-1038 -6761 6813 0
-1038 -6762 6814 0
-1038 -6763 6815 0
-1038 -6764 6816 0
-1038 -6765 6817 0
-1038 -6766 6818 0
-1038 -6767 6819 0
-1038 -6768 6820 0
-1038 -6769 6821 0
-1038 -6770 6822 0
-1038 -6771 6823 0
-1038 -6772 6824 0
-1038 -6773 6825 0
-1038 -6774 6826 0
-1038 -6775 6827 0
-1038 -6776 6828 0
-1038 -6777 6829 0
-1038 -6778 0
-6779 6830 0
-6780 6831 0
-6781 6832 0
-6782 6833 0
-6783 6834 0
-6784 6835 0
-6785 6836 0
-6786 6837 0
-6787 6838 0
-6788 6839 0
-6789 6840 0
-6790 6841 0
-6791 6842 0
-6792 6843 0
-6793 6844 0
-6794 6845 0
-6795 6846 0
-6796 6847 0
-6797 6848 0
-6798 6849 0
-6799 6850 0
-6800 6851 0
-6801 6852 0
-6802 6853 0
-6803 6854 0
-6804 6855 0
-6805 6856 0
-6806 6857 0
-6807 6858 0
-6808 6859 0
-6809 6860 0
-6810 6861 0
-6811 6862 0
-6812 6863 0
-6813 6864 0
-6814 6865 0
-6815 6866 0
-6816 6867 0
-6817 6868 0
-6818 6869 0
-6819 6870 0
-6820 6871 0
-6821 6872 0
-6822 6873 0
-6823 6874 0
-6824 6875 0
-6825 6876 0
-6826 6877 0
-6827 6878 0
-6828 6879 0
-6829 6880 0
-1040 -6779 6831 0
-1040 -6780 6832 0
-1040 -6781 6833 0
-1040 -6782 6834 0
-1040 -6783 6835 0
-1040 -6784 6836 0
-1040 -6785 6837 0
-1040 -6786 6838 0
-1040 -6787 6839 0
-1040 -6788 6840 0
-1040 -6789 6841 0
-1040 -6790 6842 0
-1040 -6791 6843 0
-1040 -6792 6844 0
-1040 -6793 6845 0
-1040 -6794 6846 0
-1040 -6795 6847 0
-1040 -6796 6848 0
-1040 -6797 6849 0
-1040 -6798 6850 0
-1040 -6799 6851 0
-1040 -6800 6852 0
-1040 -6801 6853 0
-1040 -6802 6854 0
-1040 -6803 6855 0
-1040 -6804 6856 0
-1040 -6805 6857 0
-1040 -6806 6858 0
-1040 -6807 6859 0
-1040 -6808 6860 0
-1040 -6809 6861 0
-1040 -6810 6862 0
-1040 -6811 6863 0
-1040 -6812 6864 0
-1040 -6813 6865 0
-1040 -6814 6866 0
-1040 -6815 6867 0
-1040 -6816 6868 0
-1040 -6817 6869 0
-1040 -6818 6870 0
-1040 -6819 6871 0
-1040 -6820 6872 0
-1040 -6821 6873 0
-1040 -6822 6874 0
-1040 -6823 6875 0
-1040 -6824 6876 0
-1040 -6825 6877 0
-1040 -6826 6878 0
-1040 -6827 6879 0
-1040 -6828 6880 0
-1040 -6829 0
-6830 6881 0
-6831 6882 0
-6832 6883 0
-6833 6884 0
-6834 6885 0
-6835 6886 0
-6836 6887 0
-6837 6888 0
-6838 6889 0
-6839 6890 0
-6840 6891 0
-6841 6892 0
-6842 6893 0
-6843 6894 0
-6844 6895 0
-6845 6896 0
-6846 6897 0
-6847 6898 0
-6848 6899 0
-6849 6900 0
-6850 6901 0
-6851 6902 0
-6852 6903 0
-6853 6904 0
-6854 6905 0
-6855 6906 0
-6856 6907 0
-6857 6908 0
-6858 6909 0
-6859 6910 0
-6860 6911 0
-6861 6912 0
-6862 6913 0
-6863 6914 0
-6864 6915 0
-6865 6916 0
-6866 6917 0
-6867 6918 0
-6868 6919 0
-6869 6920 0
-6870 6921 0
-6871 6922 0
-6872 6923 0
-6873 6924 0
-6874 6925 0
-6875 6926 0
-6876 6927 0
-6877 6928 0
-6878 6929 0
-6879 6930 0
-6880 6931 0
-1042 -6830 6882 0
-1042 -6831 6883 0
-1042 -6832 6884 0
-1042 -6833 6885 0
-1042 -6834 6886 0
-1042 -6835 6887 0
-1042 -6836 6888 0
-1042 -6837 6889 0
-1042 -6838 6890 0
-1042 -6839 6891 0
-1042 -6840 6892 0
-1042 -6841 6893 0
-1042 -6842 6894 0
-1042 -6843 6895 0
-1042 -6844 6896 0
-1042 -6845 6897 0
-1042 -6846 6898 0
-1042 -6847 6899 0
-1042 -6848 6900 0
-1042 -6849 6901 0
-1042 -6850 6902 0
-1042 -6851 6903 0
-1042 -6852 6904 0
-1042 -6853 6905 0
-1042 -6854 6906 0
-1042 -6855 6907 0
-1042 -6856 6908 0
-1042 -6857 6909 0
-1042 -6858 6910 0
-1042 -6859 6911 0
-1042 -6860 6912 0
-1042 -6861 6913 0
-1042 -6862 6914 0
-1042 -6863 6915 0
-1042 -6864 6916 0
-1042 -6865 6917 0
-1042 -6866 6918 0
-1042 -6867 6919 0
-1042 -6868 6920 0
-1042 -6869 6921 0
-1042 -6870 6922 0
-1042 -6871 6923 0
-1042 -6872 6924 0
-1042 -6873 6925 0
-1042 -6874 6926 0
-1042 -6875 6927 0
-1042 -6876 6928 0
-1042 -6877 6929 0
-1042 -6878 6930 0
-1042 -6879 6931 0
-1042 -6880 0
-6881 6932 0
-6882 6933 0
-6883 6934 0
-6884 6935 0
-6885 6936 0
-6886 6937 0
-6887 6938 0
-6888 6939 0
-6889 6940 0
-6890 6941 0
-6891 6942 0
-6892 6943 0
-6893 6944 0
-6894 6945 0
-6895 6946 0
-6896 6947 0
-6897 6948 0
-6898 6949 0
-6899 6950 0
-6900 6951 0
-6901 6952 0
-6902 6953 0
-6903 6954 0
-6904 6955 0
-6905 6956 0
-6906 6957 0
-6907 6958 0
-6908 6959 0
-6909 6960 0
-6910 6961 0
-6911 6962 0
-6912 6963 0
-6913 6964 0
-6914 6965 0
-6915 6966 0
-6916 6967 0
-6917 6968 0
-6918 6969 0
-6919 6970 0
-6920 6971 0
-6921 6972 0
-6922 6973 0
-6923 6974 0
-6924 6975 0
-6925 6976 0
-6926 6977 0
-6927 6978 0
-6928 6979 0
-6929 6980 0
-6930 6981 0
-6931 6982 0
-1044 -6881 6933 0
-1044 -6882 6934 0
-1044 -6883 6935 0
-1044 -6884 6936 0
-1044 -6885 6937 0
-1044 -6886 6938 0
-1044 -6887 6939 0
-1044 -6888 6940 0
-1044 -6889 6941 0
-1044 -6890 6942 0
-1044 -6891 6943 0
-1044 -6892 6944 0
-1044 -6893 6945 0
-1044 -6894 6946 0
-1044 -6895 6947 0
-1044 -6896 6948 0
-1044 -6897 6949 0
-1044 -6898 6950 0
-1044 -6899 6951 0
-1044 -6900 6952 0
-1044 -6901 6953 0
-1044 -6902 6954 0
-1044 -6903 6955 0
-1044 -6904 6956 0
-1044 -6905 6957 0
-1044 -6906 6958 0
-1044 -6907 6959 0
-1044 -6908 6960 0
-1044 -6909 6961 0
-1044 -6910 6962 0
-1044 -6911 6963 0
-1044 -6912 6964 0
-1044 -6913 6965 0
-1044 -6914 6966 0
-1044 -6915 6967 0
-1044 -6916 6968 0
-1044 -6917 6969 0
-1044 -6918 6970 0
-1044 -6919 6971 0
-1044 -6920 6972 0
-1044 -6921 6973 0
-1044 -6922 6974 0
-1044 -6923 6975 0
-1044 -6924 6976 0
-1044 -6925 6977 0
-1044 -6926 6978 0
-1044 -6927 6979 0
-1044 -6928 6980 0
-1044 -6929 6981 0
-1044 -6930 6982 0
-1044 -6931 0
-6932 6983 0
-6933 6984 0
-6934 6985 0
-6935 6986 0
-6936 6987 0
-6937 6988 0
-6938 6989 0
-6939 6990 0
-6940 6991 0
-6941 6992 0
-6942 6993 0
-6943 6994 0
-6944 6995 0
-6945 6996 0
-6946 6997 0
-6947 6998 0
-6948 6999 0
-6949 7000 0
-6950 7001 0
-6951 7002 0
-6952 7003 0
-6953 7004 0
-6954 7005 0
-6955 7006 0
-6956 7007 0
-6957 7008 0
-6958 7009 0
-6959 7010 0
-6960 7011 0
-6961 7012 0
-6962 7013 0
-6963 7014 0
-6964 7015 0
-6965 7016 0
-6966 7017 0
-6967 7018 0
-6968 7019 0
-6969 7020 0
-6970 7021 0
-6971 7022 0
-6972 7023 0
-6973 7024 0
-6974 7025 0
-6975 7026 0
-6976 7027 0
-6977 7028 0
-6978 7029 0
-6979 7030 0
-6980 7031 0
-6981 7032 0
-6982 7033 0
-1046 -6932 6984 0
-1046 -6933 6985 0
-1046 -6934 6986 0
-1046 -6935 6987 0
-1046 -6936 6988 0
-1046 -6937 6989 0
-1046 -6938 6990 0
-1046 -6939 6991 0
-1046 -6940 6992 0
-1046 -6941 6993 0
-1046 -6942 6994 0
-1046 -6943 6995 0
-1046 -6944 6996 0
-1046 -6945 6997 0
-1046 -6946 6998 0
-1046 -6947 6999 0
-1046 -6948 7000 0
-1046 -6949 7001 0
-1046 -6950 7002 0
-1046 -6951 7003 0
-1046 -6952 7004 0
-1046 -6953 7005 0
-1046 -6954 7006 0
-1046 -6955 7007 0
-1046 -6956 7008 0
-1046 -6957 7009 0
-1046 -6958 7010 0
-1046 -6959 7011 0
-1046 -6960 7012 0
-1046 -6961 7013 0
-1046 -6962 7014 0
-1046 -6963 7015 0
-1046 -6964 7016 0
-1046 -6965 7017 0
-1046 -6966 7018 0
-1046 -6967 7019 0
-1046 -6968 7020 0
-1046 -6969 7021 0
-1046 -6970 7022 0
-1046 -6971 7023 0
-1046 -6972 7024 0
-1046 -6973 7025 0
-1046 -6974 7026 0
-1046 -6975 7027 0
-1046 -6976 7028 0
-1046 -6977 7029 0
-1046 -6978 7030 0
-1046 -6979 7031 0
-1046 -6980 7032 0
-1046 -6981 7033 0
-1046 -6982 0
-6983 7034 0
-6984 7035 0
-6985 7036 0
-6986 7037 0
-6987 7038 0
-6988 7039 0
-6989 7040 0
-6990 7041 0
-6991 7042 0
-6992 7043 0
-6993 7044 0
-6994 7045 0
-6995 7046 0
-6996 7047 0
-6997 7048 0
-6998 7049 0
-6999 7050 0
-7000 7051 0
-7001 7052 0
-7002 7053 0
-7003 7054 0
-7004 7055 0
-7005 7056 0
-7006 7057 0
-7007 7058 0
-7008 7059 0
-7009 7060 0
-7010 7061 0
-7011 7062 0
-7012 7063 0
-7013 7064 0
-7014 7065 0
-7015 7066 0
-7016 7067 0
-7017 7068 0
-7018 7069 0
-7019 7070 0
-7020 7071 0
-7021 7072 0
-7022 7073 0
-7023 7074 0
-7024 7075 0
-7025 7076 0
-7026 7077 0
-7027 7078 0
-7028 7079 0
-7029 7080 0
-7030 7081 0
-7031 7082 0
-7032 7083 0
-7033 7084 0
-1048 -6983 7035 0
-1048 -6984 7036 0
-1048 -6985 7037 0
-1048 -6986 7038 0
-1048 -6987 7039 0
-1048 -6988 7040 0
-1048 -6989 7041 0
-1048 -6990 7042 0
-1048 -6991 7043 0
-1048 -6992 7044 0
-1048 -6993 7045 0
-1048 -6994 7046 0
-1048 -6995 7047 0
-1048 -6996 7048 0
-1048 -6997 7049 0
-1048 -6998 7050 0
-1048 -6999 7051 0
-1048 -7000 7052 0
-1048 -7001 7053 0
-1048 -7002 7054 0
-1048 -7003 7055 0
-1048 -7004 7056 0
-1048 -7005 7057 0
-1048 -7006 7058 0
-1048 -7007 7059 0
-1048 -7008 7060 0
-1048 -7009 7061 0
-1048 -7010 7062 0
-1048 -7011 7063 0
-1048 -7012 7064 0
-1048 -7013 7065 0
-1048 -7014 7066 0
-1048 -7015 7067 0
-1048 -7016 7068 0
-1048 -7017 7069 0
-1048 -7018 7070 0
-1048 -7019 7071 0
-1048 -7020 7072 0
-1048 -7021 7073 0
-1048 -7022 7074 0
-1048 -7023 7075 0
-1048 -7024 7076 0
-1048 -7025 7077 0
-1048 -7026 7078 0
-1048 -7027 7079 0
-1048 -7028 7080 0
-1048 -7029 7081 0
-1048 -7030 7082 0
-1048 -7031 7083 0
-1048 -7032 7084 0
-1048 -7033 0
-7034 7085 0
-7035 7086 0
-7036 7087 0
-7037 7088 0
-7038 7089 0
-7039 7090 0
-7040 7091 0
-7041 7092 0
-7042 7093 0
-7043 7094 0
-7044 7095 0
-7045 7096 0
-7046 7097 0
-7047 7098 0
-7048 7099 0
-7049 7100 0
-7050 7101 0
-7051 7102 0
-7052 7103 0
-7053 7104 0
-7054 7105 0
-7055 7106 0
-7056 7107 0
-7057 7108 0
-7058 7109 0
-7059 7110 0
-7060 7111 0
-7061 7112 0
-7062 7113 0
-7063 7114 0
-7064 7115 0
-7065 7116 0
-7066 7117 0
-7067 7118 0
-7068 7119 0
-7069 7120 0
-7070 7121 0
-7071 7122 0
-7072 7123 0
-7073 7124 0
-7074 7125 0
-7075 7126 0
-7076 7127 0
-7077 7128 0
-7078 7129 0
-7079 7130 0
-7080 7131 0
-7081 7132 0
-7082 7133 0
-7083 7134 0
-7084 7135 0
-1050 -7034 7086 0
-1050 -7035 7087 0
-1050 -7036 7088 0
-1050 -7037 7089 0
-1050 -7038 7090 0
-1050 -7039 7091 0
-1050 -7040 7092 0
-1050 -7041 7093 0
-1050 -7042 7094 0
-1050 -7043 7095 0
-1050 -7044 7096 0
-1050 -7045 7097 0
-1050 -7046 7098 0
-1050 -7047 7099 0
-1050 -7048 7100 0
-1050 -7049 7101 0
-1050 -7050 7102 0
-1050 -7051 7103 0
-1050 -7052 7104 0
-1050 -7053 7105 0
-1050 -7054 7106 0
-1050 -7055 7107 0
-1050 -7056 7108 0
-1050 -7057 7109 0
-1050 -7058 7110 0
-1050 -7059 7111 0
-1050 -7060 7112 0
-1050 -7061 7113 0
-1050 -7062 7114 0
-1050 -7063 7115 0
-1050 -7064 7116 0
-1050 -7065 7117 0
-1050 -7066 7118 0
-1050 -7067 7119 0
-1050 -7068 7120 0
-1050 -7069 7121 0
-1050 -7070 7122 0
-1050 -7071 7123 0
-1050 -7072 7124 0
-1050 -7073 7125 0
-1050 -7074 7126 0
-1050 -7075 7127 0
-1050 -7076 7128 0
-1050 -7077 7129 0
-1050 -7078 7130 0
-1050 -7079 7131 0
-1050 -7080 7132 0
-1050 -7081 7133 0
-1050 -7082 7134 0
-1050 -7083 7135 0
-1050 -7084 0
-7085 7136 0
-7086 7137 0
-7087 7138 0
-7088 7139 0
-7089 7140 0
-7090 7141 0
-7091 7142 0
-7092 7143 0
-7093 7144 0
-7094 7145 0
-7095 7146 0
-7096 7147 0
-7097 7148 0
-7098 7149 0
-7099 7150 0
-7100 7151 0
-7101 7152 0
-7102 7153 0
-7103 7154 0
-7104 7155 0
-7105 7156 0
-7106 7157 0
-7107 7158 0
-7108 7159 0
-7109 7160 0
-7110 7161 0
-7111 7162 0
-7112 7163 0
-7113 7164 0
-7114 7165 0
-7115 7166 0
-7116 7167 0
-7117 7168 0
-7118 7169 0
-7119 7170 0
-7120 7171 0
-7121 7172 0
-7122 7173 0
-7123 7174 0
-7124 7175 0
-7125 7176 0
-7126 7177 0
-7127 7178 0
-7128 7179 0
-7129 7180 0
-7130 7181 0
-7131 7182 0
-7132 7183 0
-7133 7184 0
-7134 7185 0
-7135 7186 0
-1052 -7085 7137 0
-1052 -7086 7138 0
-1052 -7087 7139 0
-1052 -7088 7140 0
-1052 -7089 7141 0
-1052 -7090 7142 0
-1052 -7091 7143 0
-1052 -7092 7144 0
-1052 -7093 7145 0
-1052 -7094 7146 0
-1052 -7095 7147 0
-1052 -7096 7148 0
-1052 -7097 7149 0
-1052 -7098 7150 0
-1052 -7099 7151 0
-1052 -7100 7152 0
-1052 -7101 7153 0
-1052 -7102 7154 0
-1052 -7103 7155 0
-1052 -7104 7156 0
-1052 -7105 7157 0
-1052 -7106 7158 0
-1052 -7107 7159 0
-1052 -7108 7160 0
-1052 -7109 7161 0
-1052 -7110 7162 0
-1052 -7111 7163 0
-1052 -7112 7164 0
-1052 -7113 7165 0
-1052 -7114 7166 0
-1052 -7115 7167 0
-1052 -7116 7168 0
-1052 -7117 7169 0
-1052 -7118 7170 0
-1052 -7119 7171 0
-1052 -7120 7172 0
-1052 -7121 7173 0
-1052 -7122 7174 0
-1052 -7123 7175 0
-1052 -7124 7176 0
-1052 -7125 7177 0
-1052 -7126 7178 0
-1052 -7127 7179 0
-1052 -7128 7180 0
-1052 -7129 7181 0
-1052 -7130 7182 0
-1052 -7131 7183 0
-1052 -7132 7184 0
-1052 -7133 7185 0
-1052 -7134 7186 0
-1052 -7135 0
-7136 7187 0
-7137 7188 0
-7138 7189 0
-7139 7190 0
-7140 7191 0
-7141 7192 0
-7142 7193 0
-7143 7194 0
-7144 7195 0
-7145 7196 0
-7146 7197 0
-7147 7198 0
-7148 7199 0
-7149 7200 0
-7150 7201 0
-7151 7202 0
-7152 7203 0
-7153 7204 0
-7154 7205 0
-7155 7206 0
-7156 7207 0
-7157 7208 0
-7158 7209 0
-7159 7210 0
-7160 7211 0
-7161 7212 0
-7162 7213 0
-7163 7214 0
-7164 7215 0
-7165 7216 0
-7166 7217 0
-7167 7218 0
-7168 7219 0
-7169 7220 0
-7170 7221 0
-7171 7222 0
-7172 7223 0
-7173 7224 0
-7174 7225 0
-7175 7226 0
-7176 7227 0
-7177 7228 0
-7178 7229 0
-7179 7230 0
-7180 7231 0
-7181 7232 0
-7182 7233 0
-7183 7234 0
-7184 7235 0
-7185 7236 0
-7186 7237 0
-1054 -7136 7188 0
-1054 -7137 7189 0
-1054 -7138 7190 0
-1054 -7139 7191 0
-1054 -7140 7192 0
-1054 -7141 7193 0
-1054 -7142 7194 0
-1054 -7143 7195 0
-1054 -7144 7196 0
-1054 -7145 7197 0
-1054 -7146 7198 0
-1054 -7147 7199 0
-1054 -7148 7200 0
-1054 -7149 7201 0
-1054 -7150 7202 0
-1054 -7151 7203 0
-1054 -7152 7204 0
-1054 -7153 7205 0
-1054 -7154 7206 0
-1054 -7155 7207 0
-1054 -7156 7208 0
-1054 -7157 7209 0
-1054 -7158 7210 0
-1054 -7159 7211 0
-1054 -7160 7212 0
-1054 -7161 7213 0
-1054 -7162 7214 0
-1054 -7163 7215 0
-1054 -7164 7216 0
-1054 -7165 7217 0
-1054 -7166 7218 0
-1054 -7167 7219 0
-1054 -7168 7220 0
-1054 -7169 7221 0
-1054 -7170 7222 0
-1054 -7171 7223 0
-1054 -7172 7224 0
-1054 -7173 7225 0
-1054 -7174 7226 0
-1054 -7175 7227 0
-1054 -7176 7228 0
-1054 -7177 7229 0
-1054 -7178 7230 0
-1054 -7179 7231 0
-1054 -7180 7232 0
-1054 -7181 7233 0
-1054 -7182 7234 0
-1054 -7183 7235 0
-1054 -7184 7236 0
-1054 -7185 7237 0
-1054 -7186 0
-7187 7238 0
-7188 7239 0
-7189 7240 0
-7190 7241 0
-7191 7242 0
-7192 7243 0
-7193 7244 0
-7194 7245 0
-7195 7246 0
-7196 7247 0
-7197 7248 0
-7198 7249 0
-7199 7250 0
-7200 7251 0
-7201 7252 0
-7202 7253 0
-7203 7254 0
-7204 7255 0
-7205 7256 0
-7206 7257 0
-7207 7258 0
-7208 7259 0
-7209 7260 0
-7210 7261 0
-7211 7262 0
-7212 7263 0
-7213 7264 0
-7214 7265 0
-7215 7266 0
-7216 7267 0
-7217 7268 0
-7218 7269 0
-7219 7270 0
-7220 7271 0
-7221 7272 0
-7222 7273 0
-7223 7274 0
-7224 7275 0
-7225 7276 0
-7226 7277 0
-7227 7278 0
-7228 7279 0
-7229 7280 0
-7230 7281 0
-7231 7282 0
-7232 7283 0
-7233 7284 0
-7234 7285 0
-7235 7286 0
-7236 7287 0
-7237 7288 0
-1056 -7187 7239 0
-1056 -7188 7240 0
-1056 -7189 7241 0
-1056 -7190 7242 0
-1056 -7191 7243 0
-1056 -7192 7244 0
-1056 -7193 7245 0
-1056 -7194 7246 0
-1056 -7195 7247 0
-1056 -7196 7248 0
-1056 -7197 7249 0
-1056 -7198 7250 0
-1056 -7199 7251 0
-1056 -7200 7252 0
-1056 -7201 7253 0
-1056 -7202 7254 0
-1056 -7203 7255 0
-1056 -7204 7256 0
-1056 -7205 7257 0
-1056 -7206 7258 0
-1056 -7207 7259 0
-1056 -7208 7260 0
-1056 -7209 7261 0
-1056 -7210 7262 0
-1056 -7211 7263 0
-1056 -7212 7264 0
-1056 -7213 7265 0
-1056 -7214 7266 0
-1056 -7215 7267 0
-1056 -7216 7268 0
-1056 -7217 7269 0
-1056 -7218 7270 0
-1056 -7219 7271 0
-1056 -7220 7272 0
-1056 -7221 7273 0
-1056 -7222 7274 0
-1056 -7223 7275 0
-1056 -7224 7276 0
-1056 -7225 7277 0
-1056 -7226 7278 0
-1056 -7227 7279 0
-1056 -7228 7280 0
-1056 -7229 7281 0
-1056 -7230 7282 0
-1056 -7231 7283 0
-1056 -7232 7284 0
-1056 -7233 7285 0
-1056 -7234 7286 0
-1056 -7235 7287 0
-1056 -7236 7288 0
-1056 -7237 0
-7238 7289 0
-7239 7290 0
-7240 7291 0
-7241 7292 0
-7242 7293 0
-7243 7294 0
-7244 7295 0
-7245 7296 0
-7246 7297 0
-7247 7298 0
-7248 7299 0
-7249 7300 0
-7250 7301 0
-7251 7302 0
-7252 7303 0
-7253 7304 0
-7254 7305 0
-7255 7306 0
-7256 7307 0
-7257 7308 0
-7258 7309 0
-7259 7310 0
-7260 7311 0
-7261 7312 0
-7262 7313 0
-7263 7314 0
-7264 7315 0
-7265 7316 0
-7266 7317 0
-7267 7318 0
-7268 7319 0
-7269 7320 0
-7270 7321 0
-7271 7322 0
-7272 7323 0
-7273 7324 0
-7274 7325 0
-7275 7326 0
-7276 7327 0
-7277 7328 0
-7278 7329 0
-7279 7330 0
-7280 7331 0
-7281 7332 0
-7282 7333 0
-7283 7334 0
-7284 7335 0
-7285 7336 0
-7286 7337 0
-7287 7338 0
-7288 7339 0
-1058 -7238 7290 0
-1058 -7239 7291 0
-1058 -7240 7292 0
-1058 -7241 7293 0
-1058 -7242 7294 0
-1058 -7243 7295 0
-1058 -7244 7296 0
-1058 -7245 7297 0
-1058 -7246 7298 0
-1058 -7247 7299 0
-1058 -7248 7300 0
-1058 -7249 7301 0
-1058 -7250 7302 0
-1058 -7251 7303 0
-1058 -7252 7304 0
-1058 -7253 7305 0
-1058 -7254 7306 0
-1058 -7255 7307 0
-1058 -7256 7308 0
-1058 -7257 7309 0
-1058 -7258 7310 0
-1058 -7259 7311 0
-1058 -7260 7312 0
-1058 -7261 7313 0
-1058 -7262 7314 0
-1058 -7263 7315 0
-1058 -7264 7316 0
-1058 -7265 7317 0
-1058 -7266 7318 0
-1058 -7267 7319 0
-1058 -7268 7320 0
-1058 -7269 7321 0
-1058 -7270 7322 0
-1058 -7271 7323 0
-1058 -7272 7324 0
-1058 -7273 7325 0
-1058 -7274 7326 0
-1058 -7275 7327 0
-1058 -7276 7328 0
-1058 -7277 7329 0
-1058 -7278 7330 0
-1058 -7279 7331 0
-1058 -7280 7332 0
-1058 -7281 7333 0
-1058 -7282 7334 0
-1058 -7283 7335 0
-1058 -7284 7336 0
-1058 -7285 7337 0
-1058 -7286 7338 0
-1058 -7287 7339 0
-1058 -7288 0
-7289 7340 0
-7290 7341 0
-7291 7342 0
-7292 7343 0
-7293 7344 0
-7294 7345 0
-7295 7346 0
-7296 7347 0
-7297 7348 0
-7298 7349 0
-7299 7350 0
-7300 7351 0
-7301 7352 0
-7302 7353 0
-7303 7354 0
-7304 7355 0
-7305 7356 0
-7306 7357 0
-7307 7358 0
-7308 7359 0
-7309 7360 0
-7310 7361 0
-7311 7362 0
-7312 7363 0
-7313 7364 0
-7314 7365 0
-7315 7366 0
-7316 7367 0
-7317 7368 0
-7318 7369 0
-7319 7370 0
-7320 7371 0
-7321 7372 0
-7322 7373 0
-7323 7374 0
-7324 7375 0
-7325 7376 0
-7326 7377 0
-7327 7378 0
-7328 7379 0
-7329 7380 0
-7330 7381 0
-7331 7382 0
-7332 7383 0
-7333 7384 0
-7334 7385 0
-7335 7386 0
-7336 7387 0
-7337 7388 0
-7338 7389 0
-7339 7390 0
-1060 -7289 7341 0
-1060 -7290 7342 0
-1060 -7291 7343 0
-1060 -7292 7344 0
-1060 -7293 7345 0
-1060 -7294 7346 0
-1060 -7295 7347 0
-1060 -7296 7348 0
-1060 -7297 7349 0
-1060 -7298 7350 0
-1060 -7299 7351 0
-1060 -7300 7352 0
-1060 -7301 7353 0
-1060 -7302 7354 0
-1060 -7303 7355 0
-1060 -7304 7356 0
-1060 -7305 7357 0
-1060 -7306 7358 0
-1060 -7307 7359 0
-1060 -7308 7360 0
-1060 -7309 7361 0
-1060 -7310 7362 0
-1060 -7311 7363 0
-1060 -7312 7364 0
-1060 -7313 7365 0
-1060 -7314 7366 0
-1060 -7315 7367 0
-1060 -7316 7368 0
-1060 -7317 7369 0
-1060 -7318 7370 0
-1060 -7319 7371 0
-1060 -7320 7372 0
-1060 -7321 7373 0
-1060 -7322 7374 0
-1060 -7323 7375 0
-1060 -7324 7376 0
-1060 -7325 7377 0
-1060 -7326 7378 0
-1060 -7327 7379 0
-1060 -7328 7380 0
-1060 -7329 7381 0
-1060 -7330 7382 0
-1060 -7331 7383 0
-1060 -7332 7384 0
-1060 -7333 7385 0
-1060 -7334 7386 0
-1060 -7335 7387 0
-1060 -7336 7388 0
-1060 -7337 7389 0
-1060 -7338 7390 0
-1060 -7339 0
-7340 7391 0
-7341 7392 0
-7342 7393 0
-7343 7394 0
-7344 7395 0
-7345 7396 0
-7346 7397 0
-7347 7398 0
-7348 7399 0
-7349 7400 0
-7350 7401 0
-7351 7402 0
-7352 7403 0
-7353 7404 0
-7354 7405 0
-7355 7406 0
-7356 7407 0
-7357 7408 0
-7358 7409 0
-7359 7410 0
-7360 7411 0
-7361 7412 0
-7362 7413 0
-7363 7414 0
-7364 7415 0
-7365 7416 0
-7366 7417 0
-7367 7418 0
-7368 7419 0
-7369 7420 0
-7370 7421 0
-7371 7422 0
-7372 7423 0
-7373 7424 0
-7374 7425 0
-7375 7426 0
-7376 7427 0
-7377 7428 0
-7378 7429 0
-7379 7430 0
-7380 7431 0
-7381 7432 0
-7382 7433 0
-7383 7434 0
-7384 7435 0
-7385 7436 0
-7386 7437 0
-7387 7438 0
-7388 7439 0
-7389 7440 0
-7390 7441 0
-1062 -7340 7392 0
-1062 -7341 7393 0
-1062 -7342 7394 0
-1062 -7343 7395 0
-1062 -7344 7396 0
-1062 -7345 7397 0
-1062 -7346 7398 0
-1062 -7347 7399 0
-1062 -7348 7400 0
-1062 -7349 7401 0
-1062 -7350 7402 0
-1062 -7351 7403 0
-1062 -7352 7404 0
-1062 -7353 7405 0
-1062 -7354 7406 0
-1062 -7355 7407 0
-1062 -7356 7408 0
-1062 -7357 7409 0
-1062 -7358 7410 0
-1062 -7359 7411 0
-1062 -7360 7412 0
-1062 -7361 7413 0
-1062 -7362 7414 0
-1062 -7363 7415 0
-1062 -7364 7416 0
-1062 -7365 7417 0
-1062 -7366 7418 0
-1062 -7367 7419 0
-1062 -7368 7420 0
-1062 -7369 7421 0
-1062 -7370 7422 0
-1062 -7371 7423 0
-1062 -7372 7424 0
-1062 -7373 7425 0
-1062 -7374 7426 0
-1062 -7375 7427 0
-1062 -7376 7428 0
-1062 -7377 7429 0
-1062 -7378 7430 0
-1062 -7379 7431 0
-1062 -7380 7432 0
-1062 -7381 7433 0
-1062 -7382 7434 0
-1062 -7383 7435 0
-1062 -7384 7436 0
-1062 -7385 7437 0
-1062 -7386 7438 0
-1062 -7387 7439 0
-1062 -7388 7440 0
-1062 -7389 7441 0
-1062 -7390 0
-7391 7442 0
-7392 7443 0
-7393 7444 0
-7394 7445 0
-7395 7446 0
-7396 7447 0
-7397 7448 0
-7398 7449 0
-7399 7450 0
-7400 7451 0
-7401 7452 0
-7402 7453 0
-7403 7454 0
-7404 7455 0
-7405 7456 0
-7406 7457 0
-7407 7458 0
-7408 7459 0
-7409 7460 0
-7410 7461 0
-7411 7462 0
-7412 7463 0
-7413 7464 0
-7414 7465 0
-7415 7466 0
-7416 7467 0
-7417 7468 0
-7418 7469 0
-7419 7470 0
-7420 7471 0
-7421 7472 0
-7422 7473 0
-7423 7474 0
-7424 7475 0
-7425 7476 0
-7426 7477 0
-7427 7478 0
-7428 7479 0
-7429 7480 0
-7430 7481 0
-7431 7482 0
-7432 7483 0
-7433 7484 0
-7434 7485 0
-7435 7486 0
-7436 7487 0
-7437 7488 0
-7438 7489 0
-7439 7490 0
-7440 7491 0
-7441 7492 0
-1064 -7391 7443 0
-1064 -7392 7444 0
-1064 -7393 7445 0
-1064 -7394 7446 0
-1064 -7395 7447 0
-1064 -7396 7448 0
-1064 -7397 7449 0
-1064 -7398 7450 0
-1064 -7399 7451 0
-1064 -7400 7452 0
-1064 -7401 7453 0
-1064 -7402 7454 0
-1064 -7403 7455 0
-1064 -7404 7456 0
-1064 -7405 7457 0
-1064 -7406 7458 0
-1064 -7407 7459 0
-1064 -7408 7460 0
-1064 -7409 7461 0
-1064 -7410 7462 0
-1064 -7411 7463 0
-1064 -7412 7464 0
-1064 -7413 7465 0
-1064 -7414 7466 0
-1064 -7415 7467 0
-1064 -7416 7468 0
-1064 -7417 7469 0
-1064 -7418 7470 0
-1064 -7419 7471 0
-1064 -7420 7472 0
-1064 -7421 7473 0
-1064 -7422 7474 0
-1064 -7423 7475 0
-1064 -7424 7476 0
-1064 -7425 7477 0
-1064 -7426 7478 0
-1064 -7427 7479 0
-1064 -7428 7480 0
-1064 -7429 7481 0
-1064 -7430 7482 0
-1064 -7431 7483 0
-1064 -7432 7484 0
-1064 -7433 7485 0
-1064 -7434 7486 0
-1064 -7435 7487 0
-1064 -7436 7488 0
-1064 -7437 7489 0
-1064 -7438 7490 0
-1064 -7439 7491 0
-1064 -7440 7492 0
-1064 -7441 0
-7442 7493 0
-7443 7494 0
-7444 7495 0
-7445 7496 0
-7446 7497 0
-7447 7498 0
-7448 7499 0
-7449 7500 0
-7450 7501 0
-7451 7502 0
-7452 7503 0
-7453 7504 0
-7454 7505 0
-7455 7506 0
-7456 7507 0
-7457 7508 0
-7458 7509 0
-7459 7510 0
-7460 7511 0
-7461 7512 0
-7462 7513 0
-7463 7514 0
-7464 7515 0
-7465 7516 0
-7466 7517 0
-7467 7518 0
-7468 7519 0
-7469 7520 0
-7470 7521 0
-7471 7522 0
-7472 7523 0
-7473 7524 0
-7474 7525 0
-7475 7526 0
-7476 7527 0
-7477 7528 0
-7478 7529 0
-7479 7530 0
-7480 7531 0
-7481 7532 0
-7482 7533 0
-7483 7534 0
-7484 7535 0
-7485 7536 0
-7486 7537 0
-7487 7538 0
-7488 7539 0
-7489 7540 0
-7490 7541 0
-7491 7542 0
-7492 7543 0
-1066 -7442 7494 0
-1066 -7443 7495 0
-1066 -7444 7496 0
-1066 -7445 7497 0
-1066 -7446 7498 0
-1066 -7447 7499 0
-1066 -7448 7500 0
-1066 -7449 7501 0
-1066 -7450 7502 0
-1066 -7451 7503 0
-1066 -7452 7504 0
-1066 -7453 7505 0
-1066 -7454 7506 0
-1066 -7455 7507 0
-1066 -7456 7508 0
-1066 -7457 7509 0
-1066 -7458 7510 0
-1066 -7459 7511 0
-1066 -7460 7512 0
-1066 -7461 7513 0
-1066 -7462 7514 0
-1066 -7463 7515 0
-1066 -7464 7516 0
-1066 -7465 7517 0
-1066 -7466 7518 0
-1066 -7467 7519 0
-1066 -7468 7520 0
-1066 -7469 7521 0
-1066 -7470 7522 0
-1066 -7471 7523 0
-1066 -7472 7524 0
-1066 -7473 7525 0
-1066 -7474 7526 0
-1066 -7475 7527 0
-1066 -7476 7528 0
-1066 -7477 7529 0
-1066 -7478 7530 0
-1066 -7479 7531 0
-1066 -7480 7532 0
-1066 -7481 7533 0
-1066 -7482 7534 0
-1066 -7483 7535 0
-1066 -7484 7536 0
-1066 -7485 7537 0
-1066 -7486 7538 0
-1066 -7487 7539 0
-1066 -7488 7540 0
-1066 -7489 7541 0
-1066 -7490 7542 0
-1066 -7491 7543 0
-1066 -7492 0
-7493 7544 0
-7494 7545 0
-7495 7546 0
-7496 7547 0
-7497 7548 0
-7498 7549 0
-7499 7550 0
-7500 7551 0
-7501 7552 0
-7502 7553 0
-7503 7554 0
-7504 7555 0
-7505 7556 0
-7506 7557 0
-7507 7558 0
-7508 7559 0
-7509 7560 0
-7510 7561 0
-7511 7562 0
-7512 7563 0
-7513 7564 0
-7514 7565 0
-7515 7566 0
-7516 7567 0
-7517 7568 0
-7518 7569 0
-7519 7570 0
-7520 7571 0
-7521 7572 0
-7522 7573 0
-7523 7574 0
-7524 7575 0
-7525 7576 0
-7526 7577 0
-7527 7578 0
-7528 7579 0
-7529 7580 0
-7530 7581 0
-7531 7582 0
-7532 7583 0
-7533 7584 0
-7534 7585 0
-7535 7586 0
-7536 7587 0
-7537 7588 0
-7538 7589 0
-7539 7590 0
-7540 7591 0
-7541 7592 0
-7542 7593 0
-7543 7594 0
-1068 -7493 7545 0
-1068 -7494 7546 0
-1068 -7495 7547 0
-1068 -7496 7548 0
-1068 -7497 7549 0
-1068 -7498 7550 0
-1068 -7499 7551 0
-1068 -7500 7552 0
-1068 -7501 7553 0
-1068 -7502 7554 0
-1068 -7503 7555 0
-1068 -7504 7556 0
-1068 -7505 7557 0
-1068 -7506 7558 0
-1068 -7507 7559 0
-1068 -7508 7560 0
-1068 -7509 7561 0
-1068 -7510 7562 0
-1068 -7511 7563 0
-1068 -7512 7564 0
-1068 -7513 7565 0
-1068 -7514 7566 0
-1068 -7515 7567 0
-1068 -7516 7568 0
-1068 -7517 7569 0
-1068 -7518 7570 0
-1068 -7519 7571 0
-1068 -7520 7572 0
-1068 -7521 7573 0
-1068 -7522 7574 0
-1068 -7523 7575 0
-1068 -7524 7576 0
-1068 -7525 7577 0
-1068 -7526 7578 0
-1068 -7527 7579 0
-1068 -7528 7580 0
-1068 -7529 7581 0
-1068 -7530 7582 0
-1068 -7531 7583 0
-1068 -7532 7584 0
-1068 -7533 7585 0
-1068 -7534 7586 0
-1068 -7535 7587 0
-1068 -7536 7588 0
-1068 -7537 7589 0
-1068 -7538 7590 0
-1068 -7539 7591 0
-1068 -7540 7592 0
-1068 -7541 7593 0
-1068 -7542 7594 0
-1068 -7543 0
-7544 7595 0
-7545 7596 0
-7546 7597 0
-7547 7598 0
-7548 7599 0
-7549 7600 0
-7550 7601 0
-7551 7602 0
-7552 7603 0
-7553 7604 0
-7554 7605 0
-7555 7606 0
-7556 7607 0
-7557 7608 0
-7558 7609 0
-7559 7610 0
-7560 7611 0
-7561 7612 0
-7562 7613 0
-7563 7614 0
-7564 7615 0
-7565 7616 0
-7566 7617 0
-7567 7618 0
-7568 7619 0
-7569 7620 0
-7570 7621 0
-7571 7622 0
-7572 7623 0
-7573 7624 0
-7574 7625 0
-7575 7626 0
-7576 7627 0
-7577 7628 0
-7578 7629 0
-7579 7630 0
-7580 7631 0
-7581 7632 0
-7582 7633 0
-7583 7634 0
-7584 7635 0
-7585 7636 0
-7586 7637 0
-7587 7638 0
-7588 7639 0
-7589 7640 0
-7590 7641 0
-7591 7642 0
-7592 7643 0
-7593 7644 0
-7594 7645 0
-1070 -7544 7596 0
-1070 -7545 7597 0
-1070 -7546 7598 0
-1070 -7547 7599 0
-1070 -7548 7600 0
-1070 -7549 7601 0
-1070 -7550 7602 0
-1070 -7551 7603 0
-1070 -7552 7604 0
-1070 -7553 7605 0
-1070 -7554 7606 0
-1070 -7555 7607 0
-1070 -7556 7608 0
-1070 -7557 7609 0
-1070 -7558 7610 0
-1070 -7559 7611 0
-1070 -7560 7612 0
-1070 -7561 7613 0
-1070 -7562 7614 0
-1070 -7563 7615 0
-1070 -7564 7616 0
-1070 -7565 7617 0
-1070 -7566 7618 0
-1070 -7567 7619 0
-1070 -7568 7620 0
-1070 -7569 7621 0
-1070 -7570 7622 0
-1070 -7571 7623 0
-1070 -7572 7624 0
-1070 -7573 7625 0
-1070 -7574 7626 0
-1070 -7575 7627 0
-1070 -7576 7628 0
-1070 -7577 7629 0
-1070 -7578 7630 0
-1070 -7579 7631 0
-1070 -7580 7632 0
-1070 -7581 7633 0
-1070 -7582 7634 0
-1070 -7583 7635 0
-1070 -7584 7636 0
-1070 -7585 7637 0
-1070 -7586 7638 0
-1070 -7587 7639 0
-1070 -7588 7640 0
-1070 -7589 7641 0
-1070 -7590 7642 0
-1070 -7591 7643 0
-1070 -7592 7644 0
-1070 -7593 7645 0
-1070 -7594 0
-7595 7646 0
-7596 7647 0
-7597 7648 0
-7598 7649 0
-7599 7650 0
-7600 7651 0
-7601 7652 0
-7602 7653 0
-7603 7654 0
-7604 7655 0
-7605 7656 0
-7606 7657 0
-7607 7658 0
-7608 7659 0
-7609 7660 0
-7610 7661 0
-7611 7662 0
-7612 7663 0
-7613 7664 0
-7614 7665 0
-7615 7666 0
-7616 7667 0
-7617 7668 0
-7618 7669 0
-7619 7670 0
-7620 7671 0
-7621 7672 0
-7622 7673 0
-7623 7674 0
-7624 7675 0
-7625 7676 0
-7626 7677 0
-7627 7678 0
-7628 7679 0
-7629 7680 0
-7630 7681 0
-7631 7682 0
-7632 7683 0
-7633 7684 0
-7634 7685 0
-7635 7686 0
-7636 7687 0
-7637 7688 0
-7638 7689 0
-7639 7690 0
-7640 7691 0
-7641 7692 0
-7642 7693 0
-7643 7694 0
-7644 7695 0
-7645 7696 0
-1072 -7595 7647 0
-1072 -7596 7648 0
-1072 -7597 7649 0
-1072 -7598 7650 0
-1072 -7599 7651 0
-1072 -7600 7652 0
-1072 -7601 7653 0
-1072 -7602 7654 0
-1072 -7603 7655 0
-1072 -7604 7656 0
-1072 -7605 7657 0
-1072 -7606 7658 0
-1072 -7607 7659 0
-1072 -7608 7660 0
-1072 -7609 7661 0
-1072 -7610 7662 0
-1072 -7611 7663 0
-1072 -7612 7664 0
-1072 -7613 7665 0
-1072 -7614 7666 0
-1072 -7615 7667 0
-1072 -7616 7668 0
-1072 -7617 7669 0
-1072 -7618 7670 0
-1072 -7619 7671 0
-1072 -7620 7672 0
-1072 -7621 7673 0
-1072 -7622 7674 0
-1072 -7623 7675 0
-1072 -7624 7676 0
-1072 -7625 7677 0
-1072 -7626 7678 0
-1072 -7627 7679 0
-1072 -7628 7680 0
-1072 -7629 7681 0
-1072 -7630 7682 0
-1072 -7631 7683 0
-1072 -7632 7684 0
-1072 -7633 7685 0
-1072 -7634 7686 0
-1072 -7635 7687 0
-1072 -7636 7688 0
-1072 -7637 7689 0
-1072 -7638 7690 0
-1072 -7639 7691 0
-1072 -7640 7692 0
-1072 -7641 7693 0
-1072 -7642 7694 0
-1072 -7643 7695 0
-1072 -7644 7696 0
-1072 -7645 0
-7646 7697 0
-7647 7698 0
-7648 7699 0
-7649 7700 0
-7650 7701 0
-7651 7702 0
-7652 7703 0
-7653 7704 0
-7654 7705 0
-7655 7706 0
-7656 7707 0
-7657 7708 0
-7658 7709 0
-7659 7710 0
-7660 7711 0
-7661 7712 0
-7662 7713 0
-7663 7714 0
-7664 7715 0
-7665 7716 0
-7666 7717 0
-7667 7718 0
-7668 7719 0
-7669 7720 0
-7670 7721 0
-7671 7722 0
-7672 7723 0
-7673 7724 0
-7674 7725 0
-7675 7726 0
-7676 7727 0
-7677 7728 0
-7678 7729 0
-7679 7730 0
-7680 7731 0
-7681 7732 0
-7682 7733 0
-7683 7734 0
-7684 7735 0
-7685 7736 0
-7686 7737 0
-7687 7738 0
-7688 7739 0
-7689 7740 0
-7690 7741 0
-7691 7742 0
-7692 7743 0
-7693 7744 0
-7694 7745 0
-7695 7746 0
-7696 7747 0
-1074 -7646 7698 0
-1074 -7647 7699 0
-1074 -7648 7700 0
-1074 -7649 7701 0
-1074 -7650 7702 0
-1074 -7651 7703 0
-1074 -7652 7704 0
-1074 -7653 7705 0
-1074 -7654 7706 0
-1074 -7655 7707 0
-1074 -7656 7708 0
-1074 -7657 7709 0
-1074 -7658 7710 0
-1074 -7659 7711 0
-1074 -7660 7712 0
-1074 -7661 7713 0
-1074 -7662 7714 0
-1074 -7663 7715 0
-1074 -7664 7716 0
-1074 -7665 7717 0
-1074 -7666 7718 0
-1074 -7667 7719 0
-1074 -7668 7720 0
-1074 -7669 7721 0
-1074 -7670 7722 0
-1074 -7671 7723 0
-1074 -7672 7724 0
-1074 -7673 7725 0
-1074 -7674 7726 0
-1074 -7675 7727 0
-1074 -7676 7728 0
-1074 -7677 7729 0
-1074 -7678 7730 0
-1074 -7679 7731 0
-1074 -7680 7732 0
-1074 -7681 7733 0
-1074 -7682 7734 0
-1074 -7683 7735 0
-1074 -7684 7736 0
-1074 -7685 7737 0
-1074 -7686 7738 0
-1074 -7687 7739 0
-1074 -7688 7740 0
-1074 -7689 7741 0
-1074 -7690 7742 0
-1074 -7691 7743 0
-1074 -7692 7744 0
-1074 -7693 7745 0
-1074 -7694 7746 0
-1074 -7695 7747 0
-1074 -7696 0
-7697 7748 0
-7698 7749 0
-7699 7750 0
-7700 7751 0
-7701 7752 0
-7702 7753 0
-7703 7754 0
-7704 7755 0
-7705 7756 0
-7706 7757 0
-7707 7758 0
-7708 7759 0
-7709 7760 0
-7710 7761 0
-7711 7762 0
-7712 7763 0
-7713 7764 0
-7714 7765 0
-7715 7766 0
-7716 7767 0
-7717 7768 0
-7718 7769 0
-7719 7770 0
-7720 7771 0
-7721 7772 0
-7722 7773 0
-7723 7774 0
-7724 7775 0
-7725 7776 0
-7726 7777 0
-7727 7778 0
-7728 7779 0
-7729 7780 0
-7730 7781 0
-7731 7782 0
-7732 7783 0
-7733 7784 0
-7734 7785 0
-7735 7786 0
-7736 7787 0
-7737 7788 0
-7738 7789 0
-7739 7790 0
-7740 7791 0
-7741 7792 0
-7742 7793 0
-7743 7794 0
-7744 7795 0
-7745 7796 0
-7746 7797 0
-7747 7798 0
-1076 -7697 7749 0
-1076 -7698 7750 0
-1076 -7699 7751 0
-1076 -7700 7752 0
-1076 -7701 7753 0
-1076 -7702 7754 0
-1076 -7703 7755 0
-1076 -7704 7756 0
-1076 -7705 7757 0
-1076 -7706 7758 0
-1076 -7707 7759 0
-1076 -7708 7760 0
-1076 -7709 7761 0
-1076 -7710 7762 0
-1076 -7711 7763 0
-1076 -7712 7764 0
-1076 -7713 7765 0
-1076 -7714 7766 0
-1076 -7715 7767 0
-1076 -7716 7768 0
-1076 -7717 7769 0
-1076 -7718 7770 0
-1076 -7719 7771 0
-1076 -7720 7772 0
-1076 -7721 7773 0
-1076 -7722 7774 0
-1076 -7723 7775 0
-1076 -7724 7776 0
-1076 -7725 7777 0
-1076 -7726 7778 0
-1076 -7727 7779 0
-1076 -7728 7780 0
-1076 -7729 7781 0
-1076 -7730 7782 0
-1076 -7731 7783 0
-1076 -7732 7784 0
-1076 -7733 7785 0
-1076 -7734 7786 0
-1076 -7735 7787 0
-1076 -7736 7788 0
-1076 -7737 7789 0
-1076 -7738 7790 0
-1076 -7739 7791 0
-1076 -7740 7792 0
-1076 -7741 7793 0
-1076 -7742 7794 0
-1076 -7743 7795 0
-1076 -7744 7796 0
-1076 -7745 7797 0
-1076 -7746 7798 0
-1076 -7747 0
-7748 7799 0
-7749 7800 0
-7750 7801 0
-7751 7802 0
-7752 7803 0
-7753 7804 0
-7754 7805 0
-7755 7806 0
-7756 7807 0
-7757 7808 0
-7758 7809 0
-7759 7810 0
-7760 7811 0
-7761 7812 0
-7762 7813 0
-7763 7814 0
-7764 7815 0
-7765 7816 0
-7766 7817 0
-7767 7818 0
-7768 7819 0
-7769 7820 0
-7770 7821 0
-7771 7822 0
-7772 7823 0
-7773 7824 0
-7774 7825 0
-7775 7826 0
-7776 7827 0
-7777 7828 0
-7778 7829 0
-7779 7830 0
-7780 7831 0
-7781 7832 0
-7782 7833 0
-7783 7834 0
-7784 7835 0
-7785 7836 0
-7786 7837 0
-7787 7838 0
-7788 7839 0
-7789 7840 0
-7790 7841 0
-7791 7842 0
-7792 7843 0
-7793 7844 0
-7794 7845 0
-7795 7846 0
-7796 7847 0
-7797 7848 0
-7798 7849 0
-1078 -7748 7800 0
-1078 -7749 7801 0
-1078 -7750 7802 0
-1078 -7751 7803 0
-1078 -7752 7804 0
-1078 -7753 7805 0
-1078 -7754 7806 0
-1078 -7755 7807 0
-1078 -7756 7808 0
-1078 -7757 7809 0
-1078 -7758 7810 0
-1078 -7759 7811 0
-1078 -7760 7812 0
-1078 -7761 7813 0
-1078 -7762 7814 0
-1078 -7763 7815 0
-1078 -7764 7816 0
-1078 -7765 7817 0
-1078 -7766 7818 0
-1078 -7767 7819 0
-1078 -7768 7820 0
-1078 -7769 7821 0
-1078 -7770 7822 0
-1078 -7771 7823 0
-1078 -7772 7824 0
-1078 -7773 7825 0
-1078 -7774 7826 0
-1078 -7775 7827 0
-1078 -7776 7828 0
-1078 -7777 7829 0
-1078 -7778 7830 0
-1078 -7779 7831 0
-1078 -7780 7832 0
-1078 -7781 7833 0
-1078 -7782 7834 0
-1078 -7783 7835 0
-1078 -7784 7836 0
-1078 -7785 7837 0
-1078 -7786 7838 0
-1078 -7787 7839 0
-1078 -7788 7840 0
-1078 -7789 7841 0
-1078 -7790 7842 0
-1078 -7791 7843 0
-1078 -7792 7844 0
-1078 -7793 7845 0
-1078 -7794 7846 0
-1078 -7795 7847 0
-1078 -7796 7848 0
-1078 -7797 7849 0
-1078 -7798 0
-7799 7850 0
-7800 7851 0
-7801 7852 0
-7802 7853 0
-7803 7854 0
-7804 7855 0
-7805 7856 0
-7806 7857 0
-7807 7858 0
-7808 7859 0
-7809 7860 0
-7810 7861 0
-7811 7862 0
-7812 7863 0
-7813 7864 0
-7814 7865 0
-7815 7866 0
-7816 7867 0
-7817 7868 0
-7818 7869 0
-7819 7870 0
-7820 7871 0
-7821 7872 0
-7822 7873 0
-7823 7874 0
-7824 7875 0
-7825 7876 0
-7826 7877 0
-7827 7878 0
-7828 7879 0
-7829 7880 0
-7830 7881 0
-7831 7882 0
-7832 7883 0
-7833 7884 0
-7834 7885 0
-7835 7886 0
-7836 7887 0
-7837 7888 0
-7838 7889 0
-7839 7890 0
-7840 7891 0
-7841 7892 0
-7842 7893 0
-7843 7894 0
-7844 7895 0
-7845 7896 0
-7846 7897 0
-7847 7898 0
-7848 7899 0
-7849 7900 0
-1080 -7799 7851 0
-1080 -7800 7852 0
-1080 -7801 7853 0
-1080 -7802 7854 0
-1080 -7803 7855 0
-1080 -7804 7856 0
-1080 -7805 7857 0
-1080 -7806 7858 0
-1080 -7807 7859 0
-1080 -7808 7860 0
-1080 -7809 7861 0
-1080 -7810 7862 0
-1080 -7811 7863 0
-1080 -7812 7864 0
-1080 -7813 7865 0
-1080 -7814 7866 0
-1080 -7815 7867 0
-1080 -7816 7868 0
-1080 -7817 7869 0
-1080 -7818 7870 0
-1080 -7819 7871 0
-1080 -7820 7872 0
-1080 -7821 7873 0
-1080 -7822 7874 0
-1080 -7823 7875 0
-1080 -7824 7876 0
-1080 -7825 7877 0
-1080 -7826 7878 0
-1080 -7827 7879 0
-1080 -7828 7880 0
-1080 -7829 7881 0
-1080 -7830 7882 0
-1080 -7831 7883 0
-1080 -7832 7884 0
-1080 -7833 7885 0
-1080 -7834 7886 0
-1080 -7835 7887 0
-1080 -7836 7888 0
-1080 -7837 7889 0
-1080 -7838 7890 0
-1080 -7839 7891 0
-1080 -7840 7892 0
-1080 -7841 7893 0
-1080 -7842 7894 0
-1080 -7843 7895 0
-1080 -7844 7896 0
-1080 -7845 7897 0
-1080 -7846 7898 0
-1080 -7847 7899 0
-1080 -7848 7900 0
-1080 -7849 0
-7850 7901 0
-7851 7902 0
-7852 7903 0
-7853 7904 0
-7854 7905 0
-7855 7906 0
-7856 7907 0
-7857 7908 0
-7858 7909 0
-7859 7910 0
-7860 7911 0
-7861 7912 0
-7862 7913 0
-7863 7914 0
-7864 7915 0
-7865 7916 0
-7866 7917 0
-7867 7918 0
-7868 7919 0
-7869 7920 0
-7870 7921 0
-7871 7922 0
-7872 7923 0
-7873 7924 0
-7874 7925 0
-7875 7926 0
-7876 7927 0
-7877 7928 0
-7878 7929 0
-7879 7930 0
-7880 7931 0
-7881 7932 0
-7882 7933 0
-7883 7934 0
-7884 7935 0
-7885 7936 0
-7886 7937 0
-7887 7938 0
-7888 7939 0
-7889 7940 0
-7890 7941 0
-7891 7942 0
-7892 7943 0
-7893 7944 0
-7894 7945 0
-7895 7946 0
-7896 7947 0
-7897 7948 0
-7898 7949 0
-7899 7950 0
-7900 7951 0
-1082 -7850 7902 0
-1082 -7851 7903 0
-1082 -7852 7904 0
-1082 -7853 7905 0
-1082 -7854 7906 0
-1082 -7855 7907 0
-1082 -7856 7908 0
-1082 -7857 7909 0
-1082 -7858 7910 0
-1082 -7859 7911 0
-1082 -7860 7912 0
-1082 -7861 7913 0
-1082 -7862 7914 0
-1082 -7863 7915 0
-1082 -7864 7916 0
-1082 -7865 7917 0
-1082 -7866 7918 0
-1082 -7867 7919 0
-1082 -7868 7920 0
-1082 -7869 7921 0
-1082 -7870 7922 0
-1082 -7871 7923 0
-1082 -7872 7924 0
-1082 -7873 7925 0
-1082 -7874 7926 0
-1082 -7875 7927 0
-1082 -7876 7928 0
-1082 -7877 7929 0
-1082 -7878 7930 0
-1082 -7879 7931 0
-1082 -7880 7932 0
-1082 -7881 7933 0
-1082 -7882 7934 0
-1082 -7883 7935 0
-1082 -7884 7936 0
-1082 -7885 7937 0
-1082 -7886 7938 0
-1082 -7887 7939 0
-1082 -7888 7940 0
-1082 -7889 7941 0
-1082 -7890 7942 0
-1082 -7891 7943 0
-1082 -7892 7944 0
-1082 -7893 7945 0
-1082 -7894 7946 0
-1082 -7895 7947 0
-1082 -7896 7948 0
-1082 -7897 7949 0
-1082 -7898 7950 0
-1082 -7899 7951 0
-1082 -7900 0
-7901 7952 0
-7902 7953 0
-7903 7954 0
-7904 7955 0
-7905 7956 0
-7906 7957 0
-7907 7958 0
-7908 7959 0
-7909 7960 0
-7910 7961 0
-7911 7962 0
-7912 7963 0
-7913 7964 0
-7914 7965 0
-7915 7966 0
-7916 7967 0
-7917 7968 0
-7918 7969 0
-7919 7970 0
-7920 7971 0
-7921 7972 0
-7922 7973 0
-7923 7974 0
-7924 7975 0
-7925 7976 0
-7926 7977 0
-7927 7978 0
-7928 7979 0
-7929 7980 0
-7930 7981 0
-7931 7982 0
-7932 7983 0
-7933 7984 0
-7934 7985 0
-7935 7986 0
-7936 7987 0
-7937 7988 0
-7938 7989 0
-7939 7990 0
-7940 7991 0
-7941 7992 0
-7942 7993 0
-7943 7994 0
-7944 7995 0
-7945 7996 0
-7946 7997 0
-7947 7998 0
-7948 7999 0
-7949 8000 0
-7950 8001 0
-7951 8002 0
-1084 -7901 7953 0
-1084 -7902 7954 0
-1084 -7903 7955 0
-1084 -7904 7956 0
-1084 -7905 7957 0
-1084 -7906 7958 0
-1084 -7907 7959 0
-1084 -7908 7960 0
-1084 -7909 7961 0
-1084 -7910 7962 0
-1084 -7911 7963 0
-1084 -7912 7964 0
-1084 -7913 7965 0
-1084 -7914 7966 0
-1084 -7915 7967 0
-1084 -7916 7968 0
-1084 -7917 7969 0
-1084 -7918 7970 0
-1084 -7919 7971 0
-1084 -7920 7972 0
-1084 -7921 7973 0
-1084 -7922 7974 0
-1084 -7923 7975 0
-1084 -7924 7976 0
-1084 -7925 7977 0
-1084 -7926 7978 0
-1084 -7927 7979 0
-1084 -7928 7980 0
-1084 -7929 7981 0
-1084 -7930 7982 0
-1084 -7931 7983 0
-1084 -7932 7984 0
-1084 -7933 7985 0
-1084 -7934 7986 0
-1084 -7935 7987 0
-1084 -7936 7988 0
-1084 -7937 7989 0
-1084 -7938 7990 0
-1084 -7939 7991 0
-1084 -7940 7992 0
-1084 -7941 7993 0
-1084 -7942 7994 0
-1084 -7943 7995 0
-1084 -7944 7996 0
-1084 -7945 7997 0
-1084 -7946 7998 0
-1084 -7947 7999 0
-1084 -7948 8000 0
-1084 -7949 8001 0
-1084 -7950 8002 0
-1084 -7951 0
-7952 8003 0
-7953 8004 0
-7954 8005 0
-7955 8006 0
-7956 8007 0
-7957 8008 0
-7958 8009 0
-7959 8010 0
-7960 8011 0
-7961 8012 0
-7962 8013 0
-7963 8014 0
-7964 8015 0
-7965 8016 0
-7966 8017 0
-7967 8018 0
-7968 8019 0
-7969 8020 0
-7970 8021 0
-7971 8022 0
-7972 8023 0
-7973 8024 0
-7974 8025 0
-7975 8026 0
-7976 8027 0
-7977 8028 0
-7978 8029 0
-7979 8030 0
-7980 8031 0
-7981 8032 0
-7982 8033 0
-7983 8034 0
-7984 8035 0
-7985 8036 0
-7986 8037 0
-7987 8038 0
-7988 8039 0
-7989 8040 0
-7990 8041 0
-7991 8042 0
-7992 8043 0
-7993 8044 0
-7994 8045 0
-7995 8046 0
-7996 8047 0
-7997 8048 0
-7998 8049 0
-7999 8050 0
-8000 8051 0
-8001 8052 0
-8002 8053 0
-1086 -7952 8004 0
-1086 -7953 8005 0
-1086 -7954 8006 0
-1086 -7955 8007 0
-1086 -7956 8008 0
-1086 -7957 8009 0
-1086 -7958 8010 0
-1086 -7959 8011 0
-1086 -7960 8012 0
-1086 -7961 8013 0
-1086 -7962 8014 0
-1086 -7963 8015 0
-1086 -7964 8016 0
-1086 -7965 8017 0
-1086 -7966 8018 0
-1086 -7967 8019 0
-1086 -7968 8020 0
-1086 -7969 8021 0
-1086 -7970 8022 0
-1086 -7971 8023 0
-1086 -7972 8024 0
-1086 -7973 8025 0
-1086 -7974 8026 0
-1086 -7975 8027 0
-1086 -7976 8028 0
-1086 -7977 8029 0
-1086 -7978 8030 0
-1086 -7979 8031 0
-1086 -7980 8032 0
-1086 -7981 8033 0
-1086 -7982 8034 0
-1086 -7983 8035 0
-1086 -7984 8036 0
-1086 -7985 8037 0
-1086 -7986 8038 0
-1086 -7987 8039 0
-1086 -7988 8040 0
-1086 -7989 8041 0
-1086 -7990 8042 0
-1086 -7991 8043 0
-1086 -7992 8044 0
-1086 -7993 8045 0
-1086 -7994 8046 0
-1086 -7995 8047 0
-1086 -7996 8048 0
-1086 -7997 8049 0
-1086 -7998 8050 0
-1086 -7999 8051 0
-1086 -8000 8052 0
-1086 -8001 8053 0
-1086 -8002 0
-8003 8054 0
-8004 8055 0
-8005 8056 0
-8006 8057 0
-8007 8058 0
-8008 8059 0
-8009 8060 0
-8010 8061 0
-8011 8062 0
-8012 8063 0
-8013 8064 0
-8014 8065 0
-8015 8066 0
-8016 8067 0
-8017 8068 0
-8018 8069 0
-8019 8070 0
-8020 8071 0
-8021 8072 0
-8022 8073 0
-8023 8074 0
-8024 8075 0
-8025 8076 0
-8026 8077 0
-8027 8078 0
-8028 8079 0
-8029 8080 0
-8030 8081 0
-8031 8082 0
-8032 8083 0
-8033 8084 0
-8034 8085 0
-8035 8086 0
-8036 8087 0
-8037 8088 0
-8038 8089 0
-8039 8090 0
-8040 8091 0
-8041 8092 0
-8042 8093 0
-8043 8094 0
-8044 8095 0
-8045 8096 0
-8046 8097 0
-8047 8098 0
-8048 8099 0
-8049 8100 0
-8050 8101 0
-8051 8102 0
-8052 8103 0
-8053 8104 0
-1088 -8003 8055 0
-1088 -8004 8056 0
-1088 -8005 8057 0
-1088 -8006 8058 0
-1088 -8007 8059 0
-1088 -8008 8060 0
-1088 -8009 8061 0
-1088 -8010 8062 0
-1088 -8011 8063 0
-1088 -8012 8064 0
-1088 -8013 8065 0
-1088 -8014 8066 0
-1088 -8015 8067 0
-1088 -8016 8068 0
-1088 -8017 8069 0
-1088 -8018 8070 0
-1088 -8019 8071 0
-1088 -8020 8072 0
-1088 -8021 8073 0
-1088 -8022 8074 0
-1088 -8023 8075 0
-1088 -8024 8076 0
-1088 -8025 8077 0
-1088 -8026 8078 0
-1088 -8027 8079 0
-1088 -8028 8080 0
-1088 -8029 8081 0
-1088 -8030 8082 0
-1088 -8031 8083 0
-1088 -8032 8084 0
-1088 -8033 8085 0
-1088 -8034 8086 0
-1088 -8035 8087 0
-1088 -8036 8088 0
-1088 -8037 8089 0
-1088 -8038 8090 0
-1088 -8039 8091 0
-1088 -8040 8092 0
-1088 -8041 8093 0
-1088 -8042 8094 0
-1088 -8043 8095 0
-1088 -8044 8096 0
-1088 -8045 8097 0
-1088 -8046 8098 0
-1088 -8047 8099 0
-1088 -8048 8100 0
-1088 -8049 8101 0
-1088 -8050 8102 0
-1088 -8051 8103 0
-1088 -8052 8104 0
-1088 -8053 0
-8054 8105 0
-8055 8106 0
-8056 8107 0
-8057 8108 0
-8058 8109 0
-8059 8110 0
-8060 8111 0
-8061 8112 0
-8062 8113 0
-8063 8114 0
-8064 8115 0
-8065 8116 0
-8066 8117 0
-8067 8118 0
-8068 8119 0
-8069 8120 0
-8070 8121 0
-8071 8122 0
-8072 8123 0
-8073 8124 0
-8074 8125 0
-8075 8126 0
-8076 8127 0
-8077 8128 0
-8078 8129 0
-8079 8130 0
-8080 8131 0
-8081 8132 0
-8082 8133 0
-8083 8134 0
-8084 8135 0
-8085 8136 0
-8086 8137 0
-8087 8138 0
-8088 8139 0
-8089 8140 0
-8090 8141 0
-8091 8142 0
-8092 8143 0
-8093 8144 0
-8094 8145 0
-8095 8146 0
-8096 8147 0
-8097 8148 0
-8098 8149 0
-8099 8150 0
-8100 8151 0
-8101 8152 0
-8102 8153 0
-8103 8154 0
-8104 8155 0
-1090 -8054 8106 0
-1090 -8055 8107 0
-1090 -8056 8108 0
-1090 -8057 8109 0
-1090 -8058 8110 0
-1090 -8059 8111 0
-1090 -8060 8112 0
-1090 -8061 8113 0
-1090 -8062 8114 0
-1090 -8063 8115 0
-1090 -8064 8116 0
-1090 -8065 8117 0
-1090 -8066 8118 0
-1090 -8067 8119 0
-1090 -8068 8120 0
-1090 -8069 8121 0
-1090 -8070 8122 0
-1090 -8071 8123 0
-1090 -8072 8124 0
-1090 -8073 8125 0
-1090 -8074 8126 0
-1090 -8075 8127 0
-1090 -8076 8128 0
-1090 -8077 8129 0
-1090 -8078 8130 0
-1090 -8079 8131 0
-1090 -8080 8132 0
-1090 -8081 8133 0
-1090 -8082 8134 0
-1090 -8083 8135 0
-1090 -8084 8136 0
-1090 -8085 8137 0
-1090 -8086 8138 0
-1090 -8087 8139 0
-1090 -8088 8140 0
-1090 -8089 8141 0
-1090 -8090 8142 0
-1090 -8091 8143 0
-1090 -8092 8144 0
-1090 -8093 8145 0
-1090 -8094 8146 0
-1090 -8095 8147 0
-1090 -8096 8148 0
-1090 -8097 8149 0
-1090 -8098 8150 0
-1090 -8099 8151 0
-1090 -8100 8152 0
-1090 -8101 8153 0
-1090 -8102 8154 0
-1090 -8103 8155 0
-1090 -8104 0
-8105 8156 0
-8106 8157 0
-8107 8158 0
-8108 8159 0
-8109 8160 0
-8110 8161 0
-8111 8162 0
-8112 8163 0
-8113 8164 0
-8114 8165 0
-8115 8166 0
-8116 8167 0
-8117 8168 0
-8118 8169 0
-8119 8170 0
-8120 8171 0
-8121 8172 0
-8122 8173 0
-8123 8174 0
-8124 8175 0
-8125 8176 0
-8126 8177 0
-8127 8178 0
-8128 8179 0
-8129 8180 0
-8130 8181 0
-8131 8182 0
-8132 8183 0
-8133 8184 0
-8134 8185 0
-8135 8186 0
-8136 8187 0
-8137 8188 0
-8138 8189 0
-8139 8190 0
-8140 8191 0
-8141 8192 0
-8142 8193 0
-8143 8194 0
-8144 8195 0
-8145 8196 0
-8146 8197 0
-8147 8198 0
-8148 8199 0
-8149 8200 0
-8150 8201 0
-8151 8202 0
-8152 8203 0
-8153 8204 0
-8154 8205 0
-8155 8206 0
-1092 -8105 8157 0
-1092 -8106 8158 0
-1092 -8107 8159 0
-1092 -8108 8160 0
-1092 -8109 8161 0
-1092 -8110 8162 0
-1092 -8111 8163 0
-1092 -8112 8164 0
-1092 -8113 8165 0
-1092 -8114 8166 0
-1092 -8115 8167 0
-1092 -8116 8168 0
-1092 -8117 8169 0
-1092 -8118 8170 0
-1092 -8119 8171 0
-1092 -8120 8172 0
-1092 -8121 8173 0
-1092 -8122 8174 0
-1092 -8123 8175 0
-1092 -8124 8176 0
-1092 -8125 8177 0
-1092 -8126 8178 0
-1092 -8127 8179 0
-1092 -8128 8180 0
-1092 -8129 8181 0
-1092 -8130 8182 0
-1092 -8131 8183 0
-1092 -8132 8184 0
-1092 -8133 8185 0
-1092 -8134 8186 0
-1092 -8135 8187 0
-1092 -8136 8188 0
-1092 -8137 8189 0
-1092 -8138 8190 0
-1092 -8139 8191 0
-1092 -8140 8192 0
-1092 -8141 8193 0
-1092 -8142 8194 0
-1092 -8143 8195 0
-1092 -8144 8196 0
-1092 -8145 8197 0
-1092 -8146 8198 0
-1092 -8147 8199 0
-1092 -8148 8200 0
-1092 -8149 8201 0
-1092 -8150 8202 0
-1092 -8151 8203 0
-1092 -8152 8204 0
-1092 -8153 8205 0
-1092 -8154 8206 0
-1092 -8155 0
-8156 8207 0
-8157 8208 0
-8158 8209 0
-8159 8210 0
-8160 8211 0
-8161 8212 0
-8162 8213 0
-8163 8214 0
-8164 8215 0
-8165 8216 0
-8166 8217 0
-8167 8218 0
-8168 8219 0
-8169 8220 0
-8170 8221 0
-8171 8222 0
-8172 8223 0
-8173 8224 0
-8174 8225 0
-8175 8226 0
-8176 8227 0
-8177 8228 0
-8178 8229 0
-8179 8230 0
-8180 8231 0
-8181 8232 0
-8182 8233 0
-8183 8234 0
-8184 8235 0
-8185 8236 0
-8186 8237 0
-8187 8238 0
-8188 8239 0
-8189 8240 0
-8190 8241 0
-8191 8242 0
-8192 8243 0
-8193 8244 0
-8194 8245 0
-8195 8246 0
-8196 8247 0
-8197 8248 0
-8198 8249 0
-8199 8250 0
-8200 8251 0
-8201 8252 0
-8202 8253 0
-8203 8254 0
-8204 8255 0
-8205 8256 0
-8206 8257 0
-1094 -8156 8208 0
-1094 -8157 8209 0
-1094 -8158 8210 0
-1094 -8159 8211 0
-1094 -8160 8212 0
-1094 -8161 8213 0
-1094 -8162 8214 0
-1094 -8163 8215 0
-1094 -8164 8216 0
-1094 -8165 8217 0
-1094 -8166 8218 0
-1094 -8167 8219 0
-1094 -8168 8220 0
-1094 -8169 8221 0
-1094 -8170 8222 0
-1094 -8171 8223 0
-1094 -8172 8224 0
-1094 -8173 8225 0
-1094 -8174 8226 0
-1094 -8175 8227 0
-1094 -8176 8228 0
-1094 -8177 8229 0
-1094 -8178 8230 0
-1094 -8179 8231 0
-1094 -8180 8232 0
-1094 -8181 8233 0
-1094 -8182 8234 0
-1094 -8183 8235 0
-1094 -8184 8236 0
-1094 -8185 8237 0
-1094 -8186 8238 0
-1094 -8187 8239 0
-1094 -8188 8240 0
-1094 -8189 8241 0
-1094 -8190 8242 0
-1094 -8191 8243 0
-1094 -8192 8244 0
-1094 -8193 8245 0
-1094 -8194 8246 0
-1094 -8195 8247 0
-1094 -8196 8248 0
-1094 -8197 8249 0
-1094 -8198 8250 0
-1094 -8199 8251 0
-1094 -8200 8252 0
-1094 -8201 8253 0
-1094 -8202 8254 0
-1094 -8203 8255 0
-1094 -8204 8256 0
-1094 -8205 8257 0
-1094 -8206 0
-8207 8258 0
-8208 8259 0
-8209 8260 0
-8210 8261 0
-8211 8262 0
-8212 8263 0
-8213 8264 0
-8214 8265 0
-8215 8266 0
-8216 8267 0
-8217 8268 0
-8218 8269 0
-8219 8270 0
-8220 8271 0
-8221 8272 0
-8222 8273 0
-8223 8274 0
-8224 8275 0
-8225 8276 0
-8226 8277 0
-8227 8278 0
-8228 8279 0
-8229 8280 0
-8230 8281 0
-8231 8282 0
-8232 8283 0
-8233 8284 0
-8234 8285 0
-8235 8286 0
-8236 8287 0
-8237 8288 0
-8238 8289 0
-8239 8290 0
-8240 8291 0
-8241 8292 0
-8242 8293 0
-8243 8294 0
-8244 8295 0
-8245 8296 0
-8246 8297 0
-8247 8298 0
-8248 8299 0
-8249 8300 0
-8250 8301 0
-8251 8302 0
-8252 8303 0
-8253 8304 0
-8254 8305 0
-8255 8306 0
-8256 8307 0
-8257 8308 0
-1096 -8207 8259 0
-1096 -8208 8260 0
-1096 -8209 8261 0
-1096 -8210 8262 0
-1096 -8211 8263 0
-1096 -8212 8264 0
-1096 -8213 8265 0
-1096 -8214 8266 0
-1096 -8215 8267 0
-1096 -8216 8268 0
-1096 -8217 8269 0
-1096 -8218 8270 0
-1096 -8219 8271 0
-1096 -8220 8272 0
-1096 -8221 8273 0
-1096 -8222 8274 0
-1096 -8223 8275 0
-1096 -8224 8276 0
-1096 -8225 8277 0
-1096 -8226 8278 0
-1096 -8227 8279 0
-1096 -8228 8280 0
-1096 -8229 8281 0
-1096 -8230 8282 0
-1096 -8231 8283 0
-1096 -8232 8284 0
-1096 -8233 8285 0
-1096 -8234 8286 0
-1096 -8235 8287 0
-1096 -8236 8288 0
-1096 -8237 8289 0
-1096 -8238 8290 0
-1096 -8239 8291 0
-1096 -8240 8292 0
-1096 -8241 8293 0
-1096 -8242 8294 0
-1096 -8243 8295 0
-1096 -8244 8296 0
-1096 -8245 8297 0
-1096 -8246 8298 0
-1096 -8247 8299 0
-1096 -8248 8300 0
-1096 -8249 8301 0
-1096 -8250 8302 0
-1096 -8251 8303 0
-1096 -8252 8304 0
-1096 -8253 8305 0
-1096 -8254 8306 0
-1096 -8255 8307 0
-1096 -8256 8308 0
-1096 -8257 0
-8258 8309 0
-8259 8310 0
-8260 8311 0
-8261 8312 0
-8262 8313 0
-8263 8314 0
-8264 8315 0
-8265 8316 0
-8266 8317 0
-8267 8318 0
-8268 8319 0
-8269 8320 0
-8270 8321 0
-8271 8322 0
-8272 8323 0
-8273 8324 0
-8274 8325 0
-8275 8326 0
-8276 8327 0
-8277 8328 0
-8278 8329 0
-8279 8330 0
-8280 8331 0
-8281 8332 0
-8282 8333 0
-8283 8334 0
-8284 8335 0
-8285 8336 0
-8286 8337 0
-8287 8338 0
-8288 8339 0
-8289 8340 0
-8290 8341 0
-8291 8342 0
-8292 8343 0
-8293 8344 0
-8294 8345 0
-8295 8346 0
-8296 8347 0
-8297 8348 0
-8298 8349 0
-8299 8350 0
-8300 8351 0
-8301 8352 0
-8302 8353 0
-8303 8354 0
-8304 8355 0
-8305 8356 0
-8306 8357 0
-8307 8358 0
-8308 8359 0
-1098 -8258 8310 0
-1098 -8259 8311 0
-1098 -8260 8312 0
-1098 -8261 8313 0
-1098 -8262 8314 0
-1098 -8263 8315 0
-1098 -8264 8316 0
-1098 -8265 8317 0
-1098 -8266 8318 0
-1098 -8267 8319 0
-1098 -8268 8320 0
-1098 -8269 8321 0
-1098 -8270 8322 0
-1098 -8271 8323 0
-1098 -8272 8324 0
-1098 -8273 8325 0
-1098 -8274 8326 0
-1098 -8275 8327 0
-1098 -8276 8328 0
-1098 -8277 8329 0
-1098 -8278 8330 0
-1098 -8279 8331 0
-1098 -8280 8332 0
-1098 -8281 8333 0
-1098 -8282 8334 0
-1098 -8283 8335 0
-1098 -8284 8336 0
-1098 -8285 8337 0
-1098 -8286 8338 0
-1098 -8287 8339 0
-1098 -8288 8340 0
-1098 -8289 8341 0
-1098 -8290 8342 0
-1098 -8291 8343 0
-1098 -8292 8344 0
-1098 -8293 8345 0
-1098 -8294 8346 0
-1098 -8295 8347 0
-1098 -8296 8348 0
-1098 -8297 8349 0
-1098 -8298 8350 0
-1098 -8299 8351 0
-1098 -8300 8352 0
-1098 -8301 8353 0
-1098 -8302 8354 0
-1098 -8303 8355 0
-1098 -8304 8356 0
-1098 -8305 8357 0
-1098 -8306 8358 0
-1098 -8307 8359 0
-1098 -8308 0
-8309 8360 0
-8310 8361 0
-8311 8362 0
-8312 8363 0
-8313 8364 0
-8314 8365 0
-8315 8366 0
-8316 8367 0
-8317 8368 0
-8318 8369 0
-8319 8370 0
-8320 8371 0
-8321 8372 0
-8322 8373 0
-8323 8374 0
-8324 8375 0
-8325 8376 0
-8326 8377 0
-8327 8378 0
-8328 8379 0
-8329 8380 0
-8330 8381 0
-8331 8382 0
-8332 8383 0
-8333 8384 0
-8334 8385 0
-8335 8386 0
-8336 8387 0
-8337 8388 0
-8338 8389 0
-8339 8390 0
-8340 8391 0
-8341 8392 0
-8342 8393 0
-8343 8394 0
-8344 8395 0
-8345 8396 0
-8346 8397 0
-8347 8398 0
-8348 8399 0
-8349 8400 0
-8350 8401 0
-8351 8402 0
-8352 8403 0
-8353 8404 0
-8354 8405 0
-8355 8406 0
-8356 8407 0
-8357 8408 0
-8358 8409 0
-8359 8410 0
-1100 -8309 8361 0
-1100 -8310 8362 0
-1100 -8311 8363 0
-1100 -8312 8364 0
-1100 -8313 8365 0
-1100 -8314 8366 0
-1100 -8315 8367 0
-1100 -8316 8368 0
-1100 -8317 8369 0
-1100 -8318 8370 0
-1100 -8319 8371 0
-1100 -8320 8372 0
-1100 -8321 8373 0
-1100 -8322 8374 0
-1100 -8323 8375 0
-1100 -8324 8376 0
-1100 -8325 8377 0
-1100 -8326 8378 0
-1100 -8327 8379 0
-1100 -8328 8380 0
-1100 -8329 8381 0
-1100 -8330 8382 0
-1100 -8331 8383 0
-1100 -8332 8384 0
-1100 -8333 8385 0
-1100 -8334 8386 0
-1100 -8335 8387 0
-1100 -8336 8388 0
-1100 -8337 8389 0
-1100 -8338 8390 0
-1100 -8339 8391 0
-1100 -8340 8392 0
-1100 -8341 8393 0
-1100 -8342 8394 0
-1100 -8343 8395 0
-1100 -8344 8396 0
-1100 -8345 8397 0
-1100 -8346 8398 0
-1100 -8347 8399 0
-1100 -8348 8400 0
-1100 -8349 8401 0
-1100 -8350 8402 0
-1100 -8351 8403 0
-1100 -8352 8404 0
-1100 -8353 8405 0
-1100 -8354 8406 0
-1100 -8355 8407 0
-1100 -8356 8408 0
-1100 -8357 8409 0
-1100 -8358 8410 0
-1100 -8359 0
-8360 8411 0
-8361 8412 0
-8362 8413 0
-8363 8414 0
-8364 8415 0
-8365 8416 0
-8366 8417 0
-8367 8418 0
-8368 8419 0
-8369 8420 0
-8370 8421 0
-8371 8422 0
-8372 8423 0
-8373 8424 0
-8374 8425 0
-8375 8426 0
-8376 8427 0
-8377 8428 0
-8378 8429 0
-8379 8430 0
-8380 8431 0
-8381 8432 0
-8382 8433 0
-8383 8434 0
-8384 8435 0
-8385 8436 0
-8386 8437 0
-8387 8438 0
-8388 8439 0
-8389 8440 0
-8390 8441 0
-8391 8442 0
-8392 8443 0
-8393 8444 0
-8394 8445 0
-8395 8446 0
-8396 8447 0
-8397 8448 0
-8398 8449 0
-8399 8450 0
-8400 8451 0
-8401 8452 0
-8402 8453 0
-8403 8454 0
-8404 8455 0
-8405 8456 0
-8406 8457 0
-8407 8458 0
-8408 8459 0
-8409 8460 0
-8410 8461 0
-1102 -8360 8412 0
-1102 -8361 8413 0
-1102 -8362 8414 0
-1102 -8363 8415 0
-1102 -8364 8416 0
-1102 -8365 8417 0
-1102 -8366 8418 0
-1102 -8367 8419 0
-1102 -8368 8420 0
-1102 -8369 8421 0
-1102 -8370 8422 0
-1102 -8371 8423 0
-1102 -8372 8424 0
-1102 -8373 8425 0
-1102 -8374 8426 0
-1102 -8375 8427 0
-1102 -8376 8428 0
-1102 -8377 8429 0
-1102 -8378 8430 0
-1102 -8379 8431 0
-1102 -8380 8432 0
-1102 -8381 8433 0
-1102 -8382 8434 0
-1102 -8383 8435 0
-1102 -8384 8436 0
-1102 -8385 8437 0
-1102 -8386 8438 0
-1102 -8387 8439 0
-1102 -8388 8440 0
-1102 -8389 8441 0
-1102 -8390 8442 0
-1102 -8391 8443 0
-1102 -8392 8444 0
-1102 -8393 8445 0
-1102 -8394 8446 0
-1102 -8395 8447 0
-1102 -8396 8448 0
-1102 -8397 8449 0
-1102 -8398 8450 0
-1102 -8399 8451 0
-1102 -8400 8452 0
-1102 -8401 8453 0
-1102 -8402 8454 0
-1102 -8403 8455 0
-1102 -8404 8456 0
-1102 -8405 8457 0
-1102 -8406 8458 0
-1102 -8407 8459 0
-1102 -8408 8460 0
-1102 -8409 8461 0
-1102 -8410 0
-8411 8462 0
-8412 8463 0
-8413 8464 0
-8414 8465 0
-8415 8466 0
-8416 8467 0
-8417 8468 0
-8418 8469 0
-8419 8470 0
-8420 8471 0
-8421 8472 0
-8422 8473 0
-8423 8474 0
-8424 8475 0
-8425 8476 0
-8426 8477 0
-8427 8478 0
-8428 8479 0
-8429 8480 0
-8430 8481 0
-8431 8482 0
-8432 8483 0
-8433 8484 0
-8434 8485 0
-8435 8486 0
-8436 8487 0
-8437 8488 0
-8438 8489 0
-8439 8490 0
-8440 8491 0
-8441 8492 0
-8442 8493 0
-8443 8494 0
-8444 8495 0
-8445 8496 0
-8446 8497 0
-8447 8498 0
-8448 8499 0
-8449 8500 0
-8450 8501 0
-8451 8502 0
-8452 8503 0
-8453 8504 0
-8454 8505 0
-8455 8506 0
-8456 8507 0
-8457 8508 0
-8458 8509 0
-8459 8510 0
-8460 8511 0
-8461 8512 0
-1104 -8411 8463 0
-1104 -8412 8464 0
-1104 -8413 8465 0
-1104 -8414 8466 0
-1104 -8415 8467 0
-1104 -8416 8468 0
-1104 -8417 8469 0
-1104 -8418 8470 0
-1104 -8419 8471 0
-1104 -8420 8472 0
-1104 -8421 8473 0
-1104 -8422 8474 0
-1104 -8423 8475 0
-1104 -8424 8476 0
-1104 -8425 8477 0
-1104 -8426 8478 0
-1104 -8427 8479 0
-1104 -8428 8480 0
-1104 -8429 8481 0
-1104 -8430 8482 0
-1104 -8431 8483 0
-1104 -8432 8484 0
-1104 -8433 8485 0
-1104 -8434 8486 0
-1104 -8435 8487 0
-1104 -8436 8488 0
-1104 -8437 8489 0
-1104 -8438 8490 0
-1104 -8439 8491 0
-1104 -8440 8492 0
-1104 -8441 8493 0
-1104 -8442 8494 0
-1104 -8443 8495 0
-1104 -8444 8496 0
-1104 -8445 8497 0
-1104 -8446 8498 0
-1104 -8447 8499 0
-1104 -8448 8500 0
-1104 -8449 8501 0
-1104 -8450 8502 0
-1104 -8451 8503 0
-1104 -8452 8504 0
-1104 -8453 8505 0
-1104 -8454 8506 0
-1104 -8455 8507 0
-1104 -8456 8508 0
-1104 -8457 8509 0
-1104 -8458 8510 0
-1104 -8459 8511 0
-1104 -8460 8512 0
-1104 -8461 0
-8462 8513 0
-8463 8514 0
-8464 8515 0
-8465 8516 0
-8466 8517 0
-8467 8518 0
-8468 8519 0
-8469 8520 0
-8470 8521 0
-8471 8522 0
-8472 8523 0
-8473 8524 0
-8474 8525 0
-8475 8526 0
-8476 8527 0
-8477 8528 0
-8478 8529 0
-8479 8530 0
-8480 8531 0
-8481 8532 0
-8482 8533 0
-8483 8534 0
-8484 8535 0
-8485 8536 0
-8486 8537 0
-8487 8538 0
-8488 8539 0
-8489 8540 0
-8490 8541 0
-8491 8542 0
-8492 8543 0
-8493 8544 0
-8494 8545 0
-8495 8546 0
-8496 8547 0
-8497 8548 0
-8498 8549 0
-8499 8550 0
-8500 8551 0
-8501 8552 0
-8502 8553 0
-8503 8554 0
-8504 8555 0
-8505 8556 0
-8506 8557 0
-8507 8558 0
-8508 8559 0
-8509 8560 0
-8510 8561 0
-8511 8562 0
-8512 8563 0
-1106 -8462 8514 0
-1106 -8463 8515 0
-1106 -8464 8516 0
-1106 -8465 8517 0
-1106 -8466 8518 0
-1106 -8467 8519 0
-1106 -8468 8520 0
-1106 -8469 8521 0
-1106 -8470 8522 0
-1106 -8471 8523 0
-1106 -8472 8524 0
-1106 -8473 8525 0
-1106 -8474 8526 0
-1106 -8475 8527 0
-1106 -8476 8528 0
-1106 -8477 8529 0
-1106 -8478 8530 0
-1106 -8479 8531 0
-1106 -8480 8532 0
-1106 -8481 8533 0
-1106 -8482 8534 0
-1106 -8483 8535 0
-1106 -8484 8536 0
-1106 -8485 8537 0
-1106 -8486 8538 0
-1106 -8487 8539 0
-1106 -8488 8540 0
-1106 -8489 8541 0
-1106 -8490 8542 0
-1106 -8491 8543 0
-1106 -8492 8544 0
-1106 -8493 8545 0
-1106 -8494 8546 0
-1106 -8495 8547 0
-1106 -8496 8548 0
-1106 -8497 8549 0
-1106 -8498 8550 0
-1106 -8499 8551 0
-1106 -8500 8552 0
-1106 -8501 8553 0
-1106 -8502 8554 0
-1106 -8503 8555 0
-1106 -8504 8556 0
-1106 -8505 8557 0
-1106 -8506 8558 0
-1106 -8507 8559 0
-1106 -8508 8560 0
-1106 -8509 8561 0
-1106 -8510 8562 0
-1106 -8511 8563 0
-1106 -8512 0
-8513 8564 0
-8514 8565 0
-8515 8566 0
-8516 8567 0
-8517 8568 0
-8518 8569 0
-8519 8570 0
-8520 8571 0
-8521 8572 0
-8522 8573 0
-8523 8574 0
-8524 8575 0
-8525 8576 0
-8526 8577 0
-8527 8578 0
-8528 8579 0
-8529 8580 0
-8530 8581 0
-8531 8582 0
-8532 8583 0
-8533 8584 0
-8534 8585 0
-8535 8586 0
-8536 8587 0
-8537 8588 0
-8538 8589 0
-8539 8590 0
-8540 8591 0
-8541 8592 0
-8542 8593 0
-8543 8594 0
-8544 8595 0
-8545 8596 0
-8546 8597 0
-8547 8598 0
-8548 8599 0
-8549 8600 0
-8550 8601 0
-8551 8602 0
-8552 8603 0
-8553 8604 0
-8554 8605 0
-8555 8606 0
-8556 8607 0
-8557 8608 0
-8558 8609 0
-8559 8610 0
-8560 8611 0
-8561 8612 0
-8562 8613 0
-8563 8614 0
-1108 -8513 8565 0
-1108 -8514 8566 0
-1108 -8515 8567 0
-1108 -8516 8568 0
-1108 -8517 8569 0
-1108 -8518 8570 0
-1108 -8519 8571 0
-1108 -8520 8572 0
-1108 -8521 8573 0
-1108 -8522 8574 0
-1108 -8523 8575 0
-1108 -8524 8576 0
-1108 -8525 8577 0
-1108 -8526 8578 0
-1108 -8527 8579 0
-1108 -8528 8580 0
-1108 -8529 8581 0
-1108 -8530 8582 0
-1108 -8531 8583 0
-1108 -8532 8584 0
-1108 -8533 8585 0
-1108 -8534 8586 0
-1108 -8535 8587 0
-1108 -8536 8588 0
-1108 -8537 8589 0
-1108 -8538 8590 0
-1108 -8539 8591 0
-1108 -8540 8592 0
-1108 -8541 8593 0
-1108 -8542 8594 0
-1108 -8543 8595 0
-1108 -8544 8596 0
-1108 -8545 8597 0
-1108 -8546 8598 0
-1108 -8547 8599 0
-1108 -8548 8600 0
-1108 -8549 8601 0
-1108 -8550 8602 0
-1108 -8551 8603 0
-1108 -8552 8604 0
-1108 -8553 8605 0
-1108 -8554 8606 0
-1108 -8555 8607 0
-1108 -8556 8608 0
-1108 -8557 8609 0
-1108 -8558 8610 0
-1108 -8559 8611 0
-1108 -8560 8612 0
-1108 -8561 8613 0
-1108 -8562 8614 0
-1108 -8563 0
-8564 8615 0
-8565 8616 0
-8566 8617 0
-8567 8618 0
-8568 8619 0
-8569 8620 0
-8570 8621 0
-8571 8622 0
-8572 8623 0
-8573 8624 0
-8574 8625 0
-8575 8626 0
-8576 8627 0
-8577 8628 0
-8578 8629 0
-8579 8630 0
-8580 8631 0
-8581 8632 0
-8582 8633 0
-8583 8634 0
-8584 8635 0
-8585 8636 0
-8586 8637 0
-8587 8638 0
-8588 8639 0
-8589 8640 0
-8590 8641 0
-8591 8642 0
-8592 8643 0
-8593 8644 0
-8594 8645 0
-8595 8646 0
-8596 8647 0
-8597 8648 0
-8598 8649 0
-8599 8650 0
-8600 8651 0
-8601 8652 0
-8602 8653 0
-8603 8654 0
-8604 8655 0
-8605 8656 0
-8606 8657 0
-8607 8658 0
-8608 8659 0
-8609 8660 0
-8610 8661 0
-8611 8662 0
-8612 8663 0
-8613 8664 0
-8614 8665 0
-1110 -8564 8616 0
-1110 -8565 8617 0
-1110 -8566 8618 0
-1110 -8567 8619 0
-1110 -8568 8620 0
-1110 -8569 8621 0
-1110 -8570 8622 0
-1110 -8571 8623 0
-1110 -8572 8624 0
-1110 -8573 8625 0
-1110 -8574 8626 0
-1110 -8575 8627 0
-1110 -8576 8628 0
-1110 -8577 8629 0
-1110 -8578 8630 0
-1110 -8579 8631 0
-1110 -8580 8632 0
-1110 -8581 8633 0
-1110 -8582 8634 0
-1110 -8583 8635 0
-1110 -8584 8636 0
-1110 -8585 8637 0
-1110 -8586 8638 0
-1110 -8587 8639 0
-1110 -8588 8640 0
-1110 -8589 8641 0
-1110 -8590 8642 0
-1110 -8591 8643 0
-1110 -8592 8644 0
-1110 -8593 8645 0
-1110 -8594 8646 0
-1110 -8595 8647 0
-1110 -8596 8648 0
-1110 -8597 8649 0
-1110 -8598 8650 0
-1110 -8599 8651 0
-1110 -8600 8652 0
-1110 -8601 8653 0
-1110 -8602 8654 0
-1110 -8603 8655 0
-1110 -8604 8656 0
-1110 -8605 8657 0
-1110 -8606 8658 0
-1110 -8607 8659 0
-1110 -8608 8660 0
-1110 -8609 8661 0
-1110 -8610 8662 0
-1110 -8611 8663 0
-1110 -8612 8664 0
-1110 -8613 8665 0
-1110 -8614 0
-8615 8666 0
-8616 8667 0
-8617 8668 0
-8618 8669 0
-8619 8670 0
-8620 8671 0
-8621 8672 0
-8622 8673 0
-8623 8674 0
-8624 8675 0
-8625 8676 0
-8626 8677 0
-8627 8678 0
-8628 8679 0
-8629 8680 0
-8630 8681 0
-8631 8682 0
-8632 8683 0
-8633 8684 0
-8634 8685 0
-8635 8686 0
-8636 8687 0
-8637 8688 0
-8638 8689 0
-8639 8690 0
-8640 8691 0
-8641 8692 0
-8642 8693 0
-8643 8694 0
-8644 8695 0
-8645 8696 0
-8646 8697 0
-8647 8698 0
-8648 8699 0
-8649 8700 0
-8650 8701 0
-8651 8702 0
-8652 8703 0
-8653 8704 0
-8654 8705 0
-8655 8706 0
-8656 8707 0
-8657 8708 0
-8658 8709 0
-8659 8710 0
-8660 8711 0
-8661 8712 0
-8662 8713 0
-8663 8714 0
-8664 8715 0
-8665 8716 0
-1112 -8615 8667 0
-1112 -8616 8668 0
-1112 -8617 8669 0
-1112 -8618 8670 0
-1112 -8619 8671 0
-1112 -8620 8672 0
-1112 -8621 8673 0
-1112 -8622 8674 0
-1112 -8623 8675 0
-1112 -8624 8676 0
-1112 -8625 8677 0
-1112 -8626 8678 0
-1112 -8627 8679 0
-1112 -8628 8680 0
-1112 -8629 8681 0
-1112 -8630 8682 0
-1112 -8631 8683 0
-1112 -8632 8684 0
-1112 -8633 8685 0
-1112 -8634 8686 0
-1112 -8635 8687 0
-1112 -8636 8688 0
-1112 -8637 8689 0
-1112 -8638 8690 0
-1112 -8639 8691 0
-1112 -8640 8692 0
-1112 -8641 8693 0
-1112 -8642 8694 0
-1112 -8643 8695 0
-1112 -8644 8696 0
-1112 -8645 8697 0
-1112 -8646 8698 0
-1112 -8647 8699 0
-1112 -8648 8700 0
-1112 -8649 8701 0
-1112 -8650 8702 0
-1112 -8651 8703 0
-1112 -8652 8704 0
-1112 -8653 8705 0
-1112 -8654 8706 0
-1112 -8655 8707 0
-1112 -8656 8708 0
-1112 -8657 8709 0
-1112 -8658 8710 0
-1112 -8659 8711 0
-1112 -8660 8712 0
-1112 -8661 8713 0
-1112 -8662 8714 0
-1112 -8663 8715 0
-1112 -8664 8716 0
-1112 -8665 0
-8666 8717 0
-8667 8718 0
-8668 8719 0
-8669 8720 0
-8670 8721 0
-8671 8722 0
-8672 8723 0
-8673 8724 0
-8674 8725 0
-8675 8726 0
-8676 8727 0
-8677 8728 0
-8678 8729 0
-8679 8730 0
-8680 8731 0
-8681 8732 0
-8682 8733 0
-8683 8734 0
-8684 8735 0
-8685 8736 0
-8686 8737 0
-8687 8738 0
-8688 8739 0
-8689 8740 0
-8690 8741 0
-8691 8742 0
-8692 8743 0
-8693 8744 0
-8694 8745 0
-8695 8746 0
-8696 8747 0
-8697 8748 0
-8698 8749 0
-8699 8750 0
-8700 8751 0
-8701 8752 0
-8702 8753 0
-8703 8754 0
-8704 8755 0
-8705 8756 0
-8706 8757 0
-8707 8758 0
-8708 8759 0
-8709 8760 0
-8710 8761 0
-8711 8762 0
-8712 8763 0
-8713 8764 0
-8714 8765 0
-8715 8766 0
-8716 8767 0
-1114 -8666 8718 0
-1114 -8667 8719 0
-1114 -8668 8720 0
-1114 -8669 8721 0
-1114 -8670 8722 0
-1114 -8671 8723 0
-1114 -8672 8724 0
-1114 -8673 8725 0
-1114 -8674 8726 0
-1114 -8675 8727 0
-1114 -8676 8728 0
-1114 -8677 8729 0
-1114 -8678 8730 0
-1114 -8679 8731 0
-1114 -8680 8732 0
-1114 -8681 8733 0
-1114 -8682 8734 0
-1114 -8683 8735 0
-1114 -8684 8736 0
-1114 -8685 8737 0
-1114 -8686 8738 0
-1114 -8687 8739 0
-1114 -8688 8740 0
-1114 -8689 8741 0
-1114 -8690 8742 0
-1114 -8691 8743 0
-1114 -8692 8744 0
-1114 -8693 8745 0
-1114 -8694 8746 0
-1114 -8695 8747 0
-1114 -8696 8748 0
-1114 -8697 8749 0
-1114 -8698 8750 0
-1114 -8699 8751 0
-1114 -8700 8752 0
-1114 -8701 8753 0
-1114 -8702 8754 0
-1114 -8703 8755 0
-1114 -8704 8756 0
-1114 -8705 8757 0
-1114 -8706 8758 0
-1114 -8707 8759 0
-1114 -8708 8760 0
-1114 -8709 8761 0
-1114 -8710 8762 0
-1114 -8711 8763 0
-1114 -8712 8764 0
-1114 -8713 8765 0
-1114 -8714 8766 0
-1114 -8715 8767 0
-1114 -8716 0
-8717 8768 0
-8718 8769 0
-8719 8770 0
-8720 8771 0
-8721 8772 0
-8722 8773 0
-8723 8774 0
-8724 8775 0
-8725 8776 0
-8726 8777 0
-8727 8778 0
-8728 8779 0
-8729 8780 0
-8730 8781 0
-8731 8782 0
-8732 8783 0
-8733 8784 0
-8734 8785 0
-8735 8786 0
-8736 8787 0
-8737 8788 0
-8738 8789 0
-8739 8790 0
-8740 8791 0
-8741 8792 0
-8742 8793 0
-8743 8794 0
-8744 8795 0
-8745 8796 0
-8746 8797 0
-8747 8798 0
-8748 8799 0
-8749 8800 0
-8750 8801 0
-8751 8802 0
-8752 8803 0
-8753 8804 0
-8754 8805 0
-8755 8806 0
-8756 8807 0
-8757 8808 0
-8758 8809 0
-8759 8810 0
-8760 8811 0
-8761 8812 0
-8762 8813 0
-8763 8814 0
-8764 8815 0
-8765 8816 0
-8766 8817 0
-8767 8818 0
-1116 -8717 8769 0
-1116 -8718 8770 0
-1116 -8719 8771 0
-1116 -8720 8772 0
-1116 -8721 8773 0
-1116 -8722 8774 0
-1116 -8723 8775 0
-1116 -8724 8776 0
-1116 -8725 8777 0
-1116 -8726 8778 0
-1116 -8727 8779 0
-1116 -8728 8780 0
-1116 -8729 8781 0
-1116 -8730 8782 0
-1116 -8731 8783 0
-1116 -8732 8784 0
-1116 -8733 8785 0
-1116 -8734 8786 0
-1116 -8735 8787 0
-1116 -8736 8788 0
-1116 -8737 8789 0
-1116 -8738 8790 0
-1116 -8739 8791 0
-1116 -8740 8792 0
-1116 -8741 8793 0
-1116 -8742 8794 0
-1116 -8743 8795 0
-1116 -8744 8796 0
-1116 -8745 8797 0
-1116 -8746 8798 0
-1116 -8747 8799 0
-1116 -8748 8800 0
-1116 -8749 8801 0
-1116 -8750 8802 0
-1116 -8751 8803 0
-1116 -8752 8804 0
-1116 -8753 8805 0
-1116 -8754 8806 0
-1116 -8755 8807 0
-1116 -8756 8808 0
-1116 -8757 8809 0
-1116 -8758 8810 0
-1116 -8759 8811 0
-1116 -8760 8812 0
-1116 -8761 8813 0
-1116 -8762 8814 0
-1116 -8763 8815 0
-1116 -8764 8816 0
-1116 -8765 8817 0
-1116 -8766 8818 0
-1116 -8767 0
-8768 8819 0
-8769 8820 0
-8770 8821 0
-8771 8822 0
-8772 8823 0
-8773 8824 0
-8774 8825 0
-8775 8826 0
-8776 8827 0
-8777 8828 0
-8778 8829 0
-8779 8830 0
-8780 8831 0
-8781 8832 0
-8782 8833 0
-8783 8834 0
-8784 8835 0
-8785 8836 0
-8786 8837 0
-8787 8838 0
-8788 8839 0
-8789 8840 0
-8790 8841 0
-8791 8842 0
-8792 8843 0
-8793 8844 0
-8794 8845 0
-8795 8846 0
-8796 8847 0
-8797 8848 0
-8798 8849 0
-8799 8850 0
-8800 8851 0
-8801 8852 0
-8802 8853 0
-8803 8854 0
-8804 8855 0
-8805 8856 0
-8806 8857 0
-8807 8858 0
-8808 8859 0
-8809 8860 0
-8810 8861 0
-8811 8862 0
-8812 8863 0
-8813 8864 0
-8814 8865 0
-8815 8866 0
-8816 8867 0
-8817 8868 0
-8818 8869 0
-1118 -8768 8820 0
-1118 -8769 8821 0
-1118 -8770 8822 0
-1118 -8771 8823 0
-1118 -8772 8824 0
-1118 -8773 8825 0
-1118 -8774 8826 0
-1118 -8775 8827 0
-1118 -8776 8828 0
-1118 -8777 8829 0
-1118 -8778 8830 0
-1118 -8779 8831 0
-1118 -8780 8832 0
-1118 -8781 8833 0
-1118 -8782 8834 0
-1118 -8783 8835 0
-1118 -8784 8836 0
-1118 -8785 8837 0
-1118 -8786 8838 0
-1118 -8787 8839 0
-1118 -8788 8840 0
-1118 -8789 8841 0
-1118 -8790 8842 0
-1118 -8791 8843 0
-1118 -8792 8844 0
-1118 -8793 8845 0
-1118 -8794 8846 0
-1118 -8795 8847 0
-1118 -8796 8848 0
-1118 -8797 8849 0
-1118 -8798 8850 0
-1118 -8799 8851 0
-1118 -8800 8852 0
-1118 -8801 8853 0
-1118 -8802 8854 0
-1118 -8803 8855 0
-1118 -8804 8856 0
-1118 -8805 8857 0
-1118 -8806 8858 0
-1118 -8807 8859 0
-1118 -8808 8860 0
-1118 -8809 8861 0
-1118 -8810 8862 0
-1118 -8811 8863 0
-1118 -8812 8864 0
-1118 -8813 8865 0
-1118 -8814 8866 0
-1118 -8815 8867 0
-1118 -8816 8868 0
-1118 -8817 8869 0
-1118 -8818 0
-8819 8870 0
-8820 8871 0
-8821 8872 0
-8822 8873 0
-8823 8874 0
-8824 8875 0
-8825 8876 0
-8826 8877 0
-8827 8878 0
-8828 8879 0
-8829 8880 0
-8830 8881 0
-8831 8882 0
-8832 8883 0
-8833 8884 0
-8834 8885 0
-8835 8886 0
-8836 8887 0
-8837 8888 0
-8838 8889 0
-8839 8890 0
-8840 8891 0
-8841 8892 0
-8842 8893 0
-8843 8894 0
-8844 8895 0
-8845 8896 0
-8846 8897 0
-8847 8898 0
-8848 8899 0
-8849 8900 0
-8850 8901 0
-8851 8902 0
-8852 8903 0
-8853 8904 0
-8854 8905 0
-8855 8906 0
-8856 8907 0
-8857 8908 0
-8858 8909 0
-8859 8910 0
-8860 8911 0
-8861 8912 0
-8862 8913 0
-8863 8914 0
-8864 8915 0
-8865 8916 0
-8866 8917 0
-8867 8918 0
-8868 8919 0
-8869 8920 0
-1120 -8819 8871 0
-1120 -8820 8872 0
-1120 -8821 8873 0
-1120 -8822 8874 0
-1120 -8823 8875 0
-1120 -8824 8876 0
-1120 -8825 8877 0
-1120 -8826 8878 0
-1120 -8827 8879 0
-1120 -8828 8880 0
-1120 -8829 8881 0
-1120 -8830 8882 0
-1120 -8831 8883 0
-1120 -8832 8884 0
-1120 -8833 8885 0
-1120 -8834 8886 0
-1120 -8835 8887 0
-1120 -8836 8888 0
-1120 -8837 8889 0
-1120 -8838 8890 0
-1120 -8839 8891 0
-1120 -8840 8892 0
-1120 -8841 8893 0
-1120 -8842 8894 0
-1120 -8843 8895 0
-1120 -8844 8896 0
-1120 -8845 8897 0
-1120 -8846 8898 0
-1120 -8847 8899 0
-1120 -8848 8900 0
-1120 -8849 8901 0
-1120 -8850 8902 0
-1120 -8851 8903 0
-1120 -8852 8904 0
-1120 -8853 8905 0
-1120 -8854 8906 0
-1120 -8855 8907 0
-1120 -8856 8908 0
-1120 -8857 8909 0
-1120 -8858 8910 0
-1120 -8859 8911 0
-1120 -8860 8912 0
-1120 -8861 8913 0
-1120 -8862 8914 0
-1120 -8863 8915 0
-1120 -8864 8916 0
-1120 -8865 8917 0
-1120 -8866 8918 0
-1120 -8867 8919 0
-1120 -8868 8920 0
-1120 -8869 0
-8870 8921 0
-8871 8922 0
-8872 8923 0
-8873 8924 0
-8874 8925 0
-8875 8926 0
-8876 8927 0
-8877 8928 0
-8878 8929 0
-8879 8930 0
-8880 8931 0
-8881 8932 0
-8882 8933 0
-8883 8934 0
-8884 8935 0
-8885 8936 0
-8886 8937 0
-8887 8938 0
-8888 8939 0
-8889 8940 0
-8890 8941 0
-8891 8942 0
-8892 8943 0
-8893 8944 0
-8894 8945 0
-8895 8946 0
-8896 8947 0
-8897 8948 0
-8898 8949 0
-8899 8950 0
-8900 8951 0
-8901 8952 0
-8902 8953 0
-8903 8954 0
-8904 8955 0
-8905 8956 0
-8906 8957 0
-8907 8958 0
-8908 8959 0
-8909 8960 0
-8910 8961 0
-8911 8962 0
-8912 8963 0
-8913 8964 0
-8914 8965 0
-8915 8966 0
-8916 8967 0
-8917 8968 0
-8918 8969 0
-8919 8970 0
-8920 8971 0
-1122 -8870 8922 0
-1122 -8871 8923 0
-1122 -8872 8924 0
-1122 -8873 8925 0
-1122 -8874 8926 0
-1122 -8875 8927 0
-1122 -8876 8928 0
-1122 -8877 8929 0
-1122 -8878 8930 0
-1122 -8879 8931 0
-1122 -8880 8932 0
-1122 -8881 8933 0
-1122 -8882 8934 0
-1122 -8883 8935 0
-1122 -8884 8936 0
-1122 -8885 8937 0
-1122 -8886 8938 0
-1122 -8887 8939 0
-1122 -8888 8940 0
-1122 -8889 8941 0
-1122 -8890 8942 0
-1122 -8891 8943 0
-1122 -8892 8944 0
-1122 -8893 8945 0
-1122 -8894 8946 0
-1122 -8895 8947 0
-1122 -8896 8948 0
-1122 -8897 8949 0
-1122 -8898 8950 0
-1122 -8899 8951 0
-1122 -8900 8952 0
-1122 -8901 8953 0
-1122 -8902 8954 0
-1122 -8903 8955 0
-1122 -8904 8956 0
-1122 -8905 8957 0
-1122 -8906 8958 0
-1122 -8907 8959 0
-1122 -8908 8960 0
-1122 -8909 8961 0
-1122 -8910 8962 0
-1122 -8911 8963 0
-1122 -8912 8964 0
-1122 -8913 8965 0
-1122 -8914 8966 0
-1122 -8915 8967 0
-1122 -8916 8968 0
-1122 -8917 8969 0
-1122 -8918 8970 0
-1122 -8919 8971 0
-1122 -8920 0
-8921 8972 0
-8922 8973 0
-8923 8974 0
-8924 8975 0
-8925 8976 0
-8926 8977 0
-8927 8978 0
-8928 8979 0
-8929 8980 0
-8930 8981 0
-8931 8982 0
-8932 8983 0
-8933 8984 0
-8934 8985 0
-8935 8986 0
-8936 8987 0
-8937 8988 0
-8938 8989 0
-8939 8990 0
-8940 8991 0
-8941 8992 0
-8942 8993 0
-8943 8994 0
-8944 8995 0
-8945 8996 0
-8946 8997 0
-8947 8998 0
-8948 8999 0
-8949 9000 0
-8950 9001 0
-8951 9002 0
-8952 9003 0
-8953 9004 0
-8954 9005 0
-8955 9006 0
-8956 9007 0
-8957 9008 0
-8958 9009 0
-8959 9010 0
-8960 9011 0
-8961 9012 0
-8962 9013 0
-8963 9014 0
-8964 9015 0
-8965 9016 0
-8966 9017 0
-8967 9018 0
-8968 9019 0
-8969 9020 0
-8970 9021 0
-8971 9022 0
-1124 -8921 8973 0
-1124 -8922 8974 0
-1124 -8923 8975 0
-1124 -8924 8976 0
-1124 -8925 8977 0
-1124 -8926 8978 0
-1124 -8927 8979 0
-1124 -8928 8980 0
-1124 -8929 8981 0
-1124 -8930 8982 0
-1124 -8931 8983 0
-1124 -8932 8984 0
-1124 -8933 8985 0
-1124 -8934 8986 0
-1124 -8935 8987 0
-1124 -8936 8988 0
-1124 -8937 8989 0
-1124 -8938 8990 0
-1124 -8939 8991 0
-1124 -8940 8992 0
-1124 -8941 8993 0
-1124 -8942 8994 0
-1124 -8943 8995 0
-1124 -8944 8996 0
-1124 -8945 8997 0
-1124 -8946 8998 0
-1124 -8947 8999 0
-1124 -8948 9000 0
-1124 -8949 9001 0
-1124 -8950 9002 0
-1124 -8951 9003 0
-1124 -8952 9004 0
-1124 -8953 9005 0
-1124 -8954 9006 0
-1124 -8955 9007 0
-1124 -8956 9008 0
-1124 -8957 9009 0
-1124 -8958 9010 0
-1124 -8959 9011 0
-1124 -8960 9012 0
-1124 -8961 9013 0
-1124 -8962 9014 0
-1124 -8963 9015 0
-1124 -8964 9016 0
-1124 -8965 9017 0
-1124 -8966 9018 0
-1124 -8967 9019 0
-1124 -8968 9020 0
-1124 -8969 9021 0
-1124 -8970 9022 0
-1124 -8971 0
-8972 9023 0
-8973 9024 0
-8974 9025 0
-8975 9026 0
-8976 9027 0
-8977 9028 0
-8978 9029 0
-8979 9030 0
-8980 9031 0
-8981 9032 0
-8982 9033 0
-8983 9034 0
-8984 9035 0
-8985 9036 0
-8986 9037 0
-8987 9038 0
-8988 9039 0
-8989 9040 0
-8990 9041 0
-8991 9042 0
-8992 9043 0
-8993 9044 0
-8994 9045 0
-8995 9046 0
-8996 9047 0
-8997 9048 0
-8998 9049 0
-8999 9050 0
-9000 9051 0
-9001 9052 0
-9002 9053 0
-9003 9054 0
-9004 9055 0
-9005 9056 0
-9006 9057 0
-9007 9058 0
-9008 9059 0
-9009 9060 0
-9010 9061 0
-9011 9062 0
-9012 9063 0
-9013 9064 0
-9014 9065 0
-9015 9066 0
-9016 9067 0
-9017 9068 0
-9018 9069 0
-9019 9070 0
-9020 9071 0
-9021 9072 0
-9022 9073 0
-1126 -8972 9024 0
-1126 -8973 9025 0
-1126 -8974 9026 0
-1126 -8975 9027 0
-1126 -8976 9028 0
-1126 -8977 9029 0
-1126 -8978 9030 0
-1126 -8979 9031 0
-1126 -8980 9032 0
-1126 -8981 9033 0
-1126 -8982 9034 0
-1126 -8983 9035 0
-1126 -8984 9036 0
-1126 -8985 9037 0
-1126 -8986 9038 0
-1126 -8987 9039 0
-1126 -8988 9040 0
-1126 -8989 9041 0
-1126 -8990 9042 0
-1126 -8991 9043 0
-1126 -8992 9044 0
-1126 -8993 9045 0
-1126 -8994 9046 0
-1126 -8995 9047 0
-1126 -8996 9048 0
-1126 -8997 9049 0
-1126 -8998 9050 0
-1126 -8999 9051 0
-1126 -9000 9052 0
-1126 -9001 9053 0
-1126 -9002 9054 0
-1126 -9003 9055 0
-1126 -9004 9056 0
-1126 -9005 9057 0
-1126 -9006 9058 0
-1126 -9007 9059 0
-1126 -9008 9060 0
-1126 -9009 9061 0
-1126 -9010 9062 0
-1126 -9011 9063 0
-1126 -9012 9064 0
-1126 -9013 9065 0
-1126 -9014 9066 0
-1126 -9015 9067 0
-1126 -9016 9068 0
-1126 -9017 9069 0
-1126 -9018 9070 0
-1126 -9019 9071 0
-1126 -9020 9072 0
-1126 -9021 9073 0
-1126 -9022 0
-9023 9074 0
-9024 9075 0
-9025 9076 0
-9026 9077 0
-9027 9078 0
-9028 9079 0
-9029 9080 0
-9030 9081 0
-9031 9082 0
-9032 9083 0
-9033 9084 0
-9034 9085 0
-9035 9086 0
-9036 9087 0
-9037 9088 0
-9038 9089 0
-9039 9090 0
-9040 9091 0
-9041 9092 0
-9042 9093 0
-9043 9094 0
-9044 9095 0
-9045 9096 0
-9046 9097 0
-9047 9098 0
-9048 9099 0
-9049 9100 0
-9050 9101 0
-9051 9102 0
-9052 9103 0
-9053 9104 0
-9054 9105 0
-9055 9106 0
-9056 9107 0
-9057 9108 0
-9058 9109 0
-9059 9110 0
-9060 9111 0
-9061 9112 0
-9062 9113 0
-9063 9114 0
-9064 9115 0
-9065 9116 0
-9066 9117 0
-9067 9118 0
-9068 9119 0
-9069 9120 0
-9070 9121 0
-9071 9122 0
-9072 9123 0
-9073 9124 0
-1128 -9023 9075 0
-1128 -9024 9076 0
-1128 -9025 9077 0
-1128 -9026 9078 0
-1128 -9027 9079 0
-1128 -9028 9080 0
-1128 -9029 9081 0
-1128 -9030 9082 0
-1128 -9031 9083 0
-1128 -9032 9084 0
-1128 -9033 9085 0
-1128 -9034 9086 0
-1128 -9035 9087 0
-1128 -9036 9088 0
-1128 -9037 9089 0
-1128 -9038 9090 0
-1128 -9039 9091 0
-1128 -9040 9092 0
-1128 -9041 9093 0
-1128 -9042 9094 0
-1128 -9043 9095 0
-1128 -9044 9096 0
-1128 -9045 9097 0
-1128 -9046 9098 0
-1128 -9047 9099 0
-1128 -9048 9100 0
-1128 -9049 9101 0
-1128 -9050 9102 0
-1128 -9051 9103 0
-1128 -9052 9104 0
-1128 -9053 9105 0
-1128 -9054 9106 0
-1128 -9055 9107 0
-1128 -9056 9108 0
-1128 -9057 9109 0
-1128 -9058 9110 0
-1128 -9059 9111 0
-1128 -9060 9112 0
-1128 -9061 9113 0
-1128 -9062 9114 0
-1128 -9063 9115 0
-1128 -9064 9116 0
-1128 -9065 9117 0
-1128 -9066 9118 0
-1128 -9067 9119 0
-1128 -9068 9120 0
-1128 -9069 9121 0
-1128 -9070 9122 0
-1128 -9071 9123 0
-1128 -9072 9124 0
-1128 -9073 0
-9074 9125 0
-9075 9126 0
-9076 9127 0
-9077 9128 0
-9078 9129 0
-9079 9130 0
-9080 9131 0
-9081 9132 0
-9082 9133 0
-9083 9134 0
-9084 9135 0
-9085 9136 0
-9086 9137 0
-9087 9138 0
-9088 9139 0
-9089 9140 0
-9090 9141 0
-9091 9142 0
-9092 9143 0
-9093 9144 0
-9094 9145 0
-9095 9146 0
-9096 9147 0
-9097 9148 0
-9098 9149 0
-9099 9150 0
-9100 9151 0
-9101 9152 0
-9102 9153 0
-9103 9154 0
-9104 9155 0
-9105 9156 0
-9106 9157 0
-9107 9158 0
-9108 9159 0
-9109 9160 0
-9110 9161 0
-9111 9162 0
-9112 9163 0
-9113 9164 0
-9114 9165 0
-9115 9166 0
-9116 9167 0
-9117 9168 0
-9118 9169 0
-9119 9170 0
-9120 9171 0
-9121 9172 0
-9122 9173 0
-9123 9174 0
-9124 9175 0
-1130 -9074 9126 0
-1130 -9075 9127 0
-1130 -9076 9128 0
-1130 -9077 9129 0
-1130 -9078 9130 0
-1130 -9079 9131 0
-1130 -9080 9132 0
-1130 -9081 9133 0
-1130 -9082 9134 0
-1130 -9083 9135 0
-1130 -9084 9136 0
-1130 -9085 9137 0
-1130 -9086 9138 0
-1130 -9087 9139 0
-1130 -9088 9140 0
-1130 -9089 9141 0
-1130 -9090 9142 0
-1130 -9091 9143 0
-1130 -9092 9144 0
-1130 -9093 9145 0
-1130 -9094 9146 0
-1130 -9095 9147 0
-1130 -9096 9148 0
-1130 -9097 9149 0
-1130 -9098 9150 0
-1130 -9099 9151 0
-1130 -9100 9152 0
-1130 -9101 9153 0
-1130 -9102 9154 0
-1130 -9103 9155 0
-1130 -9104 9156 0
-1130 -9105 9157 0
-1130 -9106 9158 0
-1130 -9107 9159 0
-1130 -9108 9160 0
-1130 -9109 9161 0
-1130 -9110 9162 0
-1130 -9111 9163 0
-1130 -9112 9164 0
-1130 -9113 9165 0
-1130 -9114 9166 0
-1130 -9115 9167 0
-1130 -9116 9168 0
-1130 -9117 9169 0
-1130 -9118 9170 0
-1130 -9119 9171 0
-1130 -9120 9172 0
-1130 -9121 9173 0
-1130 -9122 9174 0
-1130 -9123 9175 0
-1130 -9124 0
-9125 9176 0
-9126 9177 0
-9127 9178 0
-9128 9179 0
-9129 9180 0
-9130 9181 0
-9131 9182 0
-9132 9183 0
-9133 9184 0
-9134 9185 0
-9135 9186 0
-9136 9187 0
-9137 9188 0
-9138 9189 0
-9139 9190 0
-9140 9191 0
-9141 9192 0
-9142 9193 0
-9143 9194 0
-9144 9195 0
-9145 9196 0
-9146 9197 0
-9147 9198 0
-9148 9199 0
-9149 9200 0
-9150 9201 0
-9151 9202 0
-9152 9203 0
-9153 9204 0
-9154 9205 0
-9155 9206 0
-9156 9207 0
-9157 9208 0
-9158 9209 0
-9159 9210 0
-9160 9211 0
-9161 9212 0
-9162 9213 0
-9163 9214 0
-9164 9215 0
-9165 9216 0
-9166 9217 0
-9167 9218 0
-9168 9219 0
-9169 9220 0
-9170 9221 0
-9171 9222 0
-9172 9223 0
-9173 9224 0
-9174 9225 0
-9175 9226 0
-1132 -9125 9177 0
-1132 -9126 9178 0
-1132 -9127 9179 0
-1132 -9128 9180 0
-1132 -9129 9181 0
-1132 -9130 9182 0
-1132 -9131 9183 0
-1132 -9132 9184 0
-1132 -9133 9185 0
-1132 -9134 9186 0
-1132 -9135 9187 0
-1132 -9136 9188 0
-1132 -9137 9189 0
-1132 -9138 9190 0
-1132 -9139 9191 0
-1132 -9140 9192 0
-1132 -9141 9193 0
-1132 -9142 9194 0
-1132 -9143 9195 0
-1132 -9144 9196 0
-1132 -9145 9197 0
-1132 -9146 9198 0
-1132 -9147 9199 0
-1132 -9148 9200 0
-1132 -9149 9201 0
-1132 -9150 9202 0
-1132 -9151 9203 0
-1132 -9152 9204 0
-1132 -9153 9205 0
-1132 -9154 9206 0
-1132 -9155 9207 0
-1132 -9156 9208 0
-1132 -9157 9209 0
-1132 -9158 9210 0
-1132 -9159 9211 0
-1132 -9160 9212 0
-1132 -9161 9213 0
-1132 -9162 9214 0
-1132 -9163 9215 0
-1132 -9164 9216 0
-1132 -9165 9217 0
-1132 -9166 9218 0
-1132 -9167 9219 0
-1132 -9168 9220 0
-1132 -9169 9221 0
-1132 -9170 9222 0
-1132 -9171 9223 0
-1132 -9172 9224 0
-1132 -9173 9225 0
-1132 -9174 9226 0
-1132 -9175 0
-9176 9227 0
-9177 9228 0
-9178 9229 0
-9179 9230 0
-9180 9231 0
-9181 9232 0
-9182 9233 0
-9183 9234 0
-9184 9235 0
-9185 9236 0
-9186 9237 0
-9187 9238 0
-9188 9239 0
-9189 9240 0
-9190 9241 0
-9191 9242 0
-9192 9243 0
-9193 9244 0
-9194 9245 0
-9195 9246 0
-9196 9247 0
-9197 9248 0
-9198 9249 0
-9199 9250 0
-9200 9251 0
-9201 9252 0
-9202 9253 0
-9203 9254 0
-9204 9255 0
-9205 9256 0
-9206 9257 0
-9207 9258 0
-9208 9259 0
-9209 9260 0
-9210 9261 0
-9211 9262 0
-9212 9263 0
-9213 9264 0
-9214 9265 0
-9215 9266 0
-9216 9267 0
-9217 9268 0
-9218 9269 0
-9219 9270 0
-9220 9271 0
-9221 9272 0
-9222 9273 0
-9223 9274 0
-9224 9275 0
-9225 9276 0
-9226 9277 0
-1134 -9176 9228 0
-1134 -9177 9229 0
-1134 -9178 9230 0
-1134 -9179 9231 0
-1134 -9180 9232 0
-1134 -9181 9233 0
-1134 -9182 9234 0
-1134 -9183 9235 0
-1134 -9184 9236 0
-1134 -9185 9237 0
-1134 -9186 9238 0
-1134 -9187 9239 0
-1134 -9188 9240 0
-1134 -9189 9241 0
-1134 -9190 9242 0
-1134 -9191 9243 0
-1134 -9192 9244 0
-1134 -9193 9245 0
-1134 -9194 9246 0
-1134 -9195 9247 0
-1134 -9196 9248 0
-1134 -9197 9249 0
-1134 -9198 9250 0
-1134 -9199 9251 0
-1134 -9200 9252 0
-1134 -9201 9253 0
-1134 -9202 9254 0
-1134 -9203 9255 0
-1134 -9204 9256 0
-1134 -9205 9257 0
-1134 -9206 9258 0
-1134 -9207 9259 0
-1134 -9208 9260 0
-1134 -9209 9261 0
-1134 -9210 9262 0
-1134 -9211 9263 0
-1134 -9212 9264 0
-1134 -9213 9265 0
-1134 -9214 9266 0
-1134 -9215 9267 0
-1134 -9216 9268 0
-1134 -9217 9269 0
-1134 -9218 9270 0
-1134 -9219 9271 0
-1134 -9220 9272 0
-1134 -9221 9273 0
-1134 -9222 9274 0
-1134 -9223 9275 0
-1134 -9224 9276 0
-1134 -9225 9277 0
-1134 -9226 0
-9227 9278 0
-9228 9279 0
-9229 9280 0
-9230 9281 0
-9231 9282 0
-9232 9283 0
-9233 9284 0
-9234 9285 0
-9235 9286 0
-9236 9287 0
-9237 9288 0
-9238 9289 0
-9239 9290 0
-9240 9291 0
-9241 9292 0
-9242 9293 0
-9243 9294 0
-9244 9295 0
-9245 9296 0
-9246 9297 0
-9247 9298 0
-9248 9299 0
-9249 9300 0
-9250 9301 0
-9251 9302 0
-9252 9303 0
-9253 9304 0
-9254 9305 0
-9255 9306 0
-9256 9307 0
-9257 9308 0
-9258 9309 0
-9259 9310 0
-9260 9311 0
-9261 9312 0
-9262 9313 0
-9263 9314 0
-9264 9315 0
-9265 9316 0
-9266 9317 0
-9267 9318 0
-9268 9319 0
-9269 9320 0
-9270 9321 0
-9271 9322 0
-9272 9323 0
-9273 9324 0
-9274 9325 0
-9275 9326 0
-9276 9327 0
-9277 9328 0
-1136 -9227 9279 0
-1136 -9228 9280 0
-1136 -9229 9281 0
-1136 -9230 9282 0
-1136 -9231 9283 0
-1136 -9232 9284 0
-1136 -9233 9285 0
-1136 -9234 9286 0
-1136 -9235 9287 0
-1136 -9236 9288 0
-1136 -9237 9289 0
-1136 -9238 9290 0
-1136 -9239 9291 0
-1136 -9240 9292 0
-1136 -9241 9293 0
-1136 -9242 9294 0
-1136 -9243 9295 0
-1136 -9244 9296 0
-1136 -9245 9297 0
-1136 -9246 9298 0
-1136 -9247 9299 0
-1136 -9248 9300 0
-1136 -9249 9301 0
-1136 -9250 9302 0
-1136 -9251 9303 0
-1136 -9252 9304 0
-1136 -9253 9305 0
-1136 -9254 9306 0
-1136 -9255 9307 0
-1136 -9256 9308 0
-1136 -9257 9309 0
-1136 -9258 9310 0
-1136 -9259 9311 0
-1136 -9260 9312 0
-1136 -9261 9313 0
-1136 -9262 9314 0
-1136 -9263 9315 0
-1136 -9264 9316 0
-1136 -9265 9317 0
-1136 -9266 9318 0
-1136 -9267 9319 0
-1136 -9268 9320 0
-1136 -9269 9321 0
-1136 -9270 9322 0
-1136 -9271 9323 0
-1136 -9272 9324 0
-1136 -9273 9325 0
-1136 -9274 9326 0
-1136 -9275 9327 0
-1136 -9276 9328 0
-1136 -9277 0
-9278 9329 0
-9279 9330 0
-9280 9331 0
-9281 9332 0
-9282 9333 0
-9283 9334 0
-9284 9335 0
-9285 9336 0
-9286 9337 0
-9287 9338 0
-9288 9339 0
-9289 9340 0
-9290 9341 0
-9291 9342 0
-9292 9343 0
-9293 9344 0
-9294 9345 0
-9295 9346 0
-9296 9347 0
-9297 9348 0
-9298 9349 0
-9299 9350 0
-9300 9351 0
-9301 9352 0
-9302 9353 0
-9303 9354 0
-9304 9355 0
-9305 9356 0
-9306 9357 0
-9307 9358 0
-9308 9359 0
-9309 9360 0
-9310 9361 0
-9311 9362 0
-9312 9363 0
-9313 9364 0
-9314 9365 0
-9315 9366 0
-9316 9367 0
-9317 9368 0
-9318 9369 0
-9319 9370 0
-9320 9371 0
-9321 9372 0
-9322 9373 0
-9323 9374 0
-9324 9375 0
-9325 9376 0
-9326 9377 0
-9327 9378 0
-9328 9379 0
-1138 -9278 9330 0
-1138 -9279 9331 0
-1138 -9280 9332 0
-1138 -9281 9333 0
-1138 -9282 9334 0
-1138 -9283 9335 0
-1138 -9284 9336 0
-1138 -9285 9337 0
-1138 -9286 9338 0
-1138 -9287 9339 0
-1138 -9288 9340 0
-1138 -9289 9341 0
-1138 -9290 9342 0
-1138 -9291 9343 0
-1138 -9292 9344 0
-1138 -9293 9345 0
-1138 -9294 9346 0
-1138 -9295 9347 0
-1138 -9296 9348 0
-1138 -9297 9349 0
-1138 -9298 9350 0
-1138 -9299 9351 0
-1138 -9300 9352 0
-1138 -9301 9353 0
-1138 -9302 9354 0
-1138 -9303 9355 0
-1138 -9304 9356 0
-1138 -9305 9357 0
-1138 -9306 9358 0
-1138 -9307 9359 0
-1138 -9308 9360 0
-1138 -9309 9361 0
-1138 -9310 9362 0
-1138 -9311 9363 0
-1138 -9312 9364 0
-1138 -9313 9365 0
-1138 -9314 9366 0
-1138 -9315 9367 0
-1138 -9316 9368 0
-1138 -9317 9369 0
-1138 -9318 9370 0
-1138 -9319 9371 0
-1138 -9320 9372 0
-1138 -9321 9373 0
-1138 -9322 9374 0
-1138 -9323 9375 0
-1138 -9324 9376 0
-1138 -9325 9377 0
-1138 -9326 9378 0
-1138 -9327 9379 0
-1138 -9328 0
-9329 9380 0
-9330 9381 0
-9331 9382 0
-9332 9383 0
-9333 9384 0
-9334 9385 0
-9335 9386 0
-9336 9387 0
-9337 9388 0
-9338 9389 0
-9339 9390 0
-9340 9391 0
-9341 9392 0
-9342 9393 0
-9343 9394 0
-9344 9395 0
-9345 9396 0
-9346 9397 0
-9347 9398 0
-9348 9399 0
-9349 9400 0
-9350 9401 0
-9351 9402 0
-9352 9403 0
-9353 9404 0
-9354 9405 0
-9355 9406 0
-9356 9407 0
-9357 9408 0
-9358 9409 0
-9359 9410 0
-9360 9411 0
-9361 9412 0
-9362 9413 0
-9363 9414 0
-9364 9415 0
-9365 9416 0
-9366 9417 0
-9367 9418 0
-9368 9419 0
-9369 9420 0
-9370 9421 0
-9371 9422 0
-9372 9423 0
-9373 9424 0
-9374 9425 0
-9375 9426 0
-9376 9427 0
-9377 9428 0
-9378 9429 0
-9379 9430 0
-1140 -9329 9381 0
-1140 -9330 9382 0
-1140 -9331 9383 0
-1140 -9332 9384 0
-1140 -9333 9385 0
-1140 -9334 9386 0
-1140 -9335 9387 0
-1140 -9336 9388 0
-1140 -9337 9389 0
-1140 -9338 9390 0
-1140 -9339 9391 0
-1140 -9340 9392 0
-1140 -9341 9393 0
-1140 -9342 9394 0
-1140 -9343 9395 0
-1140 -9344 9396 0
-1140 -9345 9397 0
-1140 -9346 9398 0
-1140 -9347 9399 0
-1140 -9348 9400 0
-1140 -9349 9401 0
-1140 -9350 9402 0
-1140 -9351 9403 0
-1140 -9352 9404 0
-1140 -9353 9405 0
-1140 -9354 9406 0
-1140 -9355 9407 0
-1140 -9356 9408 0
-1140 -9357 9409 0
-1140 -9358 9410 0
-1140 -9359 9411 0
-1140 -9360 9412 0
-1140 -9361 9413 0
-1140 -9362 9414 0
-1140 -9363 9415 0
-1140 -9364 9416 0
-1140 -9365 9417 0
-1140 -9366 9418 0
-1140 -9367 9419 0
-1140 -9368 9420 0
-1140 -9369 9421 0
-1140 -9370 9422 0
-1140 -9371 9423 0
-1140 -9372 9424 0
-1140 -9373 9425 0
-1140 -9374 9426 0
-1140 -9375 9427 0
-1140 -9376 9428 0
-1140 -9377 9429 0
-1140 -9378 9430 0
-1140 -9379 0
-9380 9431 0
-9381 9432 0
-9382 9433 0
-9383 9434 0
-9384 9435 0
-9385 9436 0
-9386 9437 0
-9387 9438 0
-9388 9439 0
-9389 9440 0
-9390 9441 0
-9391 9442 0
-9392 9443 0
-9393 9444 0
-9394 9445 0
-9395 9446 0
-9396 9447 0
-9397 9448 0
-9398 9449 0
-9399 9450 0
-9400 9451 0
-9401 9452 0
-9402 9453 0
-9403 9454 0
-9404 9455 0
-9405 9456 0
-9406 9457 0
-9407 9458 0
-9408 9459 0
-9409 9460 0
-9410 9461 0
-9411 9462 0
-9412 9463 0
-9413 9464 0
-9414 9465 0
-9415 9466 0
-9416 9467 0
-9417 9468 0
-9418 9469 0
-9419 9470 0
-9420 9471 0
-9421 9472 0
-9422 9473 0
-9423 9474 0
-9424 9475 0
-9425 9476 0
-9426 9477 0
-9427 9478 0
-9428 9479 0
-9429 9480 0
-9430 9481 0
-1142 -9380 9432 0
-1142 -9381 9433 0
-1142 -9382 9434 0
-1142 -9383 9435 0
-1142 -9384 9436 0
-1142 -9385 9437 0
-1142 -9386 9438 0
-1142 -9387 9439 0
-1142 -9388 9440 0
-1142 -9389 9441 0
-1142 -9390 9442 0
-1142 -9391 9443 0
-1142 -9392 9444 0
-1142 -9393 9445 0
-1142 -9394 9446 0
-1142 -9395 9447 0
-1142 -9396 9448 0
-1142 -9397 9449 0
-1142 -9398 9450 0
-1142 -9399 9451 0
-1142 -9400 9452 0
-1142 -9401 9453 0
-1142 -9402 9454 0
-1142 -9403 9455 0
-1142 -9404 9456 0
-1142 -9405 9457 0
-1142 -9406 9458 0
-1142 -9407 9459 0
-1142 -9408 9460 0
-1142 -9409 9461 0
-1142 -9410 9462 0
-1142 -9411 9463 0
-1142 -9412 9464 0
-1142 -9413 9465 0
-1142 -9414 9466 0
-1142 -9415 9467 0
-1142 -9416 9468 0
-1142 -9417 9469 0
-1142 -9418 9470 0
-1142 -9419 9471 0
-1142 -9420 9472 0
-1142 -9421 9473 0
-1142 -9422 9474 0
-1142 -9423 9475 0
-1142 -9424 9476 0
-1142 -9425 9477 0
-1142 -9426 9478 0
-1142 -9427 9479 0
-1142 -9428 9480 0
-1142 -9429 9481 0
-1142 -9430 0
-9431 9482 0
-9432 9483 0
-9433 9484 0
-9434 9485 0
-9435 9486 0
-9436 9487 0
-9437 9488 0
-9438 9489 0
-9439 9490 0
-9440 9491 0
-9441 9492 0
-9442 9493 0
-9443 9494 0
-9444 9495 0
-9445 9496 0
-9446 9497 0
-9447 9498 0
-9448 9499 0
-9449 9500 0
-9450 9501 0
-9451 9502 0
-9452 9503 0
-9453 9504 0
-9454 9505 0
-9455 9506 0
-9456 9507 0
-9457 9508 0
-9458 9509 0
-9459 9510 0
-9460 9511 0
-9461 9512 0
-9462 9513 0
-9463 9514 0
-9464 9515 0
-9465 9516 0
-9466 9517 0
-9467 9518 0
-9468 9519 0
-9469 9520 0
-9470 9521 0
-9471 9522 0
-9472 9523 0
-9473 9524 0
-9474 9525 0
-9475 9526 0
-9476 9527 0
-9477 9528 0
-9478 9529 0
-9479 9530 0
-9480 9531 0
-9481 9532 0
-1144 -9431 9483 0
-1144 -9432 9484 0
-1144 -9433 9485 0
-1144 -9434 9486 0
-1144 -9435 9487 0
-1144 -9436 9488 0
-1144 -9437 9489 0
-1144 -9438 9490 0
-1144 -9439 9491 0
-1144 -9440 9492 0
-1144 -9441 9493 0
-1144 -9442 9494 0
-1144 -9443 9495 0
-1144 -9444 9496 0
-1144 -9445 9497 0
-1144 -9446 9498 0
-1144 -9447 9499 0
-1144 -9448 9500 0
-1144 -9449 9501 0
-1144 -9450 9502 0
-1144 -9451 9503 0
-1144 -9452 9504 0
-1144 -9453 9505 0
-1144 -9454 9506 0
-1144 -9455 9507 0
-1144 -9456 9508 0
-1144 -9457 9509 0
-1144 -9458 9510 0
-1144 -9459 9511 0
-1144 -9460 9512 0
-1144 -9461 9513 0
-1144 -9462 9514 0
-1144 -9463 9515 0
-1144 -9464 9516 0
-1144 -9465 9517 0
-1144 -9466 9518 0
-1144 -9467 9519 0
-1144 -9468 9520 0
-1144 -9469 9521 0
-1144 -9470 9522 0
-1144 -9471 9523 0
-1144 -9472 9524 0
-1144 -9473 9525 0
-1144 -9474 9526 0
-1144 -9475 9527 0
-1144 -9476 9528 0
-1144 -9477 9529 0
-1144 -9478 9530 0
-1144 -9479 9531 0
-1144 -9480 9532 0
-1144 -9481 0
-9482 9533 0
-9483 9534 0
-9484 9535 0
-9485 9536 0
-9486 9537 0
-9487 9538 0
-9488 9539 0
-9489 9540 0
-9490 9541 0
-9491 9542 0
-9492 9543 0
-9493 9544 0
-9494 9545 0
-9495 9546 0
-9496 9547 0
-9497 9548 0
-9498 9549 0
-9499 9550 0
-9500 9551 0
-9501 9552 0
-9502 9553 0
-9503 9554 0
-9504 9555 0
-9505 9556 0
-9506 9557 0
-9507 9558 0
-9508 9559 0
-9509 9560 0
-9510 9561 0
-9511 9562 0
-9512 9563 0
-9513 9564 0
-9514 9565 0
-9515 9566 0
-9516 9567 0
-9517 9568 0
-9518 9569 0
-9519 9570 0
-9520 9571 0
-9521 9572 0
-9522 9573 0
-9523 9574 0
-9524 9575 0
-9525 9576 0
-9526 9577 0
-9527 9578 0
-9528 9579 0
-9529 9580 0
-9530 9581 0
-9531 9582 0
-9532 9583 0
-1146 -9482 9534 0
-1146 -9483 9535 0
-1146 -9484 9536 0
-1146 -9485 9537 0
-1146 -9486 9538 0
-1146 -9487 9539 0
-1146 -9488 9540 0
-1146 -9489 9541 0
-1146 -9490 9542 0
-1146 -9491 9543 0
-1146 -9492 9544 0
-1146 -9493 9545 0
-1146 -9494 9546 0
-1146 -9495 9547 0
-1146 -9496 9548 0
-1146 -9497 9549 0
-1146 -9498 9550 0
-1146 -9499 9551 0
-1146 -9500 9552 0
-1146 -9501 9553 0
-1146 -9502 9554 0
-1146 -9503 9555 0
-1146 -9504 9556 0
-1146 -9505 9557 0
-1146 -9506 9558 0
-1146 -9507 9559 0
-1146 -9508 9560 0
-1146 -9509 9561 0
-1146 -9510 9562 0
-1146 -9511 9563 0
-1146 -9512 9564 0
-1146 -9513 9565 0
-1146 -9514 9566 0
-1146 -9515 9567 0
-1146 -9516 9568 0
-1146 -9517 9569 0
-1146 -9518 9570 0
-1146 -9519 9571 0
-1146 -9520 9572 0
-1146 -9521 9573 0
-1146 -9522 9574 0
-1146 -9523 9575 0
-1146 -9524 9576 0
-1146 -9525 9577 0
-1146 -9526 9578 0
-1146 -9527 9579 0
-1146 -9528 9580 0
-1146 -9529 9581 0
-1146 -9530 9582 0
-1146 -9531 9583 0
-1146 -9532 0
-9533 9584 0
-9534 9585 0
-9535 9586 0
-9536 9587 0
-9537 9588 0
-9538 9589 0
-9539 9590 0
-9540 9591 0
-9541 9592 0
-9542 9593 0
-9543 9594 0
-9544 9595 0
-9545 9596 0
-9546 9597 0
-9547 9598 0
-9548 9599 0
-9549 9600 0
-9550 9601 0
-9551 9602 0
-9552 9603 0
-9553 9604 0
-9554 9605 0
-9555 9606 0
-9556 9607 0
-9557 9608 0
-9558 9609 0
-9559 9610 0
-9560 9611 0
-9561 9612 0
-9562 9613 0
-9563 9614 0
-9564 9615 0
-9565 9616 0
-9566 9617 0
-9567 9618 0
-9568 9619 0
-9569 9620 0
-9570 9621 0
-9571 9622 0
-9572 9623 0
-9573 9624 0
-9574 9625 0
-9575 9626 0
-9576 9627 0
-9577 9628 0
-9578 9629 0
-9579 9630 0
-9580 9631 0
-9581 9632 0
-9582 9633 0
-9583 9634 0
-1148 -9533 9585 0
-1148 -9534 9586 0
-1148 -9535 9587 0
-1148 -9536 9588 0
-1148 -9537 9589 0
-1148 -9538 9590 0
-1148 -9539 9591 0
-1148 -9540 9592 0
-1148 -9541 9593 0
-1148 -9542 9594 0
-1148 -9543 9595 0
-1148 -9544 9596 0
-1148 -9545 9597 0
-1148 -9546 9598 0
-1148 -9547 9599 0
-1148 -9548 9600 0
-1148 -9549 9601 0
-1148 -9550 9602 0
-1148 -9551 9603 0
-1148 -9552 9604 0
-1148 -9553 9605 0
-1148 -9554 9606 0
-1148 -9555 9607 0
-1148 -9556 9608 0
-1148 -9557 9609 0
-1148 -9558 9610 0
-1148 -9559 9611 0
-1148 -9560 9612 0
-1148 -9561 9613 0
-1148 -9562 9614 0
-1148 -9563 9615 0
-1148 -9564 9616 0
-1148 -9565 9617 0
-1148 -9566 9618 0
-1148 -9567 9619 0
-1148 -9568 9620 0
-1148 -9569 9621 0
-1148 -9570 9622 0
-1148 -9571 9623 0
-1148 -9572 9624 0
-1148 -9573 9625 0
-1148 -9574 9626 0
-1148 -9575 9627 0
-1148 -9576 9628 0
-1148 -9577 9629 0
-1148 -9578 9630 0
-1148 -9579 9631 0
-1148 -9580 9632 0
-1148 -9581 9633 0
-1148 -9582 9634 0
-1148 -9583 0
-9584 9635 0
-9585 9636 0
-9586 9637 0
-9587 9638 0
-9588 9639 0
-9589 9640 0
-9590 9641 0
-9591 9642 0
-9592 9643 0
-9593 9644 0
-9594 9645 0
-9595 9646 0
-9596 9647 0
-9597 9648 0
-9598 9649 0
-9599 9650 0
-9600 9651 0
-9601 9652 0
-9602 9653 0
-9603 9654 0
-9604 9655 0
-9605 9656 0
-9606 9657 0
-9607 9658 0
-9608 9659 0
-9609 9660 0
-9610 9661 0
-9611 9662 0
-9612 9663 0
-9613 9664 0
-9614 9665 0
-9615 9666 0
-9616 9667 0
-9617 9668 0
-9618 9669 0
-9619 9670 0
-9620 9671 0
-9621 9672 0
-9622 9673 0
-9623 9674 0
-9624 9675 0
-9625 9676 0
-9626 9677 0
-9627 9678 0
-9628 9679 0
-9629 9680 0
-9630 9681 0
-9631 9682 0
-9632 9683 0
-9633 9684 0
-9634 9685 0
-1150 -9584 9636 0
-1150 -9585 9637 0
-1150 -9586 9638 0
-1150 -9587 9639 0
-1150 -9588 9640 0
-1150 -9589 9641 0
-1150 -9590 9642 0
-1150 -9591 9643 0
-1150 -9592 9644 0
-1150 -9593 9645 0
-1150 -9594 9646 0
-1150 -9595 9647 0
-1150 -9596 9648 0
-1150 -9597 9649 0
-1150 -9598 9650 0
-1150 -9599 9651 0
-1150 -9600 9652 0
-1150 -9601 9653 0
-1150 -9602 9654 0
-1150 -9603 9655 0
-1150 -9604 9656 0
-1150 -9605 9657 0
-1150 -9606 9658 0
-1150 -9607 9659 0
-1150 -9608 9660 0
-1150 -9609 9661 0
-1150 -9610 9662 0
-1150 -9611 9663 0
-1150 -9612 9664 0
-1150 -9613 9665 0
-1150 -9614 9666 0
-1150 -9615 9667 0
-1150 -9616 9668 0
-1150 -9617 9669 0
-1150 -9618 9670 0
-1150 -9619 9671 0
-1150 -9620 9672 0
-1150 -9621 9673 0
-1150 -9622 9674 0
-1150 -9623 9675 0
-1150 -9624 9676 0
-1150 -9625 9677 0
-1150 -9626 9678 0
-1150 -9627 9679 0
-1150 -9628 9680 0
-1150 -9629 9681 0
-1150 -9630 9682 0
-1150 -9631 9683 0
-1150 -9632 9684 0
-1150 -9633 9685 0
-1150 -9634 0
-9635 9686 0
-9636 9687 0
-9637 9688 0
-9638 9689 0
-9639 9690 0
-9640 9691 0
-9641 9692 0
-9642 9693 0
-9643 9694 0
-9644 9695 0
-9645 9696 0
-9646 9697 0
-9647 9698 0
-9648 9699 0
-9649 9700 0
-9650 9701 0
-9651 9702 0
-9652 9703 0
-9653 9704 0
-9654 9705 0
-9655 9706 0
-9656 9707 0
-9657 9708 0
-9658 9709 0
-9659 9710 0
-9660 9711 0
-9661 9712 0
-9662 9713 0
-9663 9714 0
-9664 9715 0
-9665 9716 0
-9666 9717 0
-9667 9718 0
-9668 9719 0
-9669 9720 0
-9670 9721 0
-9671 9722 0
-9672 9723 0
-9673 9724 0
-9674 9725 0
-9675 9726 0
-9676 9727 0
-9677 9728 0
-9678 9729 0
-9679 9730 0
-9680 9731 0
-9681 9732 0
-9682 9733 0
-9683 9734 0
-9684 9735 0
-9685 9736 0
-1152 -9635 9687 0
-1152 -9636 9688 0
-1152 -9637 9689 0
-1152 -9638 9690 0
-1152 -9639 9691 0
-1152 -9640 9692 0
-1152 -9641 9693 0
-1152 -9642 9694 0
-1152 -9643 9695 0
-1152 -9644 9696 0
-1152 -9645 9697 0
-1152 -9646 9698 0
-1152 -9647 9699 0
-1152 -9648 9700 0
-1152 -9649 9701 0
-1152 -9650 9702 0
-1152 -9651 9703 0
-1152 -9652 9704 0
-1152 -9653 9705 0
-1152 -9654 9706 0
-1152 -9655 9707 0
-1152 -9656 9708 0
-1152 -9657 9709 0
-1152 -9658 9710 0
-1152 -9659 9711 0
-1152 -9660 9712 0
-1152 -9661 9713 0
-1152 -9662 9714 0
-1152 -9663 9715 0
-1152 -9664 9716 0
-1152 -9665 9717 0
-1152 -9666 9718 0
-1152 -9667 9719 0
-1152 -9668 9720 0
-1152 -9669 9721 0
-1152 -9670 9722 0
-1152 -9671 9723 0
-1152 -9672 9724 0
-1152 -9673 9725 0
-1152 -9674 9726 0
-1152 -9675 9727 0
-1152 -9676 9728 0
-1152 -9677 9729 0
-1152 -9678 9730 0
-1152 -9679 9731 0
-1152 -9680 9732 0
-1152 -9681 9733 0
-1152 -9682 9734 0
-1152 -9683 9735 0
-1152 -9684 9736 0
-1152 -9685 0
-9686 9737 0
-9687 9738 0
-9688 9739 0
-9689 9740 0
-9690 9741 0
-9691 9742 0
-9692 9743 0
-9693 9744 0
-9694 9745 0
-9695 9746 0
-9696 9747 0
-9697 9748 0
-9698 9749 0
-9699 9750 0
-9700 9751 0
-9701 9752 0
-9702 9753 0
-9703 9754 0
-9704 9755 0
-9705 9756 0
-9706 9757 0
-9707 9758 0
-9708 9759 0
-9709 9760 0
-9710 9761 0
-9711 9762 0
-9712 9763 0
-9713 9764 0
-9714 9765 0
-9715 9766 0
-9716 9767 0
-9717 9768 0
-9718 9769 0
-9719 9770 0
-9720 9771 0
-9721 9772 0
-9722 9773 0
-9723 9774 0
-9724 9775 0
-9725 9776 0
-9726 9777 0
-9727 9778 0
-9728 9779 0
-9729 9780 0
-9730 9781 0
-9731 9782 0
-9732 9783 0
-9733 9784 0
-9734 9785 0
-9735 9786 0
-9736 9787 0
-1154 -9686 9738 0
-1154 -9687 9739 0
-1154 -9688 9740 0
-1154 -9689 9741 0
-1154 -9690 9742 0
-1154 -9691 9743 0
-1154 -9692 9744 0
-1154 -9693 9745 0
-1154 -9694 9746 0
-1154 -9695 9747 0
-1154 -9696 9748 0
-1154 -9697 9749 0
-1154 -9698 9750 0
-1154 -9699 9751 0
-1154 -9700 9752 0
-1154 -9701 9753 0
-1154 -9702 9754 0
-1154 -9703 9755 0
-1154 -9704 9756 0
-1154 -9705 9757 0
-1154 -9706 9758 0
-1154 -9707 9759 0
-1154 -9708 9760 0
-1154 -9709 9761 0
-1154 -9710 9762 0
-1154 -9711 9763 0
-1154 -9712 9764 0
-1154 -9713 9765 0
-1154 -9714 9766 0
-1154 -9715 9767 0
-1154 -9716 9768 0
-1154 -9717 9769 0
-1154 -9718 9770 0
-1154 -9719 9771 0
-1154 -9720 9772 0
-1154 -9721 9773 0
-1154 -9722 9774 0
-1154 -9723 9775 0
-1154 -9724 9776 0
-1154 -9725 9777 0
-1154 -9726 9778 0
-1154 -9727 9779 0
-1154 -9728 9780 0
-1154 -9729 9781 0
-1154 -9730 9782 0
-1154 -9731 9783 0
-1154 -9732 9784 0
-1154 -9733 9785 0
-1154 -9734 9786 0
-1154 -9735 9787 0
-1154 -9736 0
-9737 9788 0
-9738 9789 0
-9739 9790 0
-9740 9791 0
-9741 9792 0
-9742 9793 0
-9743 9794 0
-9744 9795 0
-9745 9796 0
-9746 9797 0
-9747 9798 0
-9748 9799 0
-9749 9800 0
-9750 9801 0
-9751 9802 0
-9752 9803 0
-9753 9804 0
-9754 9805 0
-9755 9806 0
-9756 9807 0
-9757 9808 0
-9758 9809 0
-9759 9810 0
-9760 9811 0
-9761 9812 0
-9762 9813 0
-9763 9814 0
-9764 9815 0
-9765 9816 0
-9766 9817 0
-9767 9818 0
-9768 9819 0
-9769 9820 0
-9770 9821 0
-9771 9822 0
-9772 9823 0
-9773 9824 0
-9774 9825 0
-9775 9826 0
-9776 9827 0
-9777 9828 0
-9778 9829 0
-9779 9830 0
-9780 9831 0
-9781 9832 0
-9782 9833 0
-9783 9834 0
-9784 9835 0
-9785 9836 0
-9786 9837 0
-9787 9838 0
-1156 -9737 9789 0
-1156 -9738 9790 0
-1156 -9739 9791 0
-1156 -9740 9792 0
-1156 -9741 9793 0
-1156 -9742 9794 0
-1156 -9743 9795 0
-1156 -9744 9796 0
-1156 -9745 9797 0
-1156 -9746 9798 0
-1156 -9747 9799 0
-1156 -9748 9800 0
-1156 -9749 9801 0
-1156 -9750 9802 0
-1156 -9751 9803 0
-1156 -9752 9804 0
-1156 -9753 9805 0
-1156 -9754 9806 0
-1156 -9755 9807 0
-1156 -9756 9808 0
-1156 -9757 9809 0
-1156 -9758 9810 0
-1156 -9759 9811 0
-1156 -9760 9812 0
-1156 -9761 9813 0
-1156 -9762 9814 0
-1156 -9763 9815 0
-1156 -9764 9816 0
-1156 -9765 9817 0
-1156 -9766 9818 0
-1156 -9767 9819 0
-1156 -9768 9820 0
-1156 -9769 9821 0
-1156 -9770 9822 0
-1156 -9771 9823 0
-1156 -9772 9824 0
-1156 -9773 9825 0
-1156 -9774 9826 0
-1156 -9775 9827 0
-1156 -9776 9828 0
-1156 -9777 9829 0
-1156 -9778 9830 0
-1156 -9779 9831 0
-1156 -9780 9832 0
-1156 -9781 9833 0
-1156 -9782 9834 0
-1156 -9783 9835 0
-1156 -9784 9836 0
-1156 -9785 9837 0
-1156 -9786 9838 0
-1156 -9787 0
-9788 9839 0
-9789 9840 0
-9790 9841 0
-9791 9842 0
-9792 9843 0
-9793 9844 0
-9794 9845 0
-9795 9846 0
-9796 9847 0
-9797 9848 0
-9798 9849 0
-9799 9850 0
-9800 9851 0
-9801 9852 0
-9802 9853 0
-9803 9854 0
-9804 9855 0
-9805 9856 0
-9806 9857 0
-9807 9858 0
-9808 9859 0
-9809 9860 0
-9810 9861 0
-9811 9862 0
-9812 9863 0
-9813 9864 0
-9814 9865 0
-9815 9866 0
-9816 9867 0
-9817 9868 0
-9818 9869 0
-9819 9870 0
-9820 9871 0
-9821 9872 0
-9822 9873 0
-9823 9874 0
-9824 9875 0
-9825 9876 0
-9826 9877 0
-9827 9878 0
-9828 9879 0
-9829 9880 0
-9830 9881 0
-9831 9882 0
-9832 9883 0
-9833 9884 0
-9834 9885 0
-9835 9886 0
-9836 9887 0
-9837 9888 0
-9838 9889 0
-1158 -9788 9840 0
-1158 -9789 9841 0
-1158 -9790 9842 0
-1158 -9791 9843 0
-1158 -9792 9844 0
-1158 -9793 9845 0
-1158 -9794 9846 0
-1158 -9795 9847 0
-1158 -9796 9848 0
-1158 -9797 9849 0
-1158 -9798 9850 0
-1158 -9799 9851 0
-1158 -9800 9852 0
-1158 -9801 9853 0
-1158 -9802 9854 0
-1158 -9803 9855 0
-1158 -9804 9856 0
-1158 -9805 9857 0
-1158 -9806 9858 0
-1158 -9807 9859 0
-1158 -9808 9860 0
-1158 -9809 9861 0
-1158 -9810 9862 0
-1158 -9811 9863 0
-1158 -9812 9864 0
-1158 -9813 9865 0
-1158 -9814 9866 0
-1158 -9815 9867 0
-1158 -9816 9868 0
-1158 -9817 9869 0
-1158 -9818 9870 0
-1158 -9819 9871 0
-1158 -9820 9872 0
-1158 -9821 9873 0
-1158 -9822 9874 0
-1158 -9823 9875 0
-1158 -9824 9876 0
-1158 -9825 9877 0
-1158 -9826 9878 0
-1158 -9827 9879 0
-1158 -9828 9880 0
-1158 -9829 9881 0
-1158 -9830 9882 0
-1158 -9831 9883 0
-1158 -9832 9884 0
-1158 -9833 9885 0
-1158 -9834 9886 0
-1158 -9835 9887 0
-1158 -9836 9888 0
-1158 -9837 9889 0
-1158 -9838 0
-9839 9890 0
-9840 9891 0
-9841 9892 0
-9842 9893 0
-9843 9894 0
-9844 9895 0
-9845 9896 0
-9846 9897 0
-9847 9898 0
-9848 9899 0
-9849 9900 0
-9850 9901 0
-9851 9902 0
-9852 9903 0
-9853 9904 0
-9854 9905 0
-9855 9906 0
-9856 9907 0
-9857 9908 0
-9858 9909 0
-9859 9910 0
-9860 9911 0
-9861 9912 0
-9862 9913 0
-9863 9914 0
-9864 9915 0
-9865 9916 0
-9866 9917 0
-9867 9918 0
-9868 9919 0
-9869 9920 0
-9870 9921 0
-9871 9922 0
-9872 9923 0
-9873 9924 0
-9874 9925 0
-9875 9926 0
-9876 9927 0
-9877 9928 0
-9878 9929 0
-9879 9930 0
-9880 9931 0
-9881 9932 0
-9882 9933 0
-9883 9934 0
-9884 9935 0
-9885 9936 0
-9886 9937 0
-9887 9938 0
-9888 9939 0
-9889 9940 0
-1160 -9839 9891 0
-1160 -9840 9892 0
-1160 -9841 9893 0
-1160 -9842 9894 0
-1160 -9843 9895 0
-1160 -9844 9896 0
-1160 -9845 9897 0
-1160 -9846 9898 0
-1160 -9847 9899 0
-1160 -9848 9900 0
-1160 -9849 9901 0
-1160 -9850 9902 0
-1160 -9851 9903 0
-1160 -9852 9904 0
-1160 -9853 9905 0
-1160 -9854 9906 0
-1160 -9855 9907 0
-1160 -9856 9908 0
-1160 -9857 9909 0
-1160 -9858 9910 0
-1160 -9859 9911 0
-1160 -9860 9912 0
-1160 -9861 9913 0
-1160 -9862 9914 0
-1160 -9863 9915 0
-1160 -9864 9916 0
-1160 -9865 9917 0
-1160 -9866 9918 0
-1160 -9867 9919 0
-1160 -9868 9920 0
-1160 -9869 9921 0
-1160 -9870 9922 0
-1160 -9871 9923 0
-1160 -9872 9924 0
-1160 -9873 9925 0
-1160 -9874 9926 0
-1160 -9875 9927 0
-1160 -9876 9928 0
-1160 -9877 9929 0
-1160 -9878 9930 0
-1160 -9879 9931 0
-1160 -9880 9932 0
-1160 -9881 9933 0
-1160 -9882 9934 0
-1160 -9883 9935 0
-1160 -9884 9936 0
-1160 -9885 9937 0
-1160 -9886 9938 0
-1160 -9887 9939 0
-1160 -9888 9940 0
-1160 -9889 0
-9890 9941 0
-9891 9942 0
-9892 9943 0
-9893 9944 0
-9894 9945 0
-9895 9946 0
-9896 9947 0
-9897 9948 0
-9898 9949 0
-9899 9950 0
-9900 9951 0
-9901 9952 0
-9902 9953 0
-9903 9954 0
-9904 9955 0
-9905 9956 0
-9906 9957 0
-9907 9958 0
-9908 9959 0
-9909 9960 0
-9910 9961 0
-9911 9962 0
-9912 9963 0
-9913 9964 0
-9914 9965 0
-9915 9966 0
-9916 9967 0
-9917 9968 0
-9918 9969 0
-9919 9970 0
-9920 9971 0
-9921 9972 0
-9922 9973 0
-9923 9974 0
-9924 9975 0
-9925 9976 0
-9926 9977 0
-9927 9978 0
-9928 9979 0
-9929 9980 0
-9930 9981 0
-9931 9982 0
-9932 9983 0
-9933 9984 0
-9934 9985 0
-9935 9986 0
-9936 9987 0
-9937 9988 0
-9938 9989 0
-9939 9990 0
-9940 9991 0
-1162 -9890 9942 0
-1162 -9891 9943 0
-1162 -9892 9944 0
-1162 -9893 9945 0
-1162 -9894 9946 0
-1162 -9895 9947 0
-1162 -9896 9948 0
-1162 -9897 9949 0
-1162 -9898 9950 0
-1162 -9899 9951 0
-1162 -9900 9952 0
-1162 -9901 9953 0
-1162 -9902 9954 0
-1162 -9903 9955 0
-1162 -9904 9956 0
-1162 -9905 9957 0
-1162 -9906 9958 0
-1162 -9907 9959 0
-1162 -9908 9960 0
-1162 -9909 9961 0
-1162 -9910 9962 0
-1162 -9911 9963 0
-1162 -9912 9964 0
-1162 -9913 9965 0
-1162 -9914 9966 0
-1162 -9915 9967 0
-1162 -9916 9968 0
-1162 -9917 9969 0
-1162 -9918 9970 0
-1162 -9919 9971 0
-1162 -9920 9972 0
-1162 -9921 9973 0
-1162 -9922 9974 0
-1162 -9923 9975 0
-1162 -9924 9976 0
-1162 -9925 9977 0
-1162 -9926 9978 0
-1162 -9927 9979 0
-1162 -9928 9980 0
-1162 -9929 9981 0
-1162 -9930 9982 0
-1162 -9931 9983 0
-1162 -9932 9984 0
-1162 -9933 9985 0
-1162 -9934 9986 0
-1162 -9935 9987 0
-1162 -9936 9988 0
-1162 -9937 9989 0
-1162 -9938 9990 0
-1162 -9939 9991 0
-1162 -9940 0
-9941 9992 0
-9942 9993 0
-9943 9994 0
-9944 9995 0
-9945 9996 0
-9946 9997 0
-9947 9998 0
-9948 9999 0
-9949 10000 0
-9950 10001 0
-9951 10002 0
-9952 10003 0
-9953 10004 0
-9954 10005 0
-9955 10006 0
-9956 10007 0
-9957 10008 0
-9958 10009 0
-9959 10010 0
-9960 10011 0
-9961 10012 0
-9962 10013 0
-9963 10014 0
-9964 10015 0
-9965 10016 0
-9966 10017 0
-9967 10018 0
-9968 10019 0
-9969 10020 0
-9970 10021 0
-9971 10022 0
-9972 10023 0
-9973 10024 0
-9974 10025 0
-9975 10026 0
-9976 10027 0
-9977 10028 0
-9978 10029 0
-9979 10030 0
-9980 10031 0
-9981 10032 0
-9982 10033 0
-9983 10034 0
-9984 10035 0
-9985 10036 0
-9986 10037 0
-9987 10038 0
-9988 10039 0
-9989 10040 0
-9990 10041 0
-9991 10042 0
-1164 -9941 9993 0
-1164 -9942 9994 0
-1164 -9943 9995 0
-1164 -9944 9996 0
-1164 -9945 9997 0
-1164 -9946 9998 0
-1164 -9947 9999 0
-1164 -9948 10000 0
-1164 -9949 10001 0
-1164 -9950 10002 0
-1164 -9951 10003 0
-1164 -9952 10004 0
-1164 -9953 10005 0
-1164 -9954 10006 0
-1164 -9955 10007 0
-1164 -9956 10008 0
-1164 -9957 10009 0
-1164 -9958 10010 0
-1164 -9959 10011 0
-1164 -9960 10012 0
-1164 -9961 10013 0
-1164 -9962 10014 0
-1164 -9963 10015 0
-1164 -9964 10016 0
-1164 -9965 10017 0
-1164 -9966 10018 0
-1164 -9967 10019 0
-1164 -9968 10020 0
-1164 -9969 10021 0
-1164 -9970 10022 0
-1164 -9971 10023 0
-1164 -9972 10024 0
-1164 -9973 10025 0
-1164 -9974 10026 0
-1164 -9975 10027 0
-1164 -9976 10028 0
-1164 -9977 10029 0
-1164 -9978 10030 0
-1164 -9979 10031 0
-1164 -9980 10032 0
-1164 -9981 10033 0
-1164 -9982 10034 0
-1164 -9983 10035 0
-1164 -9984 10036 0
-1164 -9985 10037 0
-1164 -9986 10038 0
-1164 -9987 10039 0
-1164 -9988 10040 0
-1164 -9989 10041 0
-1164 -9990 10042 0
-1164 -9991 0
-9992 10043 0
-9993 10044 0
-9994 10045 0
-9995 10046 0
-9996 10047 0
-9997 10048 0
-9998 10049 0
-9999 10050 0
-10000 10051 0
-10001 10052 0
-10002 10053 0
-10003 10054 0
-10004 10055 0
-10005 10056 0
-10006 10057 0
-10007 10058 0
-10008 10059 0
-10009 10060 0
-10010 10061 0
-10011 10062 0
-10012 10063 0
-10013 10064 0
-10014 10065 0
-10015 10066 0
-10016 10067 0
-10017 10068 0
-10018 10069 0
-10019 10070 0
-10020 10071 0
-10021 10072 0
-10022 10073 0
-10023 10074 0
-10024 10075 0
-10025 10076 0
-10026 10077 0
-10027 10078 0
-10028 10079 0
-10029 10080 0
-10030 10081 0
-10031 10082 0
-10032 10083 0
-10033 10084 0
-10034 10085 0
-10035 10086 0
-10036 10087 0
-10037 10088 0
-10038 10089 0
-10039 10090 0
-10040 10091 0
-10041 10092 0
-10042 10093 0
-1166 -9992 10044 0
-1166 -9993 10045 0
-1166 -9994 10046 0
-1166 -9995 10047 0
-1166 -9996 10048 0
-1166 -9997 10049 0
-1166 -9998 10050 0
-1166 -9999 10051 0
-1166 -10000 10052 0
-1166 -10001 10053 0
-1166 -10002 10054 0
-1166 -10003 10055 0
-1166 -10004 10056 0
-1166 -10005 10057 0
-1166 -10006 10058 0
-1166 -10007 10059 0
-1166 -10008 10060 0
-1166 -10009 10061 0
-1166 -10010 10062 0
-1166 -10011 10063 0
-1166 -10012 10064 0
-1166 -10013 10065 0
-1166 -10014 10066 0
-1166 -10015 10067 0
-1166 -10016 10068 0
-1166 -10017 10069 0
-1166 -10018 10070 0
-1166 -10019 10071 0
-1166 -10020 10072 0
-1166 -10021 10073 0
-1166 -10022 10074 0
-1166 -10023 10075 0
-1166 -10024 10076 0
-1166 -10025 10077 0
-1166 -10026 10078 0
-1166 -10027 10079 0
-1166 -10028 10080 0
-1166 -10029 10081 0
-1166 -10030 10082 0
-1166 -10031 10083 0
-1166 -10032 10084 0
-1166 -10033 10085 0
-1166 -10034 10086 0
-1166 -10035 10087 0
-1166 -10036 10088 0
-1166 -10037 10089 0
-1166 -10038 10090 0
-1166 -10039 10091 0
-1166 -10040 10092 0
-1166 -10041 10093 0
-1166 -10042 0
-10043 10094 0
-10044 10095 0
-10045 10096 0
-10046 10097 0
-10047 10098 0
-10048 10099 0
-10049 10100 0
-10050 10101 0
-10051 10102 0
-10052 10103 0
-10053 10104 0
-10054 10105 0
-10055 10106 0
-10056 10107 0
-10057 10108 0
-10058 10109 0
-10059 10110 0
-10060 10111 0
-10061 10112 0
-10062 10113 0
-10063 10114 0
-10064 10115 0
-10065 10116 0
-10066 10117 0
-10067 10118 0
-10068 10119 0
-10069 10120 0
-10070 10121 0
-10071 10122 0
-10072 10123 0
-10073 10124 0
-10074 10125 0
-10075 10126 0
-10076 10127 0
-10077 10128 0
-10078 10129 0
-10079 10130 0
-10080 10131 0
-10081 10132 0
-10082 10133 0
-10083 10134 0
-10084 10135 0
-10085 10136 0
-10086 10137 0
-10087 10138 0
-10088 10139 0
-10089 10140 0
-10090 10141 0
-10091 10142 0
-10092 10143 0
-10093 10144 0
-1168 -10043 10095 0
-1168 -10044 10096 0
-1168 -10045 10097 0
-1168 -10046 10098 0
-1168 -10047 10099 0
-1168 -10048 10100 0
-1168 -10049 10101 0
-1168 -10050 10102 0
-1168 -10051 10103 0
-1168 -10052 10104 0
-1168 -10053 10105 0
-1168 -10054 10106 0
-1168 -10055 10107 0
-1168 -10056 10108 0
-1168 -10057 10109 0
-1168 -10058 10110 0
-1168 -10059 10111 0
-1168 -10060 10112 0
-1168 -10061 10113 0
-1168 -10062 10114 0
-1168 -10063 10115 0
-1168 -10064 10116 0
-1168 -10065 10117 0
-1168 -10066 10118 0
-1168 -10067 10119 0
-1168 -10068 10120 0
-1168 -10069 10121 0
-1168 -10070 10122 0
-1168 -10071 10123 0
-1168 -10072 10124 0
-1168 -10073 10125 0
-1168 -10074 10126 0
-1168 -10075 10127 0
-1168 -10076 10128 0
-1168 -10077 10129 0
-1168 -10078 10130 0
-1168 -10079 10131 0
-1168 -10080 10132 0
-1168 -10081 10133 0
-1168 -10082 10134 0
-1168 -10083 10135 0
-1168 -10084 10136 0
-1168 -10085 10137 0
-1168 -10086 10138 0
-1168 -10087 10139 0
-1168 -10088 10140 0
-1168 -10089 10141 0
-1168 -10090 10142 0
-1168 -10091 10143 0
-1168 -10092 10144 0
-1168 -10093 0
-10094 10145 0
-10095 10146 0
-10096 10147 0
-10097 10148 0
-10098 10149 0
-10099 10150 0
-10100 10151 0
-10101 10152 0
-10102 10153 0
-10103 10154 0
-10104 10155 0
-10105 10156 0
-10106 10157 0
-10107 10158 0
-10108 10159 0
-10109 10160 0
-10110 10161 0
-10111 10162 0
-10112 10163 0
-10113 10164 0
-10114 10165 0
-10115 10166 0
-10116 10167 0
-10117 10168 0
-10118 10169 0
-10119 10170 0
-10120 10171 0
-10121 10172 0
-10122 10173 0
-10123 10174 0
-10124 10175 0
-10125 10176 0
-10126 10177 0
-10127 10178 0
-10128 10179 0
-10129 10180 0
-10130 10181 0
-10131 10182 0
-10132 10183 0
-10133 10184 0
-10134 10185 0
-10135 10186 0
-10136 10187 0
-10137 10188 0
-10138 10189 0
-10139 10190 0
-10140 10191 0
-10141 10192 0
-10142 10193 0
-10143 10194 0
-10144 10195 0
-1170 -10094 10146 0
-1170 -10095 10147 0
-1170 -10096 10148 0
-1170 -10097 10149 0
-1170 -10098 10150 0
-1170 -10099 10151 0
-1170 -10100 10152 0
-1170 -10101 10153 0
-1170 -10102 10154 0
-1170 -10103 10155 0
-1170 -10104 10156 0
-1170 -10105 10157 0
-1170 -10106 10158 0
-1170 -10107 10159 0
-1170 -10108 10160 0
-1170 -10109 10161 0
-1170 -10110 10162 0
-1170 -10111 10163 0
-1170 -10112 10164 0
-1170 -10113 10165 0
-1170 -10114 10166 0
-1170 -10115 10167 0
-1170 -10116 10168 0
-1170 -10117 10169 0
-1170 -10118 10170 0
-1170 -10119 10171 0
-1170 -10120 10172 0
-1170 -10121 10173 0
-1170 -10122 10174 0
-1170 -10123 10175 0
-1170 -10124 10176 0
-1170 -10125 10177 0
-1170 -10126 10178 0
-1170 -10127 10179 0
-1170 -10128 10180 0
-1170 -10129 10181 0
-1170 -10130 10182 0
-1170 -10131 10183 0
-1170 -10132 10184 0
-1170 -10133 10185 0
-1170 -10134 10186 0
-1170 -10135 10187 0
-1170 -10136 10188 0
-1170 -10137 10189 0
-1170 -10138 10190 0
-1170 -10139 10191 0
-1170 -10140 10192 0
-1170 -10141 10193 0
-1170 -10142 10194 0
-1170 -10143 10195 0
-1170 -10144 0
-10145 10196 0
-10146 10197 0
-10147 10198 0
-10148 10199 0
-10149 10200 0
-10150 10201 0
-10151 10202 0
-10152 10203 0
-10153 10204 0
-10154 10205 0
-10155 10206 0
-10156 10207 0
-10157 10208 0
-10158 10209 0
-10159 10210 0
-10160 10211 0
-10161 10212 0
-10162 10213 0
-10163 10214 0
-10164 10215 0
-10165 10216 0
-10166 10217 0
-10167 10218 0
-10168 10219 0
-10169 10220 0
-10170 10221 0
-10171 10222 0
-10172 10223 0
-10173 10224 0
-10174 10225 0
-10175 10226 0
-10176 10227 0
-10177 10228 0
-10178 10229 0
-10179 10230 0
-10180 10231 0
-10181 10232 0
-10182 10233 0
-10183 10234 0
-10184 10235 0
-10185 10236 0
-10186 10237 0
-10187 10238 0
-10188 10239 0
-10189 10240 0
-10190 10241 0
-10191 10242 0
-10192 10243 0
-10193 10244 0
-10194 10245 0
-10195 10246 0
-1172 -10145 10197 0
-1172 -10146 10198 0
-1172 -10147 10199 0
-1172 -10148 10200 0
-1172 -10149 10201 0
-1172 -10150 10202 0
-1172 -10151 10203 0
-1172 -10152 10204 0
-1172 -10153 10205 0
-1172 -10154 10206 0
-1172 -10155 10207 0
-1172 -10156 10208 0
-1172 -10157 10209 0
-1172 -10158 10210 0
-1172 -10159 10211 0
-1172 -10160 10212 0
-1172 -10161 10213 0
-1172 -10162 10214 0
-1172 -10163 10215 0
-1172 -10164 10216 0
-1172 -10165 10217 0
-1172 -10166 10218 0
-1172 -10167 10219 0
-1172 -10168 10220 0
-1172 -10169 10221 0
-1172 -10170 10222 0
-1172 -10171 10223 0
-1172 -10172 10224 0
-1172 -10173 10225 0
-1172 -10174 10226 0
-1172 -10175 10227 0
-1172 -10176 10228 0
-1172 -10177 10229 0
-1172 -10178 10230 0
-1172 -10179 10231 0
-1172 -10180 10232 0
-1172 -10181 10233 0
-1172 -10182 10234 0
-1172 -10183 10235 0
-1172 -10184 10236 0
-1172 -10185 10237 0
-1172 -10186 10238 0
-1172 -10187 10239 0
-1172 -10188 10240 0
-1172 -10189 10241 0
-1172 -10190 10242 0
-1172 -10191 10243 0
-1172 -10192 10244 0
-1172 -10193 10245 0
-1172 -10194 10246 0
-1172 -10195 0
-10196 10247 0
-10197 10248 0
-10198 10249 0
-10199 10250 0
-10200 10251 0
-10201 10252 0
-10202 10253 0
-10203 10254 0
-10204 10255 0
-10205 10256 0
-10206 10257 0
-10207 10258 0
-10208 10259 0
-10209 10260 0
-10210 10261 0
-10211 10262 0
-10212 10263 0
-10213 10264 0
-10214 10265 0
-10215 10266 0
-10216 10267 0
-10217 10268 0
-10218 10269 0
-10219 10270 0
-10220 10271 0
-10221 10272 0
-10222 10273 0
-10223 10274 0
-10224 10275 0
-10225 10276 0
-10226 10277 0
-10227 10278 0
-10228 10279 0
-10229 10280 0
-10230 10281 0
-10231 10282 0
-10232 10283 0
-10233 10284 0
-10234 10285 0
-10235 10286 0
-10236 10287 0
-10237 10288 0
-10238 10289 0
-10239 10290 0
-10240 10291 0
-10241 10292 0
-10242 10293 0
-10243 10294 0
-10244 10295 0
-10245 10296 0
-10246 10297 0
-1174 -10196 10248 0
-1174 -10197 10249 0
-1174 -10198 10250 0
-1174 -10199 10251 0
-1174 -10200 10252 0
-1174 -10201 10253 0
-1174 -10202 10254 0
-1174 -10203 10255 0
-1174 -10204 10256 0
-1174 -10205 10257 0
-1174 -10206 10258 0
-1174 -10207 10259 0
-1174 -10208 10260 0
-1174 -10209 10261 0
-1174 -10210 10262 0
-1174 -10211 10263 0
-1174 -10212 10264 0
-1174 -10213 10265 0
-1174 -10214 10266 0
-1174 -10215 10267 0
-1174 -10216 10268 0
-1174 -10217 10269 0
-1174 -10218 10270 0
-1174 -10219 10271 0
-1174 -10220 10272 0
-1174 -10221 10273 0
-1174 -10222 10274 0
-1174 -10223 10275 0
-1174 -10224 10276 0
-1174 -10225 10277 0
-1174 -10226 10278 0
-1174 -10227 10279 0
-1174 -10228 10280 0
-1174 -10229 10281 0
-1174 -10230 10282 0
-1174 -10231 10283 0
-1174 -10232 10284 0
-1174 -10233 10285 0
-1174 -10234 10286 0
-1174 -10235 10287 0
-1174 -10236 10288 0
-1174 -10237 10289 0
-1174 -10238 10290 0
-1174 -10239 10291 0
-1174 -10240 10292 0
-1174 -10241 10293 0
-1174 -10242 10294 0
-1174 -10243 10295 0
-1174 -10244 10296 0
-1174 -10245 10297 0
-1174 -10246 0
-10247 10298 0
-10248 10299 0
-10249 10300 0
-10250 10301 0
-10251 10302 0
-10252 10303 0
-10253 10304 0
-10254 10305 0
-10255 10306 0
-10256 10307 0
-10257 10308 0
-10258 10309 0
-10259 10310 0
-10260 10311 0
-10261 10312 0
-10262 10313 0
-10263 10314 0
-10264 10315 0
-10265 10316 0
-10266 10317 0
-10267 10318 0
-10268 10319 0
-10269 10320 0
-10270 10321 0
-10271 10322 0
-10272 10323 0
-10273 10324 0
-10274 10325 0
-10275 10326 0
-10276 10327 0
-10277 10328 0
-10278 10329 0
-10279 10330 0
-10280 10331 0
-10281 10332 0
-10282 10333 0
-10283 10334 0
-10284 10335 0
-10285 10336 0
-10286 10337 0
-10287 10338 0
-10288 10339 0
-10289 10340 0
-10290 10341 0
-10291 10342 0
-10292 10343 0
-10293 10344 0
-10294 10345 0
-10295 10346 0
-10296 10347 0
-10297 10348 0
-1176 -10247 10299 0
-1176 -10248 10300 0
-1176 -10249 10301 0
-1176 -10250 10302 0
-1176 -10251 10303 0
-1176 -10252 10304 0
-1176 -10253 10305 0
-1176 -10254 10306 0
-1176 -10255 10307 0
-1176 -10256 10308 0
-1176 -10257 10309 0
-1176 -10258 10310 0
-1176 -10259 10311 0
-1176 -10260 10312 0
-1176 -10261 10313 0
-1176 -10262 10314 0
-1176 -10263 10315 0
-1176 -10264 10316 0
-1176 -10265 10317 0
-1176 -10266 10318 0
-1176 -10267 10319 0
-1176 -10268 10320 0
-1176 -10269 10321 0
-1176 -10270 10322 0
-1176 -10271 10323 0
-1176 -10272 10324 0
-1176 -10273 10325 0
-1176 -10274 10326 0
-1176 -10275 10327 0
-1176 -10276 10328 0
-1176 -10277 10329 0
-1176 -10278 10330 0
-1176 -10279 10331 0
-1176 -10280 10332 0
-1176 -10281 10333 0
-1176 -10282 10334 0
-1176 -10283 10335 0
-1176 -10284 10336 0
-1176 -10285 10337 0
-1176 -10286 10338 0
-1176 -10287 10339 0
-1176 -10288 10340 0
-1176 -10289 10341 0
-1176 -10290 10342 0
-1176 -10291 10343 0
-1176 -10292 10344 0
-1176 -10293 10345 0
-1176 -10294 10346 0
-1176 -10295 10347 0
-1176 -10296 10348 0
-1176 -10297 0
-10298 10349 0
-10299 10350 0
-10300 10351 0
-10301 10352 0
-10302 10353 0
-10303 10354 0
-10304 10355 0
-10305 10356 0
-10306 10357 0
-10307 10358 0
-10308 10359 0
-10309 10360 0
-10310 10361 0
-10311 10362 0
-10312 10363 0
-10313 10364 0
-10314 10365 0
-10315 10366 0
-10316 10367 0
-10317 10368 0
-10318 10369 0
-10319 10370 0
-10320 10371 0
-10321 10372 0
-10322 10373 0
-10323 10374 0
-10324 10375 0
-10325 10376 0
-10326 10377 0
-10327 10378 0
-10328 10379 0
-10329 10380 0
-10330 10381 0
-10331 10382 0
-10332 10383 0
-10333 10384 0
-10334 10385 0
-10335 10386 0
-10336 10387 0
-10337 10388 0
-10338 10389 0
-10339 10390 0
-10340 10391 0
-10341 10392 0
-10342 10393 0
-10343 10394 0
-10344 10395 0
-10345 10396 0
-10346 10397 0
-10347 10398 0
-10348 10399 0
-1178 -10298 10350 0
-1178 -10299 10351 0
-1178 -10300 10352 0
-1178 -10301 10353 0
-1178 -10302 10354 0
-1178 -10303 10355 0
-1178 -10304 10356 0
-1178 -10305 10357 0
-1178 -10306 10358 0
-1178 -10307 10359 0
-1178 -10308 10360 0
-1178 -10309 10361 0
-1178 -10310 10362 0
-1178 -10311 10363 0
-1178 -10312 10364 0
-1178 -10313 10365 0
-1178 -10314 10366 0
-1178 -10315 10367 0
-1178 -10316 10368 0
-1178 -10317 10369 0
-1178 -10318 10370 0
-1178 -10319 10371 0
-1178 -10320 10372 0
-1178 -10321 10373 0
-1178 -10322 10374 0
-1178 -10323 10375 0
-1178 -10324 10376 0
-1178 -10325 10377 0
-1178 -10326 10378 0
-1178 -10327 10379 0
-1178 -10328 10380 0
-1178 -10329 10381 0
-1178 -10330 10382 0
-1178 -10331 10383 0
-1178 -10332 10384 0
-1178 -10333 10385 0
-1178 -10334 10386 0
-1178 -10335 10387 0
-1178 -10336 10388 0
-1178 -10337 10389 0
-1178 -10338 10390 0
-1178 -10339 10391 0
-1178 -10340 10392 0
-1178 -10341 10393 0
-1178 -10342 10394 0
-1178 -10343 10395 0
-1178 -10344 10396 0
-1178 -10345 10397 0
-1178 -10346 10398 0
-1178 -10347 10399 0
-1178 -10348 0
-10349 10400 0
-10350 10401 0
-10351 10402 0
-10352 10403 0
-10353 10404 0
-10354 10405 0
-10355 10406 0
-10356 10407 0
-10357 10408 0
-10358 10409 0
-10359 10410 0
-10360 10411 0
-10361 10412 0
-10362 10413 0
-10363 10414 0
-10364 10415 0
-10365 10416 0
-10366 10417 0
-10367 10418 0
-10368 10419 0
-10369 10420 0
-10370 10421 0
-10371 10422 0
-10372 10423 0
-10373 10424 0
-10374 10425 0
-10375 10426 0
-10376 10427 0
-10377 10428 0
-10378 10429 0
-10379 10430 0
-10380 10431 0
-10381 10432 0
-10382 10433 0
-10383 10434 0
-10384 10435 0
-10385 10436 0
-10386 10437 0
-10387 10438 0
-10388 10439 0
-10389 10440 0
-10390 10441 0
-10391 10442 0
-10392 10443 0
-10393 10444 0
-10394 10445 0
-10395 10446 0
-10396 10447 0
-10397 10448 0
-10398 10449 0
-10399 10450 0
-1180 -10349 10401 0
-1180 -10350 10402 0
-1180 -10351 10403 0
-1180 -10352 10404 0
-1180 -10353 10405 0
-1180 -10354 10406 0
-1180 -10355 10407 0
-1180 -10356 10408 0
-1180 -10357 10409 0
-1180 -10358 10410 0
-1180 -10359 10411 0
-1180 -10360 10412 0
-1180 -10361 10413 0
-1180 -10362 10414 0
-1180 -10363 10415 0
-1180 -10364 10416 0
-1180 -10365 10417 0
-1180 -10366 10418 0
-1180 -10367 10419 0
-1180 -10368 10420 0
-1180 -10369 10421 0
-1180 -10370 10422 0
-1180 -10371 10423 0
-1180 -10372 10424 0
-1180 -10373 10425 0
-1180 -10374 10426 0
-1180 -10375 10427 0
-1180 -10376 10428 0
-1180 -10377 10429 0
-1180 -10378 10430 0
-1180 -10379 10431 0
-1180 -10380 10432 0
-1180 -10381 10433 0
-1180 -10382 10434 0
-1180 -10383 10435 0
-1180 -10384 10436 0
-1180 -10385 10437 0
-1180 -10386 10438 0
-1180 -10387 10439 0
-1180 -10388 10440 0
-1180 -10389 10441 0
-1180 -10390 10442 0
-1180 -10391 10443 0
-1180 -10392 10444 0
-1180 -10393 10445 0
-1180 -10394 10446 0
-1180 -10395 10447 0
-1180 -10396 10448 0
-1180 -10397 10449 0
-1180 -10398 10450 0
-1180 -10399 0
-10400 10451 0
-10401 10452 0
-10402 10453 0
-10403 10454 0
-10404 10455 0
-10405 10456 0
-10406 10457 0
-10407 10458 0
-10408 10459 0
-10409 10460 0
-10410 10461 0
-10411 10462 0
-10412 10463 0
-10413 10464 0
-10414 10465 0
-10415 10466 0
-10416 10467 0
-10417 10468 0
-10418 10469 0
-10419 10470 0
-10420 10471 0
-10421 10472 0
-10422 10473 0
-10423 10474 0
-10424 10475 0
-10425 10476 0
-10426 10477 0
-10427 10478 0
-10428 10479 0
-10429 10480 0
-10430 10481 0
-10431 10482 0
-10432 10483 0
-10433 10484 0
-10434 10485 0
-10435 10486 0
-10436 10487 0
-10437 10488 0
-10438 10489 0
-10439 10490 0
-10440 10491 0
-10441 10492 0
-10442 10493 0
-10443 10494 0
-10444 10495 0
-10445 10496 0
-10446 10497 0
-10447 10498 0
-10448 10499 0
-10449 10500 0
-10450 10501 0
-1182 -10400 10452 0
-1182 -10401 10453 0
-1182 -10402 10454 0
-1182 -10403 10455 0
-1182 -10404 10456 0
-1182 -10405 10457 0
-1182 -10406 10458 0
-1182 -10407 10459 0
-1182 -10408 10460 0
-1182 -10409 10461 0
-1182 -10410 10462 0
-1182 -10411 10463 0
-1182 -10412 10464 0
-1182 -10413 10465 0
-1182 -10414 10466 0
-1182 -10415 10467 0
-1182 -10416 10468 0
-1182 -10417 10469 0
-1182 -10418 10470 0
-1182 -10419 10471 0
-1182 -10420 10472 0
-1182 -10421 10473 0
-1182 -10422 10474 0
-1182 -10423 10475 0
-1182 -10424 10476 0
-1182 -10425 10477 0
-1182 -10426 10478 0
-1182 -10427 10479 0
-1182 -10428 10480 0
-1182 -10429 10481 0
-1182 -10430 10482 0
-1182 -10431 10483 0
-1182 -10432 10484 0
-1182 -10433 10485 0
-1182 -10434 10486 0
-1182 -10435 10487 0
-1182 -10436 10488 0
-1182 -10437 10489 0
-1182 -10438 10490 0
-1182 -10439 10491 0
-1182 -10440 10492 0
-1182 -10441 10493 0
-1182 -10442 10494 0
-1182 -10443 10495 0
-1182 -10444 10496 0
-1182 -10445 10497 0
-1182 -10446 10498 0
-1182 -10447 10499 0
-1182 -10448 10500 0
-1182 -10449 10501 0
-1182 -10450 0
-10451 10502 0
-10452 10503 0
-10453 10504 0
-10454 10505 0
-10455 10506 0
-10456 10507 0
-10457 10508 0
-10458 10509 0
-10459 10510 0
-10460 10511 0
-10461 10512 0
-10462 10513 0
-10463 10514 0
-10464 10515 0
-10465 10516 0
-10466 10517 0
-10467 10518 0
-10468 10519 0
-10469 10520 0
-10470 10521 0
-10471 10522 0
-10472 10523 0
-10473 10524 0
-10474 10525 0
-10475 10526 0
-10476 10527 0
-10477 10528 0
-10478 10529 0
-10479 10530 0
-10480 10531 0
-10481 10532 0
-10482 10533 0
-10483 10534 0
-10484 10535 0
-10485 10536 0
-10486 10537 0
-10487 10538 0
-10488 10539 0
-10489 10540 0
-10490 10541 0
-10491 10542 0
-10492 10543 0
-10493 10544 0
-10494 10545 0
-10495 10546 0
-10496 10547 0
-10497 10548 0
-10498 10549 0
-10499 10550 0
-10500 10551 0
-10501 10552 0
-1184 -10451 10503 0
-1184 -10452 10504 0
-1184 -10453 10505 0
-1184 -10454 10506 0
-1184 -10455 10507 0
-1184 -10456 10508 0
-1184 -10457 10509 0
-1184 -10458 10510 0
-1184 -10459 10511 0
-1184 -10460 10512 0
-1184 -10461 10513 0
-1184 -10462 10514 0
-1184 -10463 10515 0
-1184 -10464 10516 0
-1184 -10465 10517 0
-1184 -10466 10518 0
-1184 -10467 10519 0
-1184 -10468 10520 0
-1184 -10469 10521 0
-1184 -10470 10522 0
-1184 -10471 10523 0
-1184 -10472 10524 0
-1184 -10473 10525 0
-1184 -10474 10526 0
-1184 -10475 10527 0
-1184 -10476 10528 0
-1184 -10477 10529 0
-1184 -10478 10530 0
-1184 -10479 10531 0
-1184 -10480 10532 0
-1184 -10481 10533 0
-1184 -10482 10534 0
-1184 -10483 10535 0
-1184 -10484 10536 0
-1184 -10485 10537 0
-1184 -10486 10538 0
-1184 -10487 10539 0
-1184 -10488 10540 0
-1184 -10489 10541 0
-1184 -10490 10542 0
-1184 -10491 10543 0
-1184 -10492 10544 0
-1184 -10493 10545 0
-1184 -10494 10546 0
-1184 -10495 10547 0
-1184 -10496 10548 0
-1184 -10497 10549 0
-1184 -10498 10550 0
-1184 -10499 10551 0
-1184 -10500 10552 0
-1184 -10501 0
-10502 10553 0
-10503 10554 0
-10504 10555 0
-10505 10556 0
-10506 10557 0
-10507 10558 0
-10508 10559 0
-10509 10560 0
-10510 10561 0
-10511 10562 0
-10512 10563 0
-10513 10564 0
-10514 10565 0
-10515 10566 0
-10516 10567 0
-10517 10568 0
-10518 10569 0
-10519 10570 0
-10520 10571 0
-10521 10572 0
-10522 10573 0
-10523 10574 0
-10524 10575 0
-10525 10576 0
-10526 10577 0
-10527 10578 0
-10528 10579 0
-10529 10580 0
-10530 10581 0
-10531 10582 0
-10532 10583 0
-10533 10584 0
-10534 10585 0
-10535 10586 0
-10536 10587 0
-10537 10588 0
-10538 10589 0
-10539 10590 0
-10540 10591 0
-10541 10592 0
-10542 10593 0
-10543 10594 0
-10544 10595 0
-10545 10596 0
-10546 10597 0
-10547 10598 0
-10548 10599 0
-10549 10600 0
-10550 10601 0
-10551 10602 0
-10552 10603 0
-1186 -10502 10554 0
-1186 -10503 10555 0
-1186 -10504 10556 0
-1186 -10505 10557 0
-1186 -10506 10558 0
-1186 -10507 10559 0
-1186 -10508 10560 0
-1186 -10509 10561 0
-1186 -10510 10562 0
-1186 -10511 10563 0
-1186 -10512 10564 0
-1186 -10513 10565 0
-1186 -10514 10566 0
-1186 -10515 10567 0
-1186 -10516 10568 0
-1186 -10517 10569 0
-1186 -10518 10570 0
-1186 -10519 10571 0
-1186 -10520 10572 0
-1186 -10521 10573 0
-1186 -10522 10574 0
-1186 -10523 10575 0
-1186 -10524 10576 0
-1186 -10525 10577 0
-1186 -10526 10578 0
-1186 -10527 10579 0
-1186 -10528 10580 0
-1186 -10529 10581 0
-1186 -10530 10582 0
-1186 -10531 10583 0
-1186 -10532 10584 0
-1186 -10533 10585 0
-1186 -10534 10586 0
-1186 -10535 10587 0
-1186 -10536 10588 0
-1186 -10537 10589 0
-1186 -10538 10590 0
-1186 -10539 10591 0
-1186 -10540 10592 0
-1186 -10541 10593 0
-1186 -10542 10594 0
-1186 -10543 10595 0
-1186 -10544 10596 0
-1186 -10545 10597 0
-1186 -10546 10598 0
-1186 -10547 10599 0
-1186 -10548 10600 0
-1186 -10549 10601 0
-1186 -10550 10602 0
-1186 -10551 10603 0
-1186 -10552 0
-10553 10604 0
-10554 10605 0
-10555 10606 0
-10556 10607 0
-10557 10608 0
-10558 10609 0
-10559 10610 0
-10560 10611 0
-10561 10612 0
-10562 10613 0
-10563 10614 0
-10564 10615 0
-10565 10616 0
-10566 10617 0
-10567 10618 0
-10568 10619 0
-10569 10620 0
-10570 10621 0
-10571 10622 0
-10572 10623 0
-10573 10624 0
-10574 10625 0
-10575 10626 0
-10576 10627 0
-10577 10628 0
-10578 10629 0
-10579 10630 0
-10580 10631 0
-10581 10632 0
-10582 10633 0
-10583 10634 0
-10584 10635 0
-10585 10636 0
-10586 10637 0
-10587 10638 0
-10588 10639 0
-10589 10640 0
-10590 10641 0
-10591 10642 0
-10592 10643 0
-10593 10644 0
-10594 10645 0
-10595 10646 0
-10596 10647 0
-10597 10648 0
-10598 10649 0
-10599 10650 0
-10600 10651 0
-10601 10652 0
-10602 10653 0
-10603 10654 0
-1188 -10553 10605 0
-1188 -10554 10606 0
-1188 -10555 10607 0
-1188 -10556 10608 0
-1188 -10557 10609 0
-1188 -10558 10610 0
-1188 -10559 10611 0
-1188 -10560 10612 0
-1188 -10561 10613 0
-1188 -10562 10614 0
-1188 -10563 10615 0
-1188 -10564 10616 0
-1188 -10565 10617 0
-1188 -10566 10618 0
-1188 -10567 10619 0
-1188 -10568 10620 0
-1188 -10569 10621 0
-1188 -10570 10622 0
-1188 -10571 10623 0
-1188 -10572 10624 0
-1188 -10573 10625 0
-1188 -10574 10626 0
-1188 -10575 10627 0
-1188 -10576 10628 0
-1188 -10577 10629 0
-1188 -10578 10630 0
-1188 -10579 10631 0
-1188 -10580 10632 0
-1188 -10581 10633 0
-1188 -10582 10634 0
-1188 -10583 10635 0
-1188 -10584 10636 0
-1188 -10585 10637 0
-1188 -10586 10638 0
-1188 -10587 10639 0
-1188 -10588 10640 0
-1188 -10589 10641 0
-1188 -10590 10642 0
-1188 -10591 10643 0
-1188 -10592 10644 0
-1188 -10593 10645 0
-1188 -10594 10646 0
-1188 -10595 10647 0
-1188 -10596 10648 0
-1188 -10597 10649 0
-1188 -10598 10650 0
-1188 -10599 10651 0
-1188 -10600 10652 0
-1188 -10601 10653 0
-1188 -10602 10654 0
-1188 -10603 0
-10604 10655 0
-10605 10656 0
-10606 10657 0
-10607 10658 0
-10608 10659 0
-10609 10660 0
-10610 10661 0
-10611 10662 0
-10612 10663 0
-10613 10664 0
-10614 10665 0
-10615 10666 0
-10616 10667 0
-10617 10668 0
-10618 10669 0
-10619 10670 0
-10620 10671 0
-10621 10672 0
-10622 10673 0
-10623 10674 0
-10624 10675 0
-10625 10676 0
-10626 10677 0
-10627 10678 0
-10628 10679 0
-10629 10680 0
-10630 10681 0
-10631 10682 0
-10632 10683 0
-10633 10684 0
-10634 10685 0
-10635 10686 0
-10636 10687 0
-10637 10688 0
-10638 10689 0
-10639 10690 0
-10640 10691 0
-10641 10692 0
-10642 10693 0
-10643 10694 0
-10644 10695 0
-10645 10696 0
-10646 10697 0
-10647 10698 0
-10648 10699 0
-10649 10700 0
-10650 10701 0
-10651 10702 0
-10652 10703 0
-10653 10704 0
-10654 10705 0
-1190 -10604 10656 0
-1190 -10605 10657 0
-1190 -10606 10658 0
-1190 -10607 10659 0
-1190 -10608 10660 0
-1190 -10609 10661 0
-1190 -10610 10662 0
-1190 -10611 10663 0
-1190 -10612 10664 0
-1190 -10613 10665 0
-1190 -10614 10666 0
-1190 -10615 10667 0
-1190 -10616 10668 0
-1190 -10617 10669 0
-1190 -10618 10670 0
-1190 -10619 10671 0
-1190 -10620 10672 0
-1190 -10621 10673 0
-1190 -10622 10674 0
-1190 -10623 10675 0
-1190 -10624 10676 0
-1190 -10625 10677 0
-1190 -10626 10678 0
-1190 -10627 10679 0
-1190 -10628 10680 0
-1190 -10629 10681 0
-1190 -10630 10682 0
-1190 -10631 10683 0
-1190 -10632 10684 0
-1190 -10633 10685 0
-1190 -10634 10686 0
-1190 -10635 10687 0
-1190 -10636 10688 0
-1190 -10637 10689 0
-1190 -10638 10690 0
-1190 -10639 10691 0
-1190 -10640 10692 0
-1190 -10641 10693 0
-1190 -10642 10694 0
-1190 -10643 10695 0
-1190 -10644 10696 0
-1190 -10645 10697 0
-1190 -10646 10698 0
-1190 -10647 10699 0
-1190 -10648 10700 0
-1190 -10649 10701 0
-1190 -10650 10702 0
-1190 -10651 10703 0
-1190 -10652 10704 0
-1190 -10653 10705 0
-1190 -10654 0
-10655 10706 0
-10656 10707 0
-10657 10708 0
-10658 10709 0
-10659 10710 0
-10660 10711 0
-10661 10712 0
-10662 10713 0
-10663 10714 0
-10664 10715 0
-10665 10716 0
-10666 10717 0
-10667 10718 0
-10668 10719 0
-10669 10720 0
-10670 10721 0
-10671 10722 0
-10672 10723 0
-10673 10724 0
-10674 10725 0
-10675 10726 0
-10676 10727 0
-10677 10728 0
-10678 10729 0
-10679 10730 0
-10680 10731 0
-10681 10732 0
-10682 10733 0
-10683 10734 0
-10684 10735 0
-10685 10736 0
-10686 10737 0
-10687 10738 0
-10688 10739 0
-10689 10740 0
-10690 10741 0
-10691 10742 0
-10692 10743 0
-10693 10744 0
-10694 10745 0
-10695 10746 0
-10696 10747 0
-10697 10748 0
-10698 10749 0
-10699 10750 0
-10700 10751 0
-10701 10752 0
-10702 10753 0
-10703 10754 0
-10704 10755 0
-10705 10756 0
-1192 -10655 10707 0
-1192 -10656 10708 0
-1192 -10657 10709 0
-1192 -10658 10710 0
-1192 -10659 10711 0
-1192 -10660 10712 0
-1192 -10661 10713 0
-1192 -10662 10714 0
-1192 -10663 10715 0
-1192 -10664 10716 0
-1192 -10665 10717 0
-1192 -10666 10718 0
-1192 -10667 10719 0
-1192 -10668 10720 0
-1192 -10669 10721 0
-1192 -10670 10722 0
-1192 -10671 10723 0
-1192 -10672 10724 0
-1192 -10673 10725 0
-1192 -10674 10726 0
-1192 -10675 10727 0
-1192 -10676 10728 0
-1192 -10677 10729 0
-1192 -10678 10730 0
-1192 -10679 10731 0
-1192 -10680 10732 0
-1192 -10681 10733 0
-1192 -10682 10734 0
-1192 -10683 10735 0
-1192 -10684 10736 0
-1192 -10685 10737 0
-1192 -10686 10738 0
-1192 -10687 10739 0
-1192 -10688 10740 0
-1192 -10689 10741 0
-1192 -10690 10742 0
-1192 -10691 10743 0
-1192 -10692 10744 0
-1192 -10693 10745 0
-1192 -10694 10746 0
-1192 -10695 10747 0
-1192 -10696 10748 0
-1192 -10697 10749 0
-1192 -10698 10750 0
-1192 -10699 10751 0
-1192 -10700 10752 0
-1192 -10701 10753 0
-1192 -10702 10754 0
-1192 -10703 10755 0
-1192 -10704 10756 0
-1192 -10705 0
-10706 10757 0
-10707 10758 0
-10708 10759 0
-10709 10760 0
-10710 10761 0
-10711 10762 0
-10712 10763 0
-10713 10764 0
-10714 10765 0
-10715 10766 0
-10716 10767 0
-10717 10768 0
-10718 10769 0
-10719 10770 0
-10720 10771 0
-10721 10772 0
-10722 10773 0
-10723 10774 0
-10724 10775 0
-10725 10776 0
-10726 10777 0
-10727 10778 0
-10728 10779 0
-10729 10780 0
-10730 10781 0
-10731 10782 0
-10732 10783 0
-10733 10784 0
-10734 10785 0
-10735 10786 0
-10736 10787 0
-10737 10788 0
-10738 10789 0
-10739 10790 0
-10740 10791 0
-10741 10792 0
-10742 10793 0
-10743 10794 0
-10744 10795 0
-10745 10796 0
-10746 10797 0
-10747 10798 0
-10748 10799 0
-10749 10800 0
-10750 10801 0
-10751 10802 0
-10752 10803 0
-10753 10804 0
-10754 10805 0
-10755 10806 0
-10756 10807 0
-1194 -10706 10758 0
-1194 -10707 10759 0
-1194 -10708 10760 0
-1194 -10709 10761 0
-1194 -10710 10762 0
-1194 -10711 10763 0
-1194 -10712 10764 0
-1194 -10713 10765 0
-1194 -10714 10766 0
-1194 -10715 10767 0
-1194 -10716 10768 0
-1194 -10717 10769 0
-1194 -10718 10770 0
-1194 -10719 10771 0
-1194 -10720 10772 0
-1194 -10721 10773 0
-1194 -10722 10774 0
-1194 -10723 10775 0
-1194 -10724 10776 0
-1194 -10725 10777 0
-1194 -10726 10778 0
-1194 -10727 10779 0
-1194 -10728 10780 0
-1194 -10729 10781 0
-1194 -10730 10782 0
-1194 -10731 10783 0
-1194 -10732 10784 0
-1194 -10733 10785 0
-1194 -10734 10786 0
-1194 -10735 10787 0
-1194 -10736 10788 0
-1194 -10737 10789 0
-1194 -10738 10790 0
-1194 -10739 10791 0
-1194 -10740 10792 0
-1194 -10741 10793 0
-1194 -10742 10794 0
-1194 -10743 10795 0
-1194 -10744 10796 0
-1194 -10745 10797 0
-1194 -10746 10798 0
-1194 -10747 10799 0
-1194 -10748 10800 0
-1194 -10749 10801 0
-1194 -10750 10802 0
-1194 -10751 10803 0
-1194 -10752 10804 0
-1194 -10753 10805 0
-1194 -10754 10806 0
-1194 -10755 10807 0
-1194 -10756 0
-10757 10808 0
-10758 10809 0
-10759 10810 0
-10760 10811 0
-10761 10812 0
-10762 10813 0
-10763 10814 0
-10764 10815 0
-10765 10816 0
-10766 10817 0
-10767 10818 0
-10768 10819 0
-10769 10820 0
-10770 10821 0
-10771 10822 0
-10772 10823 0
-10773 10824 0
-10774 10825 0
-10775 10826 0
-10776 10827 0
-10777 10828 0
-10778 10829 0
-10779 10830 0
-10780 10831 0
-10781 10832 0
-10782 10833 0
-10783 10834 0
-10784 10835 0
-10785 10836 0
-10786 10837 0
-10787 10838 0
-10788 10839 0
-10789 10840 0
-10790 10841 0
-10791 10842 0
-10792 10843 0
-10793 10844 0
-10794 10845 0
-10795 10846 0
-10796 10847 0
-10797 10848 0
-10798 10849 0
-10799 10850 0
-10800 10851 0
-10801 10852 0
-10802 10853 0
-10803 10854 0
-10804 10855 0
-10805 10856 0
-10806 10857 0
-10807 10858 0
-1196 -10757 10809 0
-1196 -10758 10810 0
-1196 -10759 10811 0
-1196 -10760 10812 0
-1196 -10761 10813 0
-1196 -10762 10814 0
-1196 -10763 10815 0
-1196 -10764 10816 0
-1196 -10765 10817 0
-1196 -10766 10818 0
-1196 -10767 10819 0
-1196 -10768 10820 0
-1196 -10769 10821 0
-1196 -10770 10822 0
-1196 -10771 10823 0
-1196 -10772 10824 0
-1196 -10773 10825 0
-1196 -10774 10826 0
-1196 -10775 10827 0
-1196 -10776 10828 0
-1196 -10777 10829 0
-1196 -10778 10830 0
-1196 -10779 10831 0
-1196 -10780 10832 0
-1196 -10781 10833 0
-1196 -10782 10834 0
-1196 -10783 10835 0
-1196 -10784 10836 0
-1196 -10785 10837 0
-1196 -10786 10838 0
-1196 -10787 10839 0
-1196 -10788 10840 0
-1196 -10789 10841 0
-1196 -10790 10842 0
-1196 -10791 10843 0
-1196 -10792 10844 0
-1196 -10793 10845 0
-1196 -10794 10846 0
-1196 -10795 10847 0
-1196 -10796 10848 0
-1196 -10797 10849 0
-1196 -10798 10850 0
-1196 -10799 10851 0
-1196 -10800 10852 0
-1196 -10801 10853 0
-1196 -10802 10854 0
-1196 -10803 10855 0
-1196 -10804 10856 0
-1196 -10805 10857 0
-1196 -10806 10858 0
-1196 -10807 0
-10808 10859 0
-10809 10860 0
-10810 10861 0
-10811 10862 0
-10812 10863 0
-10813 10864 0
-10814 10865 0
-10815 10866 0
-10816 10867 0
-10817 10868 0
-10818 10869 0
-10819 10870 0
-10820 10871 0
-10821 10872 0
-10822 10873 0
-10823 10874 0
-10824 10875 0
-10825 10876 0
-10826 10877 0
-10827 10878 0
-10828 10879 0
-10829 10880 0
-10830 10881 0
-10831 10882 0
-10832 10883 0
-10833 10884 0
-10834 10885 0
-10835 10886 0
-10836 10887 0
-10837 10888 0
-10838 10889 0
-10839 10890 0
-10840 10891 0
-10841 10892 0
-10842 10893 0
-10843 10894 0
-10844 10895 0
-10845 10896 0
-10846 10897 0
-10847 10898 0
-10848 10899 0
-10849 10900 0
-10850 10901 0
-10851 10902 0
-10852 10903 0
-10853 10904 0
-10854 10905 0
-10855 10906 0
-10856 10907 0
-10857 10908 0
-10858 10909 0
-1198 -10808 10860 0
-1198 -10809 10861 0
-1198 -10810 10862 0
-1198 -10811 10863 0
-1198 -10812 10864 0
-1198 -10813 10865 0
-1198 -10814 10866 0
-1198 -10815 10867 0
-1198 -10816 10868 0
-1198 -10817 10869 0
-1198 -10818 10870 0
-1198 -10819 10871 0
-1198 -10820 10872 0
-1198 -10821 10873 0
-1198 -10822 10874 0
-1198 -10823 10875 0
-1198 -10824 10876 0
-1198 -10825 10877 0
-1198 -10826 10878 0
-1198 -10827 10879 0
-1198 -10828 10880 0
-1198 -10829 10881 0
-1198 -10830 10882 0
-1198 -10831 10883 0
-1198 -10832 10884 0
-1198 -10833 10885 0
-1198 -10834 10886 0
-1198 -10835 10887 0
-1198 -10836 10888 0
-1198 -10837 10889 0
-1198 -10838 10890 0
-1198 -10839 10891 0
-1198 -10840 10892 0
-1198 -10841 10893 0
-1198 -10842 10894 0
-1198 -10843 10895 0
-1198 -10844 10896 0
-1198 -10845 10897 0
-1198 -10846 10898 0
-1198 -10847 10899 0
-1198 -10848 10900 0
-1198 -10849 10901 0
-1198 -10850 10902 0
-1198 -10851 10903 0
-1198 -10852 10904 0
-1198 -10853 10905 0
-1198 -10854 10906 0
-1198 -10855 10907 0
-1198 -10856 10908 0
-1198 -10857 10909 0
-1198 -10858 0
-10859 10910 0
-10860 10911 0
-10861 10912 0
-10862 10913 0
-10863 10914 0
-10864 10915 0
-10865 10916 0
-10866 10917 0
-10867 10918 0
-10868 10919 0
-10869 10920 0
-10870 10921 0
-10871 10922 0
-10872 10923 0
-10873 10924 0
-10874 10925 0
-10875 10926 0
-10876 10927 0
-10877 10928 0
-10878 10929 0
-10879 10930 0
-10880 10931 0
-10881 10932 0
-10882 10933 0
-10883 10934 0
-10884 10935 0
-10885 10936 0
-10886 10937 0
-10887 10938 0
-10888 10939 0
-10889 10940 0
-10890 10941 0
-10891 10942 0
-10892 10943 0
-10893 10944 0
-10894 10945 0
-10895 10946 0
-10896 10947 0
-10897 10948 0
-10898 10949 0
-10899 10950 0
-10900 10951 0
-10901 10952 0
-10902 10953 0
-10903 10954 0
-10904 10955 0
-10905 10956 0
-10906 10957 0
-10907 10958 0
-10908 10959 0
-10909 10960 0
-1200 -10859 10911 0
-1200 -10860 10912 0
-1200 -10861 10913 0
-1200 -10862 10914 0
-1200 -10863 10915 0
-1200 -10864 10916 0
-1200 -10865 10917 0
-1200 -10866 10918 0
-1200 -10867 10919 0
-1200 -10868 10920 0
-1200 -10869 10921 0
-1200 -10870 10922 0
-1200 -10871 10923 0
-1200 -10872 10924 0
-1200 -10873 10925 0
-1200 -10874 10926 0
-1200 -10875 10927 0
-1200 -10876 10928 0
-1200 -10877 10929 0
-1200 -10878 10930 0
-1200 -10879 10931 0
-1200 -10880 10932 0
-1200 -10881 10933 0
-1200 -10882 10934 0
-1200 -10883 10935 0
-1200 -10884 10936 0
-1200 -10885 10937 0
-1200 -10886 10938 0
-1200 -10887 10939 0
-1200 -10888 10940 0
-1200 -10889 10941 0
-1200 -10890 10942 0
-1200 -10891 10943 0
-1200 -10892 10944 0
-1200 -10893 10945 0
-1200 -10894 10946 0
-1200 -10895 10947 0
-1200 -10896 10948 0
-1200 -10897 10949 0
-1200 -10898 10950 0
-1200 -10899 10951 0
-1200 -10900 10952 0
-1200 -10901 10953 0
-1200 -10902 10954 0
-1200 -10903 10955 0
-1200 -10904 10956 0
-1200 -10905 10957 0
-1200 -10906 10958 0
-1200 -10907 10959 0
-1200 -10908 10960 0
-1200 -10909 0
-10910 10961 0
-10911 10962 0
-10912 10963 0
-10913 10964 0
-10914 10965 0
-10915 10966 0
-10916 10967 0
-10917 10968 0
-10918 10969 0
-10919 10970 0
-10920 10971 0
-10921 10972 0
-10922 10973 0
-10923 10974 0
-10924 10975 0
-10925 10976 0
-10926 10977 0
-10927 10978 0
-10928 10979 0
-10929 10980 0
-10930 10981 0
-10931 10982 0
-10932 10983 0
-10933 10984 0
-10934 10985 0
-10935 10986 0
-10936 10987 0
-10937 10988 0
-10938 10989 0
-10939 10990 0
-10940 10991 0
-10941 10992 0
-10942 10993 0
-10943 10994 0
-10944 10995 0
-10945 10996 0
-10946 10997 0
-10947 10998 0
-10948 10999 0
-10949 11000 0
-10950 11001 0
-10951 11002 0
-10952 11003 0
-10953 11004 0
-10954 11005 0
-10955 11006 0
-10956 11007 0
-10957 11008 0
-10958 11009 0
-10959 11010 0
-10960 11011 0
-1202 -10910 10962 0
-1202 -10911 10963 0
-1202 -10912 10964 0
-1202 -10913 10965 0
-1202 -10914 10966 0
-1202 -10915 10967 0
-1202 -10916 10968 0
-1202 -10917 10969 0
-1202 -10918 10970 0
-1202 -10919 10971 0
-1202 -10920 10972 0
-1202 -10921 10973 0
-1202 -10922 10974 0
-1202 -10923 10975 0
-1202 -10924 10976 0
-1202 -10925 10977 0
-1202 -10926 10978 0
-1202 -10927 10979 0
-1202 -10928 10980 0
-1202 -10929 10981 0
-1202 -10930 10982 0
-1202 -10931 10983 0
-1202 -10932 10984 0
-1202 -10933 10985 0
-1202 -10934 10986 0
-1202 -10935 10987 0
-1202 -10936 10988 0
-1202 -10937 10989 0
-1202 -10938 10990 0
-1202 -10939 10991 0
-1202 -10940 10992 0
-1202 -10941 10993 0
-1202 -10942 10994 0
-1202 -10943 10995 0
-1202 -10944 10996 0
-1202 -10945 10997 0
-1202 -10946 10998 0
-1202 -10947 10999 0
-1202 -10948 11000 0
-1202 -10949 11001 0
-1202 -10950 11002 0
-1202 -10951 11003 0
-1202 -10952 11004 0
-1202 -10953 11005 0
-1202 -10954 11006 0
-1202 -10955 11007 0
-1202 -10956 11008 0
-1202 -10957 11009 0
-1202 -10958 11010 0
-1202 -10959 11011 0
-1202 -10960 0
-10961 11012 0
-10962 11013 0
-10963 11014 0
-10964 11015 0
-10965 11016 0
-10966 11017 0
-10967 11018 0
-10968 11019 0
-10969 11020 0
-10970 11021 0
-10971 11022 0
-10972 11023 0
-10973 11024 0
-10974 11025 0
-10975 11026 0
-10976 11027 0
-10977 11028 0
-10978 11029 0
-10979 11030 0
-10980 11031 0
-10981 11032 0
-10982 11033 0
-10983 11034 0
-10984 11035 0
-10985 11036 0
-10986 11037 0
-10987 11038 0
-10988 11039 0
-10989 11040 0
-10990 11041 0
-10991 11042 0
-10992 11043 0
-10993 11044 0
-10994 11045 0
-10995 11046 0
-10996 11047 0
-10997 11048 0
-10998 11049 0
-10999 11050 0
-11000 11051 0
-11001 11052 0
-11002 11053 0
-11003 11054 0
-11004 11055 0
-11005 11056 0
-11006 11057 0
-11007 11058 0
-11008 11059 0
-11009 11060 0
-11010 11061 0
-11011 11062 0
-1204 -10961 11013 0
-1204 -10962 11014 0
-1204 -10963 11015 0
-1204 -10964 11016 0
-1204 -10965 11017 0
-1204 -10966 11018 0
-1204 -10967 11019 0
-1204 -10968 11020 0
-1204 -10969 11021 0
-1204 -10970 11022 0
-1204 -10971 11023 0
-1204 -10972 11024 0
-1204 -10973 11025 0
-1204 -10974 11026 0
-1204 -10975 11027 0
-1204 -10976 11028 0
-1204 -10977 11029 0
-1204 -10978 11030 0
-1204 -10979 11031 0
-1204 -10980 11032 0
-1204 -10981 11033 0
-1204 -10982 11034 0
-1204 -10983 11035 0
-1204 -10984 11036 0
-1204 -10985 11037 0
-1204 -10986 11038 0
-1204 -10987 11039 0
-1204 -10988 11040 0
-1204 -10989 11041 0
-1204 -10990 11042 0
-1204 -10991 11043 0
-1204 -10992 11044 0
-1204 -10993 11045 0
-1204 -10994 11046 0
-1204 -10995 11047 0
-1204 -10996 11048 0
-1204 -10997 11049 0
-1204 -10998 11050 0
-1204 -10999 11051 0
-1204 -11000 11052 0
-1204 -11001 11053 0
-1204 -11002 11054 0
-1204 -11003 11055 0
-1204 -11004 11056 0
-1204 -11005 11057 0
-1204 -11006 11058 0
-1204 -11007 11059 0
-1204 -11008 11060 0
-1204 -11009 11061 0
-1204 -11010 11062 0
-1204 -11011 0
-11012 11063 0
-11013 11064 0
-11014 11065 0
-11015 11066 0
-11016 11067 0
-11017 11068 0
-11018 11069 0
-11019 11070 0
-11020 11071 0
-11021 11072 0
-11022 11073 0
-11023 11074 0
-11024 11075 0
-11025 11076 0
-11026 11077 0
-11027 11078 0
-11028 11079 0
-11029 11080 0
-11030 11081 0
-11031 11082 0
-11032 11083 0
-11033 11084 0
-11034 11085 0
-11035 11086 0
-11036 11087 0
-11037 11088 0
-11038 11089 0
-11039 11090 0
-11040 11091 0
-11041 11092 0
-11042 11093 0
-11043 11094 0
-11044 11095 0
-11045 11096 0
-11046 11097 0
-11047 11098 0
-11048 11099 0
-11049 11100 0
-11050 11101 0
-11051 11102 0
-11052 11103 0
-11053 11104 0
-11054 11105 0
-11055 11106 0
-11056 11107 0
-11057 11108 0
-11058 11109 0
-11059 11110 0
-11060 11111 0
-11061 11112 0
-11062 11113 0
-1206 -11012 11064 0
-1206 -11013 11065 0
-1206 -11014 11066 0
-1206 -11015 11067 0
-1206 -11016 11068 0
-1206 -11017 11069 0
-1206 -11018 11070 0
-1206 -11019 11071 0
-1206 -11020 11072 0
-1206 -11021 11073 0
-1206 -11022 11074 0
-1206 -11023 11075 0
-1206 -11024 11076 0
-1206 -11025 11077 0
-1206 -11026 11078 0
-1206 -11027 11079 0
-1206 -11028 11080 0
-1206 -11029 11081 0
-1206 -11030 11082 0
-1206 -11031 11083 0
-1206 -11032 11084 0
-1206 -11033 11085 0
-1206 -11034 11086 0
-1206 -11035 11087 0
-1206 -11036 11088 0
-1206 -11037 11089 0
-1206 -11038 11090 0
-1206 -11039 11091 0
-1206 -11040 11092 0
-1206 -11041 11093 0
-1206 -11042 11094 0
-1206 -11043 11095 0
-1206 -11044 11096 0
-1206 -11045 11097 0
-1206 -11046 11098 0
-1206 -11047 11099 0
-1206 -11048 11100 0
-1206 -11049 11101 0
-1206 -11050 11102 0
-1206 -11051 11103 0
-1206 -11052 11104 0
-1206 -11053 11105 0
-1206 -11054 11106 0
-1206 -11055 11107 0
-1206 -11056 11108 0
-1206 -11057 11109 0
-1206 -11058 11110 0
-1206 -11059 11111 0
-1206 -11060 11112 0
-1206 -11061 11113 0
-1206 -11062 0
-11063 11114 0
-11064 11115 0
-11065 11116 0
-11066 11117 0
-11067 11118 0
-11068 11119 0
-11069 11120 0
-11070 11121 0
-11071 11122 0
-11072 11123 0
-11073 11124 0
-11074 11125 0
-11075 11126 0
-11076 11127 0
-11077 11128 0
-11078 11129 0
-11079 11130 0
-11080 11131 0
-11081 11132 0
-11082 11133 0
-11083 11134 0
-11084 11135 0
-11085 11136 0
-11086 11137 0
-11087 11138 0
-11088 11139 0
-11089 11140 0
-11090 11141 0
-11091 11142 0
-11092 11143 0
-11093 11144 0
-11094 11145 0
-11095 11146 0
-11096 11147 0
-11097 11148 0
-11098 11149 0
-11099 11150 0
-11100 11151 0
-11101 11152 0
-11102 11153 0
-11103 11154 0
-11104 11155 0
-11105 11156 0
-11106 11157 0
-11107 11158 0
-11108 11159 0
-11109 11160 0
-11110 11161 0
-11111 11162 0
-11112 11163 0
-11113 11164 0
-1208 -11063 11115 0
-1208 -11064 11116 0
-1208 -11065 11117 0
-1208 -11066 11118 0
-1208 -11067 11119 0
-1208 -11068 11120 0
-1208 -11069 11121 0
-1208 -11070 11122 0
-1208 -11071 11123 0
-1208 -11072 11124 0
-1208 -11073 11125 0
-1208 -11074 11126 0
-1208 -11075 11127 0
-1208 -11076 11128 0
-1208 -11077 11129 0
-1208 -11078 11130 0
-1208 -11079 11131 0
-1208 -11080 11132 0
-1208 -11081 11133 0
-1208 -11082 11134 0
-1208 -11083 11135 0
-1208 -11084 11136 0
-1208 -11085 11137 0
-1208 -11086 11138 0
-1208 -11087 11139 0
-1208 -11088 11140 0
-1208 -11089 11141 0
-1208 -11090 11142 0
-1208 -11091 11143 0
-1208 -11092 11144 0
-1208 -11093 11145 0
-1208 -11094 11146 0
-1208 -11095 11147 0
-1208 -11096 11148 0
-1208 -11097 11149 0
-1208 -11098 11150 0
-1208 -11099 11151 0
-1208 -11100 11152 0
-1208 -11101 11153 0
-1208 -11102 11154 0
-1208 -11103 11155 0
-1208 -11104 11156 0
-1208 -11105 11157 0
-1208 -11106 11158 0
-1208 -11107 11159 0
-1208 -11108 11160 0
-1208 -11109 11161 0
-1208 -11110 11162 0
-1208 -11111 11163 0
-1208 -11112 11164 0
-1208 -11113 0
-11114 11165 0
-11115 11166 0
-11116 11167 0
-11117 11168 0
-11118 11169 0
-11119 11170 0
-11120 11171 0
-11121 11172 0
-11122 11173 0
-11123 11174 0
-11124 11175 0
-11125 11176 0
-11126 11177 0
-11127 11178 0
-11128 11179 0
-11129 11180 0
-11130 11181 0
-11131 11182 0
-11132 11183 0
-11133 11184 0
-11134 11185 0
-11135 11186 0
-11136 11187 0
-11137 11188 0
-11138 11189 0
-11139 11190 0
-11140 11191 0
-11141 11192 0
-11142 11193 0
-11143 11194 0
-11144 11195 0
-11145 11196 0
-11146 11197 0
-11147 11198 0
-11148 11199 0
-11149 11200 0
-11150 11201 0
-11151 11202 0
-11152 11203 0
-11153 11204 0
-11154 11205 0
-11155 11206 0
-11156 11207 0
-11157 11208 0
-11158 11209 0
-11159 11210 0
-11160 11211 0
-11161 11212 0
-11162 11213 0
-11163 11214 0
-11164 11215 0
-1210 -11114 11166 0
-1210 -11115 11167 0
-1210 -11116 11168 0
-1210 -11117 11169 0
-1210 -11118 11170 0
-1210 -11119 11171 0
-1210 -11120 11172 0
-1210 -11121 11173 0
-1210 -11122 11174 0
-1210 -11123 11175 0
-1210 -11124 11176 0
-1210 -11125 11177 0
-1210 -11126 11178 0
-1210 -11127 11179 0
-1210 -11128 11180 0
-1210 -11129 11181 0
-1210 -11130 11182 0
-1210 -11131 11183 0
-1210 -11132 11184 0
-1210 -11133 11185 0
-1210 -11134 11186 0
-1210 -11135 11187 0
-1210 -11136 11188 0
-1210 -11137 11189 0
-1210 -11138 11190 0
-1210 -11139 11191 0
-1210 -11140 11192 0
-1210 -11141 11193 0
-1210 -11142 11194 0
-1210 -11143 11195 0
-1210 -11144 11196 0
-1210 -11145 11197 0
-1210 -11146 11198 0
-1210 -11147 11199 0
-1210 -11148 11200 0
-1210 -11149 11201 0
-1210 -11150 11202 0
-1210 -11151 11203 0
-1210 -11152 11204 0
-1210 -11153 11205 0
-1210 -11154 11206 0
-1210 -11155 11207 0
-1210 -11156 11208 0
-1210 -11157 11209 0
-1210 -11158 11210 0
-1210 -11159 11211 0
-1210 -11160 11212 0
-1210 -11161 11213 0
-1210 -11162 11214 0
-1210 -11163 11215 0
-1210 -11164 0
-11165 11216 0
-11166 11217 0
-11167 11218 0
-11168 11219 0
-11169 11220 0
-11170 11221 0
-11171 11222 0
-11172 11223 0
-11173 11224 0
-11174 11225 0
-11175 11226 0
-11176 11227 0
-11177 11228 0
-11178 11229 0
-11179 11230 0
-11180 11231 0
-11181 11232 0
-11182 11233 0
-11183 11234 0
-11184 11235 0
-11185 11236 0
-11186 11237 0
-11187 11238 0
-11188 11239 0
-11189 11240 0
-11190 11241 0
-11191 11242 0
-11192 11243 0
-11193 11244 0
-11194 11245 0
-11195 11246 0
-11196 11247 0
-11197 11248 0
-11198 11249 0
-11199 11250 0
-11200 11251 0
-11201 11252 0
-11202 11253 0
-11203 11254 0
-11204 11255 0
-11205 11256 0
-11206 11257 0
-11207 11258 0
-11208 11259 0
-11209 11260 0
-11210 11261 0
-11211 11262 0
-11212 11263 0
-11213 11264 0
-11214 11265 0
-11215 11266 0
-1212 -11165 11217 0
-1212 -11166 11218 0
-1212 -11167 11219 0
-1212 -11168 11220 0
-1212 -11169 11221 0
-1212 -11170 11222 0
-1212 -11171 11223 0
-1212 -11172 11224 0
-1212 -11173 11225 0
-1212 -11174 11226 0
-1212 -11175 11227 0
-1212 -11176 11228 0
-1212 -11177 11229 0
-1212 -11178 11230 0
-1212 -11179 11231 0
-1212 -11180 11232 0
-1212 -11181 11233 0
-1212 -11182 11234 0
-1212 -11183 11235 0
-1212 -11184 11236 0
-1212 -11185 11237 0
-1212 -11186 11238 0
-1212 -11187 11239 0
-1212 -11188 11240 0
-1212 -11189 11241 0
-1212 -11190 11242 0
-1212 -11191 11243 0
-1212 -11192 11244 0
-1212 -11193 11245 0
-1212 -11194 11246 0
-1212 -11195 11247 0
-1212 -11196 11248 0
-1212 -11197 11249 0
-1212 -11198 11250 0
-1212 -11199 11251 0
-1212 -11200 11252 0
-1212 -11201 11253 0
-1212 -11202 11254 0
-1212 -11203 11255 0
-1212 -11204 11256 0
-1212 -11205 11257 0
-1212 -11206 11258 0
-1212 -11207 11259 0
-1212 -11208 11260 0
-1212 -11209 11261 0
-1212 -11210 11262 0
-1212 -11211 11263 0
-1212 -11212 11264 0
-1212 -11213 11265 0
-1212 -11214 11266 0
-1212 -11215 0
-11216 11267 0
-11217 11268 0
-11218 11269 0
-11219 11270 0
-11220 11271 0
-11221 11272 0
-11222 11273 0
-11223 11274 0
-11224 11275 0
-11225 11276 0
-11226 11277 0
-11227 11278 0
-11228 11279 0
-11229 11280 0
-11230 11281 0
-11231 11282 0
-11232 11283 0
-11233 11284 0
-11234 11285 0
-11235 11286 0
-11236 11287 0
-11237 11288 0
-11238 11289 0
-11239 11290 0
-11240 11291 0
-11241 11292 0
-11242 11293 0
-11243 11294 0
-11244 11295 0
-11245 11296 0
-11246 11297 0
-11247 11298 0
-11248 11299 0
-11249 11300 0
-11250 11301 0
-11251 11302 0
-11252 11303 0
-11253 11304 0
-11254 11305 0
-11255 11306 0
-11256 11307 0
-11257 11308 0
-11258 11309 0
-11259 11310 0
-11260 11311 0
-11261 11312 0
-11262 11313 0
-11263 11314 0
-11264 11315 0
-11265 11316 0
-11266 11317 0
-1214 -11216 11268 0
-1214 -11217 11269 0
-1214 -11218 11270 0
-1214 -11219 11271 0
-1214 -11220 11272 0
-1214 -11221 11273 0
-1214 -11222 11274 0
-1214 -11223 11275 0
-1214 -11224 11276 0
-1214 -11225 11277 0
-1214 -11226 11278 0
-1214 -11227 11279 0
-1214 -11228 11280 0
-1214 -11229 11281 0
-1214 -11230 11282 0
-1214 -11231 11283 0
-1214 -11232 11284 0
-1214 -11233 11285 0
-1214 -11234 11286 0
-1214 -11235 11287 0
-1214 -11236 11288 0
-1214 -11237 11289 0
-1214 -11238 11290 0
-1214 -11239 11291 0
-1214 -11240 11292 0
-1214 -11241 11293 0
-1214 -11242 11294 0
-1214 -11243 11295 0
-1214 -11244 11296 0
-1214 -11245 11297 0
-1214 -11246 11298 0
-1214 -11247 11299 0
-1214 -11248 11300 0
-1214 -11249 11301 0
-1214 -11250 11302 0
-1214 -11251 11303 0
-1214 -11252 11304 0
-1214 -11253 11305 0
-1214 -11254 11306 0
-1214 -11255 11307 0
-1214 -11256 11308 0
-1214 -11257 11309 0
-1214 -11258 11310 0
-1214 -11259 11311 0
-1214 -11260 11312 0
-1214 -11261 11313 0
-1214 -11262 11314 0
-1214 -11263 11315 0
-1214 -11264 11316 0
-1214 -11265 11317 0
-1214 -11266 0
-11267 11318 0
-11268 11319 0
-11269 11320 0
-11270 11321 0
-11271 11322 0
-11272 11323 0
-11273 11324 0
-11274 11325 0
-11275 11326 0
-11276 11327 0
-11277 11328 0
-11278 11329 0
-11279 11330 0
-11280 11331 0
-11281 11332 0
-11282 11333 0
-11283 11334 0
-11284 11335 0
-11285 11336 0
-11286 11337 0
-11287 11338 0
-11288 11339 0
-11289 11340 0
-11290 11341 0
-11291 11342 0
-11292 11343 0
-11293 11344 0
-11294 11345 0
-11295 11346 0
-11296 11347 0
-11297 11348 0
-11298 11349 0
-11299 11350 0
-11300 11351 0
-11301 11352 0
-11302 11353 0
-11303 11354 0
-11304 11355 0
-11305 11356 0
-11306 11357 0
-11307 11358 0
-11308 11359 0
-11309 11360 0
-11310 11361 0
-11311 11362 0
-11312 11363 0
-11313 11364 0
-11314 11365 0
-11315 11366 0
-11316 11367 0
-11317 11368 0
-1216 -11267 11319 0
-1216 -11268 11320 0
-1216 -11269 11321 0
-1216 -11270 11322 0
-1216 -11271 11323 0
-1216 -11272 11324 0
-1216 -11273 11325 0
-1216 -11274 11326 0
-1216 -11275 11327 0
-1216 -11276 11328 0
-1216 -11277 11329 0
-1216 -11278 11330 0
-1216 -11279 11331 0
-1216 -11280 11332 0
-1216 -11281 11333 0
-1216 -11282 11334 0
-1216 -11283 11335 0
-1216 -11284 11336 0
-1216 -11285 11337 0
-1216 -11286 11338 0
-1216 -11287 11339 0
-1216 -11288 11340 0
-1216 -11289 11341 0
-1216 -11290 11342 0
-1216 -11291 11343 0
-1216 -11292 11344 0
-1216 -11293 11345 0
-1216 -11294 11346 0
-1216 -11295 11347 0
-1216 -11296 11348 0
-1216 -11297 11349 0
-1216 -11298 11350 0
-1216 -11299 11351 0
-1216 -11300 11352 0
-1216 -11301 11353 0
-1216 -11302 11354 0
-1216 -11303 11355 0
-1216 -11304 11356 0
-1216 -11305 11357 0
-1216 -11306 11358 0
-1216 -11307 11359 0
-1216 -11308 11360 0
-1216 -11309 11361 0
-1216 -11310 11362 0
-1216 -11311 11363 0
-1216 -11312 11364 0
-1216 -11313 11365 0
-1216 -11314 11366 0
-1216 -11315 11367 0
-1216 -11316 11368 0
-1216 -11317 0
-11318 11369 0
-11319 11370 0
-11320 11371 0
-11321 11372 0
-11322 11373 0
-11323 11374 0
-11324 11375 0
-11325 11376 0
-11326 11377 0
-11327 11378 0
-11328 11379 0
-11329 11380 0
-11330 11381 0
-11331 11382 0
-11332 11383 0
-11333 11384 0
-11334 11385 0
-11335 11386 0
-11336 11387 0
-11337 11388 0
-11338 11389 0
-11339 11390 0
-11340 11391 0
-11341 11392 0
-11342 11393 0
-11343 11394 0
-11344 11395 0
-11345 11396 0
-11346 11397 0
-11347 11398 0
-11348 11399 0
-11349 11400 0
-11350 11401 0
-11351 11402 0
-11352 11403 0
-11353 11404 0
-11354 11405 0
-11355 11406 0
-11356 11407 0
-11357 11408 0
-11358 11409 0
-11359 11410 0
-11360 11411 0
-11361 11412 0
-11362 11413 0
-11363 11414 0
-11364 11415 0
-11365 11416 0
-11366 11417 0
-11367 11418 0
-11368 11419 0
-1218 -11318 11370 0
-1218 -11319 11371 0
-1218 -11320 11372 0
-1218 -11321 11373 0
-1218 -11322 11374 0
-1218 -11323 11375 0
-1218 -11324 11376 0
-1218 -11325 11377 0
-1218 -11326 11378 0
-1218 -11327 11379 0
-1218 -11328 11380 0
-1218 -11329 11381 0
-1218 -11330 11382 0
-1218 -11331 11383 0
-1218 -11332 11384 0
-1218 -11333 11385 0
-1218 -11334 11386 0
-1218 -11335 11387 0
-1218 -11336 11388 0
-1218 -11337 11389 0
-1218 -11338 11390 0
-1218 -11339 11391 0
-1218 -11340 11392 0
-1218 -11341 11393 0
-1218 -11342 11394 0
-1218 -11343 11395 0
-1218 -11344 11396 0
-1218 -11345 11397 0
-1218 -11346 11398 0
-1218 -11347 11399 0
-1218 -11348 11400 0
-1218 -11349 11401 0
-1218 -11350 11402 0
-1218 -11351 11403 0
-1218 -11352 11404 0
-1218 -11353 11405 0
-1218 -11354 11406 0
-1218 -11355 11407 0
-1218 -11356 11408 0
-1218 -11357 11409 0
-1218 -11358 11410 0
-1218 -11359 11411 0
-1218 -11360 11412 0
-1218 -11361 11413 0
-1218 -11362 11414 0
-1218 -11363 11415 0
-1218 -11364 11416 0
-1218 -11365 11417 0
-1218 -11366 11418 0
-1218 -11367 11419 0
-1218 -11368 0
-11369 11420 0
-11370 11421 0
-11371 11422 0
-11372 11423 0
-11373 11424 0
-11374 11425 0
-11375 11426 0
-11376 11427 0
-11377 11428 0
-11378 11429 0
-11379 11430 0
-11380 11431 0
-11381 11432 0
-11382 11433 0
-11383 11434 0
-11384 11435 0
-11385 11436 0
-11386 11437 0
-11387 11438 0
-11388 11439 0
-11389 11440 0
-11390 11441 0
-11391 11442 0
-11392 11443 0
-11393 11444 0
-11394 11445 0
-11395 11446 0
-11396 11447 0
-11397 11448 0
-11398 11449 0
-11399 11450 0
-11400 11451 0
-11401 11452 0
-11402 11453 0
-11403 11454 0
-11404 11455 0
-11405 11456 0
-11406 11457 0
-11407 11458 0
-11408 11459 0
-11409 11460 0
-11410 11461 0
-11411 11462 0
-11412 11463 0
-11413 11464 0
-11414 11465 0
-11415 11466 0
-11416 11467 0
-11417 11468 0
-11418 11469 0
-11419 11470 0
-1220 -11369 11421 0
-1220 -11370 11422 0
-1220 -11371 11423 0
-1220 -11372 11424 0
-1220 -11373 11425 0
-1220 -11374 11426 0
-1220 -11375 11427 0
-1220 -11376 11428 0
-1220 -11377 11429 0
-1220 -11378 11430 0
-1220 -11379 11431 0
-1220 -11380 11432 0
-1220 -11381 11433 0
-1220 -11382 11434 0
-1220 -11383 11435 0
-1220 -11384 11436 0
-1220 -11385 11437 0
-1220 -11386 11438 0
-1220 -11387 11439 0
-1220 -11388 11440 0
-1220 -11389 11441 0
-1220 -11390 11442 0
-1220 -11391 11443 0
-1220 -11392 11444 0
-1220 -11393 11445 0
-1220 -11394 11446 0
-1220 -11395 11447 0
-1220 -11396 11448 0
-1220 -11397 11449 0
-1220 -11398 11450 0
-1220 -11399 11451 0
-1220 -11400 11452 0
-1220 -11401 11453 0
-1220 -11402 11454 0
-1220 -11403 11455 0
-1220 -11404 11456 0
-1220 -11405 11457 0
-1220 -11406 11458 0
-1220 -11407 11459 0
-1220 -11408 11460 0
-1220 -11409 11461 0
-1220 -11410 11462 0
-1220 -11411 11463 0
-1220 -11412 11464 0
-1220 -11413 11465 0
-1220 -11414 11466 0
-1220 -11415 11467 0
-1220 -11416 11468 0
-1220 -11417 11469 0
-1220 -11418 11470 0
-1220 -11419 0
-11420 11471 0
-11421 11472 0
-11422 11473 0
-11423 11474 0
-11424 11475 0
-11425 11476 0
-11426 11477 0
-11427 11478 0
-11428 11479 0
-11429 11480 0
-11430 11481 0
-11431 11482 0
-11432 11483 0
-11433 11484 0
-11434 11485 0
-11435 11486 0
-11436 11487 0
-11437 11488 0
-11438 11489 0
-11439 11490 0
-11440 11491 0
-11441 11492 0
-11442 11493 0
-11443 11494 0
-11444 11495 0
-11445 11496 0
-11446 11497 0
-11447 11498 0
-11448 11499 0
-11449 11500 0
-11450 11501 0
-11451 11502 0
-11452 11503 0
-11453 11504 0
-11454 11505 0
-11455 11506 0
-11456 11507 0
-11457 11508 0
-11458 11509 0
-11459 11510 0
-11460 11511 0
-11461 11512 0
-11462 11513 0
-11463 11514 0
-11464 11515 0
-11465 11516 0
-11466 11517 0
-11467 11518 0
-11468 11519 0
-11469 11520 0
-11470 11521 0
-1222 -11420 11472 0
-1222 -11421 11473 0
-1222 -11422 11474 0
-1222 -11423 11475 0
-1222 -11424 11476 0
-1222 -11425 11477 0
-1222 -11426 11478 0
-1222 -11427 11479 0
-1222 -11428 11480 0
-1222 -11429 11481 0
-1222 -11430 11482 0
-1222 -11431 11483 0
-1222 -11432 11484 0
-1222 -11433 11485 0
-1222 -11434 11486 0
-1222 -11435 11487 0
-1222 -11436 11488 0
-1222 -11437 11489 0
-1222 -11438 11490 0
-1222 -11439 11491 0
-1222 -11440 11492 0
-1222 -11441 11493 0
-1222 -11442 11494 0
-1222 -11443 11495 0
-1222 -11444 11496 0
-1222 -11445 11497 0
-1222 -11446 11498 0
-1222 -11447 11499 0
-1222 -11448 11500 0
-1222 -11449 11501 0
-1222 -11450 11502 0
-1222 -11451 11503 0
-1222 -11452 11504 0
-1222 -11453 11505 0
-1222 -11454 11506 0
-1222 -11455 11507 0
-1222 -11456 11508 0
-1222 -11457 11509 0
-1222 -11458 11510 0
-1222 -11459 11511 0
-1222 -11460 11512 0
-1222 -11461 11513 0
-1222 -11462 11514 0
-1222 -11463 11515 0
-1222 -11464 11516 0
-1222 -11465 11517 0
-1222 -11466 11518 0
-1222 -11467 11519 0
-1222 -11468 11520 0
-1222 -11469 11521 0
-1222 -11470 0
-11471 11522 0
-11472 11523 0
-11473 11524 0
-11474 11525 0
-11475 11526 0
-11476 11527 0
-11477 11528 0
-11478 11529 0
-11479 11530 0
-11480 11531 0
-11481 11532 0
-11482 11533 0
-11483 11534 0
-11484 11535 0
-11485 11536 0
-11486 11537 0
-11487 11538 0
-11488 11539 0
-11489 11540 0
-11490 11541 0
-11491 11542 0
-11492 11543 0
-11493 11544 0
-11494 11545 0
-11495 11546 0
-11496 11547 0
-11497 11548 0
-11498 11549 0
-11499 11550 0
-11500 11551 0
-11501 11552 0
-11502 11553 0
-11503 11554 0
-11504 11555 0
-11505 11556 0
-11506 11557 0
-11507 11558 0
-11508 11559 0
-11509 11560 0
-11510 11561 0
-11511 11562 0
-11512 11563 0
-11513 11564 0
-11514 11565 0
-11515 11566 0
-11516 11567 0
-11517 11568 0
-11518 11569 0
-11519 11570 0
-11520 11571 0
-11521 11572 0
-1224 -11471 11523 0
-1224 -11472 11524 0
-1224 -11473 11525 0
-1224 -11474 11526 0
-1224 -11475 11527 0
-1224 -11476 11528 0
-1224 -11477 11529 0
-1224 -11478 11530 0
-1224 -11479 11531 0
-1224 -11480 11532 0
-1224 -11481 11533 0
-1224 -11482 11534 0
-1224 -11483 11535 0
-1224 -11484 11536 0
-1224 -11485 11537 0
-1224 -11486 11538 0
-1224 -11487 11539 0
-1224 -11488 11540 0
-1224 -11489 11541 0
-1224 -11490 11542 0
-1224 -11491 11543 0
-1224 -11492 11544 0
-1224 -11493 11545 0
-1224 -11494 11546 0
-1224 -11495 11547 0
-1224 -11496 11548 0
-1224 -11497 11549 0
-1224 -11498 11550 0
-1224 -11499 11551 0
-1224 -11500 11552 0
-1224 -11501 11553 0
-1224 -11502 11554 0
-1224 -11503 11555 0
-1224 -11504 11556 0
-1224 -11505 11557 0
-1224 -11506 11558 0
-1224 -11507 11559 0
-1224 -11508 11560 0
-1224 -11509 11561 0
-1224 -11510 11562 0
-1224 -11511 11563 0
-1224 -11512 11564 0
-1224 -11513 11565 0
-1224 -11514 11566 0
-1224 -11515 11567 0
-1224 -11516 11568 0
-1224 -11517 11569 0
-1224 -11518 11570 0
-1224 -11519 11571 0
-1224 -11520 11572 0
-1224 -11521 0
-11522 11573 0
-11523 11574 0
-11524 11575 0
-11525 11576 0
-11526 11577 0
-11527 11578 0
-11528 11579 0
-11529 11580 0
-11530 11581 0
-11531 11582 0
-11532 11583 0
-11533 11584 0
-11534 11585 0
-11535 11586 0
-11536 11587 0
-11537 11588 0
-11538 11589 0
-11539 11590 0
-11540 11591 0
-11541 11592 0
-11542 11593 0
-11543 11594 0
-11544 11595 0
-11545 11596 0
-11546 11597 0
-11547 11598 0
-11548 11599 0
-11549 11600 0
-11550 11601 0
-11551 11602 0
-11552 11603 0
-11553 11604 0
-11554 11605 0
-11555 11606 0
-11556 11607 0
-11557 11608 0
-11558 11609 0
-11559 11610 0
-11560 11611 0
-11561 11612 0
-11562 11613 0
-11563 11614 0
-11564 11615 0
-11565 11616 0
-11566 11617 0
-11567 11618 0
-11568 11619 0
-11569 11620 0
-11570 11621 0
-11571 11622 0
-11572 11623 0
-1226 -11522 11574 0
-1226 -11523 11575 0
-1226 -11524 11576 0
-1226 -11525 11577 0
-1226 -11526 11578 0
-1226 -11527 11579 0
-1226 -11528 11580 0
-1226 -11529 11581 0
-1226 -11530 11582 0
-1226 -11531 11583 0
-1226 -11532 11584 0
-1226 -11533 11585 0
-1226 -11534 11586 0
-1226 -11535 11587 0
-1226 -11536 11588 0
-1226 -11537 11589 0
-1226 -11538 11590 0
-1226 -11539 11591 0
-1226 -11540 11592 0
-1226 -11541 11593 0
-1226 -11542 11594 0
-1226 -11543 11595 0
-1226 -11544 11596 0
-1226 -11545 11597 0
-1226 -11546 11598 0
-1226 -11547 11599 0
-1226 -11548 11600 0
-1226 -11549 11601 0
-1226 -11550 11602 0
-1226 -11551 11603 0
-1226 -11552 11604 0
-1226 -11553 11605 0
-1226 -11554 11606 0
-1226 -11555 11607 0
-1226 -11556 11608 0
-1226 -11557 11609 0
-1226 -11558 11610 0
-1226 -11559 11611 0
-1226 -11560 11612 0
-1226 -11561 11613 0
-1226 -11562 11614 0
-1226 -11563 11615 0
-1226 -11564 11616 0
-1226 -11565 11617 0
-1226 -11566 11618 0
-1226 -11567 11619 0
-1226 -11568 11620 0
-1226 -11569 11621 0
-1226 -11570 11622 0
-1226 -11571 11623 0
-1226 -11572 0
-11573 11624 0
-11574 11625 0
-11575 11626 0
-11576 11627 0
-11577 11628 0
-11578 11629 0
-11579 11630 0
-11580 11631 0
-11581 11632 0
-11582 11633 0
-11583 11634 0
-11584 11635 0
-11585 11636 0
-11586 11637 0
-11587 11638 0
-11588 11639 0
-11589 11640 0
-11590 11641 0
-11591 11642 0
-11592 11643 0
-11593 11644 0
-11594 11645 0
-11595 11646 0
-11596 11647 0
-11597 11648 0
-11598 11649 0
-11599 11650 0
-11600 11651 0
-11601 11652 0
-11602 11653 0
-11603 11654 0
-11604 11655 0
-11605 11656 0
-11606 11657 0
-11607 11658 0
-11608 11659 0
-11609 11660 0
-11610 11661 0
-11611 11662 0
-11612 11663 0
-11613 11664 0
-11614 11665 0
-11615 11666 0
-11616 11667 0
-11617 11668 0
-11618 11669 0
-11619 11670 0
-11620 11671 0
-11621 11672 0
-11622 11673 0
-11623 11674 0
-1228 -11573 11625 0
-1228 -11574 11626 0
-1228 -11575 11627 0
-1228 -11576 11628 0
-1228 -11577 11629 0
-1228 -11578 11630 0
-1228 -11579 11631 0
-1228 -11580 11632 0
-1228 -11581 11633 0
-1228 -11582 11634 0
-1228 -11583 11635 0
-1228 -11584 11636 0
-1228 -11585 11637 0
-1228 -11586 11638 0
-1228 -11587 11639 0
-1228 -11588 11640 0
-1228 -11589 11641 0
-1228 -11590 11642 0
-1228 -11591 11643 0
-1228 -11592 11644 0
-1228 -11593 11645 0
-1228 -11594 11646 0
-1228 -11595 11647 0
-1228 -11596 11648 0
-1228 -11597 11649 0
-1228 -11598 11650 0
-1228 -11599 11651 0
-1228 -11600 11652 0
-1228 -11601 11653 0
-1228 -11602 11654 0
-1228 -11603 11655 0
-1228 -11604 11656 0
-1228 -11605 11657 0
-1228 -11606 11658 0
-1228 -11607 11659 0
-1228 -11608 11660 0
-1228 -11609 11661 0
-1228 -11610 11662 0
-1228 -11611 11663 0
-1228 -11612 11664 0
-1228 -11613 11665 0
-1228 -11614 11666 0
-1228 -11615 11667 0
-1228 -11616 11668 0
-1228 -11617 11669 0
-1228 -11618 11670 0
-1228 -11619 11671 0
-1228 -11620 11672 0
-1228 -11621 11673 0
-1228 -11622 11674 0
-1228 -11623 0
-11624 11675 0
-11625 11676 0
-11626 11677 0
-11627 11678 0
-11628 11679 0
-11629 11680 0
-11630 11681 0
-11631 11682 0
-11632 11683 0
-11633 11684 0
-11634 11685 0
-11635 11686 0
-11636 11687 0
-11637 11688 0
-11638 11689 0
-11639 11690 0
-11640 11691 0
-11641 11692 0
-11642 11693 0
-11643 11694 0
-11644 11695 0
-11645 11696 0
-11646 11697 0
-11647 11698 0
-11648 11699 0
-11649 11700 0
-11650 11701 0
-11651 11702 0
-11652 11703 0
-11653 11704 0
-11654 11705 0
-11655 11706 0
-11656 11707 0
-11657 11708 0
-11658 11709 0
-11659 11710 0
-11660 11711 0
-11661 11712 0
-11662 11713 0
-11663 11714 0
-11664 11715 0
-11665 11716 0
-11666 11717 0
-11667 11718 0
-11668 11719 0
-11669 11720 0
-11670 11721 0
-11671 11722 0
-11672 11723 0
-11673 11724 0
-11674 11725 0
-1230 -11624 11676 0
-1230 -11625 11677 0
-1230 -11626 11678 0
-1230 -11627 11679 0
-1230 -11628 11680 0
-1230 -11629 11681 0
-1230 -11630 11682 0
-1230 -11631 11683 0
-1230 -11632 11684 0
-1230 -11633 11685 0
-1230 -11634 11686 0
-1230 -11635 11687 0
-1230 -11636 11688 0
-1230 -11637 11689 0
-1230 -11638 11690 0
-1230 -11639 11691 0
-1230 -11640 11692 0
-1230 -11641 11693 0
-1230 -11642 11694 0
-1230 -11643 11695 0
-1230 -11644 11696 0
-1230 -11645 11697 0
-1230 -11646 11698 0
-1230 -11647 11699 0
-1230 -11648 11700 0
-1230 -11649 11701 0
-1230 -11650 11702 0
-1230 -11651 11703 0
-1230 -11652 11704 0
-1230 -11653 11705 0
-1230 -11654 11706 0
-1230 -11655 11707 0
-1230 -11656 11708 0
-1230 -11657 11709 0
-1230 -11658 11710 0
-1230 -11659 11711 0
-1230 -11660 11712 0
-1230 -11661 11713 0
-1230 -11662 11714 0
-1230 -11663 11715 0
-1230 -11664 11716 0
-1230 -11665 11717 0
-1230 -11666 11718 0
-1230 -11667 11719 0
-1230 -11668 11720 0
-1230 -11669 11721 0
-1230 -11670 11722 0
-1230 -11671 11723 0
-1230 -11672 11724 0
-1230 -11673 11725 0
-1230 -11674 0
-11675 11726 0
-11676 11727 0
-11677 11728 0
-11678 11729 0
-11679 11730 0
-11680 11731 0
-11681 11732 0
-11682 11733 0
-11683 11734 0
-11684 11735 0
-11685 11736 0
-11686 11737 0
-11687 11738 0
-11688 11739 0
-11689 11740 0
-11690 11741 0
-11691 11742 0
-11692 11743 0
-11693 11744 0
-11694 11745 0
-11695 11746 0
-11696 11747 0
-11697 11748 0
-11698 11749 0
-11699 11750 0
-11700 11751 0
-11701 11752 0
-11702 11753 0
-11703 11754 0
-11704 11755 0
-11705 11756 0
-11706 11757 0
-11707 11758 0
-11708 11759 0
-11709 11760 0
-11710 11761 0
-11711 11762 0
-11712 11763 0
-11713 11764 0
-11714 11765 0
-11715 11766 0
-11716 11767 0
-11717 11768 0
-11718 11769 0
-11719 11770 0
-11720 11771 0
-11721 11772 0
-11722 11773 0
-11723 11774 0
-11724 11775 0
-11725 11776 0
-1232 -11675 11727 0
-1232 -11676 11728 0
-1232 -11677 11729 0
-1232 -11678 11730 0
-1232 -11679 11731 0
-1232 -11680 11732 0
-1232 -11681 11733 0
-1232 -11682 11734 0
-1232 -11683 11735 0
-1232 -11684 11736 0
-1232 -11685 11737 0
-1232 -11686 11738 0
-1232 -11687 11739 0
-1232 -11688 11740 0
-1232 -11689 11741 0
-1232 -11690 11742 0
-1232 -11691 11743 0
-1232 -11692 11744 0
-1232 -11693 11745 0
-1232 -11694 11746 0
-1232 -11695 11747 0
-1232 -11696 11748 0
-1232 -11697 11749 0
-1232 -11698 11750 0
-1232 -11699 11751 0
-1232 -11700 11752 0
-1232 -11701 11753 0
-1232 -11702 11754 0
-1232 -11703 11755 0
-1232 -11704 11756 0
-1232 -11705 11757 0
-1232 -11706 11758 0
-1232 -11707 11759 0
-1232 -11708 11760 0
-1232 -11709 11761 0
-1232 -11710 11762 0
-1232 -11711 11763 0
-1232 -11712 11764 0
-1232 -11713 11765 0
-1232 -11714 11766 0
-1232 -11715 11767 0
-1232 -11716 11768 0
-1232 -11717 11769 0
-1232 -11718 11770 0
-1232 -11719 11771 0
-1232 -11720 11772 0
-1232 -11721 11773 0
-1232 -11722 11774 0
-1232 -11723 11775 0
-1232 -11724 11776 0
-1232 -11725 0
-11726 11777 0
-11727 11778 0
-11728 11779 0
-11729 11780 0
-11730 11781 0
-11731 11782 0
-11732 11783 0
-11733 11784 0
-11734 11785 0
-11735 11786 0
-11736 11787 0
-11737 11788 0
-11738 11789 0
-11739 11790 0
-11740 11791 0
-11741 11792 0
-11742 11793 0
-11743 11794 0
-11744 11795 0
-11745 11796 0
-11746 11797 0
-11747 11798 0
-11748 11799 0
-11749 11800 0
-11750 11801 0
-11751 11802 0
-11752 11803 0
-11753 11804 0
-11754 11805 0
-11755 11806 0
-11756 11807 0
-11757 11808 0
-11758 11809 0
-11759 11810 0
-11760 11811 0
-11761 11812 0
-11762 11813 0
-11763 11814 0
-11764 11815 0
-11765 11816 0
-11766 11817 0
-11767 11818 0
-11768 11819 0
-11769 11820 0
-11770 11821 0
-11771 11822 0
-11772 11823 0
-11773 11824 0
-11774 11825 0
-11775 11826 0
-11776 11827 0
-1234 -11726 11778 0
-1234 -11727 11779 0
-1234 -11728 11780 0
-1234 -11729 11781 0
-1234 -11730 11782 0
-1234 -11731 11783 0
-1234 -11732 11784 0
-1234 -11733 11785 0
-1234 -11734 11786 0
-1234 -11735 11787 0
-1234 -11736 11788 0
-1234 -11737 11789 0
-1234 -11738 11790 0
-1234 -11739 11791 0
-1234 -11740 11792 0
-1234 -11741 11793 0
-1234 -11742 11794 0
-1234 -11743 11795 0
-1234 -11744 11796 0
-1234 -11745 11797 0
-1234 -11746 11798 0
-1234 -11747 11799 0
-1234 -11748 11800 0
-1234 -11749 11801 0
-1234 -11750 11802 0
-1234 -11751 11803 0
-1234 -11752 11804 0
-1234 -11753 11805 0
-1234 -11754 11806 0
-1234 -11755 11807 0
-1234 -11756 11808 0
-1234 -11757 11809 0
-1234 -11758 11810 0
-1234 -11759 11811 0
-1234 -11760 11812 0
-1234 -11761 11813 0
-1234 -11762 11814 0
-1234 -11763 11815 0
-1234 -11764 11816 0
-1234 -11765 11817 0
-1234 -11766 11818 0
-1234 -11767 11819 0
-1234 -11768 11820 0
-1234 -11769 11821 0
-1234 -11770 11822 0
-1234 -11771 11823 0
-1234 -11772 11824 0
-1234 -11773 11825 0
-1234 -11774 11826 0
-1234 -11775 11827 0
-1234 -11776 0
-11777 11828 0
-11778 11829 0
-11779 11830 0
-11780 11831 0
-11781 11832 0
-11782 11833 0
-11783 11834 0
-11784 11835 0
-11785 11836 0
-11786 11837 0
-11787 11838 0
-11788 11839 0
-11789 11840 0
-11790 11841 0
-11791 11842 0
-11792 11843 0
-11793 11844 0
-11794 11845 0
-11795 11846 0
-11796 11847 0
-11797 11848 0
-11798 11849 0
-11799 11850 0
-11800 11851 0
-11801 11852 0
-11802 11853 0
-11803 11854 0
-11804 11855 0
-11805 11856 0
-11806 11857 0
-11807 11858 0
-11808 11859 0
-11809 11860 0
-11810 11861 0
-11811 11862 0
-11812 11863 0
-11813 11864 0
-11814 11865 0
-11815 11866 0
-11816 11867 0
-11817 11868 0
-11818 11869 0
-11819 11870 0
-11820 11871 0
-11821 11872 0
-11822 11873 0
-11823 11874 0
-11824 11875 0
-11825 11876 0
-11826 11877 0
-11827 11878 0
-1236 -11777 11829 0
-1236 -11778 11830 0
-1236 -11779 11831 0
-1236 -11780 11832 0
-1236 -11781 11833 0
-1236 -11782 11834 0
-1236 -11783 11835 0
-1236 -11784 11836 0
-1236 -11785 11837 0
-1236 -11786 11838 0
-1236 -11787 11839 0
-1236 -11788 11840 0
-1236 -11789 11841 0
-1236 -11790 11842 0
-1236 -11791 11843 0
-1236 -11792 11844 0
-1236 -11793 11845 0
-1236 -11794 11846 0
-1236 -11795 11847 0
-1236 -11796 11848 0
-1236 -11797 11849 0
-1236 -11798 11850 0
-1236 -11799 11851 0
-1236 -11800 11852 0
-1236 -11801 11853 0
-1236 -11802 11854 0
-1236 -11803 11855 0
-1236 -11804 11856 0
-1236 -11805 11857 0
-1236 -11806 11858 0
-1236 -11807 11859 0
-1236 -11808 11860 0
-1236 -11809 11861 0
-1236 -11810 11862 0
-1236 -11811 11863 0
-1236 -11812 11864 0
-1236 -11813 11865 0
-1236 -11814 11866 0
-1236 -11815 11867 0
-1236 -11816 11868 0
-1236 -11817 11869 0
-1236 -11818 11870 0
-1236 -11819 11871 0
-1236 -11820 11872 0
-1236 -11821 11873 0
-1236 -11822 11874 0
-1236 -11823 11875 0
-1236 -11824 11876 0
-1236 -11825 11877 0
-1236 -11826 11878 0
-1236 -11827 0
-11828 11879 0
-11829 11880 0
-11830 11881 0
-11831 11882 0
-11832 11883 0
-11833 11884 0
-11834 11885 0
-11835 11886 0
-11836 11887 0
-11837 11888 0
-11838 11889 0
-11839 11890 0
-11840 11891 0
-11841 11892 0
-11842 11893 0
-11843 11894 0
-11844 11895 0
-11845 11896 0
-11846 11897 0
-11847 11898 0
-11848 11899 0
-11849 11900 0
-11850 11901 0
-11851 11902 0
-11852 11903 0
-11853 11904 0
-11854 11905 0
-11855 11906 0
-11856 11907 0
-11857 11908 0
-11858 11909 0
-11859 11910 0
-11860 11911 0
-11861 11912 0
-11862 11913 0
-11863 11914 0
-11864 11915 0
-11865 11916 0
-11866 11917 0
-11867 11918 0
-11868 11919 0
-11869 11920 0
-11870 11921 0
-11871 11922 0
-11872 11923 0
-11873 11924 0
-11874 11925 0
-11875 11926 0
-11876 11927 0
-11877 11928 0
-11878 11929 0
-1238 -11828 11880 0
-1238 -11829 11881 0
-1238 -11830 11882 0
-1238 -11831 11883 0
-1238 -11832 11884 0
-1238 -11833 11885 0
-1238 -11834 11886 0
-1238 -11835 11887 0
-1238 -11836 11888 0
-1238 -11837 11889 0
-1238 -11838 11890 0
-1238 -11839 11891 0
-1238 -11840 11892 0
-1238 -11841 11893 0
-1238 -11842 11894 0
-1238 -11843 11895 0
-1238 -11844 11896 0
-1238 -11845 11897 0
-1238 -11846 11898 0
-1238 -11847 11899 0
-1238 -11848 11900 0
-1238 -11849 11901 0
-1238 -11850 11902 0
-1238 -11851 11903 0
-1238 -11852 11904 0
-1238 -11853 11905 0
-1238 -11854 11906 0
-1238 -11855 11907 0
-1238 -11856 11908 0
-1238 -11857 11909 0
-1238 -11858 11910 0
-1238 -11859 11911 0
-1238 -11860 11912 0
-1238 -11861 11913 0
-1238 -11862 11914 0
-1238 -11863 11915 0
-1238 -11864 11916 0
-1238 -11865 11917 0
-1238 -11866 11918 0
-1238 -11867 11919 0
-1238 -11868 11920 0
-1238 -11869 11921 0
-1238 -11870 11922 0
-1238 -11871 11923 0
-1238 -11872 11924 0
-1238 -11873 11925 0
-1238 -11874 11926 0
-1238 -11875 11927 0
-1238 -11876 11928 0
-1238 -11877 11929 0
-1238 -11878 0
-11879 11930 0
-11880 11931 0
-11881 11932 0
-11882 11933 0
-11883 11934 0
-11884 11935 0
-11885 11936 0
-11886 11937 0
-11887 11938 0
-11888 11939 0
-11889 11940 0
-11890 11941 0
-11891 11942 0
-11892 11943 0
-11893 11944 0
-11894 11945 0
-11895 11946 0
-11896 11947 0
-11897 11948 0
-11898 11949 0
-11899 11950 0
-11900 11951 0
-11901 11952 0
-11902 11953 0
-11903 11954 0
-11904 11955 0
-11905 11956 0
-11906 11957 0
-11907 11958 0
-11908 11959 0
-11909 11960 0
-11910 11961 0
-11911 11962 0
-11912 11963 0
-11913 11964 0
-11914 11965 0
-11915 11966 0
-11916 11967 0
-11917 11968 0
-11918 11969 0
-11919 11970 0
-11920 11971 0
-11921 11972 0
-11922 11973 0
-11923 11974 0
-11924 11975 0
-11925 11976 0
-11926 11977 0
-11927 11978 0
-11928 11979 0
-11929 11980 0
-1240 -11879 11931 0
-1240 -11880 11932 0
-1240 -11881 11933 0
-1240 -11882 11934 0
-1240 -11883 11935 0
-1240 -11884 11936 0
-1240 -11885 11937 0
-1240 -11886 11938 0
-1240 -11887 11939 0
-1240 -11888 11940 0
-1240 -11889 11941 0
-1240 -11890 11942 0
-1240 -11891 11943 0
-1240 -11892 11944 0
-1240 -11893 11945 0
-1240 -11894 11946 0
-1240 -11895 11947 0
-1240 -11896 11948 0
-1240 -11897 11949 0
-1240 -11898 11950 0
-1240 -11899 11951 0
-1240 -11900 11952 0
-1240 -11901 11953 0
-1240 -11902 11954 0
-1240 -11903 11955 0
-1240 -11904 11956 0
-1240 -11905 11957 0
-1240 -11906 11958 0
-1240 -11907 11959 0
-1240 -11908 11960 0
-1240 -11909 11961 0
-1240 -11910 11962 0
-1240 -11911 11963 0
-1240 -11912 11964 0
-1240 -11913 11965 0
-1240 -11914 11966 0
-1240 -11915 11967 0
-1240 -11916 11968 0
-1240 -11917 11969 0
-1240 -11918 11970 0
-1240 -11919 11971 0
-1240 -11920 11972 0
-1240 -11921 11973 0
-1240 -11922 11974 0
-1240 -11923 11975 0
-1240 -11924 11976 0
-1240 -11925 11977 0
-1240 -11926 11978 0
-1240 -11927 11979 0
-1240 -11928 11980 0
-1240 -11929 0
-11930 11981 0
-11931 11982 0
-11932 11983 0
-11933 11984 0
-11934 11985 0
-11935 11986 0
-11936 11987 0
-11937 11988 0
-11938 11989 0
-11939 11990 0
-11940 11991 0
-11941 11992 0
-11942 11993 0
-11943 11994 0
-11944 11995 0
-11945 11996 0
-11946 11997 0
-11947 11998 0
-11948 11999 0
-11949 12000 0
-11950 12001 0
-11951 12002 0
-11952 12003 0
-11953 12004 0
-11954 12005 0
-11955 12006 0
-11956 12007 0
-11957 12008 0
-11958 12009 0
-11959 12010 0
-11960 12011 0
-11961 12012 0
-11962 12013 0
-11963 12014 0
-11964 12015 0
-11965 12016 0
-11966 12017 0
-11967 12018 0
-11968 12019 0
-11969 12020 0
-11970 12021 0
-11971 12022 0
-11972 12023 0
-11973 12024 0
-11974 12025 0
-11975 12026 0
-11976 12027 0
-11977 12028 0
-11978 12029 0
-11979 12030 0
-11980 12031 0
-1242 -11930 11982 0
-1242 -11931 11983 0
-1242 -11932 11984 0
-1242 -11933 11985 0
-1242 -11934 11986 0
-1242 -11935 11987 0
-1242 -11936 11988 0
-1242 -11937 11989 0
-1242 -11938 11990 0
-1242 -11939 11991 0
-1242 -11940 11992 0
-1242 -11941 11993 0
-1242 -11942 11994 0
-1242 -11943 11995 0
-1242 -11944 11996 0
-1242 -11945 11997 0
-1242 -11946 11998 0
-1242 -11947 11999 0
-1242 -11948 12000 0
-1242 -11949 12001 0
-1242 -11950 12002 0
-1242 -11951 12003 0
-1242 -11952 12004 0
-1242 -11953 12005 0
-1242 -11954 12006 0
-1242 -11955 12007 0
-1242 -11956 12008 0
-1242 -11957 12009 0
-1242 -11958 12010 0
-1242 -11959 12011 0
-1242 -11960 12012 0
-1242 -11961 12013 0
-1242 -11962 12014 0
-1242 -11963 12015 0
-1242 -11964 12016 0
-1242 -11965 12017 0
-1242 -11966 12018 0
-1242 -11967 12019 0
-1242 -11968 12020 0
-1242 -11969 12021 0
-1242 -11970 12022 0
-1242 -11971 12023 0
-1242 -11972 12024 0
-1242 -11973 12025 0
-1242 -11974 12026 0
-1242 -11975 12027 0
-1242 -11976 12028 0
-1242 -11977 12029 0
-1242 -11978 12030 0
-1242 -11979 12031 0
-1242 -11980 0
-11981 12032 0
-11982 12033 0
-11983 12034 0
-11984 12035 0
-11985 12036 0
-11986 12037 0
-11987 12038 0
-11988 12039 0
-11989 12040 0
-11990 12041 0
-11991 12042 0
-11992 12043 0
-11993 12044 0
-11994 12045 0
-11995 12046 0
-11996 12047 0
-11997 12048 0
-11998 12049 0
-11999 12050 0
-12000 12051 0
-12001 12052 0
-12002 12053 0
-12003 12054 0
-12004 12055 0
-12005 12056 0
-12006 12057 0
-12007 12058 0
-12008 12059 0
-12009 12060 0
-12010 12061 0
-12011 12062 0
-12012 12063 0
-12013 12064 0
-12014 12065 0
-12015 12066 0
-12016 12067 0
-12017 12068 0
-12018 12069 0
-12019 12070 0
-12020 12071 0
-12021 12072 0
-12022 12073 0
-12023 12074 0
-12024 12075 0
-12025 12076 0
-12026 12077 0
-12027 12078 0
-12028 12079 0
-12029 12080 0
-12030 12081 0
-12031 12082 0
-1244 -11981 12033 0
-1244 -11982 12034 0
-1244 -11983 12035 0
-1244 -11984 12036 0
-1244 -11985 12037 0
-1244 -11986 12038 0
-1244 -11987 12039 0
-1244 -11988 12040 0
-1244 -11989 12041 0
-1244 -11990 12042 0
-1244 -11991 12043 0
-1244 -11992 12044 0
-1244 -11993 12045 0
-1244 -11994 12046 0
-1244 -11995 12047 0
-1244 -11996 12048 0
-1244 -11997 12049 0
-1244 -11998 12050 0
-1244 -11999 12051 0
-1244 -12000 12052 0
-1244 -12001 12053 0
-1244 -12002 12054 0
-1244 -12003 12055 0
-1244 -12004 12056 0
-1244 -12005 12057 0
-1244 -12006 12058 0
-1244 -12007 12059 0
-1244 -12008 12060 0
-1244 -12009 12061 0
-1244 -12010 12062 0
-1244 -12011 12063 0
-1244 -12012 12064 0
-1244 -12013 12065 0
-1244 -12014 12066 0
-1244 -12015 12067 0
-1244 -12016 12068 0
-1244 -12017 12069 0
-1244 -12018 12070 0
-1244 -12019 12071 0
-1244 -12020 12072 0
-1244 -12021 12073 0
-1244 -12022 12074 0
-1244 -12023 12075 0
-1244 -12024 12076 0
-1244 -12025 12077 0
-1244 -12026 12078 0
-1244 -12027 12079 0
-1244 -12028 12080 0
-1244 -12029 12081 0
-1244 -12030 12082 0
-1244 -12031 0
-12032 12083 0
-12033 12084 0
-12034 12085 0
-12035 12086 0
-12036 12087 0
-12037 12088 0
-12038 12089 0
-12039 12090 0
-12040 12091 0
-12041 12092 0
-12042 12093 0
-12043 12094 0
-12044 12095 0
-12045 12096 0
-12046 12097 0
-12047 12098 0
-12048 12099 0
-12049 12100 0
-12050 12101 0
-12051 12102 0
-12052 12103 0
-12053 12104 0
-12054 12105 0
-12055 12106 0
-12056 12107 0
-12057 12108 0
-12058 12109 0
-12059 12110 0
-12060 12111 0
-12061 12112 0
-12062 12113 0
-12063 12114 0
-12064 12115 0
-12065 12116 0
-12066 12117 0
-12067 12118 0
-12068 12119 0
-12069 12120 0
-12070 12121 0
-12071 12122 0
-12072 12123 0
-12073 12124 0
-12074 12125 0
-12075 12126 0
-12076 12127 0
-12077 12128 0
-12078 12129 0
-12079 12130 0
-12080 12131 0
-12081 12132 0
-12082 12133 0
-1246 -12032 12084 0
-1246 -12033 12085 0
-1246 -12034 12086 0
-1246 -12035 12087 0
-1246 -12036 12088 0
-1246 -12037 12089 0
-1246 -12038 12090 0
-1246 -12039 12091 0
-1246 -12040 12092 0
-1246 -12041 12093 0
-1246 -12042 12094 0
-1246 -12043 12095 0
-1246 -12044 12096 0
-1246 -12045 12097 0
-1246 -12046 12098 0
-1246 -12047 12099 0
-1246 -12048 12100 0
-1246 -12049 12101 0
-1246 -12050 12102 0
-1246 -12051 12103 0
-1246 -12052 12104 0
-1246 -12053 12105 0
-1246 -12054 12106 0
-1246 -12055 12107 0
-1246 -12056 12108 0
-1246 -12057 12109 0
-1246 -12058 12110 0
-1246 -12059 12111 0
-1246 -12060 12112 0
-1246 -12061 12113 0
-1246 -12062 12114 0
-1246 -12063 12115 0
-1246 -12064 12116 0
-1246 -12065 12117 0
-1246 -12066 12118 0
-1246 -12067 12119 0
-1246 -12068 12120 0
-1246 -12069 12121 0
-1246 -12070 12122 0
-1246 -12071 12123 0
-1246 -12072 12124 0
-1246 -12073 12125 0
-1246 -12074 12126 0
-1246 -12075 12127 0
-1246 -12076 12128 0
-1246 -12077 12129 0
-1246 -12078 12130 0
-1246 -12079 12131 0
-1246 -12080 12132 0
-1246 -12081 12133 0
-1246 -12082 0
-12083 12134 0
-12084 12135 0
-12085 12136 0
-12086 12137 0
-12087 12138 0
-12088 12139 0
-12089 12140 0
-12090 12141 0
-12091 12142 0
-12092 12143 0
-12093 12144 0
-12094 12145 0
-12095 12146 0
-12096 12147 0
-12097 12148 0
-12098 12149 0
-12099 12150 0
-12100 12151 0
-12101 12152 0
-12102 12153 0
-12103 12154 0
-12104 12155 0
-12105 12156 0
-12106 12157 0
-12107 12158 0
-12108 12159 0
-12109 12160 0
-12110 12161 0
-12111 12162 0
-12112 12163 0
-12113 12164 0
-12114 12165 0
-12115 12166 0
-12116 12167 0
-12117 12168 0
-12118 12169 0
-12119 12170 0
-12120 12171 0
-12121 12172 0
-12122 12173 0
-12123 12174 0
-12124 12175 0
-12125 12176 0
-12126 12177 0
-12127 12178 0
-12128 12179 0
-12129 12180 0
-12130 12181 0
-12131 12182 0
-12132 12183 0
-12133 12184 0
-1248 -12083 12135 0
-1248 -12084 12136 0
-1248 -12085 12137 0
-1248 -12086 12138 0
-1248 -12087 12139 0
-1248 -12088 12140 0
-1248 -12089 12141 0
-1248 -12090 12142 0
-1248 -12091 12143 0
-1248 -12092 12144 0
-1248 -12093 12145 0
-1248 -12094 12146 0
-1248 -12095 12147 0
-1248 -12096 12148 0
-1248 -12097 12149 0
-1248 -12098 12150 0
-1248 -12099 12151 0
-1248 -12100 12152 0
-1248 -12101 12153 0
-1248 -12102 12154 0
-1248 -12103 12155 0
-1248 -12104 12156 0
-1248 -12105 12157 0
-1248 -12106 12158 0
-1248 -12107 12159 0
-1248 -12108 12160 0
-1248 -12109 12161 0
-1248 -12110 12162 0
-1248 -12111 12163 0
-1248 -12112 12164 0
-1248 -12113 12165 0
-1248 -12114 12166 0
-1248 -12115 12167 0
-1248 -12116 12168 0
-1248 -12117 12169 0
-1248 -12118 12170 0
-1248 -12119 12171 0
-1248 -12120 12172 0
-1248 -12121 12173 0
-1248 -12122 12174 0
-1248 -12123 12175 0
-1248 -12124 12176 0
-1248 -12125 12177 0
-1248 -12126 12178 0
-1248 -12127 12179 0
-1248 -12128 12180 0
-1248 -12129 12181 0
-1248 -12130 12182 0
-1248 -12131 12183 0
-1248 -12132 12184 0
-1248 -12133 0
-12134 12185 0
-12135 12186 0
-12136 12187 0
-12137 12188 0
-12138 12189 0
-12139 12190 0
-12140 12191 0
-12141 12192 0
-12142 12193 0
-12143 12194 0
-12144 12195 0
-12145 12196 0
-12146 12197 0
-12147 12198 0
-12148 12199 0
-12149 12200 0
-12150 12201 0
-12151 12202 0
-12152 12203 0
-12153 12204 0
-12154 12205 0
-12155 12206 0
-12156 12207 0
-12157 12208 0
-12158 12209 0
-12159 12210 0
-12160 12211 0
-12161 12212 0
-12162 12213 0
-12163 12214 0
-12164 12215 0
-12165 12216 0
-12166 12217 0
-12167 12218 0
-12168 12219 0
-12169 12220 0
-12170 12221 0
-12171 12222 0
-12172 12223 0
-12173 12224 0
-12174 12225 0
-12175 12226 0
-12176 12227 0
-12177 12228 0
-12178 12229 0
-12179 12230 0
-12180 12231 0
-12181 12232 0
-12182 12233 0
-12183 12234 0
-12184 12235 0
-1250 -12134 12186 0
-1250 -12135 12187 0
-1250 -12136 12188 0
-1250 -12137 12189 0
-1250 -12138 12190 0
-1250 -12139 12191 0
-1250 -12140 12192 0
-1250 -12141 12193 0
-1250 -12142 12194 0
-1250 -12143 12195 0
-1250 -12144 12196 0
-1250 -12145 12197 0
-1250 -12146 12198 0
-1250 -12147 12199 0
-1250 -12148 12200 0
-1250 -12149 12201 0
-1250 -12150 12202 0
-1250 -12151 12203 0
-1250 -12152 12204 0
-1250 -12153 12205 0
-1250 -12154 12206 0
-1250 -12155 12207 0
-1250 -12156 12208 0
-1250 -12157 12209 0
-1250 -12158 12210 0
-1250 -12159 12211 0
-1250 -12160 12212 0
-1250 -12161 12213 0
-1250 -12162 12214 0
-1250 -12163 12215 0
-1250 -12164 12216 0
-1250 -12165 12217 0
-1250 -12166 12218 0
-1250 -12167 12219 0
-1250 -12168 12220 0
-1250 -12169 12221 0
-1250 -12170 12222 0
-1250 -12171 12223 0
-1250 -12172 12224 0
-1250 -12173 12225 0
-1250 -12174 12226 0
-1250 -12175 12227 0
-1250 -12176 12228 0
-1250 -12177 12229 0
-1250 -12178 12230 0
-1250 -12179 12231 0
-1250 -12180 12232 0
-1250 -12181 12233 0
-1250 -12182 12234 0
-1250 -12183 12235 0
-1250 -12184 0
-12185 12236 0
-12186 12237 0
-12187 12238 0
-12188 12239 0
-12189 12240 0
-12190 12241 0
-12191 12242 0
-12192 12243 0
-12193 12244 0
-12194 12245 0
-12195 12246 0
-12196 12247 0
-12197 12248 0
-12198 12249 0
-12199 12250 0
-12200 12251 0
-12201 12252 0
-12202 12253 0
-12203 12254 0
-12204 12255 0
-12205 12256 0
-12206 12257 0
-12207 12258 0
-12208 12259 0
-12209 12260 0
-12210 12261 0
-12211 12262 0
-12212 12263 0
-12213 12264 0
-12214 12265 0
-12215 12266 0
-12216 12267 0
-12217 12268 0
-12218 12269 0
-12219 12270 0
-12220 12271 0
-12221 12272 0
-12222 12273 0
-12223 12274 0
-12224 12275 0
-12225 12276 0
-12226 12277 0
-12227 12278 0
-12228 12279 0
-12229 12280 0
-12230 12281 0
-12231 12282 0
-12232 12283 0
-12233 12284 0
-12234 12285 0
-12235 12286 0
-1252 -12185 12237 0
-1252 -12186 12238 0
-1252 -12187 12239 0
-1252 -12188 12240 0
-1252 -12189 12241 0
-1252 -12190 12242 0
-1252 -12191 12243 0
-1252 -12192 12244 0
-1252 -12193 12245 0
-1252 -12194 12246 0
-1252 -12195 12247 0
-1252 -12196 12248 0
-1252 -12197 12249 0
-1252 -12198 12250 0
-1252 -12199 12251 0
-1252 -12200 12252 0
-1252 -12201 12253 0
-1252 -12202 12254 0
-1252 -12203 12255 0
-1252 -12204 12256 0
-1252 -12205 12257 0
-1252 -12206 12258 0
-1252 -12207 12259 0
-1252 -12208 12260 0
-1252 -12209 12261 0
-1252 -12210 12262 0
-1252 -12211 12263 0
-1252 -12212 12264 0
-1252 -12213 12265 0
-1252 -12214 12266 0
-1252 -12215 12267 0
-1252 -12216 12268 0
-1252 -12217 12269 0
-1252 -12218 12270 0
-1252 -12219 12271 0
-1252 -12220 12272 0
-1252 -12221 12273 0
-1252 -12222 12274 0
-1252 -12223 12275 0
-1252 -12224 12276 0
-1252 -12225 12277 0
-1252 -12226 12278 0
-1252 -12227 12279 0
-1252 -12228 12280 0
-1252 -12229 12281 0
-1252 -12230 12282 0
-1252 -12231 12283 0
-1252 -12232 12284 0
-1252 -12233 12285 0
-1252 -12234 12286 0
-1252 -12235 0
-12236 12287 0
-12237 12288 0
-12238 12289 0
-12239 12290 0
-12240 12291 0
-12241 12292 0
-12242 12293 0
-12243 12294 0
-12244 12295 0
-12245 12296 0
-12246 12297 0
-12247 12298 0
-12248 12299 0
-12249 12300 0
-12250 12301 0
-12251 12302 0
-12252 12303 0
-12253 12304 0
-12254 12305 0
-12255 12306 0
-12256 12307 0
-12257 12308 0
-12258 12309 0
-12259 12310 0
-12260 12311 0
-12261 12312 0
-12262 12313 0
-12263 12314 0
-12264 12315 0
-12265 12316 0
-12266 12317 0
-12267 12318 0
-12268 12319 0
-12269 12320 0
-12270 12321 0
-12271 12322 0
-12272 12323 0
-12273 12324 0
-12274 12325 0
-12275 12326 0
-12276 12327 0
-12277 12328 0
-12278 12329 0
-12279 12330 0
-12280 12331 0
-12281 12332 0
-12282 12333 0
-12283 12334 0
-12284 12335 0
-12285 12336 0
-12286 12337 0
-1254 -12236 12288 0
-1254 -12237 12289 0
-1254 -12238 12290 0
-1254 -12239 12291 0
-1254 -12240 12292 0
-1254 -12241 12293 0
-1254 -12242 12294 0
-1254 -12243 12295 0
-1254 -12244 12296 0
-1254 -12245 12297 0
-1254 -12246 12298 0
-1254 -12247 12299 0
-1254 -12248 12300 0
-1254 -12249 12301 0
-1254 -12250 12302 0
-1254 -12251 12303 0
-1254 -12252 12304 0
-1254 -12253 12305 0
-1254 -12254 12306 0
-1254 -12255 12307 0
-1254 -12256 12308 0
-1254 -12257 12309 0
-1254 -12258 12310 0
-1254 -12259 12311 0
-1254 -12260 12312 0
-1254 -12261 12313 0
-1254 -12262 12314 0
-1254 -12263 12315 0
-1254 -12264 12316 0
-1254 -12265 12317 0
-1254 -12266 12318 0
-1254 -12267 12319 0
-1254 -12268 12320 0
-1254 -12269 12321 0
-1254 -12270 12322 0
-1254 -12271 12323 0
-1254 -12272 12324 0
-1254 -12273 12325 0
-1254 -12274 12326 0
-1254 -12275 12327 0
-1254 -12276 12328 0
-1254 -12277 12329 0
-1254 -12278 12330 0
-1254 -12279 12331 0
-1254 -12280 12332 0
-1254 -12281 12333 0
-1254 -12282 12334 0
-1254 -12283 12335 0
-1254 -12284 12336 0
-1254 -12285 12337 0
-1254 -12286 0
-12287 12338 0
-12288 12339 0
-12289 12340 0
-12290 12341 0
-12291 12342 0
-12292 12343 0
-12293 12344 0
-12294 12345 0
-12295 12346 0
-12296 12347 0
-12297 12348 0
-12298 12349 0
-12299 12350 0
-12300 12351 0
-12301 12352 0
-12302 12353 0
-12303 12354 0
-12304 12355 0
-12305 12356 0
-12306 12357 0
-12307 12358 0
-12308 12359 0
-12309 12360 0
-12310 12361 0
-12311 12362 0
-12312 12363 0
-12313 12364 0
-12314 12365 0
-12315 12366 0
-12316 12367 0
-12317 12368 0
-12318 12369 0
-12319 12370 0
-12320 12371 0
-12321 12372 0
-12322 12373 0
-12323 12374 0
-12324 12375 0
-12325 12376 0
-12326 12377 0
-12327 12378 0
-12328 12379 0
-12329 12380 0
-12330 12381 0
-12331 12382 0
-12332 12383 0
-12333 12384 0
-12334 12385 0
-12335 12386 0
-12336 12387 0
-12337 12388 0
-1256 -12287 12339 0
-1256 -12288 12340 0
-1256 -12289 12341 0
-1256 -12290 12342 0
-1256 -12291 12343 0
-1256 -12292 12344 0
-1256 -12293 12345 0
-1256 -12294 12346 0
-1256 -12295 12347 0
-1256 -12296 12348 0
-1256 -12297 12349 0
-1256 -12298 12350 0
-1256 -12299 12351 0
-1256 -12300 12352 0
-1256 -12301 12353 0
-1256 -12302 12354 0
-1256 -12303 12355 0
-1256 -12304 12356 0
-1256 -12305 12357 0
-1256 -12306 12358 0
-1256 -12307 12359 0
-1256 -12308 12360 0
-1256 -12309 12361 0
-1256 -12310 12362 0
-1256 -12311 12363 0
-1256 -12312 12364 0
-1256 -12313 12365 0
-1256 -12314 12366 0
-1256 -12315 12367 0
-1256 -12316 12368 0
-1256 -12317 12369 0
-1256 -12318 12370 0
-1256 -12319 12371 0
-1256 -12320 12372 0
-1256 -12321 12373 0
-1256 -12322 12374 0
-1256 -12323 12375 0
-1256 -12324 12376 0
-1256 -12325 12377 0
-1256 -12326 12378 0
-1256 -12327 12379 0
-1256 -12328 12380 0
-1256 -12329 12381 0
-1256 -12330 12382 0
-1256 -12331 12383 0
-1256 -12332 12384 0
-1256 -12333 12385 0
-1256 -12334 12386 0
-1256 -12335 12387 0
-1256 -12336 12388 0
-1256 -12337 0
-12338 12389 0
-12339 12390 0
-12340 12391 0
-12341 12392 0
-12342 12393 0
-12343 12394 0
-12344 12395 0
-12345 12396 0
-12346 12397 0
-12347 12398 0
-12348 12399 0
-12349 12400 0
-12350 12401 0
-12351 12402 0
-12352 12403 0
-12353 12404 0
-12354 12405 0
-12355 12406 0
-12356 12407 0
-12357 12408 0
-12358 12409 0
-12359 12410 0
-12360 12411 0
-12361 12412 0
-12362 12413 0
-12363 12414 0
-12364 12415 0
-12365 12416 0
-12366 12417 0
-12367 12418 0
-12368 12419 0
-12369 12420 0
-12370 12421 0
-12371 12422 0
-12372 12423 0
-12373 12424 0
-12374 12425 0
-12375 12426 0
-12376 12427 0
-12377 12428 0
-12378 12429 0
-12379 12430 0
-12380 12431 0
-12381 12432 0
-12382 12433 0
-12383 12434 0
-12384 12435 0
-12385 12436 0
-12386 12437 0
-12387 12438 0
-12388 12439 0
-1258 -12338 12390 0
-1258 -12339 12391 0
-1258 -12340 12392 0
-1258 -12341 12393 0
-1258 -12342 12394 0
-1258 -12343 12395 0
-1258 -12344 12396 0
-1258 -12345 12397 0
-1258 -12346 12398 0
-1258 -12347 12399 0
-1258 -12348 12400 0
-1258 -12349 12401 0
-1258 -12350 12402 0
-1258 -12351 12403 0
-1258 -12352 12404 0
-1258 -12353 12405 0
-1258 -12354 12406 0
-1258 -12355 12407 0
-1258 -12356 12408 0
-1258 -12357 12409 0
-1258 -12358 12410 0
-1258 -12359 12411 0
-1258 -12360 12412 0
-1258 -12361 12413 0
-1258 -12362 12414 0
-1258 -12363 12415 0
-1258 -12364 12416 0
-1258 -12365 12417 0
-1258 -12366 12418 0
-1258 -12367 12419 0
-1258 -12368 12420 0
-1258 -12369 12421 0
-1258 -12370 12422 0
-1258 -12371 12423 0
-1258 -12372 12424 0
-1258 -12373 12425 0
-1258 -12374 12426 0
-1258 -12375 12427 0
-1258 -12376 12428 0
-1258 -12377 12429 0
-1258 -12378 12430 0
-1258 -12379 12431 0
-1258 -12380 12432 0
-1258 -12381 12433 0
-1258 -12382 12434 0
-1258 -12383 12435 0
-1258 -12384 12436 0
-1258 -12385 12437 0
-1258 -12386 12438 0
-1258 -12387 12439 0
-1258 -12388 0
-12389 12440 0
-12390 12441 0
-12391 12442 0
-12392 12443 0
-12393 12444 0
-12394 12445 0
-12395 12446 0
-12396 12447 0
-12397 12448 0
-12398 12449 0
-12399 12450 0
-12400 12451 0
-12401 12452 0
-12402 12453 0
-12403 12454 0
-12404 12455 0
-12405 12456 0
-12406 12457 0
-12407 12458 0
-12408 12459 0
-12409 12460 0
-12410 12461 0
-12411 12462 0
-12412 12463 0
-12413 12464 0
-12414 12465 0
-12415 12466 0
-12416 12467 0
-12417 12468 0
-12418 12469 0
-12419 12470 0
-12420 12471 0
-12421 12472 0
-12422 12473 0
-12423 12474 0
-12424 12475 0
-12425 12476 0
-12426 12477 0
-12427 12478 0
-12428 12479 0
-12429 12480 0
-12430 12481 0
-12431 12482 0
-12432 12483 0
-12433 12484 0
-12434 12485 0
-12435 12486 0
-12436 12487 0
-12437 12488 0
-12438 12489 0
-12439 12490 0
-1260 -12389 12441 0
-1260 -12390 12442 0
-1260 -12391 12443 0
-1260 -12392 12444 0
-1260 -12393 12445 0
-1260 -12394 12446 0
-1260 -12395 12447 0
-1260 -12396 12448 0
-1260 -12397 12449 0
-1260 -12398 12450 0
-1260 -12399 12451 0
-1260 -12400 12452 0
-1260 -12401 12453 0
-1260 -12402 12454 0
-1260 -12403 12455 0
-1260 -12404 12456 0
-1260 -12405 12457 0
-1260 -12406 12458 0
-1260 -12407 12459 0
-1260 -12408 12460 0
-1260 -12409 12461 0
-1260 -12410 12462 0
-1260 -12411 12463 0
-1260 -12412 12464 0
-1260 -12413 12465 0
-1260 -12414 12466 0
-1260 -12415 12467 0
-1260 -12416 12468 0
-1260 -12417 12469 0
-1260 -12418 12470 0
-1260 -12419 12471 0
-1260 -12420 12472 0
-1260 -12421 12473 0
-1260 -12422 12474 0
-1260 -12423 12475 0
-1260 -12424 12476 0
-1260 -12425 12477 0
-1260 -12426 12478 0
-1260 -12427 12479 0
-1260 -12428 12480 0
-1260 -12429 12481 0
-1260 -12430 12482 0
-1260 -12431 12483 0
-1260 -12432 12484 0
-1260 -12433 12485 0
-1260 -12434 12486 0
-1260 -12435 12487 0
-1260 -12436 12488 0
-1260 -12437 12489 0
-1260 -12438 12490 0
-1260 -12439 0
-12440 12491 0
-12441 12492 0
-12442 12493 0
-12443 12494 0
-12444 12495 0
-12445 12496 0
-12446 12497 0
-12447 12498 0
-12448 12499 0
-12449 12500 0
-12450 12501 0
-12451 12502 0
-12452 12503 0
-12453 12504 0
-12454 12505 0
-12455 12506 0
-12456 12507 0
-12457 12508 0
-12458 12509 0
-12459 12510 0
-12460 12511 0
-12461 12512 0
-12462 12513 0
-12463 12514 0
-12464 12515 0
-12465 12516 0
-12466 12517 0
-12467 12518 0
-12468 12519 0
-12469 12520 0
-12470 12521 0
-12471 12522 0
-12472 12523 0
-12473 12524 0
-12474 12525 0
-12475 12526 0
-12476 12527 0
-12477 12528 0
-12478 12529 0
-12479 12530 0
-12480 12531 0
-12481 12532 0
-12482 12533 0
-12483 12534 0
-12484 12535 0
-12485 12536 0
-12486 12537 0
-12487 12538 0
-12488 12539 0
-12489 12540 0
-12490 12541 0
-1262 -12440 12492 0
-1262 -12441 12493 0
-1262 -12442 12494 0
-1262 -12443 12495 0
-1262 -12444 12496 0
-1262 -12445 12497 0
-1262 -12446 12498 0
-1262 -12447 12499 0
-1262 -12448 12500 0
-1262 -12449 12501 0
-1262 -12450 12502 0
-1262 -12451 12503 0
-1262 -12452 12504 0
-1262 -12453 12505 0
-1262 -12454 12506 0
-1262 -12455 12507 0
-1262 -12456 12508 0
-1262 -12457 12509 0
-1262 -12458 12510 0
-1262 -12459 12511 0
-1262 -12460 12512 0
-1262 -12461 12513 0
-1262 -12462 12514 0
-1262 -12463 12515 0
-1262 -12464 12516 0
-1262 -12465 12517 0
-1262 -12466 12518 0
-1262 -12467 12519 0
-1262 -12468 12520 0
-1262 -12469 12521 0
-1262 -12470 12522 0
-1262 -12471 12523 0
-1262 -12472 12524 0
-1262 -12473 12525 0
-1262 -12474 12526 0
-1262 -12475 12527 0
-1262 -12476 12528 0
-1262 -12477 12529 0
-1262 -12478 12530 0
-1262 -12479 12531 0
-1262 -12480 12532 0
-1262 -12481 12533 0
-1262 -12482 12534 0
-1262 -12483 12535 0
-1262 -12484 12536 0
-1262 -12485 12537 0
-1262 -12486 12538 0
-1262 -12487 12539 0
-1262 -12488 12540 0
-1262 -12489 12541 0
-1262 -12490 0
-12491 12542 0
-12492 12543 0
-12493 12544 0
-12494 12545 0
-12495 12546 0
-12496 12547 0
-12497 12548 0
-12498 12549 0
-12499 12550 0
-12500 12551 0
-12501 12552 0
-12502 12553 0
-12503 12554 0
-12504 12555 0
-12505 12556 0
-12506 12557 0
-12507 12558 0
-12508 12559 0
-12509 12560 0
-12510 12561 0
-12511 12562 0
-12512 12563 0
-12513 12564 0
-12514 12565 0
-12515 12566 0
-12516 12567 0
-12517 12568 0
-12518 12569 0
-12519 12570 0
-12520 12571 0
-12521 12572 0
-12522 12573 0
-12523 12574 0
-12524 12575 0
-12525 12576 0
-12526 12577 0
-12527 12578 0
-12528 12579 0
-12529 12580 0
-12530 12581 0
-12531 12582 0
-12532 12583 0
-12533 12584 0
-12534 12585 0
-12535 12586 0
-12536 12587 0
-12537 12588 0
-12538 12589 0
-12539 12590 0
-12540 12591 0
-12541 12592 0
-1264 -12491 12543 0
-1264 -12492 12544 0
-1264 -12493 12545 0
-1264 -12494 12546 0
-1264 -12495 12547 0
-1264 -12496 12548 0
-1264 -12497 12549 0
-1264 -12498 12550 0
-1264 -12499 12551 0
-1264 -12500 12552 0
-1264 -12501 12553 0
-1264 -12502 12554 0
-1264 -12503 12555 0
-1264 -12504 12556 0
-1264 -12505 12557 0
-1264 -12506 12558 0
-1264 -12507 12559 0
-1264 -12508 12560 0
-1264 -12509 12561 0
-1264 -12510 12562 0
-1264 -12511 12563 0
-1264 -12512 12564 0
-1264 -12513 12565 0
-1264 -12514 12566 0
-1264 -12515 12567 0
-1264 -12516 12568 0
-1264 -12517 12569 0
-1264 -12518 12570 0
-1264 -12519 12571 0
-1264 -12520 12572 0
-1264 -12521 12573 0
-1264 -12522 12574 0
-1264 -12523 12575 0
-1264 -12524 12576 0
-1264 -12525 12577 0
-1264 -12526 12578 0
-1264 -12527 12579 0
-1264 -12528 12580 0
-1264 -12529 12581 0
-1264 -12530 12582 0
-1264 -12531 12583 0
-1264 -12532 12584 0
-1264 -12533 12585 0
-1264 -12534 12586 0
-1264 -12535 12587 0
-1264 -12536 12588 0
-1264 -12537 12589 0
-1264 -12538 12590 0
-1264 -12539 12591 0
-1264 -12540 12592 0
-1264 -12541 0
-12542 12593 0
-12543 12594 0
-12544 12595 0
-12545 12596 0
-12546 12597 0
-12547 12598 0
-12548 12599 0
-12549 12600 0
-12550 12601 0
-12551 12602 0
-12552 12603 0
-12553 12604 0
-12554 12605 0
-12555 12606 0
-12556 12607 0
-12557 12608 0
-12558 12609 0
-12559 12610 0
-12560 12611 0
-12561 12612 0
-12562 12613 0
-12563 12614 0
-12564 12615 0
-12565 12616 0
-12566 12617 0
-12567 12618 0
-12568 12619 0
-12569 12620 0
-12570 12621 0
-12571 12622 0
-12572 12623 0
-12573 12624 0
-12574 12625 0
-12575 12626 0
-12576 12627 0
-12577 12628 0
-12578 12629 0
-12579 12630 0
-12580 12631 0
-12581 12632 0
-12582 12633 0
-12583 12634 0
-12584 12635 0
-12585 12636 0
-12586 12637 0
-12587 12638 0
-12588 12639 0
-12589 12640 0
-12590 12641 0
-12591 12642 0
-12592 12643 0
-1266 -12542 12594 0
-1266 -12543 12595 0
-1266 -12544 12596 0
-1266 -12545 12597 0
-1266 -12546 12598 0
-1266 -12547 12599 0
-1266 -12548 12600 0
-1266 -12549 12601 0
-1266 -12550 12602 0
-1266 -12551 12603 0
-1266 -12552 12604 0
-1266 -12553 12605 0
-1266 -12554 12606 0
-1266 -12555 12607 0
-1266 -12556 12608 0
-1266 -12557 12609 0
-1266 -12558 12610 0
-1266 -12559 12611 0
-1266 -12560 12612 0
-1266 -12561 12613 0
-1266 -12562 12614 0
-1266 -12563 12615 0
-1266 -12564 12616 0
-1266 -12565 12617 0
-1266 -12566 12618 0
-1266 -12567 12619 0
-1266 -12568 12620 0
-1266 -12569 12621 0
-1266 -12570 12622 0
-1266 -12571 12623 0
-1266 -12572 12624 0
-1266 -12573 12625 0
-1266 -12574 12626 0
-1266 -12575 12627 0
-1266 -12576 12628 0
-1266 -12577 12629 0
-1266 -12578 12630 0
-1266 -12579 12631 0
-1266 -12580 12632 0
-1266 -12581 12633 0
-1266 -12582 12634 0
-1266 -12583 12635 0
-1266 -12584 12636 0
-1266 -12585 12637 0
-1266 -12586 12638 0
-1266 -12587 12639 0
-1266 -12588 12640 0
-1266 -12589 12641 0
-1266 -12590 12642 0
-1266 -12591 12643 0
-1266 -12592 0
-12593 12644 0
-12594 12645 0
-12595 12646 0
-12596 12647 0
-12597 12648 0
-12598 12649 0
-12599 12650 0
-12600 12651 0
-12601 12652 0
-12602 12653 0
-12603 12654 0
-12604 12655 0
-12605 12656 0
-12606 12657 0
-12607 12658 0
-12608 12659 0
-12609 12660 0
-12610 12661 0
-12611 12662 0
-12612 12663 0
-12613 12664 0
-12614 12665 0
-12615 12666 0
-12616 12667 0
-12617 12668 0
-12618 12669 0
-12619 12670 0
-12620 12671 0
-12621 12672 0
-12622 12673 0
-12623 12674 0
-12624 12675 0
-12625 12676 0
-12626 12677 0
-12627 12678 0
-12628 12679 0
-12629 12680 0
-12630 12681 0
-12631 12682 0
-12632 12683 0
-12633 12684 0
-12634 12685 0
-12635 12686 0
-12636 12687 0
-12637 12688 0
-12638 12689 0
-12639 12690 0
-12640 12691 0
-12641 12692 0
-12642 12693 0
-12643 12694 0
-1268 -12593 12645 0
-1268 -12594 12646 0
-1268 -12595 12647 0
-1268 -12596 12648 0
-1268 -12597 12649 0
-1268 -12598 12650 0
-1268 -12599 12651 0
-1268 -12600 12652 0
-1268 -12601 12653 0
-1268 -12602 12654 0
-1268 -12603 12655 0
-1268 -12604 12656 0
-1268 -12605 12657 0
-1268 -12606 12658 0
-1268 -12607 12659 0
-1268 -12608 12660 0
-1268 -12609 12661 0
-1268 -12610 12662 0
-1268 -12611 12663 0
-1268 -12612 12664 0
-1268 -12613 12665 0
-1268 -12614 12666 0
-1268 -12615 12667 0
-1268 -12616 12668 0
-1268 -12617 12669 0
-1268 -12618 12670 0
-1268 -12619 12671 0
-1268 -12620 12672 0
-1268 -12621 12673 0
-1268 -12622 12674 0
-1268 -12623 12675 0
-1268 -12624 12676 0
-1268 -12625 12677 0
-1268 -12626 12678 0
-1268 -12627 12679 0
-1268 -12628 12680 0
-1268 -12629 12681 0
-1268 -12630 12682 0
-1268 -12631 12683 0
-1268 -12632 12684 0
-1268 -12633 12685 0
-1268 -12634 12686 0
-1268 -12635 12687 0
-1268 -12636 12688 0
-1268 -12637 12689 0
-1268 -12638 12690 0
-1268 -12639 12691 0
-1268 -12640 12692 0
-1268 -12641 12693 0
-1268 -12642 12694 0
-1268 -12643 0
-12644 12695 0
-12645 12696 0
-12646 12697 0
-12647 12698 0
-12648 12699 0
-12649 12700 0
-12650 12701 0
-12651 12702 0
-12652 12703 0
-12653 12704 0
-12654 12705 0
-12655 12706 0
-12656 12707 0
-12657 12708 0
-12658 12709 0
-12659 12710 0
-12660 12711 0
-12661 12712 0
-12662 12713 0
-12663 12714 0
-12664 12715 0
-12665 12716 0
-12666 12717 0
-12667 12718 0
-12668 12719 0
-12669 12720 0
-12670 12721 0
-12671 12722 0
-12672 12723 0
-12673 12724 0
-12674 12725 0
-12675 12726 0
-12676 12727 0
-12677 12728 0
-12678 12729 0
-12679 12730 0
-12680 12731 0
-12681 12732 0
-12682 12733 0
-12683 12734 0
-12684 12735 0
-12685 12736 0
-12686 12737 0
-12687 12738 0
-12688 12739 0
-12689 12740 0
-12690 12741 0
-12691 12742 0
-12692 12743 0
-12693 12744 0
-12694 12745 0
-1270 -12644 12696 0
-1270 -12645 12697 0
-1270 -12646 12698 0
-1270 -12647 12699 0
-1270 -12648 12700 0
-1270 -12649 12701 0
-1270 -12650 12702 0
-1270 -12651 12703 0
-1270 -12652 12704 0
-1270 -12653 12705 0
-1270 -12654 12706 0
-1270 -12655 12707 0
-1270 -12656 12708 0
-1270 -12657 12709 0
-1270 -12658 12710 0
-1270 -12659 12711 0
-1270 -12660 12712 0
-1270 -12661 12713 0
-1270 -12662 12714 0
-1270 -12663 12715 0
-1270 -12664 12716 0
-1270 -12665 12717 0
-1270 -12666 12718 0
-1270 -12667 12719 0
-1270 -12668 12720 0
-1270 -12669 12721 0
-1270 -12670 12722 0
-1270 -12671 12723 0
-1270 -12672 12724 0
-1270 -12673 12725 0
-1270 -12674 12726 0
-1270 -12675 12727 0
-1270 -12676 12728 0
-1270 -12677 12729 0
-1270 -12678 12730 0
-1270 -12679 12731 0
-1270 -12680 12732 0
-1270 -12681 12733 0
-1270 -12682 12734 0
-1270 -12683 12735 0
-1270 -12684 12736 0
-1270 -12685 12737 0
-1270 -12686 12738 0
-1270 -12687 12739 0
-1270 -12688 12740 0
-1270 -12689 12741 0
-1270 -12690 12742 0
-1270 -12691 12743 0
-1270 -12692 12744 0
-1270 -12693 12745 0
-1270 -12694 0
-12695 12746 0
-12696 12747 0
-12697 12748 0
-12698 12749 0
-12699 12750 0
-12700 12751 0
-12701 12752 0
-12702 12753 0
-12703 12754 0
-12704 12755 0
-12705 12756 0
-12706 12757 0
-12707 12758 0
-12708 12759 0
-12709 12760 0
-12710 12761 0
-12711 12762 0
-12712 12763 0
-12713 12764 0
-12714 12765 0
-12715 12766 0
-12716 12767 0
-12717 12768 0
-12718 12769 0
-12719 12770 0
-12720 12771 0
-12721 12772 0
-12722 12773 0
-12723 12774 0
-12724 12775 0
-12725 12776 0
-12726 12777 0
-12727 12778 0
-12728 12779 0
-12729 12780 0
-12730 12781 0
-12731 12782 0
-12732 12783 0
-12733 12784 0
-12734 12785 0
-12735 12786 0
-12736 12787 0
-12737 12788 0
-12738 12789 0
-12739 12790 0
-12740 12791 0
-12741 12792 0
-12742 12793 0
-12743 12794 0
-12744 12795 0
-12745 12796 0
-1272 -12695 12747 0
-1272 -12696 12748 0
-1272 -12697 12749 0
-1272 -12698 12750 0
-1272 -12699 12751 0
-1272 -12700 12752 0
-1272 -12701 12753 0
-1272 -12702 12754 0
-1272 -12703 12755 0
-1272 -12704 12756 0
-1272 -12705 12757 0
-1272 -12706 12758 0
-1272 -12707 12759 0
-1272 -12708 12760 0
-1272 -12709 12761 0
-1272 -12710 12762 0
-1272 -12711 12763 0
-1272 -12712 12764 0
-1272 -12713 12765 0
-1272 -12714 12766 0
-1272 -12715 12767 0
-1272 -12716 12768 0
-1272 -12717 12769 0
-1272 -12718 12770 0
-1272 -12719 12771 0
-1272 -12720 12772 0
-1272 -12721 12773 0
-1272 -12722 12774 0
-1272 -12723 12775 0
-1272 -12724 12776 0
-1272 -12725 12777 0
-1272 -12726 12778 0
-1272 -12727 12779 0
-1272 -12728 12780 0
-1272 -12729 12781 0
-1272 -12730 12782 0
-1272 -12731 12783 0
-1272 -12732 12784 0
-1272 -12733 12785 0
-1272 -12734 12786 0
-1272 -12735 12787 0
-1272 -12736 12788 0
-1272 -12737 12789 0
-1272 -12738 12790 0
-1272 -12739 12791 0
-1272 -12740 12792 0
-1272 -12741 12793 0
-1272 -12742 12794 0
-1272 -12743 12795 0
-1272 -12744 12796 0
-1272 -12745 0
-12746 12797 0
-12747 12798 0
-12748 12799 0
-12749 12800 0
-12750 12801 0
-12751 12802 0
-12752 12803 0
-12753 12804 0
-12754 12805 0
-12755 12806 0
-12756 12807 0
-12757 12808 0
-12758 12809 0
-12759 12810 0
-12760 12811 0
-12761 12812 0
-12762 12813 0
-12763 12814 0
-12764 12815 0
-12765 12816 0
-12766 12817 0
-12767 12818 0
-12768 12819 0
-12769 12820 0
-12770 12821 0
-12771 12822 0
-12772 12823 0
-12773 12824 0
-12774 12825 0
-12775 12826 0
-12776 12827 0
-12777 12828 0
-12778 12829 0
-12779 12830 0
-12780 12831 0
-12781 12832 0
-12782 12833 0
-12783 12834 0
-12784 12835 0
-12785 12836 0
-12786 12837 0
-12787 12838 0
-12788 12839 0
-12789 12840 0
-12790 12841 0
-12791 12842 0
-12792 12843 0
-12793 12844 0
-12794 12845 0
-12795 12846 0
-12796 12847 0
-1274 -12746 12798 0
-1274 -12747 12799 0
-1274 -12748 12800 0
-1274 -12749 12801 0
-1274 -12750 12802 0
-1274 -12751 12803 0
-1274 -12752 12804 0
-1274 -12753 12805 0
-1274 -12754 12806 0
-1274 -12755 12807 0
-1274 -12756 12808 0
-1274 -12757 12809 0
-1274 -12758 12810 0
-1274 -12759 12811 0
-1274 -12760 12812 0
-1274 -12761 12813 0
-1274 -12762 12814 0
-1274 -12763 12815 0
-1274 -12764 12816 0
-1274 -12765 12817 0
-1274 -12766 12818 0
-1274 -12767 12819 0
-1274 -12768 12820 0
-1274 -12769 12821 0
-1274 -12770 12822 0
-1274 -12771 12823 0
-1274 -12772 12824 0
-1274 -12773 12825 0
-1274 -12774 12826 0
-1274 -12775 12827 0
-1274 -12776 12828 0
-1274 -12777 12829 0
-1274 -12778 12830 0
-1274 -12779 12831 0
-1274 -12780 12832 0
-1274 -12781 12833 0
-1274 -12782 12834 0
-1274 -12783 12835 0
-1274 -12784 12836 0
-1274 -12785 12837 0
-1274 -12786 12838 0
-1274 -12787 12839 0
-1274 -12788 12840 0
-1274 -12789 12841 0
-1274 -12790 12842 0
-1274 -12791 12843 0
-1274 -12792 12844 0
-1274 -12793 12845 0
-1274 -12794 12846 0
-1274 -12795 12847 0
-1274 -12796 0
-12797 12848 0
-12798 12849 0
-12799 12850 0
-12800 12851 0
-12801 12852 0
-12802 12853 0
-12803 12854 0
-12804 12855 0
-12805 12856 0
-12806 12857 0
-12807 12858 0
-12808 12859 0
-12809 12860 0
-12810 12861 0
-12811 12862 0
-12812 12863 0
-12813 12864 0
-12814 12865 0
-12815 12866 0
-12816 12867 0
-12817 12868 0
-12818 12869 0
-12819 12870 0
-12820 12871 0
-12821 12872 0
-12822 12873 0
-12823 12874 0
-12824 12875 0
-12825 12876 0
-12826 12877 0
-12827 12878 0
-12828 12879 0
-12829 12880 0
-12830 12881 0
-12831 12882 0
-12832 12883 0
-12833 12884 0
-12834 12885 0
-12835 12886 0
-12836 12887 0
-12837 12888 0
-12838 12889 0
-12839 12890 0
-12840 12891 0
-12841 12892 0
-12842 12893 0
-12843 12894 0
-12844 12895 0
-12845 12896 0
-12846 12897 0
-12847 12898 0
-1276 -12797 12849 0
-1276 -12798 12850 0
-1276 -12799 12851 0
-1276 -12800 12852 0
-1276 -12801 12853 0
-1276 -12802 12854 0
-1276 -12803 12855 0
-1276 -12804 12856 0
-1276 -12805 12857 0
-1276 -12806 12858 0
-1276 -12807 12859 0
-1276 -12808 12860 0
-1276 -12809 12861 0
-1276 -12810 12862 0
-1276 -12811 12863 0
-1276 -12812 12864 0
-1276 -12813 12865 0
-1276 -12814 12866 0
-1276 -12815 12867 0
-1276 -12816 12868 0
-1276 -12817 12869 0
-1276 -12818 12870 0
-1276 -12819 12871 0
-1276 -12820 12872 0
-1276 -12821 12873 0
-1276 -12822 12874 0
-1276 -12823 12875 0
-1276 -12824 12876 0
-1276 -12825 12877 0
-1276 -12826 12878 0
-1276 -12827 12879 0
-1276 -12828 12880 0
-1276 -12829 12881 0
-1276 -12830 12882 0
-1276 -12831 12883 0
-1276 -12832 12884 0
-1276 -12833 12885 0
-1276 -12834 12886 0
-1276 -12835 12887 0
-1276 -12836 12888 0
-1276 -12837 12889 0
-1276 -12838 12890 0
-1276 -12839 12891 0
-1276 -12840 12892 0
-1276 -12841 12893 0
-1276 -12842 12894 0
-1276 -12843 12895 0
-1276 -12844 12896 0
-1276 -12845 12897 0
-1276 -12846 12898 0
-1276 -12847 0
-12848 12899 0
-12849 12900 0
-12850 12901 0
-12851 12902 0
-12852 12903 0
-12853 12904 0
-12854 12905 0
-12855 12906 0
-12856 12907 0
-12857 12908 0
-12858 12909 0
-12859 12910 0
-12860 12911 0
-12861 12912 0
-12862 12913 0
-12863 12914 0
-12864 12915 0
-12865 12916 0
-12866 12917 0
-12867 12918 0
-12868 12919 0
-12869 12920 0
-12870 12921 0
-12871 12922 0
-12872 12923 0
-12873 12924 0
-12874 12925 0
-12875 12926 0
-12876 12927 0
-12877 12928 0
-12878 12929 0
-12879 12930 0
-12880 12931 0
-12881 12932 0
-12882 12933 0
-12883 12934 0
-12884 12935 0
-12885 12936 0
-12886 12937 0
-12887 12938 0
-12888 12939 0
-12889 12940 0
-12890 12941 0
-12891 12942 0
-12892 12943 0
-12893 12944 0
-12894 12945 0
-12895 12946 0
-12896 12947 0
-12897 12948 0
-12898 12949 0
-1278 -12848 12900 0
-1278 -12849 12901 0
-1278 -12850 12902 0
-1278 -12851 12903 0
-1278 -12852 12904 0
-1278 -12853 12905 0
-1278 -12854 12906 0
-1278 -12855 12907 0
-1278 -12856 12908 0
-1278 -12857 12909 0
-1278 -12858 12910 0
-1278 -12859 12911 0
-1278 -12860 12912 0
-1278 -12861 12913 0
-1278 -12862 12914 0
-1278 -12863 12915 0
-1278 -12864 12916 0
-1278 -12865 12917 0
-1278 -12866 12918 0
-1278 -12867 12919 0
-1278 -12868 12920 0
-1278 -12869 12921 0
-1278 -12870 12922 0
-1278 -12871 12923 0
-1278 -12872 12924 0
-1278 -12873 12925 0
-1278 -12874 12926 0
-1278 -12875 12927 0
-1278 -12876 12928 0
-1278 -12877 12929 0
-1278 -12878 12930 0
-1278 -12879 12931 0
-1278 -12880 12932 0
-1278 -12881 12933 0
-1278 -12882 12934 0
-1278 -12883 12935 0
-1278 -12884 12936 0
-1278 -12885 12937 0
-1278 -12886 12938 0
-1278 -12887 12939 0
-1278 -12888 12940 0
-1278 -12889 12941 0
-1278 -12890 12942 0
-1278 -12891 12943 0
-1278 -12892 12944 0
-1278 -12893 12945 0
-1278 -12894 12946 0
-1278 -12895 12947 0
-1278 -12896 12948 0
-1278 -12897 12949 0
-1278 -12898 0
-12899 12950 0
-12900 12951 0
-12901 12952 0
-12902 12953 0
-12903 12954 0
-12904 12955 0
-12905 12956 0
-12906 12957 0
-12907 12958 0
-12908 12959 0
-12909 12960 0
-12910 12961 0
-12911 12962 0
-12912 12963 0
-12913 12964 0
-12914 12965 0
-12915 12966 0
-12916 12967 0
-12917 12968 0
-12918 12969 0
-12919 12970 0
-12920 12971 0
-12921 12972 0
-12922 12973 0
-12923 12974 0
-12924 12975 0
-12925 12976 0
-12926 12977 0
-12927 12978 0
-12928 12979 0
-12929 12980 0
-12930 12981 0
-12931 12982 0
-12932 12983 0
-12933 12984 0
-12934 12985 0
-12935 12986 0
-12936 12987 0
-12937 12988 0
-12938 12989 0
-12939 12990 0
-12940 12991 0
-12941 12992 0
-12942 12993 0
-12943 12994 0
-12944 12995 0
-12945 12996 0
-12946 12997 0
-12947 12998 0
-12948 12999 0
-12949 13000 0
-1280 -12899 12951 0
-1280 -12900 12952 0
-1280 -12901 12953 0
-1280 -12902 12954 0
-1280 -12903 12955 0
-1280 -12904 12956 0
-1280 -12905 12957 0
-1280 -12906 12958 0
-1280 -12907 12959 0
-1280 -12908 12960 0
-1280 -12909 12961 0
-1280 -12910 12962 0
-1280 -12911 12963 0
-1280 -12912 12964 0
-1280 -12913 12965 0
-1280 -12914 12966 0
-1280 -12915 12967 0
-1280 -12916 12968 0
-1280 -12917 12969 0
-1280 -12918 12970 0
-1280 -12919 12971 0
-1280 -12920 12972 0
-1280 -12921 12973 0
-1280 -12922 12974 0
-1280 -12923 12975 0
-1280 -12924 12976 0
-1280 -12925 12977 0
-1280 -12926 12978 0
-1280 -12927 12979 0
-1280 -12928 12980 0
-1280 -12929 12981 0
-1280 -12930 12982 0
-1280 -12931 12983 0
-1280 -12932 12984 0
-1280 -12933 12985 0
-1280 -12934 12986 0
-1280 -12935 12987 0
-1280 -12936 12988 0
-1280 -12937 12989 0
-1280 -12938 12990 0
-1280 -12939 12991 0
-1280 -12940 12992 0
-1280 -12941 12993 0
-1280 -12942 12994 0
-1280 -12943 12995 0
-1280 -12944 12996 0
-1280 -12945 12997 0
-1280 -12946 12998 0
-1280 -12947 12999 0
-1280 -12948 13000 0
-1280 -12949 0
-12950 13001 0
-12951 13002 0
-12952 13003 0
-12953 13004 0
-12954 13005 0
-12955 13006 0
-12956 13007 0
-12957 13008 0
-12958 13009 0
-12959 13010 0
-12960 13011 0
-12961 13012 0
-12962 13013 0
-12963 13014 0
-12964 13015 0
-12965 13016 0
-12966 13017 0
-12967 13018 0
-12968 13019 0
-12969 13020 0
-12970 13021 0
-12971 13022 0
-12972 13023 0
-12973 13024 0
-12974 13025 0
-12975 13026 0
-12976 13027 0
-12977 13028 0
-12978 13029 0
-12979 13030 0
-12980 13031 0
-12981 13032 0
-12982 13033 0
-12983 13034 0
-12984 13035 0
-12985 13036 0
-12986 13037 0
-12987 13038 0
-12988 13039 0
-12989 13040 0
-12990 13041 0
-12991 13042 0
-12992 13043 0
-12993 13044 0
-12994 13045 0
-12995 13046 0
-12996 13047 0
-12997 13048 0
-12998 13049 0
-12999 13050 0
-13000 13051 0
-1282 -12950 13002 0
-1282 -12951 13003 0
-1282 -12952 13004 0
-1282 -12953 13005 0
-1282 -12954 13006 0
-1282 -12955 13007 0
-1282 -12956 13008 0
-1282 -12957 13009 0
-1282 -12958 13010 0
-1282 -12959 13011 0
-1282 -12960 13012 0
-1282 -12961 13013 0
-1282 -12962 13014 0
-1282 -12963 13015 0
-1282 -12964 13016 0
-1282 -12965 13017 0
-1282 -12966 13018 0
-1282 -12967 13019 0
-1282 -12968 13020 0
-1282 -12969 13021 0
-1282 -12970 13022 0
-1282 -12971 13023 0
-1282 -12972 13024 0
-1282 -12973 13025 0
-1282 -12974 13026 0
-1282 -12975 13027 0
-1282 -12976 13028 0
-1282 -12977 13029 0
-1282 -12978 13030 0
-1282 -12979 13031 0
-1282 -12980 13032 0
-1282 -12981 13033 0
-1282 -12982 13034 0
-1282 -12983 13035 0
-1282 -12984 13036 0
-1282 -12985 13037 0
-1282 -12986 13038 0
-1282 -12987 13039 0
-1282 -12988 13040 0
-1282 -12989 13041 0
-1282 -12990 13042 0
-1282 -12991 13043 0
-1282 -12992 13044 0
-1282 -12993 13045 0
-1282 -12994 13046 0
-1282 -12995 13047 0
-1282 -12996 13048 0
-1282 -12997 13049 0
-1282 -12998 13050 0
-1282 -12999 13051 0
-1282 -13000 0
-13001 13052 0
-13002 13053 0
-13003 13054 0
-13004 13055 0
-13005 13056 0
-13006 13057 0
-13007 13058 0
-13008 13059 0
-13009 13060 0
-13010 13061 0
-13011 13062 0
-13012 13063 0
-13013 13064 0
-13014 13065 0
-13015 13066 0
-13016 13067 0
-13017 13068 0
-13018 13069 0
-13019 13070 0
-13020 13071 0
-13021 13072 0
-13022 13073 0
-13023 13074 0
-13024 13075 0
-13025 13076 0
-13026 13077 0
-13027 13078 0
-13028 13079 0
-13029 13080 0
-13030 13081 0
-13031 13082 0
-13032 13083 0
-13033 13084 0
-13034 13085 0
-13035 13086 0
-13036 13087 0
-13037 13088 0
-13038 13089 0
-13039 13090 0
-13040 13091 0
-13041 13092 0
-13042 13093 0
-13043 13094 0
-13044 13095 0
-13045 13096 0
-13046 13097 0
-13047 13098 0
-13048 13099 0
-13049 13100 0
-13050 13101 0
-13051 13102 0
-1284 -13001 13053 0
-1284 -13002 13054 0
-1284 -13003 13055 0
-1284 -13004 13056 0
-1284 -13005 13057 0
-1284 -13006 13058 0
-1284 -13007 13059 0
-1284 -13008 13060 0
-1284 -13009 13061 0
-1284 -13010 13062 0
-1284 -13011 13063 0
-1284 -13012 13064 0
-1284 -13013 13065 0
-1284 -13014 13066 0
-1284 -13015 13067 0
-1284 -13016 13068 0
-1284 -13017 13069 0
-1284 -13018 13070 0
-1284 -13019 13071 0
-1284 -13020 13072 0
-1284 -13021 13073 0
-1284 -13022 13074 0
-1284 -13023 13075 0
-1284 -13024 13076 0
-1284 -13025 13077 0
-1284 -13026 13078 0
-1284 -13027 13079 0
-1284 -13028 13080 0
-1284 -13029 13081 0
-1284 -13030 13082 0
-1284 -13031 13083 0
-1284 -13032 13084 0
-1284 -13033 13085 0
-1284 -13034 13086 0
-1284 -13035 13087 0
-1284 -13036 13088 0
-1284 -13037 13089 0
-1284 -13038 13090 0
-1284 -13039 13091 0
-1284 -13040 13092 0
-1284 -13041 13093 0
-1284 -13042 13094 0
-1284 -13043 13095 0
-1284 -13044 13096 0
-1284 -13045 13097 0
-1284 -13046 13098 0
-1284 -13047 13099 0
-1284 -13048 13100 0
-1284 -13049 13101 0
-1284 -13050 13102 0
-1284 -13051 0
-13052 13103 0
-13053 13104 0
-13054 13105 0
-13055 13106 0
-13056 13107 0
-13057 13108 0
-13058 13109 0
-13059 13110 0
-13060 13111 0
-13061 13112 0
-13062 13113 0
-13063 13114 0
-13064 13115 0
-13065 13116 0
-13066 13117 0
-13067 13118 0
-13068 13119 0
-13069 13120 0
-13070 13121 0
-13071 13122 0
-13072 13123 0
-13073 13124 0
-13074 13125 0
-13075 13126 0
-13076 13127 0
-13077 13128 0
-13078 13129 0
-13079 13130 0
-13080 13131 0
-13081 13132 0
-13082 13133 0
-13083 13134 0
-13084 13135 0
-13085 13136 0
-13086 13137 0
-13087 13138 0
-13088 13139 0
-13089 13140 0
-13090 13141 0
-13091 13142 0
-13092 13143 0
-13093 13144 0
-13094 13145 0
-13095 13146 0
-13096 13147 0
-13097 13148 0
-13098 13149 0
-13099 13150 0
-13100 13151 0
-13101 13152 0
-13102 13153 0
-1286 -13052 13104 0
-1286 -13053 13105 0
-1286 -13054 13106 0
-1286 -13055 13107 0
-1286 -13056 13108 0
-1286 -13057 13109 0
-1286 -13058 13110 0
-1286 -13059 13111 0
-1286 -13060 13112 0
-1286 -13061 13113 0
-1286 -13062 13114 0
-1286 -13063 13115 0
-1286 -13064 13116 0
-1286 -13065 13117 0
-1286 -13066 13118 0
-1286 -13067 13119 0
-1286 -13068 13120 0
-1286 -13069 13121 0
-1286 -13070 13122 0
-1286 -13071 13123 0
-1286 -13072 13124 0
-1286 -13073 13125 0
-1286 -13074 13126 0
-1286 -13075 13127 0
-1286 -13076 13128 0
-1286 -13077 13129 0
-1286 -13078 13130 0
-1286 -13079 13131 0
-1286 -13080 13132 0
-1286 -13081 13133 0
-1286 -13082 13134 0
-1286 -13083 13135 0
-1286 -13084 13136 0
-1286 -13085 13137 0
-1286 -13086 13138 0
-1286 -13087 13139 0
-1286 -13088 13140 0
-1286 -13089 13141 0
-1286 -13090 13142 0
-1286 -13091 13143 0
-1286 -13092 13144 0
-1286 -13093 13145 0
-1286 -13094 13146 0
-1286 -13095 13147 0
-1286 -13096 13148 0
-1286 -13097 13149 0
-1286 -13098 13150 0
-1286 -13099 13151 0
-1286 -13100 13152 0
-1286 -13101 13153 0
-1286 -13102 0
-13103 13154 0
-13104 13155 0
-13105 13156 0
-13106 13157 0
-13107 13158 0
-13108 13159 0
-13109 13160 0
-13110 13161 0
-13111 13162 0
-13112 13163 0
-13113 13164 0
-13114 13165 0
-13115 13166 0
-13116 13167 0
-13117 13168 0
-13118 13169 0
-13119 13170 0
-13120 13171 0
-13121 13172 0
-13122 13173 0
-13123 13174 0
-13124 13175 0
-13125 13176 0
-13126 13177 0
-13127 13178 0
-13128 13179 0
-13129 13180 0
-13130 13181 0
-13131 13182 0
-13132 13183 0
-13133 13184 0
-13134 13185 0
-13135 13186 0
-13136 13187 0
-13137 13188 0
-13138 13189 0
-13139 13190 0
-13140 13191 0
-13141 13192 0
-13142 13193 0
-13143 13194 0
-13144 13195 0
-13145 13196 0
-13146 13197 0
-13147 13198 0
-13148 13199 0
-13149 13200 0
-13150 13201 0
-13151 13202 0
-13152 13203 0
-13153 13204 0
-1288 -13103 13155 0
-1288 -13104 13156 0
-1288 -13105 13157 0
-1288 -13106 13158 0
-1288 -13107 13159 0
-1288 -13108 13160 0
-1288 -13109 13161 0
-1288 -13110 13162 0
-1288 -13111 13163 0
-1288 -13112 13164 0
-1288 -13113 13165 0
-1288 -13114 13166 0
-1288 -13115 13167 0
-1288 -13116 13168 0
-1288 -13117 13169 0
-1288 -13118 13170 0
-1288 -13119 13171 0
-1288 -13120 13172 0
-1288 -13121 13173 0
-1288 -13122 13174 0
-1288 -13123 13175 0
-1288 -13124 13176 0
-1288 -13125 13177 0
-1288 -13126 13178 0
-1288 -13127 13179 0
-1288 -13128 13180 0
-1288 -13129 13181 0
-1288 -13130 13182 0
-1288 -13131 13183 0
-1288 -13132 13184 0
-1288 -13133 13185 0
-1288 -13134 13186 0
-1288 -13135 13187 0
-1288 -13136 13188 0
-1288 -13137 13189 0
-1288 -13138 13190 0
-1288 -13139 13191 0
-1288 -13140 13192 0
-1288 -13141 13193 0
-1288 -13142 13194 0
-1288 -13143 13195 0
-1288 -13144 13196 0
-1288 -13145 13197 0
-1288 -13146 13198 0
-1288 -13147 13199 0
-1288 -13148 13200 0
-1288 -13149 13201 0
-1288 -13150 13202 0
-1288 -13151 13203 0
-1288 -13152 13204 0
-1288 -13153 0
-13154 13205 0
-13155 13206 0
-13156 13207 0
-13157 13208 0
-13158 13209 0
-13159 13210 0
-13160 13211 0
-13161 13212 0
-13162 13213 0
-13163 13214 0
-13164 13215 0
-13165 13216 0
-13166 13217 0
-13167 13218 0
-13168 13219 0
-13169 13220 0
-13170 13221 0
-13171 13222 0
-13172 13223 0
-13173 13224 0
-13174 13225 0
-13175 13226 0
-13176 13227 0
-13177 13228 0
-13178 13229 0
-13179 13230 0
-13180 13231 0
-13181 13232 0
-13182 13233 0
-13183 13234 0
-13184 13235 0
-13185 13236 0
-13186 13237 0
-13187 13238 0
-13188 13239 0
-13189 13240 0
-13190 13241 0
-13191 13242 0
-13192 13243 0
-13193 13244 0
-13194 13245 0
-13195 13246 0
-13196 13247 0
-13197 13248 0
-13198 13249 0
-13199 13250 0
-13200 13251 0
-13201 13252 0
-13202 13253 0
-13203 13254 0
-13204 13255 0
-1290 -13154 13206 0
-1290 -13155 13207 0
-1290 -13156 13208 0
-1290 -13157 13209 0
-1290 -13158 13210 0
-1290 -13159 13211 0
-1290 -13160 13212 0
-1290 -13161 13213 0
-1290 -13162 13214 0
-1290 -13163 13215 0
-1290 -13164 13216 0
-1290 -13165 13217 0
-1290 -13166 13218 0
-1290 -13167 13219 0
-1290 -13168 13220 0
-1290 -13169 13221 0
-1290 -13170 13222 0
-1290 -13171 13223 0
-1290 -13172 13224 0
-1290 -13173 13225 0
-1290 -13174 13226 0
-1290 -13175 13227 0
-1290 -13176 13228 0
-1290 -13177 13229 0
-1290 -13178 13230 0
-1290 -13179 13231 0
-1290 -13180 13232 0
-1290 -13181 13233 0
-1290 -13182 13234 0
-1290 -13183 13235 0
-1290 -13184 13236 0
-1290 -13185 13237 0
-1290 -13186 13238 0
-1290 -13187 13239 0
-1290 -13188 13240 0
-1290 -13189 13241 0
-1290 -13190 13242 0
-1290 -13191 13243 0
-1290 -13192 13244 0
-1290 -13193 13245 0
-1290 -13194 13246 0
-1290 -13195 13247 0
-1290 -13196 13248 0
-1290 -13197 13249 0
-1290 -13198 13250 0
-1290 -13199 13251 0
-1290 -13200 13252 0
-1290 -13201 13253 0
-1290 -13202 13254 0
-1290 -13203 13255 0
-1290 -13204 0
-13205 13256 0
-13206 13257 0
-13207 13258 0
-13208 13259 0
-13209 13260 0
-13210 13261 0
-13211 13262 0
-13212 13263 0
-13213 13264 0
-13214 13265 0
-13215 13266 0
-13216 13267 0
-13217 13268 0
-13218 13269 0
-13219 13270 0
-13220 13271 0
-13221 13272 0
-13222 13273 0
-13223 13274 0
-13224 13275 0
-13225 13276 0
-13226 13277 0
-13227 13278 0
-13228 13279 0
-13229 13280 0
-13230 13281 0
-13231 13282 0
-13232 13283 0
-13233 13284 0
-13234 13285 0
-13235 13286 0
-13236 13287 0
-13237 13288 0
-13238 13289 0
-13239 13290 0
-13240 13291 0
-13241 13292 0
-13242 13293 0
-13243 13294 0
-13244 13295 0
-13245 13296 0
-13246 13297 0
-13247 13298 0
-13248 13299 0
-13249 13300 0
-13250 13301 0
-13251 13302 0
-13252 13303 0
-13253 13304 0
-13254 13305 0
-13255 13306 0
-1292 -13205 13257 0
-1292 -13206 13258 0
-1292 -13207 13259 0
-1292 -13208 13260 0
-1292 -13209 13261 0
-1292 -13210 13262 0
-1292 -13211 13263 0
-1292 -13212 13264 0
-1292 -13213 13265 0
-1292 -13214 13266 0
-1292 -13215 13267 0
-1292 -13216 13268 0
-1292 -13217 13269 0
-1292 -13218 13270 0
-1292 -13219 13271 0
-1292 -13220 13272 0
-1292 -13221 13273 0
-1292 -13222 13274 0
-1292 -13223 13275 0
-1292 -13224 13276 0
-1292 -13225 13277 0
-1292 -13226 13278 0
-1292 -13227 13279 0
-1292 -13228 13280 0
-1292 -13229 13281 0
-1292 -13230 13282 0
-1292 -13231 13283 0
-1292 -13232 13284 0
-1292 -13233 13285 0
-1292 -13234 13286 0
-1292 -13235 13287 0
-1292 -13236 13288 0
-1292 -13237 13289 0
-1292 -13238 13290 0
-1292 -13239 13291 0
-1292 -13240 13292 0
-1292 -13241 13293 0
-1292 -13242 13294 0
-1292 -13243 13295 0
-1292 -13244 13296 0
-1292 -13245 13297 0
-1292 -13246 13298 0
-1292 -13247 13299 0
-1292 -13248 13300 0
-1292 -13249 13301 0
-1292 -13250 13302 0
-1292 -13251 13303 0
-1292 -13252 13304 0
-1292 -13253 13305 0
-1292 -13254 13306 0
-1292 -13255 0
-13256 13307 0
-13257 13308 0
-13258 13309 0
-13259 13310 0
-13260 13311 0
-13261 13312 0
-13262 13313 0
-13263 13314 0
-13264 13315 0
-13265 13316 0
-13266 13317 0
-13267 13318 0
-13268 13319 0
-13269 13320 0
-13270 13321 0
-13271 13322 0
-13272 13323 0
-13273 13324 0
-13274 13325 0
-13275 13326 0
-13276 13327 0
-13277 13328 0
-13278 13329 0
-13279 13330 0
-13280 13331 0
-13281 13332 0
-13282 13333 0
-13283 13334 0
-13284 13335 0
-13285 13336 0
-13286 13337 0
-13287 13338 0
-13288 13339 0
-13289 13340 0
-13290 13341 0
-13291 13342 0
-13292 13343 0
-13293 13344 0
-13294 13345 0
-13295 13346 0
-13296 13347 0
-13297 13348 0
-13298 13349 0
-13299 13350 0
-13300 13351 0
-13301 13352 0
-13302 13353 0
-13303 13354 0
-13304 13355 0
-13305 13356 0
-13306 13357 0
-1294 -13256 13308 0
-1294 -13257 13309 0
-1294 -13258 13310 0
-1294 -13259 13311 0
-1294 -13260 13312 0
-1294 -13261 13313 0
-1294 -13262 13314 0
-1294 -13263 13315 0
-1294 -13264 13316 0
-1294 -13265 13317 0
-1294 -13266 13318 0
-1294 -13267 13319 0
-1294 -13268 13320 0
-1294 -13269 13321 0
-1294 -13270 13322 0
-1294 -13271 13323 0
-1294 -13272 13324 0
-1294 -13273 13325 0
-1294 -13274 13326 0
-1294 -13275 13327 0
-1294 -13276 13328 0
-1294 -13277 13329 0
-1294 -13278 13330 0
-1294 -13279 13331 0
-1294 -13280 13332 0
-1294 -13281 13333 0
-1294 -13282 13334 0
-1294 -13283 13335 0
-1294 -13284 13336 0
-1294 -13285 13337 0
-1294 -13286 13338 0
-1294 -13287 13339 0
-1294 -13288 13340 0
-1294 -13289 13341 0
-1294 -13290 13342 0
-1294 -13291 13343 0
-1294 -13292 13344 0
-1294 -13293 13345 0
-1294 -13294 13346 0
-1294 -13295 13347 0
-1294 -13296 13348 0
-1294 -13297 13349 0
-1294 -13298 13350 0
-1294 -13299 13351 0
-1294 -13300 13352 0
-1294 -13301 13353 0
-1294 -13302 13354 0
-1294 -13303 13355 0
-1294 -13304 13356 0
-1294 -13305 13357 0
-1294 -13306 0
-13307 13358 0
-13308 13359 0
-13309 13360 0
-13310 13361 0
-13311 13362 0
-13312 13363 0
-13313 13364 0
-13314 13365 0
-13315 13366 0
-13316 13367 0
-13317 13368 0
-13318 13369 0
-13319 13370 0
-13320 13371 0
-13321 13372 0
-13322 13373 0
-13323 13374 0
-13324 13375 0
-13325 13376 0
-13326 13377 0
-13327 13378 0
-13328 13379 0
-13329 13380 0
-13330 13381 0
-13331 13382 0
-13332 13383 0
-13333 13384 0
-13334 13385 0
-13335 13386 0
-13336 13387 0
-13337 13388 0
-13338 13389 0
-13339 13390 0
-13340 13391 0
-13341 13392 0
-13342 13393 0
-13343 13394 0
-13344 13395 0
-13345 13396 0
-13346 13397 0
-13347 13398 0
-13348 13399 0
-13349 13400 0
-13350 13401 0
-13351 13402 0
-13352 13403 0
-13353 13404 0
-13354 13405 0
-13355 13406 0
-13356 13407 0
-13357 13408 0
-1296 -13307 13359 0
-1296 -13308 13360 0
-1296 -13309 13361 0
-1296 -13310 13362 0
-1296 -13311 13363 0
-1296 -13312 13364 0
-1296 -13313 13365 0
-1296 -13314 13366 0
-1296 -13315 13367 0
-1296 -13316 13368 0
-1296 -13317 13369 0
-1296 -13318 13370 0
-1296 -13319 13371 0
-1296 -13320 13372 0
-1296 -13321 13373 0
-1296 -13322 13374 0
-1296 -13323 13375 0
-1296 -13324 13376 0
-1296 -13325 13377 0
-1296 -13326 13378 0
-1296 -13327 13379 0
-1296 -13328 13380 0
-1296 -13329 13381 0
-1296 -13330 13382 0
-1296 -13331 13383 0
-1296 -13332 13384 0
-1296 -13333 13385 0
-1296 -13334 13386 0
-1296 -13335 13387 0
-1296 -13336 13388 0
-1296 -13337 13389 0
-1296 -13338 13390 0
-1296 -13339 13391 0
-1296 -13340 13392 0
-1296 -13341 13393 0
-1296 -13342 13394 0
-1296 -13343 13395 0
-1296 -13344 13396 0
-1296 -13345 13397 0
-1296 -13346 13398 0
-1296 -13347 13399 0
-1296 -13348 13400 0
-1296 -13349 13401 0
-1296 -13350 13402 0
-1296 -13351 13403 0
-1296 -13352 13404 0
-1296 -13353 13405 0
-1296 -13354 13406 0
-1296 -13355 13407 0
-1296 -13356 13408 0
-1296 -13357 0
-13358 13409 0
-13359 13410 0
-13360 13411 0
-13361 13412 0
-13362 13413 0
-13363 13414 0
-13364 13415 0
-13365 13416 0
-13366 13417 0
-13367 13418 0
-13368 13419 0
-13369 13420 0
-13370 13421 0
-13371 13422 0
-13372 13423 0
-13373 13424 0
-13374 13425 0
-13375 13426 0
-13376 13427 0
-13377 13428 0
-13378 13429 0
-13379 13430 0
-13380 13431 0
-13381 13432 0
-13382 13433 0
-13383 13434 0
-13384 13435 0
-13385 13436 0
-13386 13437 0
-13387 13438 0
-13388 13439 0
-13389 13440 0
-13390 13441 0
-13391 13442 0
-13392 13443 0
-13393 13444 0
-13394 13445 0
-13395 13446 0
-13396 13447 0
-13397 13448 0
-13398 13449 0
-13399 13450 0
-13400 13451 0
-13401 13452 0
-13402 13453 0
-13403 13454 0
-13404 13455 0
-13405 13456 0
-13406 13457 0
-13407 13458 0
-13408 13459 0
-1298 -13358 13410 0
-1298 -13359 13411 0
-1298 -13360 13412 0
-1298 -13361 13413 0
-1298 -13362 13414 0
-1298 -13363 13415 0
-1298 -13364 13416 0
-1298 -13365 13417 0
-1298 -13366 13418 0
-1298 -13367 13419 0
-1298 -13368 13420 0
-1298 -13369 13421 0
-1298 -13370 13422 0
-1298 -13371 13423 0
-1298 -13372 13424 0
-1298 -13373 13425 0
-1298 -13374 13426 0
-1298 -13375 13427 0
-1298 -13376 13428 0
-1298 -13377 13429 0
-1298 -13378 13430 0
-1298 -13379 13431 0
-1298 -13380 13432 0
-1298 -13381 13433 0
-1298 -13382 13434 0
-1298 -13383 13435 0
-1298 -13384 13436 0
-1298 -13385 13437 0
-1298 -13386 13438 0
-1298 -13387 13439 0
-1298 -13388 13440 0
-1298 -13389 13441 0
-1298 -13390 13442 0
-1298 -13391 13443 0
-1298 -13392 13444 0
-1298 -13393 13445 0
-1298 -13394 13446 0
-1298 -13395 13447 0
-1298 -13396 13448 0
-1298 -13397 13449 0
-1298 -13398 13450 0
-1298 -13399 13451 0
-1298 -13400 13452 0
-1298 -13401 13453 0
-1298 -13402 13454 0
-1298 -13403 13455 0
-1298 -13404 13456 0
-1298 -13405 13457 0
-1298 -13406 13458 0
-1298 -13407 13459 0
-1298 -13408 0
-13409 13460 0
-13410 13461 0
-13411 13462 0
-13412 13463 0
-13413 13464 0
-13414 13465 0
-13415 13466 0
-13416 13467 0
-13417 13468 0
-13418 13469 0
-13419 13470 0
-13420 13471 0
-13421 13472 0
-13422 13473 0
-13423 13474 0
-13424 13475 0
-13425 13476 0
-13426 13477 0
-13427 13478 0
-13428 13479 0
-13429 13480 0
-13430 13481 0
-13431 13482 0
-13432 13483 0
-13433 13484 0
-13434 13485 0
-13435 13486 0
-13436 13487 0
-13437 13488 0
-13438 13489 0
-13439 13490 0
-13440 13491 0
-13441 13492 0
-13442 13493 0
-13443 13494 0
-13444 13495 0
-13445 13496 0
-13446 13497 0
-13447 13498 0
-13448 13499 0
-13449 13500 0
-13450 13501 0
-13451 13502 0
-13452 13503 0
-13453 13504 0
-13454 13505 0
-13455 13506 0
-13456 13507 0
-13457 13508 0
-13458 13509 0
-13459 13510 0
-1300 -13409 13461 0
-1300 -13410 13462 0
-1300 -13411 13463 0
-1300 -13412 13464 0
-1300 -13413 13465 0
-1300 -13414 13466 0
-1300 -13415 13467 0
-1300 -13416 13468 0
-1300 -13417 13469 0
-1300 -13418 13470 0
-1300 -13419 13471 0
-1300 -13420 13472 0
-1300 -13421 13473 0
-1300 -13422 13474 0
-1300 -13423 13475 0
-1300 -13424 13476 0
-1300 -13425 13477 0
-1300 -13426 13478 0
-1300 -13427 13479 0
-1300 -13428 13480 0
-1300 -13429 13481 0
-1300 -13430 13482 0
-1300 -13431 13483 0
-1300 -13432 13484 0
-1300 -13433 13485 0
-1300 -13434 13486 0
-1300 -13435 13487 0
-1300 -13436 13488 0
-1300 -13437 13489 0
-1300 -13438 13490 0
-1300 -13439 13491 0
-1300 -13440 13492 0
-1300 -13441 13493 0
-1300 -13442 13494 0
-1300 -13443 13495 0
-1300 -13444 13496 0
-1300 -13445 13497 0
-1300 -13446 13498 0
-1300 -13447 13499 0
-1300 -13448 13500 0
-1300 -13449 13501 0
-1300 -13450 13502 0
-1300 -13451 13503 0
-1300 -13452 13504 0
-1300 -13453 13505 0
-1300 -13454 13506 0
-1300 -13455 13507 0
-1300 -13456 13508 0
-1300 -13457 13509 0
-1300 -13458 13510 0
-1300 -13459 0
-13460 13511 0
-13461 13512 0
-13462 13513 0
-13463 13514 0
-13464 13515 0
-13465 13516 0
-13466 13517 0
-13467 13518 0
-13468 13519 0
-13469 13520 0
-13470 13521 0
-13471 13522 0
-13472 13523 0
-13473 13524 0
-13474 13525 0
-13475 13526 0
-13476 13527 0
-13477 13528 0
-13478 13529 0
-13479 13530 0
-13480 13531 0
-13481 13532 0
-13482 13533 0
-13483 13534 0
-13484 13535 0
-13485 13536 0
-13486 13537 0
-13487 13538 0
-13488 13539 0
-13489 13540 0
-13490 13541 0
-13491 13542 0
-13492 13543 0
-13493 13544 0
-13494 13545 0
-13495 13546 0
-13496 13547 0
-13497 13548 0
-13498 13549 0
-13499 13550 0
-13500 13551 0
-13501 13552 0
-13502 13553 0
-13503 13554 0
-13504 13555 0
-13505 13556 0
-13506 13557 0
-13507 13558 0
-13508 13559 0
-13509 13560 0
-13510 13561 0
-1302 -13460 13512 0
-1302 -13461 13513 0
-1302 -13462 13514 0
-1302 -13463 13515 0
-1302 -13464 13516 0
-1302 -13465 13517 0
-1302 -13466 13518 0
-1302 -13467 13519 0
-1302 -13468 13520 0
-1302 -13469 13521 0
-1302 -13470 13522 0
-1302 -13471 13523 0
-1302 -13472 13524 0
-1302 -13473 13525 0
-1302 -13474 13526 0
-1302 -13475 13527 0
-1302 -13476 13528 0
-1302 -13477 13529 0
-1302 -13478 13530 0
-1302 -13479 13531 0
-1302 -13480 13532 0
-1302 -13481 13533 0
-1302 -13482 13534 0
-1302 -13483 13535 0
-1302 -13484 13536 0
-1302 -13485 13537 0
-1302 -13486 13538 0
-1302 -13487 13539 0
-1302 -13488 13540 0
-1302 -13489 13541 0
-1302 -13490 13542 0
-1302 -13491 13543 0
-1302 -13492 13544 0
-1302 -13493 13545 0
-1302 -13494 13546 0
-1302 -13495 13547 0
-1302 -13496 13548 0
-1302 -13497 13549 0
-1302 -13498 13550 0
-1302 -13499 13551 0
-1302 -13500 13552 0
-1302 -13501 13553 0
-1302 -13502 13554 0
-1302 -13503 13555 0
-1302 -13504 13556 0
-1302 -13505 13557 0
-1302 -13506 13558 0
-1302 -13507 13559 0
-1302 -13508 13560 0
-1302 -13509 13561 0
-1302 -13510 0
-13511 13562 0
-13512 13563 0
-13513 13564 0
-13514 13565 0
-13515 13566 0
-13516 13567 0
-13517 13568 0
-13518 13569 0
-13519 13570 0
-13520 13571 0
-13521 13572 0
-13522 13573 0
-13523 13574 0
-13524 13575 0
-13525 13576 0
-13526 13577 0
-13527 13578 0
-13528 13579 0
-13529 13580 0
-13530 13581 0
-13531 13582 0
-13532 13583 0
-13533 13584 0
-13534 13585 0
-13535 13586 0
-13536 13587 0
-13537 13588 0
-13538 13589 0
-13539 13590 0
-13540 13591 0
-13541 13592 0
-13542 13593 0
-13543 13594 0
-13544 13595 0
-13545 13596 0
-13546 13597 0
-13547 13598 0
-13548 13599 0
-13549 13600 0
-13550 13601 0
-13551 13602 0
-13552 13603 0
-13553 13604 0
-13554 13605 0
-13555 13606 0
-13556 13607 0
-13557 13608 0
-13558 13609 0
-13559 13610 0
-13560 13611 0
-13561 13612 0
-1304 -13511 13563 0
-1304 -13512 13564 0
-1304 -13513 13565 0
-1304 -13514 13566 0
-1304 -13515 13567 0
-1304 -13516 13568 0
-1304 -13517 13569 0
-1304 -13518 13570 0
-1304 -13519 13571 0
-1304 -13520 13572 0
-1304 -13521 13573 0
-1304 -13522 13574 0
-1304 -13523 13575 0
-1304 -13524 13576 0
-1304 -13525 13577 0
-1304 -13526 13578 0
-1304 -13527 13579 0
-1304 -13528 13580 0
-1304 -13529 13581 0
-1304 -13530 13582 0
-1304 -13531 13583 0
-1304 -13532 13584 0
-1304 -13533 13585 0
-1304 -13534 13586 0
-1304 -13535 13587 0
-1304 -13536 13588 0
-1304 -13537 13589 0
-1304 -13538 13590 0
-1304 -13539 13591 0
-1304 -13540 13592 0
-1304 -13541 13593 0
-1304 -13542 13594 0
-1304 -13543 13595 0
-1304 -13544 13596 0
-1304 -13545 13597 0
-1304 -13546 13598 0
-1304 -13547 13599 0
-1304 -13548 13600 0
-1304 -13549 13601 0
-1304 -13550 13602 0
-1304 -13551 13603 0
-1304 -13552 13604 0
-1304 -13553 13605 0
-1304 -13554 13606 0
-1304 -13555 13607 0
-1304 -13556 13608 0
-1304 -13557 13609 0
-1304 -13558 13610 0
-1304 -13559 13611 0
-1304 -13560 13612 0
-1304 -13561 0
-13562 13613 0
-13563 13614 0
-13564 13615 0
-13565 13616 0
-13566 13617 0
-13567 13618 0
-13568 13619 0
-13569 13620 0
-13570 13621 0
-13571 13622 0
-13572 13623 0
-13573 13624 0
-13574 13625 0
-13575 13626 0
-13576 13627 0
-13577 13628 0
-13578 13629 0
-13579 13630 0
-13580 13631 0
-13581 13632 0
-13582 13633 0
-13583 13634 0
-13584 13635 0
-13585 13636 0
-13586 13637 0
-13587 13638 0
-13588 13639 0
-13589 13640 0
-13590 13641 0
-13591 13642 0
-13592 13643 0
-13593 13644 0
-13594 13645 0
-13595 13646 0
-13596 13647 0
-13597 13648 0
-13598 13649 0
-13599 13650 0
-13600 13651 0
-13601 13652 0
-13602 13653 0
-13603 13654 0
-13604 13655 0
-13605 13656 0
-13606 13657 0
-13607 13658 0
-13608 13659 0
-13609 13660 0
-13610 13661 0
-13611 13662 0
-13612 13663 0
-1306 -13562 13614 0
-1306 -13563 13615 0
-1306 -13564 13616 0
-1306 -13565 13617 0
-1306 -13566 13618 0
-1306 -13567 13619 0
-1306 -13568 13620 0
-1306 -13569 13621 0
-1306 -13570 13622 0
-1306 -13571 13623 0
-1306 -13572 13624 0
-1306 -13573 13625 0
-1306 -13574 13626 0
-1306 -13575 13627 0
-1306 -13576 13628 0
-1306 -13577 13629 0
-1306 -13578 13630 0
-1306 -13579 13631 0
-1306 -13580 13632 0
-1306 -13581 13633 0
-1306 -13582 13634 0
-1306 -13583 13635 0
-1306 -13584 13636 0
-1306 -13585 13637 0
-1306 -13586 13638 0
-1306 -13587 13639 0
-1306 -13588 13640 0
-1306 -13589 13641 0
-1306 -13590 13642 0
-1306 -13591 13643 0
-1306 -13592 13644 0
-1306 -13593 13645 0
-1306 -13594 13646 0
-1306 -13595 13647 0
-1306 -13596 13648 0
-1306 -13597 13649 0
-1306 -13598 13650 0
-1306 -13599 13651 0
-1306 -13600 13652 0
-1306 -13601 13653 0
-1306 -13602 13654 0
-1306 -13603 13655 0
-1306 -13604 13656 0
-1306 -13605 13657 0
-1306 -13606 13658 0
-1306 -13607 13659 0
-1306 -13608 13660 0
-1306 -13609 13661 0
-1306 -13610 13662 0
-1306 -13611 13663 0
-1306 -13612 0
-13613 13664 0
-13614 13665 0
-13615 13666 0
-13616 13667 0
-13617 13668 0
-13618 13669 0
-13619 13670 0
-13620 13671 0
-13621 13672 0
-13622 13673 0
-13623 13674 0
-13624 13675 0
-13625 13676 0
-13626 13677 0
-13627 13678 0
-13628 13679 0
-13629 13680 0
-13630 13681 0
-13631 13682 0
-13632 13683 0
-13633 13684 0
-13634 13685 0
-13635 13686 0
-13636 13687 0
-13637 13688 0
-13638 13689 0
-13639 13690 0
-13640 13691 0
-13641 13692 0
-13642 13693 0
-13643 13694 0
-13644 13695 0
-13645 13696 0
-13646 13697 0
-13647 13698 0
-13648 13699 0
-13649 13700 0
-13650 13701 0
-13651 13702 0
-13652 13703 0
-13653 13704 0
-13654 13705 0
-13655 13706 0
-13656 13707 0
-13657 13708 0
-13658 13709 0
-13659 13710 0
-13660 13711 0
-13661 13712 0
-13662 13713 0
-13663 13714 0
-1308 -13613 13665 0
-1308 -13614 13666 0
-1308 -13615 13667 0
-1308 -13616 13668 0
-1308 -13617 13669 0
-1308 -13618 13670 0
-1308 -13619 13671 0
-1308 -13620 13672 0
-1308 -13621 13673 0
-1308 -13622 13674 0
-1308 -13623 13675 0
-1308 -13624 13676 0
-1308 -13625 13677 0
-1308 -13626 13678 0
-1308 -13627 13679 0
-1308 -13628 13680 0
-1308 -13629 13681 0
-1308 -13630 13682 0
-1308 -13631 13683 0
-1308 -13632 13684 0
-1308 -13633 13685 0
-1308 -13634 13686 0
-1308 -13635 13687 0
-1308 -13636 13688 0
-1308 -13637 13689 0
-1308 -13638 13690 0
-1308 -13639 13691 0
-1308 -13640 13692 0
-1308 -13641 13693 0
-1308 -13642 13694 0
-1308 -13643 13695 0
-1308 -13644 13696 0
-1308 -13645 13697 0
-1308 -13646 13698 0
-1308 -13647 13699 0
-1308 -13648 13700 0
-1308 -13649 13701 0
-1308 -13650 13702 0
-1308 -13651 13703 0
-1308 -13652 13704 0
-1308 -13653 13705 0
-1308 -13654 13706 0
-1308 -13655 13707 0
-1308 -13656 13708 0
-1308 -13657 13709 0
-1308 -13658 13710 0
-1308 -13659 13711 0
-1308 -13660 13712 0
-1308 -13661 13713 0
-1308 -13662 13714 0
-1308 -13663 0
-13664 13715 0
-13665 13716 0
-13666 13717 0
-13667 13718 0
-13668 13719 0
-13669 13720 0
-13670 13721 0
-13671 13722 0
-13672 13723 0
-13673 13724 0
-13674 13725 0
-13675 13726 0
-13676 13727 0
-13677 13728 0
-13678 13729 0
-13679 13730 0
-13680 13731 0
-13681 13732 0
-13682 13733 0
-13683 13734 0
-13684 13735 0
-13685 13736 0
-13686 13737 0
-13687 13738 0
-13688 13739 0
-13689 13740 0
-13690 13741 0
-13691 13742 0
-13692 13743 0
-13693 13744 0
-13694 13745 0
-13695 13746 0
-13696 13747 0
-13697 13748 0
-13698 13749 0
-13699 13750 0
-13700 13751 0
-13701 13752 0
-13702 13753 0
-13703 13754 0
-13704 13755 0
-13705 13756 0
-13706 13757 0
-13707 13758 0
-13708 13759 0
-13709 13760 0
-13710 13761 0
-13711 13762 0
-13712 13763 0
-13713 13764 0
-13714 13765 0
-1310 -13664 13716 0
-1310 -13665 13717 0
-1310 -13666 13718 0
-1310 -13667 13719 0
-1310 -13668 13720 0
-1310 -13669 13721 0
-1310 -13670 13722 0
-1310 -13671 13723 0
-1310 -13672 13724 0
-1310 -13673 13725 0
-1310 -13674 13726 0
-1310 -13675 13727 0
-1310 -13676 13728 0
-1310 -13677 13729 0
-1310 -13678 13730 0
-1310 -13679 13731 0
-1310 -13680 13732 0
-1310 -13681 13733 0
-1310 -13682 13734 0
-1310 -13683 13735 0
-1310 -13684 13736 0
-1310 -13685 13737 0
-1310 -13686 13738 0
-1310 -13687 13739 0
-1310 -13688 13740 0
-1310 -13689 13741 0
-1310 -13690 13742 0
-1310 -13691 13743 0
-1310 -13692 13744 0
-1310 -13693 13745 0
-1310 -13694 13746 0
-1310 -13695 13747 0
-1310 -13696 13748 0
-1310 -13697 13749 0
-1310 -13698 13750 0
-1310 -13699 13751 0
-1310 -13700 13752 0
-1310 -13701 13753 0
-1310 -13702 13754 0
-1310 -13703 13755 0
-1310 -13704 13756 0
-1310 -13705 13757 0
-1310 -13706 13758 0
-1310 -13707 13759 0
-1310 -13708 13760 0
-1310 -13709 13761 0
-1310 -13710 13762 0
-1310 -13711 13763 0
-1310 -13712 13764 0
-1310 -13713 13765 0
-1310 -13714 0
-13715 13766 0
-13716 13767 0
-13717 13768 0
-13718 13769 0
-13719 13770 0
-13720 13771 0
-13721 13772 0
-13722 13773 0
-13723 13774 0
-13724 13775 0
-13725 13776 0
-13726 13777 0
-13727 13778 0
-13728 13779 0
-13729 13780 0
-13730 13781 0
-13731 13782 0
-13732 13783 0
-13733 13784 0
-13734 13785 0
-13735 13786 0
-13736 13787 0
-13737 13788 0
-13738 13789 0
-13739 13790 0
-13740 13791 0
-13741 13792 0
-13742 13793 0
-13743 13794 0
-13744 13795 0
-13745 13796 0
-13746 13797 0
-13747 13798 0
-13748 13799 0
-13749 13800 0
-13750 13801 0
-13751 13802 0
-13752 13803 0
-13753 13804 0
-13754 13805 0
-13755 13806 0
-13756 13807 0
-13757 13808 0
-13758 13809 0
-13759 13810 0
-13760 13811 0
-13761 13812 0
-13762 13813 0
-13763 13814 0
-13764 13815 0
-13765 13816 0
-1312 -13715 13767 0
-1312 -13716 13768 0
-1312 -13717 13769 0
-1312 -13718 13770 0
-1312 -13719 13771 0
-1312 -13720 13772 0
-1312 -13721 13773 0
-1312 -13722 13774 0
-1312 -13723 13775 0
-1312 -13724 13776 0
-1312 -13725 13777 0
-1312 -13726 13778 0
-1312 -13727 13779 0
-1312 -13728 13780 0
-1312 -13729 13781 0
-1312 -13730 13782 0
-1312 -13731 13783 0
-1312 -13732 13784 0
-1312 -13733 13785 0
-1312 -13734 13786 0
-1312 -13735 13787 0
-1312 -13736 13788 0
-1312 -13737 13789 0
-1312 -13738 13790 0
-1312 -13739 13791 0
-1312 -13740 13792 0
-1312 -13741 13793 0
-1312 -13742 13794 0
-1312 -13743 13795 0
-1312 -13744 13796 0
-1312 -13745 13797 0
-1312 -13746 13798 0
-1312 -13747 13799 0
-1312 -13748 13800 0
-1312 -13749 13801 0
-1312 -13750 13802 0
-1312 -13751 13803 0
-1312 -13752 13804 0
-1312 -13753 13805 0
-1312 -13754 13806 0
-1312 -13755 13807 0
-1312 -13756 13808 0
-1312 -13757 13809 0
-1312 -13758 13810 0
-1312 -13759 13811 0
-1312 -13760 13812 0
-1312 -13761 13813 0
-1312 -13762 13814 0
-1312 -13763 13815 0
-1312 -13764 13816 0
-1312 -13765 0
-13766 13817 0
-13767 13818 0
-13768 13819 0
-13769 13820 0
-13770 13821 0
-13771 13822 0
-13772 13823 0
-13773 13824 0
-13774 13825 0
-13775 13826 0
-13776 13827 0
-13777 13828 0
-13778 13829 0
-13779 13830 0
-13780 13831 0
-13781 13832 0
-13782 13833 0
-13783 13834 0
-13784 13835 0
-13785 13836 0
-13786 13837 0
-13787 13838 0
-13788 13839 0
-13789 13840 0
-13790 13841 0
-13791 13842 0
-13792 13843 0
-13793 13844 0
-13794 13845 0
-13795 13846 0
-13796 13847 0
-13797 13848 0
-13798 13849 0
-13799 13850 0
-13800 13851 0
-13801 13852 0
-13802 13853 0
-13803 13854 0
-13804 13855 0
-13805 13856 0
-13806 13857 0
-13807 13858 0
-13808 13859 0
-13809 13860 0
-13810 13861 0
-13811 13862 0
-13812 13863 0
-13813 13864 0
-13814 13865 0
-13815 13866 0
-13816 13867 0
-1314 -13766 13818 0
-1314 -13767 13819 0
-1314 -13768 13820 0
-1314 -13769 13821 0
-1314 -13770 13822 0
-1314 -13771 13823 0
-1314 -13772 13824 0
-1314 -13773 13825 0
-1314 -13774 13826 0
-1314 -13775 13827 0
-1314 -13776 13828 0
-1314 -13777 13829 0
-1314 -13778 13830 0
-1314 -13779 13831 0
-1314 -13780 13832 0
-1314 -13781 13833 0
-1314 -13782 13834 0
-1314 -13783 13835 0
-1314 -13784 13836 0
-1314 -13785 13837 0
-1314 -13786 13838 0
-1314 -13787 13839 0
-1314 -13788 13840 0
-1314 -13789 13841 0
-1314 -13790 13842 0
-1314 -13791 13843 0
-1314 -13792 13844 0
-1314 -13793 13845 0
-1314 -13794 13846 0
-1314 -13795 13847 0
-1314 -13796 13848 0
-1314 -13797 13849 0
-1314 -13798 13850 0
-1314 -13799 13851 0
-1314 -13800 13852 0
-1314 -13801 13853 0
-1314 -13802 13854 0
-1314 -13803 13855 0
-1314 -13804 13856 0
-1314 -13805 13857 0
-1314 -13806 13858 0
-1314 -13807 13859 0
-1314 -13808 13860 0
-1314 -13809 13861 0
-1314 -13810 13862 0
-1314 -13811 13863 0
-1314 -13812 13864 0
-1314 -13813 13865 0
-1314 -13814 13866 0
-1314 -13815 13867 0
-1314 -13816 0
-13817 13868 0
-13818 13869 0
-13819 13870 0
-13820 13871 0
-13821 13872 0
-13822 13873 0
-13823 13874 0
-13824 13875 0
-13825 13876 0
-13826 13877 0
-13827 13878 0
-13828 13879 0
-13829 13880 0
-13830 13881 0
-13831 13882 0
-13832 13883 0
-13833 13884 0
-13834 13885 0
-13835 13886 0
-13836 13887 0
-13837 13888 0
-13838 13889 0
-13839 13890 0
-13840 13891 0
-13841 13892 0
-13842 13893 0
-13843 13894 0
-13844 13895 0
-13845 13896 0
-13846 13897 0
-13847 13898 0
-13848 13899 0
-13849 13900 0
-13850 13901 0
-13851 13902 0
-13852 13903 0
-13853 13904 0
-13854 13905 0
-13855 13906 0
-13856 13907 0
-13857 13908 0
-13858 13909 0
-13859 13910 0
-13860 13911 0
-13861 13912 0
-13862 13913 0
-13863 13914 0
-13864 13915 0
-13865 13916 0
-13866 13917 0
-13867 13918 0
-1316 -13817 13869 0
-1316 -13818 13870 0
-1316 -13819 13871 0
-1316 -13820 13872 0
-1316 -13821 13873 0
-1316 -13822 13874 0
-1316 -13823 13875 0
-1316 -13824 13876 0
-1316 -13825 13877 0
-1316 -13826 13878 0
-1316 -13827 13879 0
-1316 -13828 13880 0
-1316 -13829 13881 0
-1316 -13830 13882 0
-1316 -13831 13883 0
-1316 -13832 13884 0
-1316 -13833 13885 0
-1316 -13834 13886 0
-1316 -13835 13887 0
-1316 -13836 13888 0
-1316 -13837 13889 0
-1316 -13838 13890 0
-1316 -13839 13891 0
-1316 -13840 13892 0
-1316 -13841 13893 0
-1316 -13842 13894 0
-1316 -13843 13895 0
-1316 -13844 13896 0
-1316 -13845 13897 0
-1316 -13846 13898 0
-1316 -13847 13899 0
-1316 -13848 13900 0
-1316 -13849 13901 0
-1316 -13850 13902 0
-1316 -13851 13903 0
-1316 -13852 13904 0
-1316 -13853 13905 0
-1316 -13854 13906 0
-1316 -13855 13907 0
-1316 -13856 13908 0
-1316 -13857 13909 0
-1316 -13858 13910 0
-1316 -13859 13911 0
-1316 -13860 13912 0
-1316 -13861 13913 0
-1316 -13862 13914 0
-1316 -13863 13915 0
-1316 -13864 13916 0
-1316 -13865 13917 0
-1316 -13866 13918 0
-1316 -13867 0
-13868 13919 0
-13869 13920 0
-13870 13921 0
-13871 13922 0
-13872 13923 0
-13873 13924 0
-13874 13925 0
-13875 13926 0
-13876 13927 0
-13877 13928 0
-13878 13929 0
-13879 13930 0
-13880 13931 0
-13881 13932 0
-13882 13933 0
-13883 13934 0
-13884 13935 0
-13885 13936 0
-13886 13937 0
-13887 13938 0
-13888 13939 0
-13889 13940 0
-13890 13941 0
-13891 13942 0
-13892 13943 0
-13893 13944 0
-13894 13945 0
-13895 13946 0
-13896 13947 0
-13897 13948 0
-13898 13949 0
-13899 13950 0
-13900 13951 0
-13901 13952 0
-13902 13953 0
-13903 13954 0
-13904 13955 0
-13905 13956 0
-13906 13957 0
-13907 13958 0
-13908 13959 0
-13909 13960 0
-13910 13961 0
-13911 13962 0
-13912 13963 0
-13913 13964 0
-13914 13965 0
-13915 13966 0
-13916 13967 0
-13917 13968 0
-13918 13969 0
-1318 -13868 13920 0
-1318 -13869 13921 0
-1318 -13870 13922 0
-1318 -13871 13923 0
-1318 -13872 13924 0
-1318 -13873 13925 0
-1318 -13874 13926 0
-1318 -13875 13927 0
-1318 -13876 13928 0
-1318 -13877 13929 0
-1318 -13878 13930 0
-1318 -13879 13931 0
-1318 -13880 13932 0
-1318 -13881 13933 0
-1318 -13882 13934 0
-1318 -13883 13935 0
-1318 -13884 13936 0
-1318 -13885 13937 0
-1318 -13886 13938 0
-1318 -13887 13939 0
-1318 -13888 13940 0
-1318 -13889 13941 0
-1318 -13890 13942 0
-1318 -13891 13943 0
-1318 -13892 13944 0
-1318 -13893 13945 0
-1318 -13894 13946 0
-1318 -13895 13947 0
-1318 -13896 13948 0
-1318 -13897 13949 0
-1318 -13898 13950 0
-1318 -13899 13951 0
-1318 -13900 13952 0
-1318 -13901 13953 0
-1318 -13902 13954 0
-1318 -13903 13955 0
-1318 -13904 13956 0
-1318 -13905 13957 0
-1318 -13906 13958 0
-1318 -13907 13959 0
-1318 -13908 13960 0
-1318 -13909 13961 0
-1318 -13910 13962 0
-1318 -13911 13963 0
-1318 -13912 13964 0
-1318 -13913 13965 0
-1318 -13914 13966 0
-1318 -13915 13967 0
-1318 -13916 13968 0
-1318 -13917 13969 0
-1318 -13918 0
-13919 13970 0
-13920 13971 0
-13921 13972 0
-13922 13973 0
-13923 13974 0
-13924 13975 0
-13925 13976 0
-13926 13977 0
-13927 13978 0
-13928 13979 0
-13929 13980 0
-13930 13981 0
-13931 13982 0
-13932 13983 0
-13933 13984 0
-13934 13985 0
-13935 13986 0
-13936 13987 0
-13937 13988 0
-13938 13989 0
-13939 13990 0
-13940 13991 0
-13941 13992 0
-13942 13993 0
-13943 13994 0
-13944 13995 0
-13945 13996 0
-13946 13997 0
-13947 13998 0
-13948 13999 0
-13949 14000 0
-13950 14001 0
-13951 14002 0
-13952 14003 0
-13953 14004 0
-13954 14005 0
-13955 14006 0
-13956 14007 0
-13957 14008 0
-13958 14009 0
-13959 14010 0
-13960 14011 0
-13961 14012 0
-13962 14013 0
-13963 14014 0
-13964 14015 0
-13965 14016 0
-13966 14017 0
-13967 14018 0
-13968 14019 0
-13969 14020 0
-1320 -13919 13971 0
-1320 -13920 13972 0
-1320 -13921 13973 0
-1320 -13922 13974 0
-1320 -13923 13975 0
-1320 -13924 13976 0
-1320 -13925 13977 0
-1320 -13926 13978 0
-1320 -13927 13979 0
-1320 -13928 13980 0
-1320 -13929 13981 0
-1320 -13930 13982 0
-1320 -13931 13983 0
-1320 -13932 13984 0
-1320 -13933 13985 0
-1320 -13934 13986 0
-1320 -13935 13987 0
-1320 -13936 13988 0
-1320 -13937 13989 0
-1320 -13938 13990 0
-1320 -13939 13991 0
-1320 -13940 13992 0
-1320 -13941 13993 0
-1320 -13942 13994 0
-1320 -13943 13995 0
-1320 -13944 13996 0
-1320 -13945 13997 0
-1320 -13946 13998 0
-1320 -13947 13999 0
-1320 -13948 14000 0
-1320 -13949 14001 0
-1320 -13950 14002 0
-1320 -13951 14003 0
-1320 -13952 14004 0
-1320 -13953 14005 0
-1320 -13954 14006 0
-1320 -13955 14007 0
-1320 -13956 14008 0
-1320 -13957 14009 0
-1320 -13958 14010 0
-1320 -13959 14011 0
-1320 -13960 14012 0
-1320 -13961 14013 0
-1320 -13962 14014 0
-1320 -13963 14015 0
-1320 -13964 14016 0
-1320 -13965 14017 0
-1320 -13966 14018 0
-1320 -13967 14019 0
-1320 -13968 14020 0
-1320 -13969 0
-13970 14021 0
-13971 14022 0
-13972 14023 0
-13973 14024 0
-13974 14025 0
-13975 14026 0
-13976 14027 0
-13977 14028 0
-13978 14029 0
-13979 14030 0
-13980 14031 0
-13981 14032 0
-13982 14033 0
-13983 14034 0
-13984 14035 0
-13985 14036 0
-13986 14037 0
-13987 14038 0
-13988 14039 0
-13989 14040 0
-13990 14041 0
-13991 14042 0
-13992 14043 0
-13993 14044 0
-13994 14045 0
-13995 14046 0
-13996 14047 0
-13997 14048 0
-13998 14049 0
-13999 14050 0
-14000 14051 0
-14001 14052 0
-14002 14053 0
-14003 14054 0
-14004 14055 0
-14005 14056 0
-14006 14057 0
-14007 14058 0
-14008 14059 0
-14009 14060 0
-14010 14061 0
-14011 14062 0
-14012 14063 0
-14013 14064 0
-14014 14065 0
-14015 14066 0
-14016 14067 0
-14017 14068 0
-14018 14069 0
-14019 14070 0
-14020 14071 0
-1322 -13970 14022 0
-1322 -13971 14023 0
-1322 -13972 14024 0
-1322 -13973 14025 0
-1322 -13974 14026 0
-1322 -13975 14027 0
-1322 -13976 14028 0
-1322 -13977 14029 0
-1322 -13978 14030 0
-1322 -13979 14031 0
-1322 -13980 14032 0
-1322 -13981 14033 0
-1322 -13982 14034 0
-1322 -13983 14035 0
-1322 -13984 14036 0
-1322 -13985 14037 0
-1322 -13986 14038 0
-1322 -13987 14039 0
-1322 -13988 14040 0
-1322 -13989 14041 0
-1322 -13990 14042 0
-1322 -13991 14043 0
-1322 -13992 14044 0
-1322 -13993 14045 0
-1322 -13994 14046 0
-1322 -13995 14047 0
-1322 -13996 14048 0
-1322 -13997 14049 0
-1322 -13998 14050 0
-1322 -13999 14051 0
-1322 -14000 14052 0
-1322 -14001 14053 0
-1322 -14002 14054 0
-1322 -14003 14055 0
-1322 -14004 14056 0
-1322 -14005 14057 0
-1322 -14006 14058 0
-1322 -14007 14059 0
-1322 -14008 14060 0
-1322 -14009 14061 0
-1322 -14010 14062 0
-1322 -14011 14063 0
-1322 -14012 14064 0
-1322 -14013 14065 0
-1322 -14014 14066 0
-1322 -14015 14067 0
-1322 -14016 14068 0
-1322 -14017 14069 0
-1322 -14018 14070 0
-1322 -14019 14071 0
-1322 -14020 0
-14021 14072 0
-14022 14073 0
-14023 14074 0
-14024 14075 0
-14025 14076 0
-14026 14077 0
-14027 14078 0
-14028 14079 0
-14029 14080 0
-14030 14081 0
-14031 14082 0
-14032 14083 0
-14033 14084 0
-14034 14085 0
-14035 14086 0
-14036 14087 0
-14037 14088 0
-14038 14089 0
-14039 14090 0
-14040 14091 0
-14041 14092 0
-14042 14093 0
-14043 14094 0
-14044 14095 0
-14045 14096 0
-14046 14097 0
-14047 14098 0
-14048 14099 0
-14049 14100 0
-14050 14101 0
-14051 14102 0
-14052 14103 0
-14053 14104 0
-14054 14105 0
-14055 14106 0
-14056 14107 0
-14057 14108 0
-14058 14109 0
-14059 14110 0
-14060 14111 0
-14061 14112 0
-14062 14113 0
-14063 14114 0
-14064 14115 0
-14065 14116 0
-14066 14117 0
-14067 14118 0
-14068 14119 0
-14069 14120 0
-14070 14121 0
-14071 14122 0
-1324 -14021 14073 0
-1324 -14022 14074 0
-1324 -14023 14075 0
-1324 -14024 14076 0
-1324 -14025 14077 0
-1324 -14026 14078 0
-1324 -14027 14079 0
-1324 -14028 14080 0
-1324 -14029 14081 0
-1324 -14030 14082 0
-1324 -14031 14083 0
-1324 -14032 14084 0
-1324 -14033 14085 0
-1324 -14034 14086 0
-1324 -14035 14087 0
-1324 -14036 14088 0
-1324 -14037 14089 0
-1324 -14038 14090 0
-1324 -14039 14091 0
-1324 -14040 14092 0
-1324 -14041 14093 0
-1324 -14042 14094 0
-1324 -14043 14095 0
-1324 -14044 14096 0
-1324 -14045 14097 0
-1324 -14046 14098 0
-1324 -14047 14099 0
-1324 -14048 14100 0
-1324 -14049 14101 0
-1324 -14050 14102 0
-1324 -14051 14103 0
-1324 -14052 14104 0
-1324 -14053 14105 0
-1324 -14054 14106 0
-1324 -14055 14107 0
-1324 -14056 14108 0
-1324 -14057 14109 0
-1324 -14058 14110 0
-1324 -14059 14111 0
-1324 -14060 14112 0
-1324 -14061 14113 0
-1324 -14062 14114 0
-1324 -14063 14115 0
-1324 -14064 14116 0
-1324 -14065 14117 0
-1324 -14066 14118 0
-1324 -14067 14119 0
-1324 -14068 14120 0
-1324 -14069 14121 0
-1324 -14070 14122 0
-1324 -14071 0
-14072 14123 0
-14073 14124 0
-14074 14125 0
-14075 14126 0
-14076 14127 0
-14077 14128 0
-14078 14129 0
-14079 14130 0
-14080 14131 0
-14081 14132 0
-14082 14133 0
-14083 14134 0
-14084 14135 0
-14085 14136 0
-14086 14137 0
-14087 14138 0
-14088 14139 0
-14089 14140 0
-14090 14141 0
-14091 14142 0
-14092 14143 0
-14093 14144 0
-14094 14145 0
-14095 14146 0
-14096 14147 0
-14097 14148 0
-14098 14149 0
-14099 14150 0
-14100 14151 0
-14101 14152 0
-14102 14153 0
-14103 14154 0
-14104 14155 0
-14105 14156 0
-14106 14157 0
-14107 14158 0
-14108 14159 0
-14109 14160 0
-14110 14161 0
-14111 14162 0
-14112 14163 0
-14113 14164 0
-14114 14165 0
-14115 14166 0
-14116 14167 0
-14117 14168 0
-14118 14169 0
-14119 14170 0
-14120 14171 0
-14121 14172 0
-14122 14173 0
-1326 -14072 14124 0
-1326 -14073 14125 0
-1326 -14074 14126 0
-1326 -14075 14127 0
-1326 -14076 14128 0
-1326 -14077 14129 0
-1326 -14078 14130 0
-1326 -14079 14131 0
-1326 -14080 14132 0
-1326 -14081 14133 0
-1326 -14082 14134 0
-1326 -14083 14135 0
-1326 -14084 14136 0
-1326 -14085 14137 0
-1326 -14086 14138 0
-1326 -14087 14139 0
-1326 -14088 14140 0
-1326 -14089 14141 0
-1326 -14090 14142 0
-1326 -14091 14143 0
-1326 -14092 14144 0
-1326 -14093 14145 0
-1326 -14094 14146 0
-1326 -14095 14147 0
-1326 -14096 14148 0
-1326 -14097 14149 0
-1326 -14098 14150 0
-1326 -14099 14151 0
-1326 -14100 14152 0
-1326 -14101 14153 0
-1326 -14102 14154 0
-1326 -14103 14155 0
-1326 -14104 14156 0
-1326 -14105 14157 0
-1326 -14106 14158 0
-1326 -14107 14159 0
-1326 -14108 14160 0
-1326 -14109 14161 0
-1326 -14110 14162 0
-1326 -14111 14163 0
-1326 -14112 14164 0
-1326 -14113 14165 0
-1326 -14114 14166 0
-1326 -14115 14167 0
-1326 -14116 14168 0
-1326 -14117 14169 0
-1326 -14118 14170 0
-1326 -14119 14171 0
-1326 -14120 14172 0
-1326 -14121 14173 0
-1326 -14122 0
-14123 14174 0
-14124 14175 0
-14125 14176 0
-14126 14177 0
-14127 14178 0
-14128 14179 0
-14129 14180 0
-14130 14181 0
-14131 14182 0
-14132 14183 0
-14133 14184 0
-14134 14185 0
-14135 14186 0
-14136 14187 0
-14137 14188 0
-14138 14189 0
-14139 14190 0
-14140 14191 0
-14141 14192 0
-14142 14193 0
-14143 14194 0
-14144 14195 0
-14145 14196 0
-14146 14197 0
-14147 14198 0
-14148 14199 0
-14149 14200 0
-14150 14201 0
-14151 14202 0
-14152 14203 0
-14153 14204 0
-14154 14205 0
-14155 14206 0
-14156 14207 0
-14157 14208 0
-14158 14209 0
-14159 14210 0
-14160 14211 0
-14161 14212 0
-14162 14213 0
-14163 14214 0
-14164 14215 0
-14165 14216 0
-14166 14217 0
-14167 14218 0
-14168 14219 0
-14169 14220 0
-14170 14221 0
-14171 14222 0
-14172 14223 0
-14173 14224 0
-1328 -14123 14175 0
-1328 -14124 14176 0
-1328 -14125 14177 0
-1328 -14126 14178 0
-1328 -14127 14179 0
-1328 -14128 14180 0
-1328 -14129 14181 0
-1328 -14130 14182 0
-1328 -14131 14183 0
-1328 -14132 14184 0
-1328 -14133 14185 0
-1328 -14134 14186 0
-1328 -14135 14187 0
-1328 -14136 14188 0
-1328 -14137 14189 0
-1328 -14138 14190 0
-1328 -14139 14191 0
-1328 -14140 14192 0
-1328 -14141 14193 0
-1328 -14142 14194 0
-1328 -14143 14195 0
-1328 -14144 14196 0
-1328 -14145 14197 0
-1328 -14146 14198 0
-1328 -14147 14199 0
-1328 -14148 14200 0
-1328 -14149 14201 0
-1328 -14150 14202 0
-1328 -14151 14203 0
-1328 -14152 14204 0
-1328 -14153 14205 0
-1328 -14154 14206 0
-1328 -14155 14207 0
-1328 -14156 14208 0
-1328 -14157 14209 0
-1328 -14158 14210 0
-1328 -14159 14211 0
-1328 -14160 14212 0
-1328 -14161 14213 0
-1328 -14162 14214 0
-1328 -14163 14215 0
-1328 -14164 14216 0
-1328 -14165 14217 0
-1328 -14166 14218 0
-1328 -14167 14219 0
-1328 -14168 14220 0
-1328 -14169 14221 0
-1328 -14170 14222 0
-1328 -14171 14223 0
-1328 -14172 14224 0
-1328 -14173 0
-14174 14225 0
-14175 14226 0
-14176 14227 0
-14177 14228 0
-14178 14229 0
-14179 14230 0
-14180 14231 0
-14181 14232 0
-14182 14233 0
-14183 14234 0
-14184 14235 0
-14185 14236 0
-14186 14237 0
-14187 14238 0
-14188 14239 0
-14189 14240 0
-14190 14241 0
-14191 14242 0
-14192 14243 0
-14193 14244 0
-14194 14245 0
-14195 14246 0
-14196 14247 0
-14197 14248 0
-14198 14249 0
-14199 14250 0
-14200 14251 0
-14201 14252 0
-14202 14253 0
-14203 14254 0
-14204 14255 0
-14205 14256 0
-14206 14257 0
-14207 14258 0
-14208 14259 0
-14209 14260 0
-14210 14261 0
-14211 14262 0
-14212 14263 0
-14213 14264 0
-14214 14265 0
-14215 14266 0
-14216 14267 0
-14217 14268 0
-14218 14269 0
-14219 14270 0
-14220 14271 0
-14221 14272 0
-14222 14273 0
-14223 14274 0
-14224 14275 0
-1330 -14174 14226 0
-1330 -14175 14227 0
-1330 -14176 14228 0
-1330 -14177 14229 0
-1330 -14178 14230 0
-1330 -14179 14231 0
-1330 -14180 14232 0
-1330 -14181 14233 0
-1330 -14182 14234 0
-1330 -14183 14235 0
-1330 -14184 14236 0
-1330 -14185 14237 0
-1330 -14186 14238 0
-1330 -14187 14239 0
-1330 -14188 14240 0
-1330 -14189 14241 0
-1330 -14190 14242 0
-1330 -14191 14243 0
-1330 -14192 14244 0
-1330 -14193 14245 0
-1330 -14194 14246 0
-1330 -14195 14247 0
-1330 -14196 14248 0
-1330 -14197 14249 0
-1330 -14198 14250 0
-1330 -14199 14251 0
-1330 -14200 14252 0
-1330 -14201 14253 0
-1330 -14202 14254 0
-1330 -14203 14255 0
-1330 -14204 14256 0
-1330 -14205 14257 0
-1330 -14206 14258 0
-1330 -14207 14259 0
-1330 -14208 14260 0
-1330 -14209 14261 0
-1330 -14210 14262 0
-1330 -14211 14263 0
-1330 -14212 14264 0
-1330 -14213 14265 0
-1330 -14214 14266 0
-1330 -14215 14267 0
-1330 -14216 14268 0
-1330 -14217 14269 0
-1330 -14218 14270 0
-1330 -14219 14271 0
-1330 -14220 14272 0
-1330 -14221 14273 0
-1330 -14222 14274 0
-1330 -14223 14275 0
-1330 -14224 0
-14225 14276 0
-14226 14277 0
-14227 14278 0
-14228 14279 0
-14229 14280 0
-14230 14281 0
-14231 14282 0
-14232 14283 0
-14233 14284 0
-14234 14285 0
-14235 14286 0
-14236 14287 0
-14237 14288 0
-14238 14289 0
-14239 14290 0
-14240 14291 0
-14241 14292 0
-14242 14293 0
-14243 14294 0
-14244 14295 0
-14245 14296 0
-14246 14297 0
-14247 14298 0
-14248 14299 0
-14249 14300 0
-14250 14301 0
-14251 14302 0
-14252 14303 0
-14253 14304 0
-14254 14305 0
-14255 14306 0
-14256 14307 0
-14257 14308 0
-14258 14309 0
-14259 14310 0
-14260 14311 0
-14261 14312 0
-14262 14313 0
-14263 14314 0
-14264 14315 0
-14265 14316 0
-14266 14317 0
-14267 14318 0
-14268 14319 0
-14269 14320 0
-14270 14321 0
-14271 14322 0
-14272 14323 0
-14273 14324 0
-14274 14325 0
-14275 14326 0
-1332 -14225 14277 0
-1332 -14226 14278 0
-1332 -14227 14279 0
-1332 -14228 14280 0
-1332 -14229 14281 0
-1332 -14230 14282 0
-1332 -14231 14283 0
-1332 -14232 14284 0
-1332 -14233 14285 0
-1332 -14234 14286 0
-1332 -14235 14287 0
-1332 -14236 14288 0
-1332 -14237 14289 0
-1332 -14238 14290 0
-1332 -14239 14291 0
-1332 -14240 14292 0
-1332 -14241 14293 0
-1332 -14242 14294 0
-1332 -14243 14295 0
-1332 -14244 14296 0
-1332 -14245 14297 0
-1332 -14246 14298 0
-1332 -14247 14299 0
-1332 -14248 14300 0
-1332 -14249 14301 0
-1332 -14250 14302 0
-1332 -14251 14303 0
-1332 -14252 14304 0
-1332 -14253 14305 0
-1332 -14254 14306 0
-1332 -14255 14307 0
-1332 -14256 14308 0
-1332 -14257 14309 0
-1332 -14258 14310 0
-1332 -14259 14311 0
-1332 -14260 14312 0
-1332 -14261 14313 0
-1332 -14262 14314 0
-1332 -14263 14315 0
-1332 -14264 14316 0
-1332 -14265 14317 0
-1332 -14266 14318 0
-1332 -14267 14319 0
-1332 -14268 14320 0
-1332 -14269 14321 0
-1332 -14270 14322 0
-1332 -14271 14323 0
-1332 -14272 14324 0
-1332 -14273 14325 0
-1332 -14274 14326 0
-1332 -14275 0
-14276 14327 0
-14277 14328 0
-14278 14329 0
-14279 14330 0
-14280 14331 0
-14281 14332 0
-14282 14333 0
-14283 14334 0
-14284 14335 0
-14285 14336 0
-14286 14337 0
-14287 14338 0
-14288 14339 0
-14289 14340 0
-14290 14341 0
-14291 14342 0
-14292 14343 0
-14293 14344 0
-14294 14345 0
-14295 14346 0
-14296 14347 0
-14297 14348 0
-14298 14349 0
-14299 14350 0
-14300 14351 0
-14301 14352 0
-14302 14353 0
-14303 14354 0
-14304 14355 0
-14305 14356 0
-14306 14357 0
-14307 14358 0
-14308 14359 0
-14309 14360 0
-14310 14361 0
-14311 14362 0
-14312 14363 0
-14313 14364 0
-14314 14365 0
-14315 14366 0
-14316 14367 0
-14317 14368 0
-14318 14369 0
-14319 14370 0
-14320 14371 0
-14321 14372 0
-14322 14373 0
-14323 14374 0
-14324 14375 0
-14325 14376 0
-14326 14377 0
-1334 -14276 14328 0
-1334 -14277 14329 0
-1334 -14278 14330 0
-1334 -14279 14331 0
-1334 -14280 14332 0
-1334 -14281 14333 0
-1334 -14282 14334 0
-1334 -14283 14335 0
-1334 -14284 14336 0
-1334 -14285 14337 0
-1334 -14286 14338 0
-1334 -14287 14339 0
-1334 -14288 14340 0
-1334 -14289 14341 0
-1334 -14290 14342 0
-1334 -14291 14343 0
-1334 -14292 14344 0
-1334 -14293 14345 0
-1334 -14294 14346 0
-1334 -14295 14347 0
-1334 -14296 14348 0
-1334 -14297 14349 0
-1334 -14298 14350 0
-1334 -14299 14351 0
-1334 -14300 14352 0
-1334 -14301 14353 0
-1334 -14302 14354 0
-1334 -14303 14355 0
-1334 -14304 14356 0
-1334 -14305 14357 0
-1334 -14306 14358 0
-1334 -14307 14359 0
-1334 -14308 14360 0
-1334 -14309 14361 0
-1334 -14310 14362 0
-1334 -14311 14363 0
-1334 -14312 14364 0
-1334 -14313 14365 0
-1334 -14314 14366 0
-1334 -14315 14367 0
-1334 -14316 14368 0
-1334 -14317 14369 0
-1334 -14318 14370 0
-1334 -14319 14371 0
-1334 -14320 14372 0
-1334 -14321 14373 0
-1334 -14322 14374 0
-1334 -14323 14375 0
-1334 -14324 14376 0
-1334 -14325 14377 0
-1334 -14326 0
-14327 14378 0
-14328 14379 0
-14329 14380 0
-14330 14381 0
-14331 14382 0
-14332 14383 0
-14333 14384 0
-14334 14385 0
-14335 14386 0
-14336 14387 0
-14337 14388 0
-14338 14389 0
-14339 14390 0
-14340 14391 0
-14341 14392 0
-14342 14393 0
-14343 14394 0
-14344 14395 0
-14345 14396 0
-14346 14397 0
-14347 14398 0
-14348 14399 0
-14349 14400 0
-14350 14401 0
-14351 14402 0
-14352 14403 0
-14353 14404 0
-14354 14405 0
-14355 14406 0
-14356 14407 0
-14357 14408 0
-14358 14409 0
-14359 14410 0
-14360 14411 0
-14361 14412 0
-14362 14413 0
-14363 14414 0
-14364 14415 0
-14365 14416 0
-14366 14417 0
-14367 14418 0
-14368 14419 0
-14369 14420 0
-14370 14421 0
-14371 14422 0
-14372 14423 0
-14373 14424 0
-14374 14425 0
-14375 14426 0
-14376 14427 0
-14377 14428 0
-1336 -14327 14379 0
-1336 -14328 14380 0
-1336 -14329 14381 0
-1336 -14330 14382 0
-1336 -14331 14383 0
-1336 -14332 14384 0
-1336 -14333 14385 0
-1336 -14334 14386 0
-1336 -14335 14387 0
-1336 -14336 14388 0
-1336 -14337 14389 0
-1336 -14338 14390 0
-1336 -14339 14391 0
-1336 -14340 14392 0
-1336 -14341 14393 0
-1336 -14342 14394 0
-1336 -14343 14395 0
-1336 -14344 14396 0
-1336 -14345 14397 0
-1336 -14346 14398 0
-1336 -14347 14399 0
-1336 -14348 14400 0
-1336 -14349 14401 0
-1336 -14350 14402 0
-1336 -14351 14403 0
-1336 -14352 14404 0
-1336 -14353 14405 0
-1336 -14354 14406 0
-1336 -14355 14407 0
-1336 -14356 14408 0
-1336 -14357 14409 0
-1336 -14358 14410 0
-1336 -14359 14411 0
-1336 -14360 14412 0
-1336 -14361 14413 0
-1336 -14362 14414 0
-1336 -14363 14415 0
-1336 -14364 14416 0
-1336 -14365 14417 0
-1336 -14366 14418 0
-1336 -14367 14419 0
-1336 -14368 14420 0
-1336 -14369 14421 0
-1336 -14370 14422 0
-1336 -14371 14423 0
-1336 -14372 14424 0
-1336 -14373 14425 0
-1336 -14374 14426 0
-1336 -14375 14427 0
-1336 -14376 14428 0
-1336 -14377 0
-14378 14429 0
-14379 14430 0
-14380 14431 0
-14381 14432 0
-14382 14433 0
-14383 14434 0
-14384 14435 0
-14385 14436 0
-14386 14437 0
-14387 14438 0
-14388 14439 0
-14389 14440 0
-14390 14441 0
-14391 14442 0
-14392 14443 0
-14393 14444 0
-14394 14445 0
-14395 14446 0
-14396 14447 0
-14397 14448 0
-14398 14449 0
-14399 14450 0
-14400 14451 0
-14401 14452 0
-14402 14453 0
-14403 14454 0
-14404 14455 0
-14405 14456 0
-14406 14457 0
-14407 14458 0
-14408 14459 0
-14409 14460 0
-14410 14461 0
-14411 14462 0
-14412 14463 0
-14413 14464 0
-14414 14465 0
-14415 14466 0
-14416 14467 0
-14417 14468 0
-14418 14469 0
-14419 14470 0
-14420 14471 0
-14421 14472 0
-14422 14473 0
-14423 14474 0
-14424 14475 0
-14425 14476 0
-14426 14477 0
-14427 14478 0
-14428 14479 0
-1338 -14378 14430 0
-1338 -14379 14431 0
-1338 -14380 14432 0
-1338 -14381 14433 0
-1338 -14382 14434 0
-1338 -14383 14435 0
-1338 -14384 14436 0
-1338 -14385 14437 0
-1338 -14386 14438 0
-1338 -14387 14439 0
-1338 -14388 14440 0
-1338 -14389 14441 0
-1338 -14390 14442 0
-1338 -14391 14443 0
-1338 -14392 14444 0
-1338 -14393 14445 0
-1338 -14394 14446 0
-1338 -14395 14447 0
-1338 -14396 14448 0
-1338 -14397 14449 0
-1338 -14398 14450 0
-1338 -14399 14451 0
-1338 -14400 14452 0
-1338 -14401 14453 0
-1338 -14402 14454 0
-1338 -14403 14455 0
-1338 -14404 14456 0
-1338 -14405 14457 0
-1338 -14406 14458 0
-1338 -14407 14459 0
-1338 -14408 14460 0
-1338 -14409 14461 0
-1338 -14410 14462 0
-1338 -14411 14463 0
-1338 -14412 14464 0
-1338 -14413 14465 0
-1338 -14414 14466 0
-1338 -14415 14467 0
-1338 -14416 14468 0
-1338 -14417 14469 0
-1338 -14418 14470 0
-1338 -14419 14471 0
-1338 -14420 14472 0
-1338 -14421 14473 0
-1338 -14422 14474 0
-1338 -14423 14475 0
-1338 -14424 14476 0
-1338 -14425 14477 0
-1338 -14426 14478 0
-1338 -14427 14479 0
-1338 -14428 0
-14429 14480 0
-14430 14481 0
-14431 14482 0
-14432 14483 0
-14433 14484 0
-14434 14485 0
-14435 14486 0
-14436 14487 0
-14437 14488 0
-14438 14489 0
-14439 14490 0
-14440 14491 0
-14441 14492 0
-14442 14493 0
-14443 14494 0
-14444 14495 0
-14445 14496 0
-14446 14497 0
-14447 14498 0
-14448 14499 0
-14449 14500 0
-14450 14501 0
-14451 14502 0
-14452 14503 0
-14453 14504 0
-14454 14505 0
-14455 14506 0
-14456 14507 0
-14457 14508 0
-14458 14509 0
-14459 14510 0
-14460 14511 0
-14461 14512 0
-14462 14513 0
-14463 14514 0
-14464 14515 0
-14465 14516 0
-14466 14517 0
-14467 14518 0
-14468 14519 0
-14469 14520 0
-14470 14521 0
-14471 14522 0
-14472 14523 0
-14473 14524 0
-14474 14525 0
-14475 14526 0
-14476 14527 0
-14477 14528 0
-14478 14529 0
-14479 14530 0
-1340 -14429 14481 0
-1340 -14430 14482 0
-1340 -14431 14483 0
-1340 -14432 14484 0
-1340 -14433 14485 0
-1340 -14434 14486 0
-1340 -14435 14487 0
-1340 -14436 14488 0
-1340 -14437 14489 0
-1340 -14438 14490 0
-1340 -14439 14491 0
-1340 -14440 14492 0
-1340 -14441 14493 0
-1340 -14442 14494 0
-1340 -14443 14495 0
-1340 -14444 14496 0
-1340 -14445 14497 0
-1340 -14446 14498 0
-1340 -14447 14499 0
-1340 -14448 14500 0
-1340 -14449 14501 0
-1340 -14450 14502 0
-1340 -14451 14503 0
-1340 -14452 14504 0
-1340 -14453 14505 0
-1340 -14454 14506 0
-1340 -14455 14507 0
-1340 -14456 14508 0
-1340 -14457 14509 0
-1340 -14458 14510 0
-1340 -14459 14511 0
-1340 -14460 14512 0
-1340 -14461 14513 0
-1340 -14462 14514 0
-1340 -14463 14515 0
-1340 -14464 14516 0
-1340 -14465 14517 0
-1340 -14466 14518 0
-1340 -14467 14519 0
-1340 -14468 14520 0
-1340 -14469 14521 0
-1340 -14470 14522 0
-1340 -14471 14523 0
-1340 -14472 14524 0
-1340 -14473 14525 0
-1340 -14474 14526 0
-1340 -14475 14527 0
-1340 -14476 14528 0
-1340 -14477 14529 0
-1340 -14478 14530 0
-1340 -14479 0
-14480 14531 0
-14481 14532 0
-14482 14533 0
-14483 14534 0
-14484 14535 0
-14485 14536 0
-14486 14537 0
-14487 14538 0
-14488 14539 0
-14489 14540 0
-14490 14541 0
-14491 14542 0
-14492 14543 0
-14493 14544 0
-14494 14545 0
-14495 14546 0
-14496 14547 0
-14497 14548 0
-14498 14549 0
-14499 14550 0
-14500 14551 0
-14501 14552 0
-14502 14553 0
-14503 14554 0
-14504 14555 0
-14505 14556 0
-14506 14557 0
-14507 14558 0
-14508 14559 0
-14509 14560 0
-14510 14561 0
-14511 14562 0
-14512 14563 0
-14513 14564 0
-14514 14565 0
-14515 14566 0
-14516 14567 0
-14517 14568 0
-14518 14569 0
-14519 14570 0
-14520 14571 0
-14521 14572 0
-14522 14573 0
-14523 14574 0
-14524 14575 0
-14525 14576 0
-14526 14577 0
-14527 14578 0
-14528 14579 0
-14529 14580 0
-14530 14581 0
-1342 -14480 14532 0
-1342 -14481 14533 0
-1342 -14482 14534 0
-1342 -14483 14535 0
-1342 -14484 14536 0
-1342 -14485 14537 0
-1342 -14486 14538 0
-1342 -14487 14539 0
-1342 -14488 14540 0
-1342 -14489 14541 0
-1342 -14490 14542 0
-1342 -14491 14543 0
-1342 -14492 14544 0
-1342 -14493 14545 0
-1342 -14494 14546 0
-1342 -14495 14547 0
-1342 -14496 14548 0
-1342 -14497 14549 0
-1342 -14498 14550 0
-1342 -14499 14551 0
-1342 -14500 14552 0
-1342 -14501 14553 0
-1342 -14502 14554 0
-1342 -14503 14555 0
-1342 -14504 14556 0
-1342 -14505 14557 0
-1342 -14506 14558 0
-1342 -14507 14559 0
-1342 -14508 14560 0
-1342 -14509 14561 0
-1342 -14510 14562 0
-1342 -14511 14563 0
-1342 -14512 14564 0
-1342 -14513 14565 0
-1342 -14514 14566 0
-1342 -14515 14567 0
-1342 -14516 14568 0
-1342 -14517 14569 0
-1342 -14518 14570 0
-1342 -14519 14571 0
-1342 -14520 14572 0
-1342 -14521 14573 0
-1342 -14522 14574 0
-1342 -14523 14575 0
-1342 -14524 14576 0
-1342 -14525 14577 0
-1342 -14526 14578 0
-1342 -14527 14579 0
-1342 -14528 14580 0
-1342 -14529 14581 0
-1342 -14530 0
-14531 14582 0
-14532 14583 0
-14533 14584 0
-14534 14585 0
-14535 14586 0
-14536 14587 0
-14537 14588 0
-14538 14589 0
-14539 14590 0
-14540 14591 0
-14541 14592 0
-14542 14593 0
-14543 14594 0
-14544 14595 0
-14545 14596 0
-14546 14597 0
-14547 14598 0
-14548 14599 0
-14549 14600 0
-14550 14601 0
-14551 14602 0
-14552 14603 0
-14553 14604 0
-14554 14605 0
-14555 14606 0
-14556 14607 0
-14557 14608 0
-14558 14609 0
-14559 14610 0
-14560 14611 0
-14561 14612 0
-14562 14613 0
-14563 14614 0
-14564 14615 0
-14565 14616 0
-14566 14617 0
-14567 14618 0
-14568 14619 0
-14569 14620 0
-14570 14621 0
-14571 14622 0
-14572 14623 0
-14573 14624 0
-14574 14625 0
-14575 14626 0
-14576 14627 0
-14577 14628 0
-14578 14629 0
-14579 14630 0
-14580 14631 0
-14581 14632 0
-1344 -14531 14583 0
-1344 -14532 14584 0
-1344 -14533 14585 0
-1344 -14534 14586 0
-1344 -14535 14587 0
-1344 -14536 14588 0
-1344 -14537 14589 0
-1344 -14538 14590 0
-1344 -14539 14591 0
-1344 -14540 14592 0
-1344 -14541 14593 0
-1344 -14542 14594 0
-1344 -14543 14595 0
-1344 -14544 14596 0
-1344 -14545 14597 0
-1344 -14546 14598 0
-1344 -14547 14599 0
-1344 -14548 14600 0
-1344 -14549 14601 0
-1344 -14550 14602 0
-1344 -14551 14603 0
-1344 -14552 14604 0
-1344 -14553 14605 0
-1344 -14554 14606 0
-1344 -14555 14607 0
-1344 -14556 14608 0
-1344 -14557 14609 0
-1344 -14558 14610 0
-1344 -14559 14611 0
-1344 -14560 14612 0
-1344 -14561 14613 0
-1344 -14562 14614 0
-1344 -14563 14615 0
-1344 -14564 14616 0
-1344 -14565 14617 0
-1344 -14566 14618 0
-1344 -14567 14619 0
-1344 -14568 14620 0
-1344 -14569 14621 0
-1344 -14570 14622 0
-1344 -14571 14623 0
-1344 -14572 14624 0
-1344 -14573 14625 0
-1344 -14574 14626 0
-1344 -14575 14627 0
-1344 -14576 14628 0
-1344 -14577 14629 0
-1344 -14578 14630 0
-1344 -14579 14631 0
-1344 -14580 14632 0
-1344 -14581 0
-14582 14633 0
-14583 14634 0
-14584 14635 0
-14585 14636 0
-14586 14637 0
-14587 14638 0
-14588 14639 0
-14589 14640 0
-14590 14641 0
-14591 14642 0
-14592 14643 0
-14593 14644 0
-14594 14645 0
-14595 14646 0
-14596 14647 0
-14597 14648 0
-14598 14649 0
-14599 14650 0
-14600 14651 0
-14601 14652 0
-14602 14653 0
-14603 14654 0
-14604 14655 0
-14605 14656 0
-14606 14657 0
-14607 14658 0
-14608 14659 0
-14609 14660 0
-14610 14661 0
-14611 14662 0
-14612 14663 0
-14613 14664 0
-14614 14665 0
-14615 14666 0
-14616 14667 0
-14617 14668 0
-14618 14669 0
-14619 14670 0
-14620 14671 0
-14621 14672 0
-14622 14673 0
-14623 14674 0
-14624 14675 0
-14625 14676 0
-14626 14677 0
-14627 14678 0
-14628 14679 0
-14629 14680 0
-14630 14681 0
-14631 14682 0
-14632 14683 0
-1346 -14582 14634 0
-1346 -14583 14635 0
-1346 -14584 14636 0
-1346 -14585 14637 0
-1346 -14586 14638 0
-1346 -14587 14639 0
-1346 -14588 14640 0
-1346 -14589 14641 0
-1346 -14590 14642 0
-1346 -14591 14643 0
-1346 -14592 14644 0
-1346 -14593 14645 0
-1346 -14594 14646 0
-1346 -14595 14647 0
-1346 -14596 14648 0
-1346 -14597 14649 0
-1346 -14598 14650 0
-1346 -14599 14651 0
-1346 -14600 14652 0
-1346 -14601 14653 0
-1346 -14602 14654 0
-1346 -14603 14655 0
-1346 -14604 14656 0
-1346 -14605 14657 0
-1346 -14606 14658 0
-1346 -14607 14659 0
-1346 -14608 14660 0
-1346 -14609 14661 0
-1346 -14610 14662 0
-1346 -14611 14663 0
-1346 -14612 14664 0
-1346 -14613 14665 0
-1346 -14614 14666 0
-1346 -14615 14667 0
-1346 -14616 14668 0
-1346 -14617 14669 0
-1346 -14618 14670 0
-1346 -14619 14671 0
-1346 -14620 14672 0
-1346 -14621 14673 0
-1346 -14622 14674 0
-1346 -14623 14675 0
-1346 -14624 14676 0
-1346 -14625 14677 0
-1346 -14626 14678 0
-1346 -14627 14679 0
-1346 -14628 14680 0
-1346 -14629 14681 0
-1346 -14630 14682 0
-1346 -14631 14683 0
-1346 -14632 0
-14633 14684 0
-14634 14685 0
-14635 14686 0
-14636 14687 0
-14637 14688 0
-14638 14689 0
-14639 14690 0
-14640 14691 0
-14641 14692 0
-14642 14693 0
-14643 14694 0
-14644 14695 0
-14645 14696 0
-14646 14697 0
-14647 14698 0
-14648 14699 0
-14649 14700 0
-14650 14701 0
-14651 14702 0
-14652 14703 0
-14653 14704 0
-14654 14705 0
-14655 14706 0
-14656 14707 0
-14657 14708 0
-14658 14709 0
-14659 14710 0
-14660 14711 0
-14661 14712 0
-14662 14713 0
-14663 14714 0
-14664 14715 0
-14665 14716 0
-14666 14717 0
-14667 14718 0
-14668 14719 0
-14669 14720 0
-14670 14721 0
-14671 14722 0
-14672 14723 0
-14673 14724 0
-14674 14725 0
-14675 14726 0
-14676 14727 0
-14677 14728 0
-14678 14729 0
-14679 14730 0
-14680 14731 0
-14681 14732 0
-14682 14733 0
-14683 14734 0
-1348 -14633 14685 0
-1348 -14634 14686 0
-1348 -14635 14687 0
-1348 -14636 14688 0
-1348 -14637 14689 0
-1348 -14638 14690 0
-1348 -14639 14691 0
-1348 -14640 14692 0
-1348 -14641 14693 0
-1348 -14642 14694 0
-1348 -14643 14695 0
-1348 -14644 14696 0
-1348 -14645 14697 0
-1348 -14646 14698 0
-1348 -14647 14699 0
-1348 -14648 14700 0
-1348 -14649 14701 0
-1348 -14650 14702 0
-1348 -14651 14703 0
-1348 -14652 14704 0
-1348 -14653 14705 0
-1348 -14654 14706 0
-1348 -14655 14707 0
-1348 -14656 14708 0
-1348 -14657 14709 0
-1348 -14658 14710 0
-1348 -14659 14711 0
-1348 -14660 14712 0
-1348 -14661 14713 0
-1348 -14662 14714 0
-1348 -14663 14715 0
-1348 -14664 14716 0
-1348 -14665 14717 0
-1348 -14666 14718 0
-1348 -14667 14719 0
-1348 -14668 14720 0
-1348 -14669 14721 0
-1348 -14670 14722 0
-1348 -14671 14723 0
-1348 -14672 14724 0
-1348 -14673 14725 0
-1348 -14674 14726 0
-1348 -14675 14727 0
-1348 -14676 14728 0
-1348 -14677 14729 0
-1348 -14678 14730 0
-1348 -14679 14731 0
-1348 -14680 14732 0
-1348 -14681 14733 0
-1348 -14682 14734 0
-1348 -14683 0
-14684 14735 0
-14685 14736 0
-14686 14737 0
-14687 14738 0
-14688 14739 0
-14689 14740 0
-14690 14741 0
-14691 14742 0
-14692 14743 0
-14693 14744 0
-14694 14745 0
-14695 14746 0
-14696 14747 0
-14697 14748 0
-14698 14749 0
-14699 14750 0
-14700 14751 0
-14701 14752 0
-14702 14753 0
-14703 14754 0
-14704 14755 0
-14705 14756 0
-14706 14757 0
-14707 14758 0
-14708 14759 0
-14709 14760 0
-14710 14761 0
-14711 14762 0
-14712 14763 0
-14713 14764 0
-14714 14765 0
-14715 14766 0
-14716 14767 0
-14717 14768 0
-14718 14769 0
-14719 14770 0
-14720 14771 0
-14721 14772 0
-14722 14773 0
-14723 14774 0
-14724 14775 0
-14725 14776 0
-14726 14777 0
-14727 14778 0
-14728 14779 0
-14729 14780 0
-14730 14781 0
-14731 14782 0
-14732 14783 0
-14733 14784 0
-14734 14785 0
-1350 -14684 14736 0
-1350 -14685 14737 0
-1350 -14686 14738 0
-1350 -14687 14739 0
-1350 -14688 14740 0
-1350 -14689 14741 0
-1350 -14690 14742 0
-1350 -14691 14743 0
-1350 -14692 14744 0
-1350 -14693 14745 0
-1350 -14694 14746 0
-1350 -14695 14747 0
-1350 -14696 14748 0
-1350 -14697 14749 0
-1350 -14698 14750 0
-1350 -14699 14751 0
-1350 -14700 14752 0
-1350 -14701 14753 0
-1350 -14702 14754 0
-1350 -14703 14755 0
-1350 -14704 14756 0
-1350 -14705 14757 0
-1350 -14706 14758 0
-1350 -14707 14759 0
-1350 -14708 14760 0
-1350 -14709 14761 0
-1350 -14710 14762 0
-1350 -14711 14763 0
-1350 -14712 14764 0
-1350 -14713 14765 0
-1350 -14714 14766 0
-1350 -14715 14767 0
-1350 -14716 14768 0
-1350 -14717 14769 0
-1350 -14718 14770 0
-1350 -14719 14771 0
-1350 -14720 14772 0
-1350 -14721 14773 0
-1350 -14722 14774 0
-1350 -14723 14775 0
-1350 -14724 14776 0
-1350 -14725 14777 0
-1350 -14726 14778 0
-1350 -14727 14779 0
-1350 -14728 14780 0
-1350 -14729 14781 0
-1350 -14730 14782 0
-1350 -14731 14783 0
-1350 -14732 14784 0
-1350 -14733 14785 0
-1350 -14734 0
-14735 14786 0
-14736 14787 0
-14737 14788 0
-14738 14789 0
-14739 14790 0
-14740 14791 0
-14741 14792 0
-14742 14793 0
-14743 14794 0
-14744 14795 0
-14745 14796 0
-14746 14797 0
-14747 14798 0
-14748 14799 0
-14749 14800 0
-14750 14801 0
-14751 14802 0
-14752 14803 0
-14753 14804 0
-14754 14805 0
-14755 14806 0
-14756 14807 0
-14757 14808 0
-14758 14809 0
-14759 14810 0
-14760 14811 0
-14761 14812 0
-14762 14813 0
-14763 14814 0
-14764 14815 0
-14765 14816 0
-14766 14817 0
-14767 14818 0
-14768 14819 0
-14769 14820 0
-14770 14821 0
-14771 14822 0
-14772 14823 0
-14773 14824 0
-14774 14825 0
-14775 14826 0
-14776 14827 0
-14777 14828 0
-14778 14829 0
-14779 14830 0
-14780 14831 0
-14781 14832 0
-14782 14833 0
-14783 14834 0
-14784 14835 0
-14785 14836 0
-1352 -14735 14787 0
-1352 -14736 14788 0
-1352 -14737 14789 0
-1352 -14738 14790 0
-1352 -14739 14791 0
-1352 -14740 14792 0
-1352 -14741 14793 0
-1352 -14742 14794 0
-1352 -14743 14795 0
-1352 -14744 14796 0
-1352 -14745 14797 0
-1352 -14746 14798 0
-1352 -14747 14799 0
-1352 -14748 14800 0
-1352 -14749 14801 0
-1352 -14750 14802 0
-1352 -14751 14803 0
-1352 -14752 14804 0
-1352 -14753 14805 0
-1352 -14754 14806 0
-1352 -14755 14807 0
-1352 -14756 14808 0
-1352 -14757 14809 0
-1352 -14758 14810 0
-1352 -14759 14811 0
-1352 -14760 14812 0
-1352 -14761 14813 0
-1352 -14762 14814 0
-1352 -14763 14815 0
-1352 -14764 14816 0
-1352 -14765 14817 0
-1352 -14766 14818 0
-1352 -14767 14819 0
-1352 -14768 14820 0
-1352 -14769 14821 0
-1352 -14770 14822 0
-1352 -14771 14823 0
-1352 -14772 14824 0
-1352 -14773 14825 0
-1352 -14774 14826 0
-1352 -14775 14827 0
-1352 -14776 14828 0
-1352 -14777 14829 0
-1352 -14778 14830 0
-1352 -14779 14831 0
-1352 -14780 14832 0
-1352 -14781 14833 0
-1352 -14782 14834 0
-1352 -14783 14835 0
-1352 -14784 14836 0
-1352 -14785 0
-14786 14837 0
-14787 14838 0
-14788 14839 0
-14789 14840 0
-14790 14841 0
-14791 14842 0
-14792 14843 0
-14793 14844 0
-14794 14845 0
-14795 14846 0
-14796 14847 0
-14797 14848 0
-14798 14849 0
-14799 14850 0
-14800 14851 0
-14801 14852 0
-14802 14853 0
-14803 14854 0
-14804 14855 0
-14805 14856 0
-14806 14857 0
-14807 14858 0
-14808 14859 0
-14809 14860 0
-14810 14861 0
-14811 14862 0
-14812 14863 0
-14813 14864 0
-14814 14865 0
-14815 14866 0
-14816 14867 0
-14817 14868 0
-14818 14869 0
-14819 14870 0
-14820 14871 0
-14821 14872 0
-14822 14873 0
-14823 14874 0
-14824 14875 0
-14825 14876 0
-14826 14877 0
-14827 14878 0
-14828 14879 0
-14829 14880 0
-14830 14881 0
-14831 14882 0
-14832 14883 0
-14833 14884 0
-14834 14885 0
-14835 14886 0
-14836 14887 0
-1354 -14786 14838 0
-1354 -14787 14839 0
-1354 -14788 14840 0
-1354 -14789 14841 0
-1354 -14790 14842 0
-1354 -14791 14843 0
-1354 -14792 14844 0
-1354 -14793 14845 0
-1354 -14794 14846 0
-1354 -14795 14847 0
-1354 -14796 14848 0
-1354 -14797 14849 0
-1354 -14798 14850 0
-1354 -14799 14851 0
-1354 -14800 14852 0
-1354 -14801 14853 0
-1354 -14802 14854 0
-1354 -14803 14855 0
-1354 -14804 14856 0
-1354 -14805 14857 0
-1354 -14806 14858 0
-1354 -14807 14859 0
-1354 -14808 14860 0
-1354 -14809 14861 0
-1354 -14810 14862 0
-1354 -14811 14863 0
-1354 -14812 14864 0
-1354 -14813 14865 0
-1354 -14814 14866 0
-1354 -14815 14867 0
-1354 -14816 14868 0
-1354 -14817 14869 0
-1354 -14818 14870 0
-1354 -14819 14871 0
-1354 -14820 14872 0
-1354 -14821 14873 0
-1354 -14822 14874 0
-1354 -14823 14875 0
-1354 -14824 14876 0
-1354 -14825 14877 0
-1354 -14826 14878 0
-1354 -14827 14879 0
-1354 -14828 14880 0
-1354 -14829 14881 0
-1354 -14830 14882 0
-1354 -14831 14883 0
-1354 -14832 14884 0
-1354 -14833 14885 0
-1354 -14834 14886 0
-1354 -14835 14887 0
-1354 -14836 0
-14837 14888 0
-14838 14889 0
-14839 14890 0
-14840 14891 0
-14841 14892 0
-14842 14893 0
-14843 14894 0
-14844 14895 0
-14845 14896 0
-14846 14897 0
-14847 14898 0
-14848 14899 0
-14849 14900 0
-14850 14901 0
-14851 14902 0
-14852 14903 0
-14853 14904 0
-14854 14905 0
-14855 14906 0
-14856 14907 0
-14857 14908 0
-14858 14909 0
-14859 14910 0
-14860 14911 0
-14861 14912 0
-14862 14913 0
-14863 14914 0
-14864 14915 0
-14865 14916 0
-14866 14917 0
-14867 14918 0
-14868 14919 0
-14869 14920 0
-14870 14921 0
-14871 14922 0
-14872 14923 0
-14873 14924 0
-14874 14925 0
-14875 14926 0
-14876 14927 0
-14877 14928 0
-14878 14929 0
-14879 14930 0
-14880 14931 0
-14881 14932 0
-14882 14933 0
-14883 14934 0
-14884 14935 0
-14885 14936 0
-14886 14937 0
-14887 14938 0
-1356 -14837 14889 0
-1356 -14838 14890 0
-1356 -14839 14891 0
-1356 -14840 14892 0
-1356 -14841 14893 0
-1356 -14842 14894 0
-1356 -14843 14895 0
-1356 -14844 14896 0
-1356 -14845 14897 0
-1356 -14846 14898 0
-1356 -14847 14899 0
-1356 -14848 14900 0
-1356 -14849 14901 0
-1356 -14850 14902 0
-1356 -14851 14903 0
-1356 -14852 14904 0
-1356 -14853 14905 0
-1356 -14854 14906 0
-1356 -14855 14907 0
-1356 -14856 14908 0
-1356 -14857 14909 0
-1356 -14858 14910 0
-1356 -14859 14911 0
-1356 -14860 14912 0
-1356 -14861 14913 0
-1356 -14862 14914 0
-1356 -14863 14915 0
-1356 -14864 14916 0
-1356 -14865 14917 0
-1356 -14866 14918 0
-1356 -14867 14919 0
-1356 -14868 14920 0
-1356 -14869 14921 0
-1356 -14870 14922 0
-1356 -14871 14923 0
-1356 -14872 14924 0
-1356 -14873 14925 0
-1356 -14874 14926 0
-1356 -14875 14927 0
-1356 -14876 14928 0
-1356 -14877 14929 0
-1356 -14878 14930 0
-1356 -14879 14931 0
-1356 -14880 14932 0
-1356 -14881 14933 0
-1356 -14882 14934 0
-1356 -14883 14935 0
-1356 -14884 14936 0
-1356 -14885 14937 0
-1356 -14886 14938 0
-1356 -14887 0
-14888 14939 0
-14889 14940 0
-14890 14941 0
-14891 14942 0
-14892 14943 0
-14893 14944 0
-14894 14945 0
-14895 14946 0
-14896 14947 0
-14897 14948 0
-14898 14949 0
-14899 14950 0
-14900 14951 0
-14901 14952 0
-14902 14953 0
-14903 14954 0
-14904 14955 0
-14905 14956 0
-14906 14957 0
-14907 14958 0
-14908 14959 0
-14909 14960 0
-14910 14961 0
-14911 14962 0
-14912 14963 0
-14913 14964 0
-14914 14965 0
-14915 14966 0
-14916 14967 0
-14917 14968 0
-14918 14969 0
-14919 14970 0
-14920 14971 0
-14921 14972 0
-14922 14973 0
-14923 14974 0
-14924 14975 0
-14925 14976 0
-14926 14977 0
-14927 14978 0
-14928 14979 0
-14929 14980 0
-14930 14981 0
-14931 14982 0
-14932 14983 0
-14933 14984 0
-14934 14985 0
-14935 14986 0
-14936 14987 0
-14937 14988 0
-14938 14989 0
-1358 -14888 14940 0
-1358 -14889 14941 0
-1358 -14890 14942 0
-1358 -14891 14943 0
-1358 -14892 14944 0
-1358 -14893 14945 0
-1358 -14894 14946 0
-1358 -14895 14947 0
-1358 -14896 14948 0
-1358 -14897 14949 0
-1358 -14898 14950 0
-1358 -14899 14951 0
-1358 -14900 14952 0
-1358 -14901 14953 0
-1358 -14902 14954 0
-1358 -14903 14955 0
-1358 -14904 14956 0
-1358 -14905 14957 0
-1358 -14906 14958 0
-1358 -14907 14959 0
-1358 -14908 14960 0
-1358 -14909 14961 0
-1358 -14910 14962 0
-1358 -14911 14963 0
-1358 -14912 14964 0
-1358 -14913 14965 0
-1358 -14914 14966 0
-1358 -14915 14967 0
-1358 -14916 14968 0
-1358 -14917 14969 0
-1358 -14918 14970 0
-1358 -14919 14971 0
-1358 -14920 14972 0
-1358 -14921 14973 0
-1358 -14922 14974 0
-1358 -14923 14975 0
-1358 -14924 14976 0
-1358 -14925 14977 0
-1358 -14926 14978 0
-1358 -14927 14979 0
-1358 -14928 14980 0
-1358 -14929 14981 0
-1358 -14930 14982 0
-1358 -14931 14983 0
-1358 -14932 14984 0
-1358 -14933 14985 0
-1358 -14934 14986 0
-1358 -14935 14987 0
-1358 -14936 14988 0
-1358 -14937 14989 0
-1358 -14938 0
-14939 14990 0
-14940 14991 0
-14941 14992 0
-14942 14993 0
-14943 14994 0
-14944 14995 0
-14945 14996 0
-14946 14997 0
-14947 14998 0
-14948 14999 0
-14949 15000 0
-14950 15001 0
-14951 15002 0
-14952 15003 0
-14953 15004 0
-14954 15005 0
-14955 15006 0
-14956 15007 0
-14957 15008 0
-14958 15009 0
-14959 15010 0
-14960 15011 0
-14961 15012 0
-14962 15013 0
-14963 15014 0
-14964 15015 0
-14965 15016 0
-14966 15017 0
-14967 15018 0
-14968 15019 0
-14969 15020 0
-14970 15021 0
-14971 15022 0
-14972 15023 0
-14973 15024 0
-14974 15025 0
-14975 15026 0
-14976 15027 0
-14977 15028 0
-14978 15029 0
-14979 15030 0
-14980 15031 0
-14981 15032 0
-14982 15033 0
-14983 15034 0
-14984 15035 0
-14985 15036 0
-14986 15037 0
-14987 15038 0
-14988 15039 0
-14989 15040 0
-1360 -14939 14991 0
-1360 -14940 14992 0
-1360 -14941 14993 0
-1360 -14942 14994 0
-1360 -14943 14995 0
-1360 -14944 14996 0
-1360 -14945 14997 0
-1360 -14946 14998 0
-1360 -14947 14999 0
-1360 -14948 15000 0
-1360 -14949 15001 0
-1360 -14950 15002 0
-1360 -14951 15003 0
-1360 -14952 15004 0
-1360 -14953 15005 0
-1360 -14954 15006 0
-1360 -14955 15007 0
-1360 -14956 15008 0
-1360 -14957 15009 0
-1360 -14958 15010 0
-1360 -14959 15011 0
-1360 -14960 15012 0
-1360 -14961 15013 0
-1360 -14962 15014 0
-1360 -14963 15015 0
-1360 -14964 15016 0
-1360 -14965 15017 0
-1360 -14966 15018 0
-1360 -14967 15019 0
-1360 -14968 15020 0
-1360 -14969 15021 0
-1360 -14970 15022 0
-1360 -14971 15023 0
-1360 -14972 15024 0
-1360 -14973 15025 0
-1360 -14974 15026 0
-1360 -14975 15027 0
-1360 -14976 15028 0
-1360 -14977 15029 0
-1360 -14978 15030 0
-1360 -14979 15031 0
-1360 -14980 15032 0
-1360 -14981 15033 0
-1360 -14982 15034 0
-1360 -14983 15035 0
-1360 -14984 15036 0
-1360 -14985 15037 0
-1360 -14986 15038 0
-1360 -14987 15039 0
-1360 -14988 15040 0
-1360 -14989 0
-14990 15041 0
-14991 15042 0
-14992 15043 0
-14993 15044 0
-14994 15045 0
-14995 15046 0
-14996 15047 0
-14997 15048 0
-14998 15049 0
-14999 15050 0
-15000 15051 0
-15001 15052 0
-15002 15053 0
-15003 15054 0
-15004 15055 0
-15005 15056 0
-15006 15057 0
-15007 15058 0
-15008 15059 0
-15009 15060 0
-15010 15061 0
-15011 15062 0
-15012 15063 0
-15013 15064 0
-15014 15065 0
-15015 15066 0
-15016 15067 0
-15017 15068 0
-15018 15069 0
-15019 15070 0
-15020 15071 0
-15021 15072 0
-15022 15073 0
-15023 15074 0
-15024 15075 0
-15025 15076 0
-15026 15077 0
-15027 15078 0
-15028 15079 0
-15029 15080 0
-15030 15081 0
-15031 15082 0
-15032 15083 0
-15033 15084 0
-15034 15085 0
-15035 15086 0
-15036 15087 0
-15037 15088 0
-15038 15089 0
-15039 15090 0
-15040 15091 0
-1362 -14990 15042 0
-1362 -14991 15043 0
-1362 -14992 15044 0
-1362 -14993 15045 0
-1362 -14994 15046 0
-1362 -14995 15047 0
-1362 -14996 15048 0
-1362 -14997 15049 0
-1362 -14998 15050 0
-1362 -14999 15051 0
-1362 -15000 15052 0
-1362 -15001 15053 0
-1362 -15002 15054 0
-1362 -15003 15055 0
-1362 -15004 15056 0
-1362 -15005 15057 0
-1362 -15006 15058 0
-1362 -15007 15059 0
-1362 -15008 15060 0
-1362 -15009 15061 0
-1362 -15010 15062 0
-1362 -15011 15063 0
-1362 -15012 15064 0
-1362 -15013 15065 0
-1362 -15014 15066 0
-1362 -15015 15067 0
-1362 -15016 15068 0
-1362 -15017 15069 0
-1362 -15018 15070 0
-1362 -15019 15071 0
-1362 -15020 15072 0
-1362 -15021 15073 0
-1362 -15022 15074 0
-1362 -15023 15075 0
-1362 -15024 15076 0
-1362 -15025 15077 0
-1362 -15026 15078 0
-1362 -15027 15079 0
-1362 -15028 15080 0
-1362 -15029 15081 0
-1362 -15030 15082 0
-1362 -15031 15083 0
-1362 -15032 15084 0
-1362 -15033 15085 0
-1362 -15034 15086 0
-1362 -15035 15087 0
-1362 -15036 15088 0
-1362 -15037 15089 0
-1362 -15038 15090 0
-1362 -15039 15091 0
-1362 -15040 0
-15041 15092 0
-15042 15093 0
-15043 15094 0
-15044 15095 0
-15045 15096 0
-15046 15097 0
-15047 15098 0
-15048 15099 0
-15049 15100 0
-15050 15101 0
-15051 15102 0
-15052 15103 0
-15053 15104 0
-15054 15105 0
-15055 15106 0
-15056 15107 0
-15057 15108 0
-15058 15109 0
-15059 15110 0
-15060 15111 0
-15061 15112 0
-15062 15113 0
-15063 15114 0
-15064 15115 0
-15065 15116 0
-15066 15117 0
-15067 15118 0
-15068 15119 0
-15069 15120 0
-15070 15121 0
-15071 15122 0
-15072 15123 0
-15073 15124 0
-15074 15125 0
-15075 15126 0
-15076 15127 0
-15077 15128 0
-15078 15129 0
-15079 15130 0
-15080 15131 0
-15081 15132 0
-15082 15133 0
-15083 15134 0
-15084 15135 0
-15085 15136 0
-15086 15137 0
-15087 15138 0
-15088 15139 0
-15089 15140 0
-15090 15141 0
-15091 15142 0
-1364 -15041 15093 0
-1364 -15042 15094 0
-1364 -15043 15095 0
-1364 -15044 15096 0
-1364 -15045 15097 0
-1364 -15046 15098 0
-1364 -15047 15099 0
-1364 -15048 15100 0
-1364 -15049 15101 0
-1364 -15050 15102 0
-1364 -15051 15103 0
-1364 -15052 15104 0
-1364 -15053 15105 0
-1364 -15054 15106 0
-1364 -15055 15107 0
-1364 -15056 15108 0
-1364 -15057 15109 0
-1364 -15058 15110 0
-1364 -15059 15111 0
-1364 -15060 15112 0
-1364 -15061 15113 0
-1364 -15062 15114 0
-1364 -15063 15115 0
-1364 -15064 15116 0
-1364 -15065 15117 0
-1364 -15066 15118 0
-1364 -15067 15119 0
-1364 -15068 15120 0
-1364 -15069 15121 0
-1364 -15070 15122 0
-1364 -15071 15123 0
-1364 -15072 15124 0
-1364 -15073 15125 0
-1364 -15074 15126 0
-1364 -15075 15127 0
-1364 -15076 15128 0
-1364 -15077 15129 0
-1364 -15078 15130 0
-1364 -15079 15131 0
-1364 -15080 15132 0
-1364 -15081 15133 0
-1364 -15082 15134 0
-1364 -15083 15135 0
-1364 -15084 15136 0
-1364 -15085 15137 0
-1364 -15086 15138 0
-1364 -15087 15139 0
-1364 -15088 15140 0
-1364 -15089 15141 0
-1364 -15090 15142 0
-1364 -15091 0
-15092 15143 0
-15093 15144 0
-15094 15145 0
-15095 15146 0
-15096 15147 0
-15097 15148 0
-15098 15149 0
-15099 15150 0
-15100 15151 0
-15101 15152 0
-15102 15153 0
-15103 15154 0
-15104 15155 0
-15105 15156 0
-15106 15157 0
-15107 15158 0
-15108 15159 0
-15109 15160 0
-15110 15161 0
-15111 15162 0
-15112 15163 0
-15113 15164 0
-15114 15165 0
-15115 15166 0
-15116 15167 0
-15117 15168 0
-15118 15169 0
-15119 15170 0
-15120 15171 0
-15121 15172 0
-15122 15173 0
-15123 15174 0
-15124 15175 0
-15125 15176 0
-15126 15177 0
-15127 15178 0
-15128 15179 0
-15129 15180 0
-15130 15181 0
-15131 15182 0
-15132 15183 0
-15133 15184 0
-15134 15185 0
-15135 15186 0
-15136 15187 0
-15137 15188 0
-15138 15189 0
-15139 15190 0
-15140 15191 0
-15141 15192 0
-15142 15193 0
-1366 -15092 15144 0
-1366 -15093 15145 0
-1366 -15094 15146 0
-1366 -15095 15147 0
-1366 -15096 15148 0
-1366 -15097 15149 0
-1366 -15098 15150 0
-1366 -15099 15151 0
-1366 -15100 15152 0
-1366 -15101 15153 0
-1366 -15102 15154 0
-1366 -15103 15155 0
-1366 -15104 15156 0
-1366 -15105 15157 0
-1366 -15106 15158 0
-1366 -15107 15159 0
-1366 -15108 15160 0
-1366 -15109 15161 0
-1366 -15110 15162 0
-1366 -15111 15163 0
-1366 -15112 15164 0
-1366 -15113 15165 0
-1366 -15114 15166 0
-1366 -15115 15167 0
-1366 -15116 15168 0
-1366 -15117 15169 0
-1366 -15118 15170 0
-1366 -15119 15171 0
-1366 -15120 15172 0
-1366 -15121 15173 0
-1366 -15122 15174 0
-1366 -15123 15175 0
-1366 -15124 15176 0
-1366 -15125 15177 0
-1366 -15126 15178 0
-1366 -15127 15179 0
-1366 -15128 15180 0
-1366 -15129 15181 0
-1366 -15130 15182 0
-1366 -15131 15183 0
-1366 -15132 15184 0
-1366 -15133 15185 0
-1366 -15134 15186 0
-1366 -15135 15187 0
-1366 -15136 15188 0
-1366 -15137 15189 0
-1366 -15138 15190 0
-1366 -15139 15191 0
-1366 -15140 15192 0
-1366 -15141 15193 0
-1366 -15142 0
-15143 15194 0
-15144 15195 0
-15145 15196 0
-15146 15197 0
-15147 15198 0
-15148 15199 0
-15149 15200 0
-15150 15201 0
-15151 15202 0
-15152 15203 0
-15153 15204 0
-15154 15205 0
-15155 15206 0
-15156 15207 0
-15157 15208 0
-15158 15209 0
-15159 15210 0
-15160 15211 0
-15161 15212 0
-15162 15213 0
-15163 15214 0
-15164 15215 0
-15165 15216 0
-15166 15217 0
-15167 15218 0
-15168 15219 0
-15169 15220 0
-15170 15221 0
-15171 15222 0
-15172 15223 0
-15173 15224 0
-15174 15225 0
-15175 15226 0
-15176 15227 0
-15177 15228 0
-15178 15229 0
-15179 15230 0
-15180 15231 0
-15181 15232 0
-15182 15233 0
-15183 15234 0
-15184 15235 0
-15185 15236 0
-15186 15237 0
-15187 15238 0
-15188 15239 0
-15189 15240 0
-15190 15241 0
-15191 15242 0
-15192 15243 0
-15193 15244 0
-1368 -15143 15195 0
-1368 -15144 15196 0
-1368 -15145 15197 0
-1368 -15146 15198 0
-1368 -15147 15199 0
-1368 -15148 15200 0
-1368 -15149 15201 0
-1368 -15150 15202 0
-1368 -15151 15203 0
-1368 -15152 15204 0
-1368 -15153 15205 0
-1368 -15154 15206 0
-1368 -15155 15207 0
-1368 -15156 15208 0
-1368 -15157 15209 0
-1368 -15158 15210 0
-1368 -15159 15211 0
-1368 -15160 15212 0
-1368 -15161 15213 0
-1368 -15162 15214 0
-1368 -15163 15215 0
-1368 -15164 15216 0
-1368 -15165 15217 0
-1368 -15166 15218 0
-1368 -15167 15219 0
-1368 -15168 15220 0
-1368 -15169 15221 0
-1368 -15170 15222 0
-1368 -15171 15223 0
-1368 -15172 15224 0
-1368 -15173 15225 0
-1368 -15174 15226 0
-1368 -15175 15227 0
-1368 -15176 15228 0
-1368 -15177 15229 0
-1368 -15178 15230 0
-1368 -15179 15231 0
-1368 -15180 15232 0
-1368 -15181 15233 0
-1368 -15182 15234 0
-1368 -15183 15235 0
-1368 -15184 15236 0
-1368 -15185 15237 0
-1368 -15186 15238 0
-1368 -15187 15239 0
-1368 -15188 15240 0
-1368 -15189 15241 0
-1368 -15190 15242 0
-1368 -15191 15243 0
-1368 -15192 15244 0
-1368 -15193 0
-15194 15245 0
-15195 15246 0
-15196 15247 0
-15197 15248 0
-15198 15249 0
-15199 15250 0
-15200 15251 0
-15201 15252 0
-15202 15253 0
-15203 15254 0
-15204 15255 0
-15205 15256 0
-15206 15257 0
-15207 15258 0
-15208 15259 0
-15209 15260 0
-15210 15261 0
-15211 15262 0
-15212 15263 0
-15213 15264 0
-15214 15265 0
-15215 15266 0
-15216 15267 0
-15217 15268 0
-15218 15269 0
-15219 15270 0
-15220 15271 0
-15221 15272 0
-15222 15273 0
-15223 15274 0
-15224 15275 0
-15225 15276 0
-15226 15277 0
-15227 15278 0
-15228 15279 0
-15229 15280 0
-15230 15281 0
-15231 15282 0
-15232 15283 0
-15233 15284 0
-15234 15285 0
-15235 15286 0
-15236 15287 0
-15237 15288 0
-15238 15289 0
-15239 15290 0
-15240 15291 0
-15241 15292 0
-15242 15293 0
-15243 15294 0
-15244 15295 0
-1370 -15194 15246 0
-1370 -15195 15247 0
-1370 -15196 15248 0
-1370 -15197 15249 0
-1370 -15198 15250 0
-1370 -15199 15251 0
-1370 -15200 15252 0
-1370 -15201 15253 0
-1370 -15202 15254 0
-1370 -15203 15255 0
-1370 -15204 15256 0
-1370 -15205 15257 0
-1370 -15206 15258 0
-1370 -15207 15259 0
-1370 -15208 15260 0
-1370 -15209 15261 0
-1370 -15210 15262 0
-1370 -15211 15263 0
-1370 -15212 15264 0
-1370 -15213 15265 0
-1370 -15214 15266 0
-1370 -15215 15267 0
-1370 -15216 15268 0
-1370 -15217 15269 0
-1370 -15218 15270 0
-1370 -15219 15271 0
-1370 -15220 15272 0
-1370 -15221 15273 0
-1370 -15222 15274 0
-1370 -15223 15275 0
-1370 -15224 15276 0
-1370 -15225 15277 0
-1370 -15226 15278 0
-1370 -15227 15279 0
-1370 -15228 15280 0
-1370 -15229 15281 0
-1370 -15230 15282 0
-1370 -15231 15283 0
-1370 -15232 15284 0
-1370 -15233 15285 0
-1370 -15234 15286 0
-1370 -15235 15287 0
-1370 -15236 15288 0
-1370 -15237 15289 0
-1370 -15238 15290 0
-1370 -15239 15291 0
-1370 -15240 15292 0
-1370 -15241 15293 0
-1370 -15242 15294 0
-1370 -15243 15295 0
-1370 -15244 0
-15245 15296 0
-15246 15297 0
-15247 15298 0
-15248 15299 0
-15249 15300 0
-15250 15301 0
-15251 15302 0
-15252 15303 0
-15253 15304 0
-15254 15305 0
-15255 15306 0
-15256 15307 0
-15257 15308 0
-15258 15309 0
-15259 15310 0
-15260 15311 0
-15261 15312 0
-15262 15313 0
-15263 15314 0
-15264 15315 0
-15265 15316 0
-15266 15317 0
-15267 15318 0
-15268 15319 0
-15269 15320 0
-15270 15321 0
-15271 15322 0
-15272 15323 0
-15273 15324 0
-15274 15325 0
-15275 15326 0
-15276 15327 0
-15277 15328 0
-15278 15329 0
-15279 15330 0
-15280 15331 0
-15281 15332 0
-15282 15333 0
-15283 15334 0
-15284 15335 0
-15285 15336 0
-15286 15337 0
-15287 15338 0
-15288 15339 0
-15289 15340 0
-15290 15341 0
-15291 15342 0
-15292 15343 0
-15293 15344 0
-15294 15345 0
-15295 15346 0
-1372 -15245 15297 0
-1372 -15246 15298 0
-1372 -15247 15299 0
-1372 -15248 15300 0
-1372 -15249 15301 0
-1372 -15250 15302 0
-1372 -15251 15303 0
-1372 -15252 15304 0
-1372 -15253 15305 0
-1372 -15254 15306 0
-1372 -15255 15307 0
-1372 -15256 15308 0
-1372 -15257 15309 0
-1372 -15258 15310 0
-1372 -15259 15311 0
-1372 -15260 15312 0
-1372 -15261 15313 0
-1372 -15262 15314 0
-1372 -15263 15315 0
-1372 -15264 15316 0
-1372 -15265 15317 0
-1372 -15266 15318 0
-1372 -15267 15319 0
-1372 -15268 15320 0
-1372 -15269 15321 0
-1372 -15270 15322 0
-1372 -15271 15323 0
-1372 -15272 15324 0
-1372 -15273 15325 0
-1372 -15274 15326 0
-1372 -15275 15327 0
-1372 -15276 15328 0
-1372 -15277 15329 0
-1372 -15278 15330 0
-1372 -15279 15331 0
-1372 -15280 15332 0
-1372 -15281 15333 0
-1372 -15282 15334 0
-1372 -15283 15335 0
-1372 -15284 15336 0
-1372 -15285 15337 0
-1372 -15286 15338 0
-1372 -15287 15339 0
-1372 -15288 15340 0
-1372 -15289 15341 0
-1372 -15290 15342 0
-1372 -15291 15343 0
-1372 -15292 15344 0
-1372 -15293 15345 0
-1372 -15294 15346 0
-1372 -15295 0
-15296 15347 0
-15297 15348 0
-15298 15349 0
-15299 15350 0
-15300 15351 0
-15301 15352 0
-15302 15353 0
-15303 15354 0
-15304 15355 0
-15305 15356 0
-15306 15357 0
-15307 15358 0
-15308 15359 0
-15309 15360 0
-15310 15361 0
-15311 15362 0
-15312 15363 0
-15313 15364 0
-15314 15365 0
-15315 15366 0
-15316 15367 0
-15317 15368 0
-15318 15369 0
-15319 15370 0
-15320 15371 0
-15321 15372 0
-15322 15373 0
-15323 15374 0
-15324 15375 0
-15325 15376 0
-15326 15377 0
-15327 15378 0
-15328 15379 0
-15329 15380 0
-15330 15381 0
-15331 15382 0
-15332 15383 0
-15333 15384 0
-15334 15385 0
-15335 15386 0
-15336 15387 0
-15337 15388 0
-15338 15389 0
-15339 15390 0
-15340 15391 0
-15341 15392 0
-15342 15393 0
-15343 15394 0
-15344 15395 0
-15345 15396 0
-15346 15397 0
-1374 -15296 15348 0
-1374 -15297 15349 0
-1374 -15298 15350 0
-1374 -15299 15351 0
-1374 -15300 15352 0
-1374 -15301 15353 0
-1374 -15302 15354 0
-1374 -15303 15355 0
-1374 -15304 15356 0
-1374 -15305 15357 0
-1374 -15306 15358 0
-1374 -15307 15359 0
-1374 -15308 15360 0
-1374 -15309 15361 0
-1374 -15310 15362 0
-1374 -15311 15363 0
-1374 -15312 15364 0
-1374 -15313 15365 0
-1374 -15314 15366 0
-1374 -15315 15367 0
-1374 -15316 15368 0
-1374 -15317 15369 0
-1374 -15318 15370 0
-1374 -15319 15371 0
-1374 -15320 15372 0
-1374 -15321 15373 0
-1374 -15322 15374 0
-1374 -15323 15375 0
-1374 -15324 15376 0
-1374 -15325 15377 0
-1374 -15326 15378 0
-1374 -15327 15379 0
-1374 -15328 15380 0
-1374 -15329 15381 0
-1374 -15330 15382 0
-1374 -15331 15383 0
-1374 -15332 15384 0
-1374 -15333 15385 0
-1374 -15334 15386 0
-1374 -15335 15387 0
-1374 -15336 15388 0
-1374 -15337 15389 0
-1374 -15338 15390 0
-1374 -15339 15391 0
-1374 -15340 15392 0
-1374 -15341 15393 0
-1374 -15342 15394 0
-1374 -15343 15395 0
-1374 -15344 15396 0
-1374 -15345 15397 0
-1374 -15346 0
-15347 15398 0
-15348 15399 0
-15349 15400 0
-15350 15401 0
-15351 15402 0
-15352 15403 0
-15353 15404 0
-15354 15405 0
-15355 15406 0
-15356 15407 0
-15357 15408 0
-15358 15409 0
-15359 15410 0
-15360 15411 0
-15361 15412 0
-15362 15413 0
-15363 15414 0
-15364 15415 0
-15365 15416 0
-15366 15417 0
-15367 15418 0
-15368 15419 0
-15369 15420 0
-15370 15421 0
-15371 15422 0
-15372 15423 0
-15373 15424 0
-15374 15425 0
-15375 15426 0
-15376 15427 0
-15377 15428 0
-15378 15429 0
-15379 15430 0
-15380 15431 0
-15381 15432 0
-15382 15433 0
-15383 15434 0
-15384 15435 0
-15385 15436 0
-15386 15437 0
-15387 15438 0
-15388 15439 0
-15389 15440 0
-15390 15441 0
-15391 15442 0
-15392 15443 0
-15393 15444 0
-15394 15445 0
-15395 15446 0
-15396 15447 0
-15397 15448 0
-1376 -15347 15399 0
-1376 -15348 15400 0
-1376 -15349 15401 0
-1376 -15350 15402 0
-1376 -15351 15403 0
-1376 -15352 15404 0
-1376 -15353 15405 0
-1376 -15354 15406 0
-1376 -15355 15407 0
-1376 -15356 15408 0
-1376 -15357 15409 0
-1376 -15358 15410 0
-1376 -15359 15411 0
-1376 -15360 15412 0
-1376 -15361 15413 0
-1376 -15362 15414 0
-1376 -15363 15415 0
-1376 -15364 15416 0
-1376 -15365 15417 0
-1376 -15366 15418 0
-1376 -15367 15419 0
-1376 -15368 15420 0
-1376 -15369 15421 0
-1376 -15370 15422 0
-1376 -15371 15423 0
-1376 -15372 15424 0
-1376 -15373 15425 0
-1376 -15374 15426 0
-1376 -15375 15427 0
-1376 -15376 15428 0
-1376 -15377 15429 0
-1376 -15378 15430 0
-1376 -15379 15431 0
-1376 -15380 15432 0
-1376 -15381 15433 0
-1376 -15382 15434 0
-1376 -15383 15435 0
-1376 -15384 15436 0
-1376 -15385 15437 0
-1376 -15386 15438 0
-1376 -15387 15439 0
-1376 -15388 15440 0
-1376 -15389 15441 0
-1376 -15390 15442 0
-1376 -15391 15443 0
-1376 -15392 15444 0
-1376 -15393 15445 0
-1376 -15394 15446 0
-1376 -15395 15447 0
-1376 -15396 15448 0
-1376 -15397 0
-15398 15449 0
-15399 15450 0
-15400 15451 0
-15401 15452 0
-15402 15453 0
-15403 15454 0
-15404 15455 0
-15405 15456 0
-15406 15457 0
-15407 15458 0
-15408 15459 0
-15409 15460 0
-15410 15461 0
-15411 15462 0
-15412 15463 0
-15413 15464 0
-15414 15465 0
-15415 15466 0
-15416 15467 0
-15417 15468 0
-15418 15469 0
-15419 15470 0
-15420 15471 0
-15421 15472 0
-15422 15473 0
-15423 15474 0
-15424 15475 0
-15425 15476 0
-15426 15477 0
-15427 15478 0
-15428 15479 0
-15429 15480 0
-15430 15481 0
-15431 15482 0
-15432 15483 0
-15433 15484 0
-15434 15485 0
-15435 15486 0
-15436 15487 0
-15437 15488 0
-15438 15489 0
-15439 15490 0
-15440 15491 0
-15441 15492 0
-15442 15493 0
-15443 15494 0
-15444 15495 0
-15445 15496 0
-15446 15497 0
-15447 15498 0
-15448 15499 0
-1378 -15398 15450 0
-1378 -15399 15451 0
-1378 -15400 15452 0
-1378 -15401 15453 0
-1378 -15402 15454 0
-1378 -15403 15455 0
-1378 -15404 15456 0
-1378 -15405 15457 0
-1378 -15406 15458 0
-1378 -15407 15459 0
-1378 -15408 15460 0
-1378 -15409 15461 0
-1378 -15410 15462 0
-1378 -15411 15463 0
-1378 -15412 15464 0
-1378 -15413 15465 0
-1378 -15414 15466 0
-1378 -15415 15467 0
-1378 -15416 15468 0
-1378 -15417 15469 0
-1378 -15418 15470 0
-1378 -15419 15471 0
-1378 -15420 15472 0
-1378 -15421 15473 0
-1378 -15422 15474 0
-1378 -15423 15475 0
-1378 -15424 15476 0
-1378 -15425 15477 0
-1378 -15426 15478 0
-1378 -15427 15479 0
-1378 -15428 15480 0
-1378 -15429 15481 0
-1378 -15430 15482 0
-1378 -15431 15483 0
-1378 -15432 15484 0
-1378 -15433 15485 0
-1378 -15434 15486 0
-1378 -15435 15487 0
-1378 -15436 15488 0
-1378 -15437 15489 0
-1378 -15438 15490 0
-1378 -15439 15491 0
-1378 -15440 15492 0
-1378 -15441 15493 0
-1378 -15442 15494 0
-1378 -15443 15495 0
-1378 -15444 15496 0
-1378 -15445 15497 0
-1378 -15446 15498 0
-1378 -15447 15499 0
-1378 -15448 0
-15449 15500 0
-15450 15501 0
-15451 15502 0
-15452 15503 0
-15453 15504 0
-15454 15505 0
-15455 15506 0
-15456 15507 0
-15457 15508 0
-15458 15509 0
-15459 15510 0
-15460 15511 0
-15461 15512 0
-15462 15513 0
-15463 15514 0
-15464 15515 0
-15465 15516 0
-15466 15517 0
-15467 15518 0
-15468 15519 0
-15469 15520 0
-15470 15521 0
-15471 15522 0
-15472 15523 0
-15473 15524 0
-15474 15525 0
-15475 15526 0
-15476 15527 0
-15477 15528 0
-15478 15529 0
-15479 15530 0
-15480 15531 0
-15481 15532 0
-15482 15533 0
-15483 15534 0
-15484 15535 0
-15485 15536 0
-15486 15537 0
-15487 15538 0
-15488 15539 0
-15489 15540 0
-15490 15541 0
-15491 15542 0
-15492 15543 0
-15493 15544 0
-15494 15545 0
-15495 15546 0
-15496 15547 0
-15497 15548 0
-15498 15549 0
-15499 15550 0
-1380 -15449 15501 0
-1380 -15450 15502 0
-1380 -15451 15503 0
-1380 -15452 15504 0
-1380 -15453 15505 0
-1380 -15454 15506 0
-1380 -15455 15507 0
-1380 -15456 15508 0
-1380 -15457 15509 0
-1380 -15458 15510 0
-1380 -15459 15511 0
-1380 -15460 15512 0
-1380 -15461 15513 0
-1380 -15462 15514 0
-1380 -15463 15515 0
-1380 -15464 15516 0
-1380 -15465 15517 0
-1380 -15466 15518 0
-1380 -15467 15519 0
-1380 -15468 15520 0
-1380 -15469 15521 0
-1380 -15470 15522 0
-1380 -15471 15523 0
-1380 -15472 15524 0
-1380 -15473 15525 0
-1380 -15474 15526 0
-1380 -15475 15527 0
-1380 -15476 15528 0
-1380 -15477 15529 0
-1380 -15478 15530 0
-1380 -15479 15531 0
-1380 -15480 15532 0
-1380 -15481 15533 0
-1380 -15482 15534 0
-1380 -15483 15535 0
-1380 -15484 15536 0
-1380 -15485 15537 0
-1380 -15486 15538 0
-1380 -15487 15539 0
-1380 -15488 15540 0
-1380 -15489 15541 0
-1380 -15490 15542 0
-1380 -15491 15543 0
-1380 -15492 15544 0
-1380 -15493 15545 0
-1380 -15494 15546 0
-1380 -15495 15547 0
-1380 -15496 15548 0
-1380 -15497 15549 0
-1380 -15498 15550 0
-1380 -15499 0
-15500 15551 0
-15501 15552 0
-15502 15553 0
-15503 15554 0
-15504 15555 0
-15505 15556 0
-15506 15557 0
-15507 15558 0
-15508 15559 0
-15509 15560 0
-15510 15561 0
-15511 15562 0
-15512 15563 0
-15513 15564 0
-15514 15565 0
-15515 15566 0
-15516 15567 0
-15517 15568 0
-15518 15569 0
-15519 15570 0
-15520 15571 0
-15521 15572 0
-15522 15573 0
-15523 15574 0
-15524 15575 0
-15525 15576 0
-15526 15577 0
-15527 15578 0
-15528 15579 0
-15529 15580 0
-15530 15581 0
-15531 15582 0
-15532 15583 0
-15533 15584 0
-15534 15585 0
-15535 15586 0
-15536 15587 0
-15537 15588 0
-15538 15589 0
-15539 15590 0
-15540 15591 0
-15541 15592 0
-15542 15593 0
-15543 15594 0
-15544 15595 0
-15545 15596 0
-15546 15597 0
-15547 15598 0
-15548 15599 0
-15549 15600 0
-15550 15601 0
-1382 -15500 15552 0
-1382 -15501 15553 0
-1382 -15502 15554 0
-1382 -15503 15555 0
-1382 -15504 15556 0
-1382 -15505 15557 0
-1382 -15506 15558 0
-1382 -15507 15559 0
-1382 -15508 15560 0
-1382 -15509 15561 0
-1382 -15510 15562 0
-1382 -15511 15563 0
-1382 -15512 15564 0
-1382 -15513 15565 0
-1382 -15514 15566 0
-1382 -15515 15567 0
-1382 -15516 15568 0
-1382 -15517 15569 0
-1382 -15518 15570 0
-1382 -15519 15571 0
-1382 -15520 15572 0
-1382 -15521 15573 0
-1382 -15522 15574 0
-1382 -15523 15575 0
-1382 -15524 15576 0
-1382 -15525 15577 0
-1382 -15526 15578 0
-1382 -15527 15579 0
-1382 -15528 15580 0
-1382 -15529 15581 0
-1382 -15530 15582 0
-1382 -15531 15583 0
-1382 -15532 15584 0
-1382 -15533 15585 0
-1382 -15534 15586 0
-1382 -15535 15587 0
-1382 -15536 15588 0
-1382 -15537 15589 0
-1382 -15538 15590 0
-1382 -15539 15591 0
-1382 -15540 15592 0
-1382 -15541 15593 0
-1382 -15542 15594 0
-1382 -15543 15595 0
-1382 -15544 15596 0
-1382 -15545 15597 0
-1382 -15546 15598 0
-1382 -15547 15599 0
-1382 -15548 15600 0
-1382 -15549 15601 0
-1382 -15550 0
-15551 15602 0
-15552 15603 0
-15553 15604 0
-15554 15605 0
-15555 15606 0
-15556 15607 0
-15557 15608 0
-15558 15609 0
-15559 15610 0
-15560 15611 0
-15561 15612 0
-15562 15613 0
-15563 15614 0
-15564 15615 0
-15565 15616 0
-15566 15617 0
-15567 15618 0
-15568 15619 0
-15569 15620 0
-15570 15621 0
-15571 15622 0
-15572 15623 0
-15573 15624 0
-15574 15625 0
-15575 15626 0
-15576 15627 0
-15577 15628 0
-15578 15629 0
-15579 15630 0
-15580 15631 0
-15581 15632 0
-15582 15633 0
-15583 15634 0
-15584 15635 0
-15585 15636 0
-15586 15637 0
-15587 15638 0
-15588 15639 0
-15589 15640 0
-15590 15641 0
-15591 15642 0
-15592 15643 0
-15593 15644 0
-15594 15645 0
-15595 15646 0
-15596 15647 0
-15597 15648 0
-15598 15649 0
-15599 15650 0
-15600 15651 0
-15601 15652 0
-1384 -15551 15603 0
-1384 -15552 15604 0
-1384 -15553 15605 0
-1384 -15554 15606 0
-1384 -15555 15607 0
-1384 -15556 15608 0
-1384 -15557 15609 0
-1384 -15558 15610 0
-1384 -15559 15611 0
-1384 -15560 15612 0
-1384 -15561 15613 0
-1384 -15562 15614 0
-1384 -15563 15615 0
-1384 -15564 15616 0
-1384 -15565 15617 0
-1384 -15566 15618 0
-1384 -15567 15619 0
-1384 -15568 15620 0
-1384 -15569 15621 0
-1384 -15570 15622 0
-1384 -15571 15623 0
-1384 -15572 15624 0
-1384 -15573 15625 0
-1384 -15574 15626 0
-1384 -15575 15627 0
-1384 -15576 15628 0
-1384 -15577 15629 0
-1384 -15578 15630 0
-1384 -15579 15631 0
-1384 -15580 15632 0
-1384 -15581 15633 0
-1384 -15582 15634 0
-1384 -15583 15635 0
-1384 -15584 15636 0
-1384 -15585 15637 0
-1384 -15586 15638 0
-1384 -15587 15639 0
-1384 -15588 15640 0
-1384 -15589 15641 0
-1384 -15590 15642 0
-1384 -15591 15643 0
-1384 -15592 15644 0
-1384 -15593 15645 0
-1384 -15594 15646 0
-1384 -15595 15647 0
-1384 -15596 15648 0
-1384 -15597 15649 0
-1384 -15598 15650 0
-1384 -15599 15651 0
-1384 -15600 15652 0
-1384 -15601 0
-15602 15653 0
-15603 15654 0
-15604 15655 0
-15605 15656 0
-15606 15657 0
-15607 15658 0
-15608 15659 0
-15609 15660 0
-15610 15661 0
-15611 15662 0
-15612 15663 0
-15613 15664 0
-15614 15665 0
-15615 15666 0
-15616 15667 0
-15617 15668 0
-15618 15669 0
-15619 15670 0
-15620 15671 0
-15621 15672 0
-15622 15673 0
-15623 15674 0
-15624 15675 0
-15625 15676 0
-15626 15677 0
-15627 15678 0
-15628 15679 0
-15629 15680 0
-15630 15681 0
-15631 15682 0
-15632 15683 0
-15633 15684 0
-15634 15685 0
-15635 15686 0
-15636 15687 0
-15637 15688 0
-15638 15689 0
-15639 15690 0
-15640 15691 0
-15641 15692 0
-15642 15693 0
-15643 15694 0
-15644 15695 0
-15645 15696 0
-15646 15697 0
-15647 15698 0
-15648 15699 0
-15649 15700 0
-15650 15701 0
-15651 15702 0
-15652 15703 0
-1386 -15602 15654 0
-1386 -15603 15655 0
-1386 -15604 15656 0
-1386 -15605 15657 0
-1386 -15606 15658 0
-1386 -15607 15659 0
-1386 -15608 15660 0
-1386 -15609 15661 0
-1386 -15610 15662 0
-1386 -15611 15663 0
-1386 -15612 15664 0
-1386 -15613 15665 0
-1386 -15614 15666 0
-1386 -15615 15667 0
-1386 -15616 15668 0
-1386 -15617 15669 0
-1386 -15618 15670 0
-1386 -15619 15671 0
-1386 -15620 15672 0
-1386 -15621 15673 0
-1386 -15622 15674 0
-1386 -15623 15675 0
-1386 -15624 15676 0
-1386 -15625 15677 0
-1386 -15626 15678 0
-1386 -15627 15679 0
-1386 -15628 15680 0
-1386 -15629 15681 0
-1386 -15630 15682 0
-1386 -15631 15683 0
-1386 -15632 15684 0
-1386 -15633 15685 0
-1386 -15634 15686 0
-1386 -15635 15687 0
-1386 -15636 15688 0
-1386 -15637 15689 0
-1386 -15638 15690 0
-1386 -15639 15691 0
-1386 -15640 15692 0
-1386 -15641 15693 0
-1386 -15642 15694 0
-1386 -15643 15695 0
-1386 -15644 15696 0
-1386 -15645 15697 0
-1386 -15646 15698 0
-1386 -15647 15699 0
-1386 -15648 15700 0
-1386 -15649 15701 0
-1386 -15650 15702 0
-1386 -15651 15703 0
-1386 -15652 0
-15653 15704 0
-15654 15705 0
-15655 15706 0
-15656 15707 0
-15657 15708 0
-15658 15709 0
-15659 15710 0
-15660 15711 0
-15661 15712 0
-15662 15713 0
-15663 15714 0
-15664 15715 0
-15665 15716 0
-15666 15717 0
-15667 15718 0
-15668 15719 0
-15669 15720 0
-15670 15721 0
-15671 15722 0
-15672 15723 0
-15673 15724 0
-15674 15725 0
-15675 15726 0
-15676 15727 0
-15677 15728 0
-15678 15729 0
-15679 15730 0
-15680 15731 0
-15681 15732 0
-15682 15733 0
-15683 15734 0
-15684 15735 0
-15685 15736 0
-15686 15737 0
-15687 15738 0
-15688 15739 0
-15689 15740 0
-15690 15741 0
-15691 15742 0
-15692 15743 0
-15693 15744 0
-15694 15745 0
-15695 15746 0
-15696 15747 0
-15697 15748 0
-15698 15749 0
-15699 15750 0
-15700 15751 0
-15701 15752 0
-15702 15753 0
-15703 15754 0
-1388 -15653 15705 0
-1388 -15654 15706 0
-1388 -15655 15707 0
-1388 -15656 15708 0
-1388 -15657 15709 0
-1388 -15658 15710 0
-1388 -15659 15711 0
-1388 -15660 15712 0
-1388 -15661 15713 0
-1388 -15662 15714 0
-1388 -15663 15715 0
-1388 -15664 15716 0
-1388 -15665 15717 0
-1388 -15666 15718 0
-1388 -15667 15719 0
-1388 -15668 15720 0
-1388 -15669 15721 0
-1388 -15670 15722 0
-1388 -15671 15723 0
-1388 -15672 15724 0
-1388 -15673 15725 0
-1388 -15674 15726 0
-1388 -15675 15727 0
-1388 -15676 15728 0
-1388 -15677 15729 0
-1388 -15678 15730 0
-1388 -15679 15731 0
-1388 -15680 15732 0
-1388 -15681 15733 0
-1388 -15682 15734 0
-1388 -15683 15735 0
-1388 -15684 15736 0
-1388 -15685 15737 0
-1388 -15686 15738 0
-1388 -15687 15739 0
-1388 -15688 15740 0
-1388 -15689 15741 0
-1388 -15690 15742 0
-1388 -15691 15743 0
-1388 -15692 15744 0
-1388 -15693 15745 0
-1388 -15694 15746 0
-1388 -15695 15747 0
-1388 -15696 15748 0
-1388 -15697 15749 0
-1388 -15698 15750 0
-1388 -15699 15751 0
-1388 -15700 15752 0
-1388 -15701 15753 0
-1388 -15702 15754 0
-1388 -15703 0
-15704 15755 0
-15705 15756 0
-15706 15757 0
-15707 15758 0
-15708 15759 0
-15709 15760 0
-15710 15761 0
-15711 15762 0
-15712 15763 0
-15713 15764 0
-15714 15765 0
-15715 15766 0
-15716 15767 0
-15717 15768 0
-15718 15769 0
-15719 15770 0
-15720 15771 0
-15721 15772 0
-15722 15773 0
-15723 15774 0
-15724 15775 0
-15725 15776 0
-15726 15777 0
-15727 15778 0
-15728 15779 0
-15729 15780 0
-15730 15781 0
-15731 15782 0
-15732 15783 0
-15733 15784 0
-15734 15785 0
-15735 15786 0
-15736 15787 0
-15737 15788 0
-15738 15789 0
-15739 15790 0
-15740 15791 0
-15741 15792 0
-15742 15793 0
-15743 15794 0
-15744 15795 0
-15745 15796 0
-15746 15797 0
-15747 15798 0
-15748 15799 0
-15749 15800 0
-15750 15801 0
-15751 15802 0
-15752 15803 0
-15753 15804 0
-15754 15805 0
-1390 -15704 15756 0
-1390 -15705 15757 0
-1390 -15706 15758 0
-1390 -15707 15759 0
-1390 -15708 15760 0
-1390 -15709 15761 0
-1390 -15710 15762 0
-1390 -15711 15763 0
-1390 -15712 15764 0
-1390 -15713 15765 0
-1390 -15714 15766 0
-1390 -15715 15767 0
-1390 -15716 15768 0
-1390 -15717 15769 0
-1390 -15718 15770 0
-1390 -15719 15771 0
-1390 -15720 15772 0
-1390 -15721 15773 0
-1390 -15722 15774 0
-1390 -15723 15775 0
-1390 -15724 15776 0
-1390 -15725 15777 0
-1390 -15726 15778 0
-1390 -15727 15779 0
-1390 -15728 15780 0
-1390 -15729 15781 0
-1390 -15730 15782 0
-1390 -15731 15783 0
-1390 -15732 15784 0
-1390 -15733 15785 0
-1390 -15734 15786 0
-1390 -15735 15787 0
-1390 -15736 15788 0
-1390 -15737 15789 0
-1390 -15738 15790 0
-1390 -15739 15791 0
-1390 -15740 15792 0
-1390 -15741 15793 0
-1390 -15742 15794 0
-1390 -15743 15795 0
-1390 -15744 15796 0
-1390 -15745 15797 0
-1390 -15746 15798 0
-1390 -15747 15799 0
-1390 -15748 15800 0
-1390 -15749 15801 0
-1390 -15750 15802 0
-1390 -15751 15803 0
-1390 -15752 15804 0
-1390 -15753 15805 0
-1390 -15754 0
-15755 15806 0
-15756 15807 0
-15757 15808 0
-15758 15809 0
-15759 15810 0
-15760 15811 0
-15761 15812 0
-15762 15813 0
-15763 15814 0
-15764 15815 0
-15765 15816 0
-15766 15817 0
-15767 15818 0
-15768 15819 0
-15769 15820 0
-15770 15821 0
-15771 15822 0
-15772 15823 0
-15773 15824 0
-15774 15825 0
-15775 15826 0
-15776 15827 0
-15777 15828 0
-15778 15829 0
-15779 15830 0
-15780 15831 0
-15781 15832 0
-15782 15833 0
-15783 15834 0
-15784 15835 0
-15785 15836 0
-15786 15837 0
-15787 15838 0
-15788 15839 0
-15789 15840 0
-15790 15841 0
-15791 15842 0
-15792 15843 0
-15793 15844 0
-15794 15845 0
-15795 15846 0
-15796 15847 0
-15797 15848 0
-15798 15849 0
-15799 15850 0
-15800 15851 0
-15801 15852 0
-15802 15853 0
-15803 15854 0
-15804 15855 0
-15805 15856 0
-1392 -15755 15807 0
-1392 -15756 15808 0
-1392 -15757 15809 0
-1392 -15758 15810 0
-1392 -15759 15811 0
-1392 -15760 15812 0
-1392 -15761 15813 0
-1392 -15762 15814 0
-1392 -15763 15815 0
-1392 -15764 15816 0
-1392 -15765 15817 0
-1392 -15766 15818 0
-1392 -15767 15819 0
-1392 -15768 15820 0
-1392 -15769 15821 0
-1392 -15770 15822 0
-1392 -15771 15823 0
-1392 -15772 15824 0
-1392 -15773 15825 0
-1392 -15774 15826 0
-1392 -15775 15827 0
-1392 -15776 15828 0
-1392 -15777 15829 0
-1392 -15778 15830 0
-1392 -15779 15831 0
-1392 -15780 15832 0
-1392 -15781 15833 0
-1392 -15782 15834 0
-1392 -15783 15835 0
-1392 -15784 15836 0
-1392 -15785 15837 0
-1392 -15786 15838 0
-1392 -15787 15839 0
-1392 -15788 15840 0
-1392 -15789 15841 0
-1392 -15790 15842 0
-1392 -15791 15843 0
-1392 -15792 15844 0
-1392 -15793 15845 0
-1392 -15794 15846 0
-1392 -15795 15847 0
-1392 -15796 15848 0
-1392 -15797 15849 0
-1392 -15798 15850 0
-1392 -15799 15851 0
-1392 -15800 15852 0
-1392 -15801 15853 0
-1392 -15802 15854 0
-1392 -15803 15855 0
-1392 -15804 15856 0
-1392 -15805 0
-15806 15857 0
-15807 15858 0
-15808 15859 0
-15809 15860 0
-15810 15861 0
-15811 15862 0
-15812 15863 0
-15813 15864 0
-15814 15865 0
-15815 15866 0
-15816 15867 0
-15817 15868 0
-15818 15869 0
-15819 15870 0
-15820 15871 0
-15821 15872 0
-15822 15873 0
-15823 15874 0
-15824 15875 0
-15825 15876 0
-15826 15877 0
-15827 15878 0
-15828 15879 0
-15829 15880 0
-15830 15881 0
-15831 15882 0
-15832 15883 0
-15833 15884 0
-15834 15885 0
-15835 15886 0
-15836 15887 0
-15837 15888 0
-15838 15889 0
-15839 15890 0
-15840 15891 0
-15841 15892 0
-15842 15893 0
-15843 15894 0
-15844 15895 0
-15845 15896 0
-15846 15897 0
-15847 15898 0
-15848 15899 0
-15849 15900 0
-15850 15901 0
-15851 15902 0
-15852 15903 0
-15853 15904 0
-15854 15905 0
-15855 15906 0
-15856 15907 0
-1394 -15806 15858 0
-1394 -15807 15859 0
-1394 -15808 15860 0
-1394 -15809 15861 0
-1394 -15810 15862 0
-1394 -15811 15863 0
-1394 -15812 15864 0
-1394 -15813 15865 0
-1394 -15814 15866 0
-1394 -15815 15867 0
-1394 -15816 15868 0
-1394 -15817 15869 0
-1394 -15818 15870 0
-1394 -15819 15871 0
-1394 -15820 15872 0
-1394 -15821 15873 0
-1394 -15822 15874 0
-1394 -15823 15875 0
-1394 -15824 15876 0
-1394 -15825 15877 0
-1394 -15826 15878 0
-1394 -15827 15879 0
-1394 -15828 15880 0
-1394 -15829 15881 0
-1394 -15830 15882 0
-1394 -15831 15883 0
-1394 -15832 15884 0
-1394 -15833 15885 0
-1394 -15834 15886 0
-1394 -15835 15887 0
-1394 -15836 15888 0
-1394 -15837 15889 0
-1394 -15838 15890 0
-1394 -15839 15891 0
-1394 -15840 15892 0
-1394 -15841 15893 0
-1394 -15842 15894 0
-1394 -15843 15895 0
-1394 -15844 15896 0
-1394 -15845 15897 0
-1394 -15846 15898 0
-1394 -15847 15899 0
-1394 -15848 15900 0
-1394 -15849 15901 0
-1394 -15850 15902 0
-1394 -15851 15903 0
-1394 -15852 15904 0
-1394 -15853 15905 0
-1394 -15854 15906 0
-1394 -15855 15907 0
-1394 -15856 0
-15857 15908 0
-15858 15909 0
-15859 15910 0
-15860 15911 0
-15861 15912 0
-15862 15913 0
-15863 15914 0
-15864 15915 0
-15865 15916 0
-15866 15917 0
-15867 15918 0
-15868 15919 0
-15869 15920 0
-15870 15921 0
-15871 15922 0
-15872 15923 0
-15873 15924 0
-15874 15925 0
-15875 15926 0
-15876 15927 0
-15877 15928 0
-15878 15929 0
-15879 15930 0
-15880 15931 0
-15881 15932 0
-15882 15933 0
-15883 15934 0
-15884 15935 0
-15885 15936 0
-15886 15937 0
-15887 15938 0
-15888 15939 0
-15889 15940 0
-15890 15941 0
-15891 15942 0
-15892 15943 0
-15893 15944 0
-15894 15945 0
-15895 15946 0
-15896 15947 0
-15897 15948 0
-15898 15949 0
-15899 15950 0
-15900 15951 0
-15901 15952 0
-15902 15953 0
-15903 15954 0
-15904 15955 0
-15905 15956 0
-15906 15957 0
-15907 15958 0
-1396 -15857 15909 0
-1396 -15858 15910 0
-1396 -15859 15911 0
-1396 -15860 15912 0
-1396 -15861 15913 0
-1396 -15862 15914 0
-1396 -15863 15915 0
-1396 -15864 15916 0
-1396 -15865 15917 0
-1396 -15866 15918 0
-1396 -15867 15919 0
-1396 -15868 15920 0
-1396 -15869 15921 0
-1396 -15870 15922 0
-1396 -15871 15923 0
-1396 -15872 15924 0
-1396 -15873 15925 0
-1396 -15874 15926 0
-1396 -15875 15927 0
-1396 -15876 15928 0
-1396 -15877 15929 0
-1396 -15878 15930 0
-1396 -15879 15931 0
-1396 -15880 15932 0
-1396 -15881 15933 0
-1396 -15882 15934 0
-1396 -15883 15935 0
-1396 -15884 15936 0
-1396 -15885 15937 0
-1396 -15886 15938 0
-1396 -15887 15939 0
-1396 -15888 15940 0
-1396 -15889 15941 0
-1396 -15890 15942 0
-1396 -15891 15943 0
-1396 -15892 15944 0
-1396 -15893 15945 0
-1396 -15894 15946 0
-1396 -15895 15947 0
-1396 -15896 15948 0
-1396 -15897 15949 0
-1396 -15898 15950 0
-1396 -15899 15951 0
-1396 -15900 15952 0
-1396 -15901 15953 0
-1396 -15902 15954 0
-1396 -15903 15955 0
-1396 -15904 15956 0
-1396 -15905 15957 0
-1396 -15906 15958 0
-1396 -15907 0
-15908 15959 0
-15909 15960 0
-15910 15961 0
-15911 15962 0
-15912 15963 0
-15913 15964 0
-15914 15965 0
-15915 15966 0
-15916 15967 0
-15917 15968 0
-15918 15969 0
-15919 15970 0
-15920 15971 0
-15921 15972 0
-15922 15973 0
-15923 15974 0
-15924 15975 0
-15925 15976 0
-15926 15977 0
-15927 15978 0
-15928 15979 0
-15929 15980 0
-15930 15981 0
-15931 15982 0
-15932 15983 0
-15933 15984 0
-15934 15985 0
-15935 15986 0
-15936 15987 0
-15937 15988 0
-15938 15989 0
-15939 15990 0
-15940 15991 0
-15941 15992 0
-15942 15993 0
-15943 15994 0
-15944 15995 0
-15945 15996 0
-15946 15997 0
-15947 15998 0
-15948 15999 0
-15949 16000 0
-15950 16001 0
-15951 16002 0
-15952 16003 0
-15953 16004 0
-15954 16005 0
-15955 16006 0
-15956 16007 0
-15957 16008 0
-15958 16009 0
-1398 -15908 15960 0
-1398 -15909 15961 0
-1398 -15910 15962 0
-1398 -15911 15963 0
-1398 -15912 15964 0
-1398 -15913 15965 0
-1398 -15914 15966 0
-1398 -15915 15967 0
-1398 -15916 15968 0
-1398 -15917 15969 0
-1398 -15918 15970 0
-1398 -15919 15971 0
-1398 -15920 15972 0
-1398 -15921 15973 0
-1398 -15922 15974 0
-1398 -15923 15975 0
-1398 -15924 15976 0
-1398 -15925 15977 0
-1398 -15926 15978 0
-1398 -15927 15979 0
-1398 -15928 15980 0
-1398 -15929 15981 0
-1398 -15930 15982 0
-1398 -15931 15983 0
-1398 -15932 15984 0
-1398 -15933 15985 0
-1398 -15934 15986 0
-1398 -15935 15987 0
-1398 -15936 15988 0
-1398 -15937 15989 0
-1398 -15938 15990 0
-1398 -15939 15991 0
-1398 -15940 15992 0
-1398 -15941 15993 0
-1398 -15942 15994 0
-1398 -15943 15995 0
-1398 -15944 15996 0
-1398 -15945 15997 0
-1398 -15946 15998 0
-1398 -15947 15999 0
-1398 -15948 16000 0
-1398 -15949 16001 0
-1398 -15950 16002 0
-1398 -15951 16003 0
-1398 -15952 16004 0
-1398 -15953 16005 0
-1398 -15954 16006 0
-1398 -15955 16007 0
-1398 -15956 16008 0
-1398 -15957 16009 0
-1398 -15958 0
-15959 16010 0
-15960 16011 0
-15961 16012 0
-15962 16013 0
-15963 16014 0
-15964 16015 0
-15965 16016 0
-15966 16017 0
-15967 16018 0
-15968 16019 0
-15969 16020 0
-15970 16021 0
-15971 16022 0
-15972 16023 0
-15973 16024 0
-15974 16025 0
-15975 16026 0
-15976 16027 0
-15977 16028 0
-15978 16029 0
-15979 16030 0
-15980 16031 0
-15981 16032 0
-15982 16033 0
-15983 16034 0
-15984 16035 0
-15985 16036 0
-15986 16037 0
-15987 16038 0
-15988 16039 0
-15989 16040 0
-15990 16041 0
-15991 16042 0
-15992 16043 0
-15993 16044 0
-15994 16045 0
-15995 16046 0
-15996 16047 0
-15997 16048 0
-15998 16049 0
-15999 16050 0
-16000 16051 0
-16001 16052 0
-16002 16053 0
-16003 16054 0
-16004 16055 0
-16005 16056 0
-16006 16057 0
-16007 16058 0
-16008 16059 0
-16009 16060 0
-1400 -15959 16011 0
-1400 -15960 16012 0
-1400 -15961 16013 0
-1400 -15962 16014 0
-1400 -15963 16015 0
-1400 -15964 16016 0
-1400 -15965 16017 0
-1400 -15966 16018 0
-1400 -15967 16019 0
-1400 -15968 16020 0
-1400 -15969 16021 0
-1400 -15970 16022 0
-1400 -15971 16023 0
-1400 -15972 16024 0
-1400 -15973 16025 0
-1400 -15974 16026 0
-1400 -15975 16027 0
-1400 -15976 16028 0
-1400 -15977 16029 0
-1400 -15978 16030 0
-1400 -15979 16031 0
-1400 -15980 16032 0
-1400 -15981 16033 0
-1400 -15982 16034 0
-1400 -15983 16035 0
-1400 -15984 16036 0
-1400 -15985 16037 0
-1400 -15986 16038 0
-1400 -15987 16039 0
-1400 -15988 16040 0
-1400 -15989 16041 0
-1400 -15990 16042 0
-1400 -15991 16043 0
-1400 -15992 16044 0
-1400 -15993 16045 0
-1400 -15994 16046 0
-1400 -15995 16047 0
-1400 -15996 16048 0
-1400 -15997 16049 0
-1400 -15998 16050 0
-1400 -15999 16051 0
-1400 -16000 16052 0
-1400 -16001 16053 0
-1400 -16002 16054 0
-1400 -16003 16055 0
-1400 -16004 16056 0
-1400 -16005 16057 0
-1400 -16006 16058 0
-1400 -16007 16059 0
-1400 -16008 16060 0
-1400 -16009 0
-16010 16061 0
-16011 16062 0
-16012 16063 0
-16013 16064 0
-16014 16065 0
-16015 16066 0
-16016 16067 0
-16017 16068 0
-16018 16069 0
-16019 16070 0
-16020 16071 0
-16021 16072 0
-16022 16073 0
-16023 16074 0
-16024 16075 0
-16025 16076 0
-16026 16077 0
-16027 16078 0
-16028 16079 0
-16029 16080 0
-16030 16081 0
-16031 16082 0
-16032 16083 0
-16033 16084 0
-16034 16085 0
-16035 16086 0
-16036 16087 0
-16037 16088 0
-16038 16089 0
-16039 16090 0
-16040 16091 0
-16041 16092 0
-16042 16093 0
-16043 16094 0
-16044 16095 0
-16045 16096 0
-16046 16097 0
-16047 16098 0
-16048 16099 0
-16049 16100 0
-16050 16101 0
-16051 16102 0
-16052 16103 0
-16053 16104 0
-16054 16105 0
-16055 16106 0
-16056 16107 0
-16057 16108 0
-16058 16109 0
-16059 16110 0
-16060 16111 0
-1402 -16010 16062 0
-1402 -16011 16063 0
-1402 -16012 16064 0
-1402 -16013 16065 0
-1402 -16014 16066 0
-1402 -16015 16067 0
-1402 -16016 16068 0
-1402 -16017 16069 0
-1402 -16018 16070 0
-1402 -16019 16071 0
-1402 -16020 16072 0
-1402 -16021 16073 0
-1402 -16022 16074 0
-1402 -16023 16075 0
-1402 -16024 16076 0
-1402 -16025 16077 0
-1402 -16026 16078 0
-1402 -16027 16079 0
-1402 -16028 16080 0
-1402 -16029 16081 0
-1402 -16030 16082 0
-1402 -16031 16083 0
-1402 -16032 16084 0
-1402 -16033 16085 0
-1402 -16034 16086 0
-1402 -16035 16087 0
-1402 -16036 16088 0
-1402 -16037 16089 0
-1402 -16038 16090 0
-1402 -16039 16091 0
-1402 -16040 16092 0
-1402 -16041 16093 0
-1402 -16042 16094 0
-1402 -16043 16095 0
-1402 -16044 16096 0
-1402 -16045 16097 0
-1402 -16046 16098 0
-1402 -16047 16099 0
-1402 -16048 16100 0
-1402 -16049 16101 0
-1402 -16050 16102 0
-1402 -16051 16103 0
-1402 -16052 16104 0
-1402 -16053 16105 0
-1402 -16054 16106 0
-1402 -16055 16107 0
-1402 -16056 16108 0
-1402 -16057 16109 0
-1402 -16058 16110 0
-1402 -16059 16111 0
-1402 -16060 0
-16061 16112 0
-16062 16113 0
-16063 16114 0
-16064 16115 0
-16065 16116 0
-16066 16117 0
-16067 16118 0
-16068 16119 0
-16069 16120 0
-16070 16121 0
-16071 16122 0
-16072 16123 0
-16073 16124 0
-16074 16125 0
-16075 16126 0
-16076 16127 0
-16077 16128 0
-16078 16129 0
-16079 16130 0
-16080 16131 0
-16081 16132 0
-16082 16133 0
-16083 16134 0
-16084 16135 0
-16085 16136 0
-16086 16137 0
-16087 16138 0
-16088 16139 0
-16089 16140 0
-16090 16141 0
-16091 16142 0
-16092 16143 0
-16093 16144 0
-16094 16145 0
-16095 16146 0
-16096 16147 0
-16097 16148 0
-16098 16149 0
-16099 16150 0
-16100 16151 0
-16101 16152 0
-16102 16153 0
-16103 16154 0
-16104 16155 0
-16105 16156 0
-16106 16157 0
-16107 16158 0
-16108 16159 0
-16109 16160 0
-16110 16161 0
-16111 16162 0
-1404 -16061 16113 0
-1404 -16062 16114 0
-1404 -16063 16115 0
-1404 -16064 16116 0
-1404 -16065 16117 0
-1404 -16066 16118 0
-1404 -16067 16119 0
-1404 -16068 16120 0
-1404 -16069 16121 0
-1404 -16070 16122 0
-1404 -16071 16123 0
-1404 -16072 16124 0
-1404 -16073 16125 0
-1404 -16074 16126 0
-1404 -16075 16127 0
-1404 -16076 16128 0
-1404 -16077 16129 0
-1404 -16078 16130 0
-1404 -16079 16131 0
-1404 -16080 16132 0
-1404 -16081 16133 0
-1404 -16082 16134 0
-1404 -16083 16135 0
-1404 -16084 16136 0
-1404 -16085 16137 0
-1404 -16086 16138 0
-1404 -16087 16139 0
-1404 -16088 16140 0
-1404 -16089 16141 0
-1404 -16090 16142 0
-1404 -16091 16143 0
-1404 -16092 16144 0
-1404 -16093 16145 0
-1404 -16094 16146 0
-1404 -16095 16147 0
-1404 -16096 16148 0
-1404 -16097 16149 0
-1404 -16098 16150 0
-1404 -16099 16151 0
-1404 -16100 16152 0
-1404 -16101 16153 0
-1404 -16102 16154 0
-1404 -16103 16155 0
-1404 -16104 16156 0
-1404 -16105 16157 0
-1404 -16106 16158 0
-1404 -16107 16159 0
-1404 -16108 16160 0
-1404 -16109 16161 0
-1404 -16110 16162 0
-1404 -16111 0
-16112 16163 0
-16113 16164 0
-16114 16165 0
-16115 16166 0
-16116 16167 0
-16117 16168 0
-16118 16169 0
-16119 16170 0
-16120 16171 0
-16121 16172 0
-16122 16173 0
-16123 16174 0
-16124 16175 0
-16125 16176 0
-16126 16177 0
-16127 16178 0
-16128 16179 0
-16129 16180 0
-16130 16181 0
-16131 16182 0
-16132 16183 0
-16133 16184 0
-16134 16185 0
-16135 16186 0
-16136 16187 0
-16137 16188 0
-16138 16189 0
-16139 16190 0
-16140 16191 0
-16141 16192 0
-16142 16193 0
-16143 16194 0
-16144 16195 0
-16145 16196 0
-16146 16197 0
-16147 16198 0
-16148 16199 0
-16149 16200 0
-16150 16201 0
-16151 16202 0
-16152 16203 0
-16153 16204 0
-16154 16205 0
-16155 16206 0
-16156 16207 0
-16157 16208 0
-16158 16209 0
-16159 16210 0
-16160 16211 0
-16161 16212 0
-16162 16213 0
-1406 -16112 16164 0
-1406 -16113 16165 0
-1406 -16114 16166 0
-1406 -16115 16167 0
-1406 -16116 16168 0
-1406 -16117 16169 0
-1406 -16118 16170 0
-1406 -16119 16171 0
-1406 -16120 16172 0
-1406 -16121 16173 0
-1406 -16122 16174 0
-1406 -16123 16175 0
-1406 -16124 16176 0
-1406 -16125 16177 0
-1406 -16126 16178 0
-1406 -16127 16179 0
-1406 -16128 16180 0
-1406 -16129 16181 0
-1406 -16130 16182 0
-1406 -16131 16183 0
-1406 -16132 16184 0
-1406 -16133 16185 0
-1406 -16134 16186 0
-1406 -16135 16187 0
-1406 -16136 16188 0
-1406 -16137 16189 0
-1406 -16138 16190 0
-1406 -16139 16191 0
-1406 -16140 16192 0
-1406 -16141 16193 0
-1406 -16142 16194 0
-1406 -16143 16195 0
-1406 -16144 16196 0
-1406 -16145 16197 0
-1406 -16146 16198 0
-1406 -16147 16199 0
-1406 -16148 16200 0
-1406 -16149 16201 0
-1406 -16150 16202 0
-1406 -16151 16203 0
-1406 -16152 16204 0
-1406 -16153 16205 0
-1406 -16154 16206 0
-1406 -16155 16207 0
-1406 -16156 16208 0
-1406 -16157 16209 0
-1406 -16158 16210 0
-1406 -16159 16211 0
-1406 -16160 16212 0
-1406 -16161 16213 0
-1406 -16162 0
-16163 16214 0
-16164 16215 0
-16165 16216 0
-16166 16217 0
-16167 16218 0
-16168 16219 0
-16169 16220 0
-16170 16221 0
-16171 16222 0
-16172 16223 0
-16173 16224 0
-16174 16225 0
-16175 16226 0
-16176 16227 0
-16177 16228 0
-16178 16229 0
-16179 16230 0
-16180 16231 0
-16181 16232 0
-16182 16233 0
-16183 16234 0
-16184 16235 0
-16185 16236 0
-16186 16237 0
-16187 16238 0
-16188 16239 0
-16189 16240 0
-16190 16241 0
-16191 16242 0
-16192 16243 0
-16193 16244 0
-16194 16245 0
-16195 16246 0
-16196 16247 0
-16197 16248 0
-16198 16249 0
-16199 16250 0
-16200 16251 0
-16201 16252 0
-16202 16253 0
-16203 16254 0
-16204 16255 0
-16205 16256 0
-16206 16257 0
-16207 16258 0
-16208 16259 0
-16209 16260 0
-16210 16261 0
-16211 16262 0
-16212 16263 0
-16213 16264 0
-1408 -16163 16215 0
-1408 -16164 16216 0
-1408 -16165 16217 0
-1408 -16166 16218 0
-1408 -16167 16219 0
-1408 -16168 16220 0
-1408 -16169 16221 0
-1408 -16170 16222 0
-1408 -16171 16223 0
-1408 -16172 16224 0
-1408 -16173 16225 0
-1408 -16174 16226 0
-1408 -16175 16227 0
-1408 -16176 16228 0
-1408 -16177 16229 0
-1408 -16178 16230 0
-1408 -16179 16231 0
-1408 -16180 16232 0
-1408 -16181 16233 0
-1408 -16182 16234 0
-1408 -16183 16235 0
-1408 -16184 16236 0
-1408 -16185 16237 0
-1408 -16186 16238 0
-1408 -16187 16239 0
-1408 -16188 16240 0
-1408 -16189 16241 0
-1408 -16190 16242 0
-1408 -16191 16243 0
-1408 -16192 16244 0
-1408 -16193 16245 0
-1408 -16194 16246 0
-1408 -16195 16247 0
-1408 -16196 16248 0
-1408 -16197 16249 0
-1408 -16198 16250 0
-1408 -16199 16251 0
-1408 -16200 16252 0
-1408 -16201 16253 0
-1408 -16202 16254 0
-1408 -16203 16255 0
-1408 -16204 16256 0
-1408 -16205 16257 0
-1408 -16206 16258 0
-1408 -16207 16259 0
-1408 -16208 16260 0
-1408 -16209 16261 0
-1408 -16210 16262 0
-1408 -16211 16263 0
-1408 -16212 16264 0
-1408 -16213 0
-16214 16265 0
-16215 16266 0
-16216 16267 0
-16217 16268 0
-16218 16269 0
-16219 16270 0
-16220 16271 0
-16221 16272 0
-16222 16273 0
-16223 16274 0
-16224 16275 0
-16225 16276 0
-16226 16277 0
-16227 16278 0
-16228 16279 0
-16229 16280 0
-16230 16281 0
-16231 16282 0
-16232 16283 0
-16233 16284 0
-16234 16285 0
-16235 16286 0
-16236 16287 0
-16237 16288 0
-16238 16289 0
-16239 16290 0
-16240 16291 0
-16241 16292 0
-16242 16293 0
-16243 16294 0
-16244 16295 0
-16245 16296 0
-16246 16297 0
-16247 16298 0
-16248 16299 0
-16249 16300 0
-16250 16301 0
-16251 16302 0
-16252 16303 0
-16253 16304 0
-16254 16305 0
-16255 16306 0
-16256 16307 0
-16257 16308 0
-16258 16309 0
-16259 16310 0
-16260 16311 0
-16261 16312 0
-16262 16313 0
-16263 16314 0
-16264 16315 0
-1410 -16214 16266 0
-1410 -16215 16267 0
-1410 -16216 16268 0
-1410 -16217 16269 0
-1410 -16218 16270 0
-1410 -16219 16271 0
-1410 -16220 16272 0
-1410 -16221 16273 0
-1410 -16222 16274 0
-1410 -16223 16275 0
-1410 -16224 16276 0
-1410 -16225 16277 0
-1410 -16226 16278 0
-1410 -16227 16279 0
-1410 -16228 16280 0
-1410 -16229 16281 0
-1410 -16230 16282 0
-1410 -16231 16283 0
-1410 -16232 16284 0
-1410 -16233 16285 0
-1410 -16234 16286 0
-1410 -16235 16287 0
-1410 -16236 16288 0
-1410 -16237 16289 0
-1410 -16238 16290 0
-1410 -16239 16291 0
-1410 -16240 16292 0
-1410 -16241 16293 0
-1410 -16242 16294 0
-1410 -16243 16295 0
-1410 -16244 16296 0
-1410 -16245 16297 0
-1410 -16246 16298 0
-1410 -16247 16299 0
-1410 -16248 16300 0
-1410 -16249 16301 0
-1410 -16250 16302 0
-1410 -16251 16303 0
-1410 -16252 16304 0
-1410 -16253 16305 0
-1410 -16254 16306 0
-1410 -16255 16307 0
-1410 -16256 16308 0
-1410 -16257 16309 0
-1410 -16258 16310 0
-1410 -16259 16311 0
-1410 -16260 16312 0
-1410 -16261 16313 0
-1410 -16262 16314 0
-1410 -16263 16315 0
-1410 -16264 0
-16265 16316 0
-16266 16317 0
-16267 16318 0
-16268 16319 0
-16269 16320 0
-16270 16321 0
-16271 16322 0
-16272 16323 0
-16273 16324 0
-16274 16325 0
-16275 16326 0
-16276 16327 0
-16277 16328 0
-16278 16329 0
-16279 16330 0
-16280 16331 0
-16281 16332 0
-16282 16333 0
-16283 16334 0
-16284 16335 0
-16285 16336 0
-16286 16337 0
-16287 16338 0
-16288 16339 0
-16289 16340 0
-16290 16341 0
-16291 16342 0
-16292 16343 0
-16293 16344 0
-16294 16345 0
-16295 16346 0
-16296 16347 0
-16297 16348 0
-16298 16349 0
-16299 16350 0
-16300 16351 0
-16301 16352 0
-16302 16353 0
-16303 16354 0
-16304 16355 0
-16305 16356 0
-16306 16357 0
-16307 16358 0
-16308 16359 0
-16309 16360 0
-16310 16361 0
-16311 16362 0
-16312 16363 0
-16313 16364 0
-16314 16365 0
-16315 16366 0
-1412 -16265 16317 0
-1412 -16266 16318 0
-1412 -16267 16319 0
-1412 -16268 16320 0
-1412 -16269 16321 0
-1412 -16270 16322 0
-1412 -16271 16323 0
-1412 -16272 16324 0
-1412 -16273 16325 0
-1412 -16274 16326 0
-1412 -16275 16327 0
-1412 -16276 16328 0
-1412 -16277 16329 0
-1412 -16278 16330 0
-1412 -16279 16331 0
-1412 -16280 16332 0
-1412 -16281 16333 0
-1412 -16282 16334 0
-1412 -16283 16335 0
-1412 -16284 16336 0
-1412 -16285 16337 0
-1412 -16286 16338 0
-1412 -16287 16339 0
-1412 -16288 16340 0
-1412 -16289 16341 0
-1412 -16290 16342 0
-1412 -16291 16343 0
-1412 -16292 16344 0
-1412 -16293 16345 0
-1412 -16294 16346 0
-1412 -16295 16347 0
-1412 -16296 16348 0
-1412 -16297 16349 0
-1412 -16298 16350 0
-1412 -16299 16351 0
-1412 -16300 16352 0
-1412 -16301 16353 0
-1412 -16302 16354 0
-1412 -16303 16355 0
-1412 -16304 16356 0
-1412 -16305 16357 0
-1412 -16306 16358 0
-1412 -16307 16359 0
-1412 -16308 16360 0
-1412 -16309 16361 0
-1412 -16310 16362 0
-1412 -16311 16363 0
-1412 -16312 16364 0
-1412 -16313 16365 0
-1412 -16314 16366 0
-1412 -16315 0
-16316 16367 0
-16317 16368 0
-16318 16369 0
-16319 16370 0
-16320 16371 0
-16321 16372 0
-16322 16373 0
-16323 16374 0
-16324 16375 0
-16325 16376 0
-16326 16377 0
-16327 16378 0
-16328 16379 0
-16329 16380 0
-16330 16381 0
-16331 16382 0
-16332 16383 0
-16333 16384 0
-16334 16385 0
-16335 16386 0
-16336 16387 0
-16337 16388 0
-16338 16389 0
-16339 16390 0
-16340 16391 0
-16341 16392 0
-16342 16393 0
-16343 16394 0
-16344 16395 0
-16345 16396 0
-16346 16397 0
-16347 16398 0
-16348 16399 0
-16349 16400 0
-16350 16401 0
-16351 16402 0
-16352 16403 0
-16353 16404 0
-16354 16405 0
-16355 16406 0
-16356 16407 0
-16357 16408 0
-16358 16409 0
-16359 16410 0
-16360 16411 0
-16361 16412 0
-16362 16413 0
-16363 16414 0
-16364 16415 0
-16365 16416 0
-16366 16417 0
-1414 -16316 16368 0
-1414 -16317 16369 0
-1414 -16318 16370 0
-1414 -16319 16371 0
-1414 -16320 16372 0
-1414 -16321 16373 0
-1414 -16322 16374 0
-1414 -16323 16375 0
-1414 -16324 16376 0
-1414 -16325 16377 0
-1414 -16326 16378 0
-1414 -16327 16379 0
-1414 -16328 16380 0
-1414 -16329 16381 0
-1414 -16330 16382 0
-1414 -16331 16383 0
-1414 -16332 16384 0
-1414 -16333 16385 0
-1414 -16334 16386 0
-1414 -16335 16387 0
-1414 -16336 16388 0
-1414 -16337 16389 0
-1414 -16338 16390 0
-1414 -16339 16391 0
-1414 -16340 16392 0
-1414 -16341 16393 0
-1414 -16342 16394 0
-1414 -16343 16395 0
-1414 -16344 16396 0
-1414 -16345 16397 0
-1414 -16346 16398 0
-1414 -16347 16399 0
-1414 -16348 16400 0
-1414 -16349 16401 0
-1414 -16350 16402 0
-1414 -16351 16403 0
-1414 -16352 16404 0
-1414 -16353 16405 0
-1414 -16354 16406 0
-1414 -16355 16407 0
-1414 -16356 16408 0
-1414 -16357 16409 0
-1414 -16358 16410 0
-1414 -16359 16411 0
-1414 -16360 16412 0
-1414 -16361 16413 0
-1414 -16362 16414 0
-1414 -16363 16415 0
-1414 -16364 16416 0
-1414 -16365 16417 0
-1414 -16366 0
-16367 16418 0
-16368 16419 0
-16369 16420 0
-16370 16421 0
-16371 16422 0
-16372 16423 0
-16373 16424 0
-16374 16425 0
-16375 16426 0
-16376 16427 0
-16377 16428 0
-16378 16429 0
-16379 16430 0
-16380 16431 0
-16381 16432 0
-16382 16433 0
-16383 16434 0
-16384 16435 0
-16385 16436 0
-16386 16437 0
-16387 16438 0
-16388 16439 0
-16389 16440 0
-16390 16441 0
-16391 16442 0
-16392 16443 0
-16393 16444 0
-16394 16445 0
-16395 16446 0
-16396 16447 0
-16397 16448 0
-16398 16449 0
-16399 16450 0
-16400 16451 0
-16401 16452 0
-16402 16453 0
-16403 16454 0
-16404 16455 0
-16405 16456 0
-16406 16457 0
-16407 16458 0
-16408 16459 0
-16409 16460 0
-16410 16461 0
-16411 16462 0
-16412 16463 0
-16413 16464 0
-16414 16465 0
-16415 16466 0
-16416 16467 0
-16417 16468 0
-1416 -16367 16419 0
-1416 -16368 16420 0
-1416 -16369 16421 0
-1416 -16370 16422 0
-1416 -16371 16423 0
-1416 -16372 16424 0
-1416 -16373 16425 0
-1416 -16374 16426 0
-1416 -16375 16427 0
-1416 -16376 16428 0
-1416 -16377 16429 0
-1416 -16378 16430 0
-1416 -16379 16431 0
-1416 -16380 16432 0
-1416 -16381 16433 0
-1416 -16382 16434 0
-1416 -16383 16435 0
-1416 -16384 16436 0
-1416 -16385 16437 0
-1416 -16386 16438 0
-1416 -16387 16439 0
-1416 -16388 16440 0
-1416 -16389 16441 0
-1416 -16390 16442 0
-1416 -16391 16443 0
-1416 -16392 16444 0
-1416 -16393 16445 0
-1416 -16394 16446 0
-1416 -16395 16447 0
-1416 -16396 16448 0
-1416 -16397 16449 0
-1416 -16398 16450 0
-1416 -16399 16451 0
-1416 -16400 16452 0
-1416 -16401 16453 0
-1416 -16402 16454 0
-1416 -16403 16455 0
-1416 -16404 16456 0
-1416 -16405 16457 0
-1416 -16406 16458 0
-1416 -16407 16459 0
-1416 -16408 16460 0
-1416 -16409 16461 0
-1416 -16410 16462 0
-1416 -16411 16463 0
-1416 -16412 16464 0
-1416 -16413 16465 0
-1416 -16414 16466 0
-1416 -16415 16467 0
-1416 -16416 16468 0
-1416 -16417 0
-16418 16469 0
-16419 16470 0
-16420 16471 0
-16421 16472 0
-16422 16473 0
-16423 16474 0
-16424 16475 0
-16425 16476 0
-16426 16477 0
-16427 16478 0
-16428 16479 0
-16429 16480 0
-16430 16481 0
-16431 16482 0
-16432 16483 0
-16433 16484 0
-16434 16485 0
-16435 16486 0
-16436 16487 0
-16437 16488 0
-16438 16489 0
-16439 16490 0
-16440 16491 0
-16441 16492 0
-16442 16493 0
-16443 16494 0
-16444 16495 0
-16445 16496 0
-16446 16497 0
-16447 16498 0
-16448 16499 0
-16449 16500 0
-16450 16501 0
-16451 16502 0
-16452 16503 0
-16453 16504 0
-16454 16505 0
-16455 16506 0
-16456 16507 0
-16457 16508 0
-16458 16509 0
-16459 16510 0
-16460 16511 0
-16461 16512 0
-16462 16513 0
-16463 16514 0
-16464 16515 0
-16465 16516 0
-16466 16517 0
-16467 16518 0
-16468 16519 0
-1418 -16418 16470 0
-1418 -16419 16471 0
-1418 -16420 16472 0
-1418 -16421 16473 0
-1418 -16422 16474 0
-1418 -16423 16475 0
-1418 -16424 16476 0
-1418 -16425 16477 0
-1418 -16426 16478 0
-1418 -16427 16479 0
-1418 -16428 16480 0
-1418 -16429 16481 0
-1418 -16430 16482 0
-1418 -16431 16483 0
-1418 -16432 16484 0
-1418 -16433 16485 0
-1418 -16434 16486 0
-1418 -16435 16487 0
-1418 -16436 16488 0
-1418 -16437 16489 0
-1418 -16438 16490 0
-1418 -16439 16491 0
-1418 -16440 16492 0
-1418 -16441 16493 0
-1418 -16442 16494 0
-1418 -16443 16495 0
-1418 -16444 16496 0
-1418 -16445 16497 0
-1418 -16446 16498 0
-1418 -16447 16499 0
-1418 -16448 16500 0
-1418 -16449 16501 0
-1418 -16450 16502 0
-1418 -16451 16503 0
-1418 -16452 16504 0
-1418 -16453 16505 0
-1418 -16454 16506 0
-1418 -16455 16507 0
-1418 -16456 16508 0
-1418 -16457 16509 0
-1418 -16458 16510 0
-1418 -16459 16511 0
-1418 -16460 16512 0
-1418 -16461 16513 0
-1418 -16462 16514 0
-1418 -16463 16515 0
-1418 -16464 16516 0
-1418 -16465 16517 0
-1418 -16466 16518 0
-1418 -16467 16519 0
-1418 -16468 0
-16469 16520 0
-16470 16521 0
-16471 16522 0
-16472 16523 0
-16473 16524 0
-16474 16525 0
-16475 16526 0
-16476 16527 0
-16477 16528 0
-16478 16529 0
-16479 16530 0
-16480 16531 0
-16481 16532 0
-16482 16533 0
-16483 16534 0
-16484 16535 0
-16485 16536 0
-16486 16537 0
-16487 16538 0
-16488 16539 0
-16489 16540 0
-16490 16541 0
-16491 16542 0
-16492 16543 0
-16493 16544 0
-16494 16545 0
-16495 16546 0
-16496 16547 0
-16497 16548 0
-16498 16549 0
-16499 16550 0
-16500 16551 0
-16501 16552 0
-16502 16553 0
-16503 16554 0
-16504 16555 0
-16505 16556 0
-16506 16557 0
-16507 16558 0
-16508 16559 0
-16509 16560 0
-16510 16561 0
-16511 16562 0
-16512 16563 0
-16513 16564 0
-16514 16565 0
-16515 16566 0
-16516 16567 0
-16517 16568 0
-16518 16569 0
-16519 16570 0
-1420 -16469 16521 0
-1420 -16470 16522 0
-1420 -16471 16523 0
-1420 -16472 16524 0
-1420 -16473 16525 0
-1420 -16474 16526 0
-1420 -16475 16527 0
-1420 -16476 16528 0
-1420 -16477 16529 0
-1420 -16478 16530 0
-1420 -16479 16531 0
-1420 -16480 16532 0
-1420 -16481 16533 0
-1420 -16482 16534 0
-1420 -16483 16535 0
-1420 -16484 16536 0
-1420 -16485 16537 0
-1420 -16486 16538 0
-1420 -16487 16539 0
-1420 -16488 16540 0
-1420 -16489 16541 0
-1420 -16490 16542 0
-1420 -16491 16543 0
-1420 -16492 16544 0
-1420 -16493 16545 0
-1420 -16494 16546 0
-1420 -16495 16547 0
-1420 -16496 16548 0
-1420 -16497 16549 0
-1420 -16498 16550 0
-1420 -16499 16551 0
-1420 -16500 16552 0
-1420 -16501 16553 0
-1420 -16502 16554 0
-1420 -16503 16555 0
-1420 -16504 16556 0
-1420 -16505 16557 0
-1420 -16506 16558 0
-1420 -16507 16559 0
-1420 -16508 16560 0
-1420 -16509 16561 0
-1420 -16510 16562 0
-1420 -16511 16563 0
-1420 -16512 16564 0
-1420 -16513 16565 0
-1420 -16514 16566 0
-1420 -16515 16567 0
-1420 -16516 16568 0
-1420 -16517 16569 0
-1420 -16518 16570 0
-1420 -16519 0
-16520 16571 0
-16521 16572 0
-16522 16573 0
-16523 16574 0
-16524 16575 0
-16525 16576 0
-16526 16577 0
-16527 16578 0
-16528 16579 0
-16529 16580 0
-16530 16581 0
-16531 16582 0
-16532 16583 0
-16533 16584 0
-16534 16585 0
-16535 16586 0
-16536 16587 0
-16537 16588 0
-16538 16589 0
-16539 16590 0
-16540 16591 0
-16541 16592 0
-16542 16593 0
-16543 16594 0
-16544 16595 0
-16545 16596 0
-16546 16597 0
-16547 16598 0
-16548 16599 0
-16549 16600 0
-16550 16601 0
-16551 16602 0
-16552 16603 0
-16553 16604 0
-16554 16605 0
-16555 16606 0
-16556 16607 0
-16557 16608 0
-16558 16609 0
-16559 16610 0
-16560 16611 0
-16561 16612 0
-16562 16613 0
-16563 16614 0
-16564 16615 0
-16565 16616 0
-16566 16617 0
-16567 16618 0
-16568 16619 0
-16569 16620 0
-16570 16621 0
-1422 -16520 16572 0
-1422 -16521 16573 0
-1422 -16522 16574 0
-1422 -16523 16575 0
-1422 -16524 16576 0
-1422 -16525 16577 0
-1422 -16526 16578 0
-1422 -16527 16579 0
-1422 -16528 16580 0
-1422 -16529 16581 0
-1422 -16530 16582 0
-1422 -16531 16583 0
-1422 -16532 16584 0
-1422 -16533 16585 0
-1422 -16534 16586 0
-1422 -16535 16587 0
-1422 -16536 16588 0
-1422 -16537 16589 0
-1422 -16538 16590 0
-1422 -16539 16591 0
-1422 -16540 16592 0
-1422 -16541 16593 0
-1422 -16542 16594 0
-1422 -16543 16595 0
-1422 -16544 16596 0
-1422 -16545 16597 0
-1422 -16546 16598 0
-1422 -16547 16599 0
-1422 -16548 16600 0
-1422 -16549 16601 0
-1422 -16550 16602 0
-1422 -16551 16603 0
-1422 -16552 16604 0
-1422 -16553 16605 0
-1422 -16554 16606 0
-1422 -16555 16607 0
-1422 -16556 16608 0
-1422 -16557 16609 0
-1422 -16558 16610 0
-1422 -16559 16611 0
-1422 -16560 16612 0
-1422 -16561 16613 0
-1422 -16562 16614 0
-1422 -16563 16615 0
-1422 -16564 16616 0
-1422 -16565 16617 0
-1422 -16566 16618 0
-1422 -16567 16619 0
-1422 -16568 16620 0
-1422 -16569 16621 0
-1422 -16570 0
-16571 16622 0
-16572 16623 0
-16573 16624 0
-16574 16625 0
-16575 16626 0
-16576 16627 0
-16577 16628 0
-16578 16629 0
-16579 16630 0
-16580 16631 0
-16581 16632 0
-16582 16633 0
-16583 16634 0
-16584 16635 0
-16585 16636 0
-16586 16637 0
-16587 16638 0
-16588 16639 0
-16589 16640 0
-16590 16641 0
-16591 16642 0
-16592 16643 0
-16593 16644 0
-16594 16645 0
-16595 16646 0
-16596 16647 0
-16597 16648 0
-16598 16649 0
-16599 16650 0
-16600 16651 0
-16601 16652 0
-16602 16653 0
-16603 16654 0
-16604 16655 0
-16605 16656 0
-16606 16657 0
-16607 16658 0
-16608 16659 0
-16609 16660 0
-16610 16661 0
-16611 16662 0
-16612 16663 0
-16613 16664 0
-16614 16665 0
-16615 16666 0
-16616 16667 0
-16617 16668 0
-16618 16669 0
-16619 16670 0
-16620 16671 0
-16621 16672 0
-1424 -16571 16623 0
-1424 -16572 16624 0
-1424 -16573 16625 0
-1424 -16574 16626 0
-1424 -16575 16627 0
-1424 -16576 16628 0
-1424 -16577 16629 0
-1424 -16578 16630 0
-1424 -16579 16631 0
-1424 -16580 16632 0
-1424 -16581 16633 0
-1424 -16582 16634 0
-1424 -16583 16635 0
-1424 -16584 16636 0
-1424 -16585 16637 0
-1424 -16586 16638 0
-1424 -16587 16639 0
-1424 -16588 16640 0
-1424 -16589 16641 0
-1424 -16590 16642 0
-1424 -16591 16643 0
-1424 -16592 16644 0
-1424 -16593 16645 0
-1424 -16594 16646 0
-1424 -16595 16647 0
-1424 -16596 16648 0
-1424 -16597 16649 0
-1424 -16598 16650 0
-1424 -16599 16651 0
-1424 -16600 16652 0
-1424 -16601 16653 0
-1424 -16602 16654 0
-1424 -16603 16655 0
-1424 -16604 16656 0
-1424 -16605 16657 0
-1424 -16606 16658 0
-1424 -16607 16659 0
-1424 -16608 16660 0
-1424 -16609 16661 0
-1424 -16610 16662 0
-1424 -16611 16663 0
-1424 -16612 16664 0
-1424 -16613 16665 0
-1424 -16614 16666 0
-1424 -16615 16667 0
-1424 -16616 16668 0
-1424 -16617 16669 0
-1424 -16618 16670 0
-1424 -16619 16671 0
-1424 -16620 16672 0
-1424 -16621 0
-16622 16673 0
-16623 16674 0
-16624 16675 0
-16625 16676 0
-16626 16677 0
-16627 16678 0
-16628 16679 0
-16629 16680 0
-16630 16681 0
-16631 16682 0
-16632 16683 0
-16633 16684 0
-16634 16685 0
-16635 16686 0
-16636 16687 0
-16637 16688 0
-16638 16689 0
-16639 16690 0
-16640 16691 0
-16641 16692 0
-16642 16693 0
-16643 16694 0
-16644 16695 0
-16645 16696 0
-16646 16697 0
-16647 16698 0
-16648 16699 0
-16649 16700 0
-16650 16701 0
-16651 16702 0
-16652 16703 0
-16653 16704 0
-16654 16705 0
-16655 16706 0
-16656 16707 0
-16657 16708 0
-16658 16709 0
-16659 16710 0
-16660 16711 0
-16661 16712 0
-16662 16713 0
-16663 16714 0
-16664 16715 0
-16665 16716 0
-16666 16717 0
-16667 16718 0
-16668 16719 0
-16669 16720 0
-16670 16721 0
-16671 16722 0
-16672 16723 0
-1426 -16622 16674 0
-1426 -16623 16675 0
-1426 -16624 16676 0
-1426 -16625 16677 0
-1426 -16626 16678 0
-1426 -16627 16679 0
-1426 -16628 16680 0
-1426 -16629 16681 0
-1426 -16630 16682 0
-1426 -16631 16683 0
-1426 -16632 16684 0
-1426 -16633 16685 0
-1426 -16634 16686 0
-1426 -16635 16687 0
-1426 -16636 16688 0
-1426 -16637 16689 0
-1426 -16638 16690 0
-1426 -16639 16691 0
-1426 -16640 16692 0
-1426 -16641 16693 0
-1426 -16642 16694 0
-1426 -16643 16695 0
-1426 -16644 16696 0
-1426 -16645 16697 0
-1426 -16646 16698 0
-1426 -16647 16699 0
-1426 -16648 16700 0
-1426 -16649 16701 0
-1426 -16650 16702 0
-1426 -16651 16703 0
-1426 -16652 16704 0
-1426 -16653 16705 0
-1426 -16654 16706 0
-1426 -16655 16707 0
-1426 -16656 16708 0
-1426 -16657 16709 0
-1426 -16658 16710 0
-1426 -16659 16711 0
-1426 -16660 16712 0
-1426 -16661 16713 0
-1426 -16662 16714 0
-1426 -16663 16715 0
-1426 -16664 16716 0
-1426 -16665 16717 0
-1426 -16666 16718 0
-1426 -16667 16719 0
-1426 -16668 16720 0
-1426 -16669 16721 0
-1426 -16670 16722 0
-1426 -16671 16723 0
-1426 -16672 0
-16673 16724 0
-16674 16725 0
-16675 16726 0
-16676 16727 0
-16677 16728 0
-16678 16729 0
-16679 16730 0
-16680 16731 0
-16681 16732 0
-16682 16733 0
-16683 16734 0
-16684 16735 0
-16685 16736 0
-16686 16737 0
-16687 16738 0
-16688 16739 0
-16689 16740 0
-16690 16741 0
-16691 16742 0
-16692 16743 0
-16693 16744 0
-16694 16745 0
-16695 16746 0
-16696 16747 0
-16697 16748 0
-16698 16749 0
-16699 16750 0
-16700 16751 0
-16701 16752 0
-16702 16753 0
-16703 16754 0
-16704 16755 0
-16705 16756 0
-16706 16757 0
-16707 16758 0
-16708 16759 0
-16709 16760 0
-16710 16761 0
-16711 16762 0
-16712 16763 0
-16713 16764 0
-16714 16765 0
-16715 16766 0
-16716 16767 0
-16717 16768 0
-16718 16769 0
-16719 16770 0
-16720 16771 0
-16721 16772 0
-16722 16773 0
-16723 16774 0
-1428 -16673 16725 0
-1428 -16674 16726 0
-1428 -16675 16727 0
-1428 -16676 16728 0
-1428 -16677 16729 0
-1428 -16678 16730 0
-1428 -16679 16731 0
-1428 -16680 16732 0
-1428 -16681 16733 0
-1428 -16682 16734 0
-1428 -16683 16735 0
-1428 -16684 16736 0
-1428 -16685 16737 0
-1428 -16686 16738 0
-1428 -16687 16739 0
-1428 -16688 16740 0
-1428 -16689 16741 0
-1428 -16690 16742 0
-1428 -16691 16743 0
-1428 -16692 16744 0
-1428 -16693 16745 0
-1428 -16694 16746 0
-1428 -16695 16747 0
-1428 -16696 16748 0
-1428 -16697 16749 0
-1428 -16698 16750 0
-1428 -16699 16751 0
-1428 -16700 16752 0
-1428 -16701 16753 0
-1428 -16702 16754 0
-1428 -16703 16755 0
-1428 -16704 16756 0
-1428 -16705 16757 0
-1428 -16706 16758 0
-1428 -16707 16759 0
-1428 -16708 16760 0
-1428 -16709 16761 0
-1428 -16710 16762 0
-1428 -16711 16763 0
-1428 -16712 16764 0
-1428 -16713 16765 0
-1428 -16714 16766 0
-1428 -16715 16767 0
-1428 -16716 16768 0
-1428 -16717 16769 0
-1428 -16718 16770 0
-1428 -16719 16771 0
-1428 -16720 16772 0
-1428 -16721 16773 0
-1428 -16722 16774 0
-1428 -16723 0
-16724 16775 0
-16725 16776 0
-16726 16777 0
-16727 16778 0
-16728 16779 0
-16729 16780 0
-16730 16781 0
-16731 16782 0
-16732 16783 0
-16733 16784 0
-16734 16785 0
-16735 16786 0
-16736 16787 0
-16737 16788 0
-16738 16789 0
-16739 16790 0
-16740 16791 0
-16741 16792 0
-16742 16793 0
-16743 16794 0
-16744 16795 0
-16745 16796 0
-16746 16797 0
-16747 16798 0
-16748 16799 0
-16749 16800 0
-16750 16801 0
-16751 16802 0
-16752 16803 0
-16753 16804 0
-16754 16805 0
-16755 16806 0
-16756 16807 0
-16757 16808 0
-16758 16809 0
-16759 16810 0
-16760 16811 0
-16761 16812 0
-16762 16813 0
-16763 16814 0
-16764 16815 0
-16765 16816 0
-16766 16817 0
-16767 16818 0
-16768 16819 0
-16769 16820 0
-16770 16821 0
-16771 16822 0
-16772 16823 0
-16773 16824 0
-16774 16825 0
-1430 -16724 16776 0
-1430 -16725 16777 0
-1430 -16726 16778 0
-1430 -16727 16779 0
-1430 -16728 16780 0
-1430 -16729 16781 0
-1430 -16730 16782 0
-1430 -16731 16783 0
-1430 -16732 16784 0
-1430 -16733 16785 0
-1430 -16734 16786 0
-1430 -16735 16787 0
-1430 -16736 16788 0
-1430 -16737 16789 0
-1430 -16738 16790 0
-1430 -16739 16791 0
-1430 -16740 16792 0
-1430 -16741 16793 0
-1430 -16742 16794 0
-1430 -16743 16795 0
-1430 -16744 16796 0
-1430 -16745 16797 0
-1430 -16746 16798 0
-1430 -16747 16799 0
-1430 -16748 16800 0
-1430 -16749 16801 0
-1430 -16750 16802 0
-1430 -16751 16803 0
-1430 -16752 16804 0
-1430 -16753 16805 0
-1430 -16754 16806 0
-1430 -16755 16807 0
-1430 -16756 16808 0
-1430 -16757 16809 0
-1430 -16758 16810 0
-1430 -16759 16811 0
-1430 -16760 16812 0
-1430 -16761 16813 0
-1430 -16762 16814 0
-1430 -16763 16815 0
-1430 -16764 16816 0
-1430 -16765 16817 0
-1430 -16766 16818 0
-1430 -16767 16819 0
-1430 -16768 16820 0
-1430 -16769 16821 0
-1430 -16770 16822 0
-1430 -16771 16823 0
-1430 -16772 16824 0
-1430 -16773 16825 0
-1430 -16774 0
-16775 16826 0
-16776 16827 0
-16777 16828 0
-16778 16829 0
-16779 16830 0
-16780 16831 0
-16781 16832 0
-16782 16833 0
-16783 16834 0
-16784 16835 0
-16785 16836 0
-16786 16837 0
-16787 16838 0
-16788 16839 0
-16789 16840 0
-16790 16841 0
-16791 16842 0
-16792 16843 0
-16793 16844 0
-16794 16845 0
-16795 16846 0
-16796 16847 0
-16797 16848 0
-16798 16849 0
-16799 16850 0
-16800 16851 0
-16801 16852 0
-16802 16853 0
-16803 16854 0
-16804 16855 0
-16805 16856 0
-16806 16857 0
-16807 16858 0
-16808 16859 0
-16809 16860 0
-16810 16861 0
-16811 16862 0
-16812 16863 0
-16813 16864 0
-16814 16865 0
-16815 16866 0
-16816 16867 0
-16817 16868 0
-16818 16869 0
-16819 16870 0
-16820 16871 0
-16821 16872 0
-16822 16873 0
-16823 16874 0
-16824 16875 0
-16825 16876 0
-1432 -16775 16827 0
-1432 -16776 16828 0
-1432 -16777 16829 0
-1432 -16778 16830 0
-1432 -16779 16831 0
-1432 -16780 16832 0
-1432 -16781 16833 0
-1432 -16782 16834 0
-1432 -16783 16835 0
-1432 -16784 16836 0
-1432 -16785 16837 0
-1432 -16786 16838 0
-1432 -16787 16839 0
-1432 -16788 16840 0
-1432 -16789 16841 0
-1432 -16790 16842 0
-1432 -16791 16843 0
-1432 -16792 16844 0
-1432 -16793 16845 0
-1432 -16794 16846 0
-1432 -16795 16847 0
-1432 -16796 16848 0
-1432 -16797 16849 0
-1432 -16798 16850 0
-1432 -16799 16851 0
-1432 -16800 16852 0
-1432 -16801 16853 0
-1432 -16802 16854 0
-1432 -16803 16855 0
-1432 -16804 16856 0
-1432 -16805 16857 0
-1432 -16806 16858 0
-1432 -16807 16859 0
-1432 -16808 16860 0
-1432 -16809 16861 0
-1432 -16810 16862 0
-1432 -16811 16863 0
-1432 -16812 16864 0
-1432 -16813 16865 0
-1432 -16814 16866 0
-1432 -16815 16867 0
-1432 -16816 16868 0
-1432 -16817 16869 0
-1432 -16818 16870 0
-1432 -16819 16871 0
-1432 -16820 16872 0
-1432 -16821 16873 0
-1432 -16822 16874 0
-1432 -16823 16875 0
-1432 -16824 16876 0
-1432 -16825 0
-16826 16877 0
-16827 16878 0
-16828 16879 0
-16829 16880 0
-16830 16881 0
-16831 16882 0
-16832 16883 0
-16833 16884 0
-16834 16885 0
-16835 16886 0
-16836 16887 0
-16837 16888 0
-16838 16889 0
-16839 16890 0
-16840 16891 0
-16841 16892 0
-16842 16893 0
-16843 16894 0
-16844 16895 0
-16845 16896 0
-16846 16897 0
-16847 16898 0
-16848 16899 0
-16849 16900 0
-16850 16901 0
-16851 16902 0
-16852 16903 0
-16853 16904 0
-16854 16905 0
-16855 16906 0
-16856 16907 0
-16857 16908 0
-16858 16909 0
-16859 16910 0
-16860 16911 0
-16861 16912 0
-16862 16913 0
-16863 16914 0
-16864 16915 0
-16865 16916 0
-16866 16917 0
-16867 16918 0
-16868 16919 0
-16869 16920 0
-16870 16921 0
-16871 16922 0
-16872 16923 0
-16873 16924 0
-16874 16925 0
-16875 16926 0
-16876 16927 0
-1434 -16826 16878 0
-1434 -16827 16879 0
-1434 -16828 16880 0
-1434 -16829 16881 0
-1434 -16830 16882 0
-1434 -16831 16883 0
-1434 -16832 16884 0
-1434 -16833 16885 0
-1434 -16834 16886 0
-1434 -16835 16887 0
-1434 -16836 16888 0
-1434 -16837 16889 0
-1434 -16838 16890 0
-1434 -16839 16891 0
-1434 -16840 16892 0
-1434 -16841 16893 0
-1434 -16842 16894 0
-1434 -16843 16895 0
-1434 -16844 16896 0
-1434 -16845 16897 0
-1434 -16846 16898 0
-1434 -16847 16899 0
-1434 -16848 16900 0
-1434 -16849 16901 0
-1434 -16850 16902 0
-1434 -16851 16903 0
-1434 -16852 16904 0
-1434 -16853 16905 0
-1434 -16854 16906 0
-1434 -16855 16907 0
-1434 -16856 16908 0
-1434 -16857 16909 0
-1434 -16858 16910 0
-1434 -16859 16911 0
-1434 -16860 16912 0
-1434 -16861 16913 0
-1434 -16862 16914 0
-1434 -16863 16915 0
-1434 -16864 16916 0
-1434 -16865 16917 0
-1434 -16866 16918 0
-1434 -16867 16919 0
-1434 -16868 16920 0
-1434 -16869 16921 0
-1434 -16870 16922 0
-1434 -16871 16923 0
-1434 -16872 16924 0
-1434 -16873 16925 0
-1434 -16874 16926 0
-1434 -16875 16927 0
-1434 -16876 0
-16877 16928 0
-16878 16929 0
-16879 16930 0
-16880 16931 0
-16881 16932 0
-16882 16933 0
-16883 16934 0
-16884 16935 0
-16885 16936 0
-16886 16937 0
-16887 16938 0
-16888 16939 0
-16889 16940 0
-16890 16941 0
-16891 16942 0
-16892 16943 0
-16893 16944 0
-16894 16945 0
-16895 16946 0
-16896 16947 0
-16897 16948 0
-16898 16949 0
-16899 16950 0
-16900 16951 0
-16901 16952 0
-16902 16953 0
-16903 16954 0
-16904 16955 0
-16905 16956 0
-16906 16957 0
-16907 16958 0
-16908 16959 0
-16909 16960 0
-16910 16961 0
-16911 16962 0
-16912 16963 0
-16913 16964 0
-16914 16965 0
-16915 16966 0
-16916 16967 0
-16917 16968 0
-16918 16969 0
-16919 16970 0
-16920 16971 0
-16921 16972 0
-16922 16973 0
-16923 16974 0
-16924 16975 0
-16925 16976 0
-16926 16977 0
-16927 16978 0
-1436 -16877 16929 0
-1436 -16878 16930 0
-1436 -16879 16931 0
-1436 -16880 16932 0
-1436 -16881 16933 0
-1436 -16882 16934 0
-1436 -16883 16935 0
-1436 -16884 16936 0
-1436 -16885 16937 0
-1436 -16886 16938 0
-1436 -16887 16939 0
-1436 -16888 16940 0
-1436 -16889 16941 0
-1436 -16890 16942 0
-1436 -16891 16943 0
-1436 -16892 16944 0
-1436 -16893 16945 0
-1436 -16894 16946 0
-1436 -16895 16947 0
-1436 -16896 16948 0
-1436 -16897 16949 0
-1436 -16898 16950 0
-1436 -16899 16951 0
-1436 -16900 16952 0
-1436 -16901 16953 0
-1436 -16902 16954 0
-1436 -16903 16955 0
-1436 -16904 16956 0
-1436 -16905 16957 0
-1436 -16906 16958 0
-1436 -16907 16959 0
-1436 -16908 16960 0
-1436 -16909 16961 0
-1436 -16910 16962 0
-1436 -16911 16963 0
-1436 -16912 16964 0
-1436 -16913 16965 0
-1436 -16914 16966 0
-1436 -16915 16967 0
-1436 -16916 16968 0
-1436 -16917 16969 0
-1436 -16918 16970 0
-1436 -16919 16971 0
-1436 -16920 16972 0
-1436 -16921 16973 0
-1436 -16922 16974 0
-1436 -16923 16975 0
-1436 -16924 16976 0
-1436 -16925 16977 0
-1436 -16926 16978 0
-1436 -16927 0
-16928 16979 0
-16929 16980 0
-16930 16981 0
-16931 16982 0
-16932 16983 0
-16933 16984 0
-16934 16985 0
-16935 16986 0
-16936 16987 0
-16937 16988 0
-16938 16989 0
-16939 16990 0
-16940 16991 0
-16941 16992 0
-16942 16993 0
-16943 16994 0
-16944 16995 0
-16945 16996 0
-16946 16997 0
-16947 16998 0
-16948 16999 0
-16949 17000 0
-16950 17001 0
-16951 17002 0
-16952 17003 0
-16953 17004 0
-16954 17005 0
-16955 17006 0
-16956 17007 0
-16957 17008 0
-16958 17009 0
-16959 17010 0
-16960 17011 0
-16961 17012 0
-16962 17013 0
-16963 17014 0
-16964 17015 0
-16965 17016 0
-16966 17017 0
-16967 17018 0
-16968 17019 0
-16969 17020 0
-16970 17021 0
-16971 17022 0
-16972 17023 0
-16973 17024 0
-16974 17025 0
-16975 17026 0
-16976 17027 0
-16977 17028 0
-16978 17029 0
-1438 -16928 16980 0
-1438 -16929 16981 0
-1438 -16930 16982 0
-1438 -16931 16983 0
-1438 -16932 16984 0
-1438 -16933 16985 0
-1438 -16934 16986 0
-1438 -16935 16987 0
-1438 -16936 16988 0
-1438 -16937 16989 0
-1438 -16938 16990 0
-1438 -16939 16991 0
-1438 -16940 16992 0
-1438 -16941 16993 0
-1438 -16942 16994 0
-1438 -16943 16995 0
-1438 -16944 16996 0
-1438 -16945 16997 0
-1438 -16946 16998 0
-1438 -16947 16999 0
-1438 -16948 17000 0
-1438 -16949 17001 0
-1438 -16950 17002 0
-1438 -16951 17003 0
-1438 -16952 17004 0
-1438 -16953 17005 0
-1438 -16954 17006 0
-1438 -16955 17007 0
-1438 -16956 17008 0
-1438 -16957 17009 0
-1438 -16958 17010 0
-1438 -16959 17011 0
-1438 -16960 17012 0
-1438 -16961 17013 0
-1438 -16962 17014 0
-1438 -16963 17015 0
-1438 -16964 17016 0
-1438 -16965 17017 0
-1438 -16966 17018 0
-1438 -16967 17019 0
-1438 -16968 17020 0
-1438 -16969 17021 0
-1438 -16970 17022 0
-1438 -16971 17023 0
-1438 -16972 17024 0
-1438 -16973 17025 0
-1438 -16974 17026 0
-1438 -16975 17027 0
-1438 -16976 17028 0
-1438 -16977 17029 0
-1438 -16978 0
-16979 17030 0
-16980 17031 0
-16981 17032 0
-16982 17033 0
-16983 17034 0
-16984 17035 0
-16985 17036 0
-16986 17037 0
-16987 17038 0
-16988 17039 0
-16989 17040 0
-16990 17041 0
-16991 17042 0
-16992 17043 0
-16993 17044 0
-16994 17045 0
-16995 17046 0
-16996 17047 0
-16997 17048 0
-16998 17049 0
-16999 17050 0
-17000 17051 0
-17001 17052 0
-17002 17053 0
-17003 17054 0
-17004 17055 0
-17005 17056 0
-17006 17057 0
-17007 17058 0
-17008 17059 0
-17009 17060 0
-17010 17061 0
-17011 17062 0
-17012 17063 0
-17013 17064 0
-17014 17065 0
-17015 17066 0
-17016 17067 0
-17017 17068 0
-17018 17069 0
-17019 17070 0
-17020 17071 0
-17021 17072 0
-17022 17073 0
-17023 17074 0
-17024 17075 0
-17025 17076 0
-17026 17077 0
-17027 17078 0
-17028 17079 0
-17029 17080 0
-1440 -16979 17031 0
-1440 -16980 17032 0
-1440 -16981 17033 0
-1440 -16982 17034 0
-1440 -16983 17035 0
-1440 -16984 17036 0
-1440 -16985 17037 0
-1440 -16986 17038 0
-1440 -16987 17039 0
-1440 -16988 17040 0
-1440 -16989 17041 0
-1440 -16990 17042 0
-1440 -16991 17043 0
-1440 -16992 17044 0
-1440 -16993 17045 0
-1440 -16994 17046 0
-1440 -16995 17047 0
-1440 -16996 17048 0
-1440 -16997 17049 0
-1440 -16998 17050 0
-1440 -16999 17051 0
-1440 -17000 17052 0
-1440 -17001 17053 0
-1440 -17002 17054 0
-1440 -17003 17055 0
-1440 -17004 17056 0
-1440 -17005 17057 0
-1440 -17006 17058 0
-1440 -17007 17059 0
-1440 -17008 17060 0
-1440 -17009 17061 0
-1440 -17010 17062 0
-1440 -17011 17063 0
-1440 -17012 17064 0
-1440 -17013 17065 0
-1440 -17014 17066 0
-1440 -17015 17067 0
-1440 -17016 17068 0
-1440 -17017 17069 0
-1440 -17018 17070 0
-1440 -17019 17071 0
-1440 -17020 17072 0
-1440 -17021 17073 0
-1440 -17022 17074 0
-1440 -17023 17075 0
-1440 -17024 17076 0
-1440 -17025 17077 0
-1440 -17026 17078 0
-1440 -17027 17079 0
-1440 -17028 17080 0
-1440 -17029 0
-17030 17081 0
-17031 17082 0
-17032 17083 0
-17033 17084 0
-17034 17085 0
-17035 17086 0
-17036 17087 0
-17037 17088 0
-17038 17089 0
-17039 17090 0
-17040 17091 0
-17041 17092 0
-17042 17093 0
-17043 17094 0
-17044 17095 0
-17045 17096 0
-17046 17097 0
-17047 17098 0
-17048 17099 0
-17049 17100 0
-17050 17101 0
-17051 17102 0
-17052 17103 0
-17053 17104 0
-17054 17105 0
-17055 17106 0
-17056 17107 0
-17057 17108 0
-17058 17109 0
-17059 17110 0
-17060 17111 0
-17061 17112 0
-17062 17113 0
-17063 17114 0
-17064 17115 0
-17065 17116 0
-17066 17117 0
-17067 17118 0
-17068 17119 0
-17069 17120 0
-17070 17121 0
-17071 17122 0
-17072 17123 0
-17073 17124 0
-17074 17125 0
-17075 17126 0
-17076 17127 0
-17077 17128 0
-17078 17129 0
-17079 17130 0
-17080 17131 0
-1442 -17030 17082 0
-1442 -17031 17083 0
-1442 -17032 17084 0
-1442 -17033 17085 0
-1442 -17034 17086 0
-1442 -17035 17087 0
-1442 -17036 17088 0
-1442 -17037 17089 0
-1442 -17038 17090 0
-1442 -17039 17091 0
-1442 -17040 17092 0
-1442 -17041 17093 0
-1442 -17042 17094 0
-1442 -17043 17095 0
-1442 -17044 17096 0
-1442 -17045 17097 0
-1442 -17046 17098 0
-1442 -17047 17099 0
-1442 -17048 17100 0
-1442 -17049 17101 0
-1442 -17050 17102 0
-1442 -17051 17103 0
-1442 -17052 17104 0
-1442 -17053 17105 0
-1442 -17054 17106 0
-1442 -17055 17107 0
-1442 -17056 17108 0
-1442 -17057 17109 0
-1442 -17058 17110 0
-1442 -17059 17111 0
-1442 -17060 17112 0
-1442 -17061 17113 0
-1442 -17062 17114 0
-1442 -17063 17115 0
-1442 -17064 17116 0
-1442 -17065 17117 0
-1442 -17066 17118 0
-1442 -17067 17119 0
-1442 -17068 17120 0
-1442 -17069 17121 0
-1442 -17070 17122 0
-1442 -17071 17123 0
-1442 -17072 17124 0
-1442 -17073 17125 0
-1442 -17074 17126 0
-1442 -17075 17127 0
-1442 -17076 17128 0
-1442 -17077 17129 0
-1442 -17078 17130 0
-1442 -17079 17131 0
-1442 -17080 0
-17081 17132 0
-17082 17133 0
-17083 17134 0
-17084 17135 0
-17085 17136 0
-17086 17137 0
-17087 17138 0
-17088 17139 0
-17089 17140 0
-17090 17141 0
-17091 17142 0
-17092 17143 0
-17093 17144 0
-17094 17145 0
-17095 17146 0
-17096 17147 0
-17097 17148 0
-17098 17149 0
-17099 17150 0
-17100 17151 0
-17101 17152 0
-17102 17153 0
-17103 17154 0
-17104 17155 0
-17105 17156 0
-17106 17157 0
-17107 17158 0
-17108 17159 0
-17109 17160 0
-17110 17161 0
-17111 17162 0
-17112 17163 0
-17113 17164 0
-17114 17165 0
-17115 17166 0
-17116 17167 0
-17117 17168 0
-17118 17169 0
-17119 17170 0
-17120 17171 0
-17121 17172 0
-17122 17173 0
-17123 17174 0
-17124 17175 0
-17125 17176 0
-17126 17177 0
-17127 17178 0
-17128 17179 0
-17129 17180 0
-17130 17181 0
-17131 17182 0
-1444 -17081 17133 0
-1444 -17082 17134 0
-1444 -17083 17135 0
-1444 -17084 17136 0
-1444 -17085 17137 0
-1444 -17086 17138 0
-1444 -17087 17139 0
-1444 -17088 17140 0
-1444 -17089 17141 0
-1444 -17090 17142 0
-1444 -17091 17143 0
-1444 -17092 17144 0
-1444 -17093 17145 0
-1444 -17094 17146 0
-1444 -17095 17147 0
-1444 -17096 17148 0
-1444 -17097 17149 0
-1444 -17098 17150 0
-1444 -17099 17151 0
-1444 -17100 17152 0
-1444 -17101 17153 0
-1444 -17102 17154 0
-1444 -17103 17155 0
-1444 -17104 17156 0
-1444 -17105 17157 0
-1444 -17106 17158 0
-1444 -17107 17159 0
-1444 -17108 17160 0
-1444 -17109 17161 0
-1444 -17110 17162 0
-1444 -17111 17163 0
-1444 -17112 17164 0
-1444 -17113 17165 0
-1444 -17114 17166 0
-1444 -17115 17167 0
-1444 -17116 17168 0
-1444 -17117 17169 0
-1444 -17118 17170 0
-1444 -17119 17171 0
-1444 -17120 17172 0
-1444 -17121 17173 0
-1444 -17122 17174 0
-1444 -17123 17175 0
-1444 -17124 17176 0
-1444 -17125 17177 0
-1444 -17126 17178 0
-1444 -17127 17179 0
-1444 -17128 17180 0
-1444 -17129 17181 0
-1444 -17130 17182 0
-1444 -17131 0
-17132 17183 0
-17133 17184 0
-17134 17185 0
-17135 17186 0
-17136 17187 0
-17137 17188 0
-17138 17189 0
-17139 17190 0
-17140 17191 0
-17141 17192 0
-17142 17193 0
-17143 17194 0
-17144 17195 0
-17145 17196 0
-17146 17197 0
-17147 17198 0
-17148 17199 0
-17149 17200 0
-17150 17201 0
-17151 17202 0
-17152 17203 0
-17153 17204 0
-17154 17205 0
-17155 17206 0
-17156 17207 0
-17157 17208 0
-17158 17209 0
-17159 17210 0
-17160 17211 0
-17161 17212 0
-17162 17213 0
-17163 17214 0
-17164 17215 0
-17165 17216 0
-17166 17217 0
-17167 17218 0
-17168 17219 0
-17169 17220 0
-17170 17221 0
-17171 17222 0
-17172 17223 0
-17173 17224 0
-17174 17225 0
-17175 17226 0
-17176 17227 0
-17177 17228 0
-17178 17229 0
-17179 17230 0
-17180 17231 0
-17181 17232 0
-17182 17233 0
-1446 -17132 17184 0
-1446 -17133 17185 0
-1446 -17134 17186 0
-1446 -17135 17187 0
-1446 -17136 17188 0
-1446 -17137 17189 0
-1446 -17138 17190 0
-1446 -17139 17191 0
-1446 -17140 17192 0
-1446 -17141 17193 0
-1446 -17142 17194 0
-1446 -17143 17195 0
-1446 -17144 17196 0
-1446 -17145 17197 0
-1446 -17146 17198 0
-1446 -17147 17199 0
-1446 -17148 17200 0
-1446 -17149 17201 0
-1446 -17150 17202 0
-1446 -17151 17203 0
-1446 -17152 17204 0
-1446 -17153 17205 0
-1446 -17154 17206 0
-1446 -17155 17207 0
-1446 -17156 17208 0
-1446 -17157 17209 0
-1446 -17158 17210 0
-1446 -17159 17211 0
-1446 -17160 17212 0
-1446 -17161 17213 0
-1446 -17162 17214 0
-1446 -17163 17215 0
-1446 -17164 17216 0
-1446 -17165 17217 0
-1446 -17166 17218 0
-1446 -17167 17219 0
-1446 -17168 17220 0
-1446 -17169 17221 0
-1446 -17170 17222 0
-1446 -17171 17223 0
-1446 -17172 17224 0
-1446 -17173 17225 0
-1446 -17174 17226 0
-1446 -17175 17227 0
-1446 -17176 17228 0
-1446 -17177 17229 0
-1446 -17178 17230 0
-1446 -17179 17231 0
-1446 -17180 17232 0
-1446 -17181 17233 0
-1446 -17182 0
-17183 17234 0
-17184 17235 0
-17185 17236 0
-17186 17237 0
-17187 17238 0
-17188 17239 0
-17189 17240 0
-17190 17241 0
-17191 17242 0
-17192 17243 0
-17193 17244 0
-17194 17245 0
-17195 17246 0
-17196 17247 0
-17197 17248 0
-17198 17249 0
-17199 17250 0
-17200 17251 0
-17201 17252 0
-17202 17253 0
-17203 17254 0
-17204 17255 0
-17205 17256 0
-17206 17257 0
-17207 17258 0
-17208 17259 0
-17209 17260 0
-17210 17261 0
-17211 17262 0
-17212 17263 0
-17213 17264 0
-17214 17265 0
-17215 17266 0
-17216 17267 0
-17217 17268 0
-17218 17269 0
-17219 17270 0
-17220 17271 0
-17221 17272 0
-17222 17273 0
-17223 17274 0
-17224 17275 0
-17225 17276 0
-17226 17277 0
-17227 17278 0
-17228 17279 0
-17229 17280 0
-17230 17281 0
-17231 17282 0
-17232 17283 0
-17233 17284 0
-1448 -17183 17235 0
-1448 -17184 17236 0
-1448 -17185 17237 0
-1448 -17186 17238 0
-1448 -17187 17239 0
-1448 -17188 17240 0
-1448 -17189 17241 0
-1448 -17190 17242 0
-1448 -17191 17243 0
-1448 -17192 17244 0
-1448 -17193 17245 0
-1448 -17194 17246 0
-1448 -17195 17247 0
-1448 -17196 17248 0
-1448 -17197 17249 0
-1448 -17198 17250 0
-1448 -17199 17251 0
-1448 -17200 17252 0
-1448 -17201 17253 0
-1448 -17202 17254 0
-1448 -17203 17255 0
-1448 -17204 17256 0
-1448 -17205 17257 0
-1448 -17206 17258 0
-1448 -17207 17259 0
-1448 -17208 17260 0
-1448 -17209 17261 0
-1448 -17210 17262 0
-1448 -17211 17263 0
-1448 -17212 17264 0
-1448 -17213 17265 0
-1448 -17214 17266 0
-1448 -17215 17267 0
-1448 -17216 17268 0
-1448 -17217 17269 0
-1448 -17218 17270 0
-1448 -17219 17271 0
-1448 -17220 17272 0
-1448 -17221 17273 0
-1448 -17222 17274 0
-1448 -17223 17275 0
-1448 -17224 17276 0
-1448 -17225 17277 0
-1448 -17226 17278 0
-1448 -17227 17279 0
-1448 -17228 17280 0
-1448 -17229 17281 0
-1448 -17230 17282 0
-1448 -17231 17283 0
-1448 -17232 17284 0
-1448 -17233 0
-17234 17285 0
-17235 17286 0
-17236 17287 0
-17237 17288 0
-17238 17289 0
-17239 17290 0
-17240 17291 0
-17241 17292 0
-17242 17293 0
-17243 17294 0
-17244 17295 0
-17245 17296 0
-17246 17297 0
-17247 17298 0
-17248 17299 0
-17249 17300 0
-17250 17301 0
-17251 17302 0
-17252 17303 0
-17253 17304 0
-17254 17305 0
-17255 17306 0
-17256 17307 0
-17257 17308 0
-17258 17309 0
-17259 17310 0
-17260 17311 0
-17261 17312 0
-17262 17313 0
-17263 17314 0
-17264 17315 0
-17265 17316 0
-17266 17317 0
-17267 17318 0
-17268 17319 0
-17269 17320 0
-17270 17321 0
-17271 17322 0
-17272 17323 0
-17273 17324 0
-17274 17325 0
-17275 17326 0
-17276 17327 0
-17277 17328 0
-17278 17329 0
-17279 17330 0
-17280 17331 0
-17281 17332 0
-17282 17333 0
-17283 17334 0
-17284 17335 0
-1450 -17234 17286 0
-1450 -17235 17287 0
-1450 -17236 17288 0
-1450 -17237 17289 0
-1450 -17238 17290 0
-1450 -17239 17291 0
-1450 -17240 17292 0
-1450 -17241 17293 0
-1450 -17242 17294 0
-1450 -17243 17295 0
-1450 -17244 17296 0
-1450 -17245 17297 0
-1450 -17246 17298 0
-1450 -17247 17299 0
-1450 -17248 17300 0
-1450 -17249 17301 0
-1450 -17250 17302 0
-1450 -17251 17303 0
-1450 -17252 17304 0
-1450 -17253 17305 0
-1450 -17254 17306 0
-1450 -17255 17307 0
-1450 -17256 17308 0
-1450 -17257 17309 0
-1450 -17258 17310 0
-1450 -17259 17311 0
-1450 -17260 17312 0
-1450 -17261 17313 0
-1450 -17262 17314 0
-1450 -17263 17315 0
-1450 -17264 17316 0
-1450 -17265 17317 0
-1450 -17266 17318 0
-1450 -17267 17319 0
-1450 -17268 17320 0
-1450 -17269 17321 0
-1450 -17270 17322 0
-1450 -17271 17323 0
-1450 -17272 17324 0
-1450 -17273 17325 0
-1450 -17274 17326 0
-1450 -17275 17327 0
-1450 -17276 17328 0
-1450 -17277 17329 0
-1450 -17278 17330 0
-1450 -17279 17331 0
-1450 -17280 17332 0
-1450 -17281 17333 0
-1450 -17282 17334 0
-1450 -17283 17335 0
-1450 -17284 0
-17285 17336 0
-17286 17337 0
-17287 17338 0
-17288 17339 0
-17289 17340 0
-17290 17341 0
-17291 17342 0
-17292 17343 0
-17293 17344 0
-17294 17345 0
-17295 17346 0
-17296 17347 0
-17297 17348 0
-17298 17349 0
-17299 17350 0
-17300 17351 0
-17301 17352 0
-17302 17353 0
-17303 17354 0
-17304 17355 0
-17305 17356 0
-17306 17357 0
-17307 17358 0
-17308 17359 0
-17309 17360 0
-17310 17361 0
-17311 17362 0
-17312 17363 0
-17313 17364 0
-17314 17365 0
-17315 17366 0
-17316 17367 0
-17317 17368 0
-17318 17369 0
-17319 17370 0
-17320 17371 0
-17321 17372 0
-17322 17373 0
-17323 17374 0
-17324 17375 0
-17325 17376 0
-17326 17377 0
-17327 17378 0
-17328 17379 0
-17329 17380 0
-17330 17381 0
-17331 17382 0
-17332 17383 0
-17333 17384 0
-17334 17385 0
-17335 17386 0
-1452 -17285 17337 0
-1452 -17286 17338 0
-1452 -17287 17339 0
-1452 -17288 17340 0
-1452 -17289 17341 0
-1452 -17290 17342 0
-1452 -17291 17343 0
-1452 -17292 17344 0
-1452 -17293 17345 0
-1452 -17294 17346 0
-1452 -17295 17347 0
-1452 -17296 17348 0
-1452 -17297 17349 0
-1452 -17298 17350 0
-1452 -17299 17351 0
-1452 -17300 17352 0
-1452 -17301 17353 0
-1452 -17302 17354 0
-1452 -17303 17355 0
-1452 -17304 17356 0
-1452 -17305 17357 0
-1452 -17306 17358 0
-1452 -17307 17359 0
-1452 -17308 17360 0
-1452 -17309 17361 0
-1452 -17310 17362 0
-1452 -17311 17363 0
-1452 -17312 17364 0
-1452 -17313 17365 0
-1452 -17314 17366 0
-1452 -17315 17367 0
-1452 -17316 17368 0
-1452 -17317 17369 0
-1452 -17318 17370 0
-1452 -17319 17371 0
-1452 -17320 17372 0
-1452 -17321 17373 0
-1452 -17322 17374 0
-1452 -17323 17375 0
-1452 -17324 17376 0
-1452 -17325 17377 0
-1452 -17326 17378 0
-1452 -17327 17379 0
-1452 -17328 17380 0
-1452 -17329 17381 0
-1452 -17330 17382 0
-1452 -17331 17383 0
-1452 -17332 17384 0
-1452 -17333 17385 0
-1452 -17334 17386 0
-1452 -17335 0
-17336 17387 0
-17337 17388 0
-17338 17389 0
-17339 17390 0
-17340 17391 0
-17341 17392 0
-17342 17393 0
-17343 17394 0
-17344 17395 0
-17345 17396 0
-17346 17397 0
-17347 17398 0
-17348 17399 0
-17349 17400 0
-17350 17401 0
-17351 17402 0
-17352 17403 0
-17353 17404 0
-17354 17405 0
-17355 17406 0
-17356 17407 0
-17357 17408 0
-17358 17409 0
-17359 17410 0
-17360 17411 0
-17361 17412 0
-17362 17413 0
-17363 17414 0
-17364 17415 0
-17365 17416 0
-17366 17417 0
-17367 17418 0
-17368 17419 0
-17369 17420 0
-17370 17421 0
-17371 17422 0
-17372 17423 0
-17373 17424 0
-17374 17425 0
-17375 17426 0
-17376 17427 0
-17377 17428 0
-17378 17429 0
-17379 17430 0
-17380 17431 0
-17381 17432 0
-17382 17433 0
-17383 17434 0
-17384 17435 0
-17385 17436 0
-17386 17437 0
-1454 -17336 17388 0
-1454 -17337 17389 0
-1454 -17338 17390 0
-1454 -17339 17391 0
-1454 -17340 17392 0
-1454 -17341 17393 0
-1454 -17342 17394 0
-1454 -17343 17395 0
-1454 -17344 17396 0
-1454 -17345 17397 0
-1454 -17346 17398 0
-1454 -17347 17399 0
-1454 -17348 17400 0
-1454 -17349 17401 0
-1454 -17350 17402 0
-1454 -17351 17403 0
-1454 -17352 17404 0
-1454 -17353 17405 0
-1454 -17354 17406 0
-1454 -17355 17407 0
-1454 -17356 17408 0
-1454 -17357 17409 0
-1454 -17358 17410 0
-1454 -17359 17411 0
-1454 -17360 17412 0
-1454 -17361 17413 0
-1454 -17362 17414 0
-1454 -17363 17415 0
-1454 -17364 17416 0
-1454 -17365 17417 0
-1454 -17366 17418 0
-1454 -17367 17419 0
-1454 -17368 17420 0
-1454 -17369 17421 0
-1454 -17370 17422 0
-1454 -17371 17423 0
-1454 -17372 17424 0
-1454 -17373 17425 0
-1454 -17374 17426 0
-1454 -17375 17427 0
-1454 -17376 17428 0
-1454 -17377 17429 0
-1454 -17378 17430 0
-1454 -17379 17431 0
-1454 -17380 17432 0
-1454 -17381 17433 0
-1454 -17382 17434 0
-1454 -17383 17435 0
-1454 -17384 17436 0
-1454 -17385 17437 0
-1454 -17386 0
-17387 17438 0
-17388 17439 0
-17389 17440 0
-17390 17441 0
-17391 17442 0
-17392 17443 0
-17393 17444 0
-17394 17445 0
-17395 17446 0
-17396 17447 0
-17397 17448 0
-17398 17449 0
-17399 17450 0
-17400 17451 0
-17401 17452 0
-17402 17453 0
-17403 17454 0
-17404 17455 0
-17405 17456 0
-17406 17457 0
-17407 17458 0
-17408 17459 0
-17409 17460 0
-17410 17461 0
-17411 17462 0
-17412 17463 0
-17413 17464 0
-17414 17465 0
-17415 17466 0
-17416 17467 0
-17417 17468 0
-17418 17469 0
-17419 17470 0
-17420 17471 0
-17421 17472 0
-17422 17473 0
-17423 17474 0
-17424 17475 0
-17425 17476 0
-17426 17477 0
-17427 17478 0
-17428 17479 0
-17429 17480 0
-17430 17481 0
-17431 17482 0
-17432 17483 0
-17433 17484 0
-17434 17485 0
-17435 17486 0
-17436 17487 0
-17437 17488 0
-1456 -17387 17439 0
-1456 -17388 17440 0
-1456 -17389 17441 0
-1456 -17390 17442 0
-1456 -17391 17443 0
-1456 -17392 17444 0
-1456 -17393 17445 0
-1456 -17394 17446 0
-1456 -17395 17447 0
-1456 -17396 17448 0
-1456 -17397 17449 0
-1456 -17398 17450 0
-1456 -17399 17451 0
-1456 -17400 17452 0
-1456 -17401 17453 0
-1456 -17402 17454 0
-1456 -17403 17455 0
-1456 -17404 17456 0
-1456 -17405 17457 0
-1456 -17406 17458 0
-1456 -17407 17459 0
-1456 -17408 17460 0
-1456 -17409 17461 0
-1456 -17410 17462 0
-1456 -17411 17463 0
-1456 -17412 17464 0
-1456 -17413 17465 0
-1456 -17414 17466 0
-1456 -17415 17467 0
-1456 -17416 17468 0
-1456 -17417 17469 0
-1456 -17418 17470 0
-1456 -17419 17471 0
-1456 -17420 17472 0
-1456 -17421 17473 0
-1456 -17422 17474 0
-1456 -17423 17475 0
-1456 -17424 17476 0
-1456 -17425 17477 0
-1456 -17426 17478 0
-1456 -17427 17479 0
-1456 -17428 17480 0
-1456 -17429 17481 0
-1456 -17430 17482 0
-1456 -17431 17483 0
-1456 -17432 17484 0
-1456 -17433 17485 0
-1456 -17434 17486 0
-1456 -17435 17487 0
-1456 -17436 17488 0
-1456 -17437 0
-17438 17489 0
-17439 17490 0
-17440 17491 0
-17441 17492 0
-17442 17493 0
-17443 17494 0
-17444 17495 0
-17445 17496 0
-17446 17497 0
-17447 17498 0
-17448 17499 0
-17449 17500 0
-17450 17501 0
-17451 17502 0
-17452 17503 0
-17453 17504 0
-17454 17505 0
-17455 17506 0
-17456 17507 0
-17457 17508 0
-17458 17509 0
-17459 17510 0
-17460 17511 0
-17461 17512 0
-17462 17513 0
-17463 17514 0
-17464 17515 0
-17465 17516 0
-17466 17517 0
-17467 17518 0
-17468 17519 0
-17469 17520 0
-17470 17521 0
-17471 17522 0
-17472 17523 0
-17473 17524 0
-17474 17525 0
-17475 17526 0
-17476 17527 0
-17477 17528 0
-17478 17529 0
-17479 17530 0
-17480 17531 0
-17481 17532 0
-17482 17533 0
-17483 17534 0
-17484 17535 0
-17485 17536 0
-17486 17537 0
-17487 17538 0
-17488 17539 0
-1458 -17438 17490 0
-1458 -17439 17491 0
-1458 -17440 17492 0
-1458 -17441 17493 0
-1458 -17442 17494 0
-1458 -17443 17495 0
-1458 -17444 17496 0
-1458 -17445 17497 0
-1458 -17446 17498 0
-1458 -17447 17499 0
-1458 -17448 17500 0
-1458 -17449 17501 0
-1458 -17450 17502 0
-1458 -17451 17503 0
-1458 -17452 17504 0
-1458 -17453 17505 0
-1458 -17454 17506 0
-1458 -17455 17507 0
-1458 -17456 17508 0
-1458 -17457 17509 0
-1458 -17458 17510 0
-1458 -17459 17511 0
-1458 -17460 17512 0
-1458 -17461 17513 0
-1458 -17462 17514 0
-1458 -17463 17515 0
-1458 -17464 17516 0
-1458 -17465 17517 0
-1458 -17466 17518 0
-1458 -17467 17519 0
-1458 -17468 17520 0
-1458 -17469 17521 0
-1458 -17470 17522 0
-1458 -17471 17523 0
-1458 -17472 17524 0
-1458 -17473 17525 0
-1458 -17474 17526 0
-1458 -17475 17527 0
-1458 -17476 17528 0
-1458 -17477 17529 0
-1458 -17478 17530 0
-1458 -17479 17531 0
-1458 -17480 17532 0
-1458 -17481 17533 0
-1458 -17482 17534 0
-1458 -17483 17535 0
-1458 -17484 17536 0
-1458 -17485 17537 0
-1458 -17486 17538 0
-1458 -17487 17539 0
-1458 -17488 0
-17489 17540 0
-17490 17541 0
-17491 17542 0
-17492 17543 0
-17493 17544 0
-17494 17545 0
-17495 17546 0
-17496 17547 0
-17497 17548 0
-17498 17549 0
-17499 17550 0
-17500 17551 0
-17501 17552 0
-17502 17553 0
-17503 17554 0
-17504 17555 0
-17505 17556 0
-17506 17557 0
-17507 17558 0
-17508 17559 0
-17509 17560 0
-17510 17561 0
-17511 17562 0
-17512 17563 0
-17513 17564 0
-17514 17565 0
-17515 17566 0
-17516 17567 0
-17517 17568 0
-17518 17569 0
-17519 17570 0
-17520 17571 0
-17521 17572 0
-17522 17573 0
-17523 17574 0
-17524 17575 0
-17525 17576 0
-17526 17577 0
-17527 17578 0
-17528 17579 0
-17529 17580 0
-17530 17581 0
-17531 17582 0
-17532 17583 0
-17533 17584 0
-17534 17585 0
-17535 17586 0
-17536 17587 0
-17537 17588 0
-17538 17589 0
-17539 17590 0
-1460 -17489 17541 0
-1460 -17490 17542 0
-1460 -17491 17543 0
-1460 -17492 17544 0
-1460 -17493 17545 0
-1460 -17494 17546 0
-1460 -17495 17547 0
-1460 -17496 17548 0
-1460 -17497 17549 0
-1460 -17498 17550 0
-1460 -17499 17551 0
-1460 -17500 17552 0
-1460 -17501 17553 0
-1460 -17502 17554 0
-1460 -17503 17555 0
-1460 -17504 17556 0
-1460 -17505 17557 0
-1460 -17506 17558 0
-1460 -17507 17559 0
-1460 -17508 17560 0
-1460 -17509 17561 0
-1460 -17510 17562 0
-1460 -17511 17563 0
-1460 -17512 17564 0
-1460 -17513 17565 0
-1460 -17514 17566 0
-1460 -17515 17567 0
-1460 -17516 17568 0
-1460 -17517 17569 0
-1460 -17518 17570 0
-1460 -17519 17571 0
-1460 -17520 17572 0
-1460 -17521 17573 0
-1460 -17522 17574 0
-1460 -17523 17575 0
-1460 -17524 17576 0
-1460 -17525 17577 0
-1460 -17526 17578 0
-1460 -17527 17579 0
-1460 -17528 17580 0
-1460 -17529 17581 0
-1460 -17530 17582 0
-1460 -17531 17583 0
-1460 -17532 17584 0
-1460 -17533 17585 0
-1460 -17534 17586 0
-1460 -17535 17587 0
-1460 -17536 17588 0
-1460 -17537 17589 0
-1460 -17538 17590 0
-1460 -17539 0
-17540 17591 0
-17541 17592 0
-17542 17593 0
-17543 17594 0
-17544 17595 0
-17545 17596 0
-17546 17597 0
-17547 17598 0
-17548 17599 0
-17549 17600 0
-17550 17601 0
-17551 17602 0
-17552 17603 0
-17553 17604 0
-17554 17605 0
-17555 17606 0
-17556 17607 0
-17557 17608 0
-17558 17609 0
-17559 17610 0
-17560 17611 0
-17561 17612 0
-17562 17613 0
-17563 17614 0
-17564 17615 0
-17565 17616 0
-17566 17617 0
-17567 17618 0
-17568 17619 0
-17569 17620 0
-17570 17621 0
-17571 17622 0
-17572 17623 0
-17573 17624 0
-17574 17625 0
-17575 17626 0
-17576 17627 0
-17577 17628 0
-17578 17629 0
-17579 17630 0
-17580 17631 0
-17581 17632 0
-17582 17633 0
-17583 17634 0
-17584 17635 0
-17585 17636 0
-17586 17637 0
-17587 17638 0
-17588 17639 0
-17589 17640 0
-17590 17641 0
-1462 -17540 17592 0
-1462 -17541 17593 0
-1462 -17542 17594 0
-1462 -17543 17595 0
-1462 -17544 17596 0
-1462 -17545 17597 0
-1462 -17546 17598 0
-1462 -17547 17599 0
-1462 -17548 17600 0
-1462 -17549 17601 0
-1462 -17550 17602 0
-1462 -17551 17603 0
-1462 -17552 17604 0
-1462 -17553 17605 0
-1462 -17554 17606 0
-1462 -17555 17607 0
-1462 -17556 17608 0
-1462 -17557 17609 0
-1462 -17558 17610 0
-1462 -17559 17611 0
-1462 -17560 17612 0
-1462 -17561 17613 0
-1462 -17562 17614 0
-1462 -17563 17615 0
-1462 -17564 17616 0
-1462 -17565 17617 0
-1462 -17566 17618 0
-1462 -17567 17619 0
-1462 -17568 17620 0
-1462 -17569 17621 0
-1462 -17570 17622 0
-1462 -17571 17623 0
-1462 -17572 17624 0
-1462 -17573 17625 0
-1462 -17574 17626 0
-1462 -17575 17627 0
-1462 -17576 17628 0
-1462 -17577 17629 0
-1462 -17578 17630 0
-1462 -17579 17631 0
-1462 -17580 17632 0
-1462 -17581 17633 0
-1462 -17582 17634 0
-1462 -17583 17635 0
-1462 -17584 17636 0
-1462 -17585 17637 0
-1462 -17586 17638 0
-1462 -17587 17639 0
-1462 -17588 17640 0
-1462 -17589 17641 0
-1462 -17590 0
-17591 17642 0
-17592 17643 0
-17593 17644 0
-17594 17645 0
-17595 17646 0
-17596 17647 0
-17597 17648 0
-17598 17649 0
-17599 17650 0
-17600 17651 0
-17601 17652 0
-17602 17653 0
-17603 17654 0
-17604 17655 0
-17605 17656 0
-17606 17657 0
-17607 17658 0
-17608 17659 0
-17609 17660 0
-17610 17661 0
-17611 17662 0
-17612 17663 0
-17613 17664 0
-17614 17665 0
-17615 17666 0
-17616 17667 0
-17617 17668 0
-17618 17669 0
-17619 17670 0
-17620 17671 0
-17621 17672 0
-17622 17673 0
-17623 17674 0
-17624 17675 0
-17625 17676 0
-17626 17677 0
-17627 17678 0
-17628 17679 0
-17629 17680 0
-17630 17681 0
-17631 17682 0
-17632 17683 0
-17633 17684 0
-17634 17685 0
-17635 17686 0
-17636 17687 0
-17637 17688 0
-17638 17689 0
-17639 17690 0
-17640 17691 0
-17641 17692 0
-1464 -17591 17643 0
-1464 -17592 17644 0
-1464 -17593 17645 0
-1464 -17594 17646 0
-1464 -17595 17647 0
-1464 -17596 17648 0
-1464 -17597 17649 0
-1464 -17598 17650 0
-1464 -17599 17651 0
-1464 -17600 17652 0
-1464 -17601 17653 0
-1464 -17602 17654 0
-1464 -17603 17655 0
-1464 -17604 17656 0
-1464 -17605 17657 0
-1464 -17606 17658 0
-1464 -17607 17659 0
-1464 -17608 17660 0
-1464 -17609 17661 0
-1464 -17610 17662 0
-1464 -17611 17663 0
-1464 -17612 17664 0
-1464 -17613 17665 0
-1464 -17614 17666 0
-1464 -17615 17667 0
-1464 -17616 17668 0
-1464 -17617 17669 0
-1464 -17618 17670 0
-1464 -17619 17671 0
-1464 -17620 17672 0
-1464 -17621 17673 0
-1464 -17622 17674 0
-1464 -17623 17675 0
-1464 -17624 17676 0
-1464 -17625 17677 0
-1464 -17626 17678 0
-1464 -17627 17679 0
-1464 -17628 17680 0
-1464 -17629 17681 0
-1464 -17630 17682 0
-1464 -17631 17683 0
-1464 -17632 17684 0
-1464 -17633 17685 0
-1464 -17634 17686 0
-1464 -17635 17687 0
-1464 -17636 17688 0
-1464 -17637 17689 0
-1464 -17638 17690 0
-1464 -17639 17691 0
-1464 -17640 17692 0
-1464 -17641 0
-17642 17693 0
-17643 17694 0
-17644 17695 0
-17645 17696 0
-17646 17697 0
-17647 17698 0
-17648 17699 0
-17649 17700 0
-17650 17701 0
-17651 17702 0
-17652 17703 0
-17653 17704 0
-17654 17705 0
-17655 17706 0
-17656 17707 0
-17657 17708 0
-17658 17709 0
-17659 17710 0
-17660 17711 0
-17661 17712 0
-17662 17713 0
-17663 17714 0
-17664 17715 0
-17665 17716 0
-17666 17717 0
-17667 17718 0
-17668 17719 0
-17669 17720 0
-17670 17721 0
-17671 17722 0
-17672 17723 0
-17673 17724 0
-17674 17725 0
-17675 17726 0
-17676 17727 0
-17677 17728 0
-17678 17729 0
-17679 17730 0
-17680 17731 0
-17681 17732 0
-17682 17733 0
-17683 17734 0
-17684 17735 0
-17685 17736 0
-17686 17737 0
-17687 17738 0
-17688 17739 0
-17689 17740 0
-17690 17741 0
-17691 17742 0
-17692 17743 0
-1466 -17642 17694 0
-1466 -17643 17695 0
-1466 -17644 17696 0
-1466 -17645 17697 0
-1466 -17646 17698 0
-1466 -17647 17699 0
-1466 -17648 17700 0
-1466 -17649 17701 0
-1466 -17650 17702 0
-1466 -17651 17703 0
-1466 -17652 17704 0
-1466 -17653 17705 0
-1466 -17654 17706 0
-1466 -17655 17707 0
-1466 -17656 17708 0
-1466 -17657 17709 0
-1466 -17658 17710 0
-1466 -17659 17711 0
-1466 -17660 17712 0
-1466 -17661 17713 0
-1466 -17662 17714 0
-1466 -17663 17715 0
-1466 -17664 17716 0
-1466 -17665 17717 0
-1466 -17666 17718 0
-1466 -17667 17719 0
-1466 -17668 17720 0
-1466 -17669 17721 0
-1466 -17670 17722 0
-1466 -17671 17723 0
-1466 -17672 17724 0
-1466 -17673 17725 0
-1466 -17674 17726 0
-1466 -17675 17727 0
-1466 -17676 17728 0
-1466 -17677 17729 0
-1466 -17678 17730 0
-1466 -17679 17731 0
-1466 -17680 17732 0
-1466 -17681 17733 0
-1466 -17682 17734 0
-1466 -17683 17735 0
-1466 -17684 17736 0
-1466 -17685 17737 0
-1466 -17686 17738 0
-1466 -17687 17739 0
-1466 -17688 17740 0
-1466 -17689 17741 0
-1466 -17690 17742 0
-1466 -17691 17743 0
-1466 -17692 0
-17693 17744 0
-17694 17745 0
-17695 17746 0
-17696 17747 0
-17697 17748 0
-17698 17749 0
-17699 17750 0
-17700 17751 0
-17701 17752 0
-17702 17753 0
-17703 17754 0
-17704 17755 0
-17705 17756 0
-17706 17757 0
-17707 17758 0
-17708 17759 0
-17709 17760 0
-17710 17761 0
-17711 17762 0
-17712 17763 0
-17713 17764 0
-17714 17765 0
-17715 17766 0
-17716 17767 0
-17717 17768 0
-17718 17769 0
-17719 17770 0
-17720 17771 0
-17721 17772 0
-17722 17773 0
-17723 17774 0
-17724 17775 0
-17725 17776 0
-17726 17777 0
-17727 17778 0
-17728 17779 0
-17729 17780 0
-17730 17781 0
-17731 17782 0
-17732 17783 0
-17733 17784 0
-17734 17785 0
-17735 17786 0
-17736 17787 0
-17737 17788 0
-17738 17789 0
-17739 17790 0
-17740 17791 0
-17741 17792 0
-17742 17793 0
-17743 17794 0
-1468 -17693 17745 0
-1468 -17694 17746 0
-1468 -17695 17747 0
-1468 -17696 17748 0
-1468 -17697 17749 0
-1468 -17698 17750 0
-1468 -17699 17751 0
-1468 -17700 17752 0
-1468 -17701 17753 0
-1468 -17702 17754 0
-1468 -17703 17755 0
-1468 -17704 17756 0
-1468 -17705 17757 0
-1468 -17706 17758 0
-1468 -17707 17759 0
-1468 -17708 17760 0
-1468 -17709 17761 0
-1468 -17710 17762 0
-1468 -17711 17763 0
-1468 -17712 17764 0
-1468 -17713 17765 0
-1468 -17714 17766 0
-1468 -17715 17767 0
-1468 -17716 17768 0
-1468 -17717 17769 0
-1468 -17718 17770 0
-1468 -17719 17771 0
-1468 -17720 17772 0
-1468 -17721 17773 0
-1468 -17722 17774 0
-1468 -17723 17775 0
-1468 -17724 17776 0
-1468 -17725 17777 0
-1468 -17726 17778 0
-1468 -17727 17779 0
-1468 -17728 17780 0
-1468 -17729 17781 0
-1468 -17730 17782 0
-1468 -17731 17783 0
-1468 -17732 17784 0
-1468 -17733 17785 0
-1468 -17734 17786 0
-1468 -17735 17787 0
-1468 -17736 17788 0
-1468 -17737 17789 0
-1468 -17738 17790 0
-1468 -17739 17791 0
-1468 -17740 17792 0
-1468 -17741 17793 0
-1468 -17742 17794 0
-1468 -17743 0
-17744 17795 0
-17745 17796 0
-17746 17797 0
-17747 17798 0
-17748 17799 0
-17749 17800 0
-17750 17801 0
-17751 17802 0
-17752 17803 0
-17753 17804 0
-17754 17805 0
-17755 17806 0
-17756 17807 0
-17757 17808 0
-17758 17809 0
-17759 17810 0
-17760 17811 0
-17761 17812 0
-17762 17813 0
-17763 17814 0
-17764 17815 0
-17765 17816 0
-17766 17817 0
-17767 17818 0
-17768 17819 0
-17769 17820 0
-17770 17821 0
-17771 17822 0
-17772 17823 0
-17773 17824 0
-17774 17825 0
-17775 17826 0
-17776 17827 0
-17777 17828 0
-17778 17829 0
-17779 17830 0
-17780 17831 0
-17781 17832 0
-17782 17833 0
-17783 17834 0
-17784 17835 0
-17785 17836 0
-17786 17837 0
-17787 17838 0
-17788 17839 0
-17789 17840 0
-17790 17841 0
-17791 17842 0
-17792 17843 0
-17793 17844 0
-17794 17845 0
-1470 -17744 17796 0
-1470 -17745 17797 0
-1470 -17746 17798 0
-1470 -17747 17799 0
-1470 -17748 17800 0
-1470 -17749 17801 0
-1470 -17750 17802 0
-1470 -17751 17803 0
-1470 -17752 17804 0
-1470 -17753 17805 0
-1470 -17754 17806 0
-1470 -17755 17807 0
-1470 -17756 17808 0
-1470 -17757 17809 0
-1470 -17758 17810 0
-1470 -17759 17811 0
-1470 -17760 17812 0
-1470 -17761 17813 0
-1470 -17762 17814 0
-1470 -17763 17815 0
-1470 -17764 17816 0
-1470 -17765 17817 0
-1470 -17766 17818 0
-1470 -17767 17819 0
-1470 -17768 17820 0
-1470 -17769 17821 0
-1470 -17770 17822 0
-1470 -17771 17823 0
-1470 -17772 17824 0
-1470 -17773 17825 0
-1470 -17774 17826 0
-1470 -17775 17827 0
-1470 -17776 17828 0
-1470 -17777 17829 0
-1470 -17778 17830 0
-1470 -17779 17831 0
-1470 -17780 17832 0
-1470 -17781 17833 0
-1470 -17782 17834 0
-1470 -17783 17835 0
-1470 -17784 17836 0
-1470 -17785 17837 0
-1470 -17786 17838 0
-1470 -17787 17839 0
-1470 -17788 17840 0
-1470 -17789 17841 0
-1470 -17790 17842 0
-1470 -17791 17843 0
-1470 -17792 17844 0
-1470 -17793 17845 0
-1470 -17794 0
-17795 17846 0
-17796 17847 0
-17797 17848 0
-17798 17849 0
-17799 17850 0
-17800 17851 0
-17801 17852 0
-17802 17853 0
-17803 17854 0
-17804 17855 0
-17805 17856 0
-17806 17857 0
-17807 17858 0
-17808 17859 0
-17809 17860 0
-17810 17861 0
-17811 17862 0
-17812 17863 0
-17813 17864 0
-17814 17865 0
-17815 17866 0
-17816 17867 0
-17817 17868 0
-17818 17869 0
-17819 17870 0
-17820 17871 0
-17821 17872 0
-17822 17873 0
-17823 17874 0
-17824 17875 0
-17825 17876 0
-17826 17877 0
-17827 17878 0
-17828 17879 0
-17829 17880 0
-17830 17881 0
-17831 17882 0
-17832 17883 0
-17833 17884 0
-17834 17885 0
-17835 17886 0
-17836 17887 0
-17837 17888 0
-17838 17889 0
-17839 17890 0
-17840 17891 0
-17841 17892 0
-17842 17893 0
-17843 17894 0
-17844 17895 0
-17845 17896 0
-1472 -17795 17847 0
-1472 -17796 17848 0
-1472 -17797 17849 0
-1472 -17798 17850 0
-1472 -17799 17851 0
-1472 -17800 17852 0
-1472 -17801 17853 0
-1472 -17802 17854 0
-1472 -17803 17855 0
-1472 -17804 17856 0
-1472 -17805 17857 0
-1472 -17806 17858 0
-1472 -17807 17859 0
-1472 -17808 17860 0
-1472 -17809 17861 0
-1472 -17810 17862 0
-1472 -17811 17863 0
-1472 -17812 17864 0
-1472 -17813 17865 0
-1472 -17814 17866 0
-1472 -17815 17867 0
-1472 -17816 17868 0
-1472 -17817 17869 0
-1472 -17818 17870 0
-1472 -17819 17871 0
-1472 -17820 17872 0
-1472 -17821 17873 0
-1472 -17822 17874 0
-1472 -17823 17875 0
-1472 -17824 17876 0
-1472 -17825 17877 0
-1472 -17826 17878 0
-1472 -17827 17879 0
-1472 -17828 17880 0
-1472 -17829 17881 0
-1472 -17830 17882 0
-1472 -17831 17883 0
-1472 -17832 17884 0
-1472 -17833 17885 0
-1472 -17834 17886 0
-1472 -17835 17887 0
-1472 -17836 17888 0
-1472 -17837 17889 0
-1472 -17838 17890 0
-1472 -17839 17891 0
-1472 -17840 17892 0
-1472 -17841 17893 0
-1472 -17842 17894 0
-1472 -17843 17895 0
-1472 -17844 17896 0
-1472 -17845 0
-17846 17897 0
-17847 17898 0
-17848 17899 0
-17849 17900 0
-17850 17901 0
-17851 17902 0
-17852 17903 0
-17853 17904 0
-17854 17905 0
-17855 17906 0
-17856 17907 0
-17857 17908 0
-17858 17909 0
-17859 17910 0
-17860 17911 0
-17861 17912 0
-17862 17913 0
-17863 17914 0
-17864 17915 0
-17865 17916 0
-17866 17917 0
-17867 17918 0
-17868 17919 0
-17869 17920 0
-17870 17921 0
-17871 17922 0
-17872 17923 0
-17873 17924 0
-17874 17925 0
-17875 17926 0
-17876 17927 0
-17877 17928 0
-17878 17929 0
-17879 17930 0
-17880 17931 0
-17881 17932 0
-17882 17933 0
-17883 17934 0
-17884 17935 0
-17885 17936 0
-17886 17937 0
-17887 17938 0
-17888 17939 0
-17889 17940 0
-17890 17941 0
-17891 17942 0
-17892 17943 0
-17893 17944 0
-17894 17945 0
-17895 17946 0
-17896 17947 0
-1474 -17846 17898 0
-1474 -17847 17899 0
-1474 -17848 17900 0
-1474 -17849 17901 0
-1474 -17850 17902 0
-1474 -17851 17903 0
-1474 -17852 17904 0
-1474 -17853 17905 0
-1474 -17854 17906 0
-1474 -17855 17907 0
-1474 -17856 17908 0
-1474 -17857 17909 0
-1474 -17858 17910 0
-1474 -17859 17911 0
-1474 -17860 17912 0
-1474 -17861 17913 0
-1474 -17862 17914 0
-1474 -17863 17915 0
-1474 -17864 17916 0
-1474 -17865 17917 0
-1474 -17866 17918 0
-1474 -17867 17919 0
-1474 -17868 17920 0
-1474 -17869 17921 0
-1474 -17870 17922 0
-1474 -17871 17923 0
-1474 -17872 17924 0
-1474 -17873 17925 0
-1474 -17874 17926 0
-1474 -17875 17927 0
-1474 -17876 17928 0
-1474 -17877 17929 0
-1474 -17878 17930 0
-1474 -17879 17931 0
-1474 -17880 17932 0
-1474 -17881 17933 0
-1474 -17882 17934 0
-1474 -17883 17935 0
-1474 -17884 17936 0
-1474 -17885 17937 0
-1474 -17886 17938 0
-1474 -17887 17939 0
-1474 -17888 17940 0
-1474 -17889 17941 0
-1474 -17890 17942 0
-1474 -17891 17943 0
-1474 -17892 17944 0
-1474 -17893 17945 0
-1474 -17894 17946 0
-1474 -17895 17947 0
-1474 -17896 0
-17897 17948 0
-17898 17949 0
-17899 17950 0
-17900 17951 0
-17901 17952 0
-17902 17953 0
-17903 17954 0
-17904 17955 0
-17905 17956 0
-17906 17957 0
-17907 17958 0
-17908 17959 0
-17909 17960 0
-17910 17961 0
-17911 17962 0
-17912 17963 0
-17913 17964 0
-17914 17965 0
-17915 17966 0
-17916 17967 0
-17917 17968 0
-17918 17969 0
-17919 17970 0
-17920 17971 0
-17921 17972 0
-17922 17973 0
-17923 17974 0
-17924 17975 0
-17925 17976 0
-17926 17977 0
-17927 17978 0
-17928 17979 0
-17929 17980 0
-17930 17981 0
-17931 17982 0
-17932 17983 0
-17933 17984 0
-17934 17985 0
-17935 17986 0
-17936 17987 0
-17937 17988 0
-17938 17989 0
-17939 17990 0
-17940 17991 0
-17941 17992 0
-17942 17993 0
-17943 17994 0
-17944 17995 0
-17945 17996 0
-17946 17997 0
-17947 17998 0
-1476 -17897 17949 0
-1476 -17898 17950 0
-1476 -17899 17951 0
-1476 -17900 17952 0
-1476 -17901 17953 0
-1476 -17902 17954 0
-1476 -17903 17955 0
-1476 -17904 17956 0
-1476 -17905 17957 0
-1476 -17906 17958 0
-1476 -17907 17959 0
-1476 -17908 17960 0
-1476 -17909 17961 0
-1476 -17910 17962 0
-1476 -17911 17963 0
-1476 -17912 17964 0
-1476 -17913 17965 0
-1476 -17914 17966 0
-1476 -17915 17967 0
-1476 -17916 17968 0
-1476 -17917 17969 0
-1476 -17918 17970 0
-1476 -17919 17971 0
-1476 -17920 17972 0
-1476 -17921 17973 0
-1476 -17922 17974 0
-1476 -17923 17975 0
-1476 -17924 17976 0
-1476 -17925 17977 0
-1476 -17926 17978 0
-1476 -17927 17979 0
-1476 -17928 17980 0
-1476 -17929 17981 0
-1476 -17930 17982 0
-1476 -17931 17983 0
-1476 -17932 17984 0
-1476 -17933 17985 0
-1476 -17934 17986 0
-1476 -17935 17987 0
-1476 -17936 17988 0
-1476 -17937 17989 0
-1476 -17938 17990 0
-1476 -17939 17991 0
-1476 -17940 17992 0
-1476 -17941 17993 0
-1476 -17942 17994 0
-1476 -17943 17995 0
-1476 -17944 17996 0
-1476 -17945 17997 0
-1476 -17946 17998 0
-1476 -17947 0
-17948 17999 0
-17949 18000 0
-17950 18001 0
-17951 18002 0
-17952 18003 0
-17953 18004 0
-17954 18005 0
-17955 18006 0
-17956 18007 0
-17957 18008 0
-17958 18009 0
-17959 18010 0
-17960 18011 0
-17961 18012 0
-17962 18013 0
-17963 18014 0
-17964 18015 0
-17965 18016 0
-17966 18017 0
-17967 18018 0
-17968 18019 0
-17969 18020 0
-17970 18021 0
-17971 18022 0
-17972 18023 0
-17973 18024 0
-17974 18025 0
-17975 18026 0
-17976 18027 0
-17977 18028 0
-17978 18029 0
-17979 18030 0
-17980 18031 0
-17981 18032 0
-17982 18033 0
-17983 18034 0
-17984 18035 0
-17985 18036 0
-17986 18037 0
-17987 18038 0
-17988 18039 0
-17989 18040 0
-17990 18041 0
-17991 18042 0
-17992 18043 0
-17993 18044 0
-17994 18045 0
-17995 18046 0
-17996 18047 0
-17997 18048 0
-17998 18049 0
-1478 -17948 18000 0
-1478 -17949 18001 0
-1478 -17950 18002 0
-1478 -17951 18003 0
-1478 -17952 18004 0
-1478 -17953 18005 0
-1478 -17954 18006 0
-1478 -17955 18007 0
-1478 -17956 18008 0
-1478 -17957 18009 0
-1478 -17958 18010 0
-1478 -17959 18011 0
-1478 -17960 18012 0
-1478 -17961 18013 0
-1478 -17962 18014 0
-1478 -17963 18015 0
-1478 -17964 18016 0
-1478 -17965 18017 0
-1478 -17966 18018 0
-1478 -17967 18019 0
-1478 -17968 18020 0
-1478 -17969 18021 0
-1478 -17970 18022 0
-1478 -17971 18023 0
-1478 -17972 18024 0
-1478 -17973 18025 0
-1478 -17974 18026 0
-1478 -17975 18027 0
-1478 -17976 18028 0
-1478 -17977 18029 0
-1478 -17978 18030 0
-1478 -17979 18031 0
-1478 -17980 18032 0
-1478 -17981 18033 0
-1478 -17982 18034 0
-1478 -17983 18035 0
-1478 -17984 18036 0
-1478 -17985 18037 0
-1478 -17986 18038 0
-1478 -17987 18039 0
-1478 -17988 18040 0
-1478 -17989 18041 0
-1478 -17990 18042 0
-1478 -17991 18043 0
-1478 -17992 18044 0
-1478 -17993 18045 0
-1478 -17994 18046 0
-1478 -17995 18047 0
-1478 -17996 18048 0
-1478 -17997 18049 0
-1478 -17998 0
-17999 18050 0
-18000 18051 0
-18001 18052 0
-18002 18053 0
-18003 18054 0
-18004 18055 0
-18005 18056 0
-18006 18057 0
-18007 18058 0
-18008 18059 0
-18009 18060 0
-18010 18061 0
-18011 18062 0
-18012 18063 0
-18013 18064 0
-18014 18065 0
-18015 18066 0
-18016 18067 0
-18017 18068 0
-18018 18069 0
-18019 18070 0
-18020 18071 0
-18021 18072 0
-18022 18073 0
-18023 18074 0
-18024 18075 0
-18025 18076 0
-18026 18077 0
-18027 18078 0
-18028 18079 0
-18029 18080 0
-18030 18081 0
-18031 18082 0
-18032 18083 0
-18033 18084 0
-18034 18085 0
-18035 18086 0
-18036 18087 0
-18037 18088 0
-18038 18089 0
-18039 18090 0
-18040 18091 0
-18041 18092 0
-18042 18093 0
-18043 18094 0
-18044 18095 0
-18045 18096 0
-18046 18097 0
-18047 18098 0
-18048 18099 0
-18049 18100 0
-1480 -17999 18051 0
-1480 -18000 18052 0
-1480 -18001 18053 0
-1480 -18002 18054 0
-1480 -18003 18055 0
-1480 -18004 18056 0
-1480 -18005 18057 0
-1480 -18006 18058 0
-1480 -18007 18059 0
-1480 -18008 18060 0
-1480 -18009 18061 0
-1480 -18010 18062 0
-1480 -18011 18063 0
-1480 -18012 18064 0
-1480 -18013 18065 0
-1480 -18014 18066 0
-1480 -18015 18067 0
-1480 -18016 18068 0
-1480 -18017 18069 0
-1480 -18018 18070 0
-1480 -18019 18071 0
-1480 -18020 18072 0
-1480 -18021 18073 0
-1480 -18022 18074 0
-1480 -18023 18075 0
-1480 -18024 18076 0
-1480 -18025 18077 0
-1480 -18026 18078 0
-1480 -18027 18079 0
-1480 -18028 18080 0
-1480 -18029 18081 0
-1480 -18030 18082 0
-1480 -18031 18083 0
-1480 -18032 18084 0
-1480 -18033 18085 0
-1480 -18034 18086 0
-1480 -18035 18087 0
-1480 -18036 18088 0
-1480 -18037 18089 0
-1480 -18038 18090 0
-1480 -18039 18091 0
-1480 -18040 18092 0
-1480 -18041 18093 0
-1480 -18042 18094 0
-1480 -18043 18095 0
-1480 -18044 18096 0
-1480 -18045 18097 0
-1480 -18046 18098 0
-1480 -18047 18099 0
-1480 -18048 18100 0
-1480 -18049 0
-18050 18101 0
-18051 18102 0
-18052 18103 0
-18053 18104 0
-18054 18105 0
-18055 18106 0
-18056 18107 0
-18057 18108 0
-18058 18109 0
-18059 18110 0
-18060 18111 0
-18061 18112 0
-18062 18113 0
-18063 18114 0
-18064 18115 0
-18065 18116 0
-18066 18117 0
-18067 18118 0
-18068 18119 0
-18069 18120 0
-18070 18121 0
-18071 18122 0
-18072 18123 0
-18073 18124 0
-18074 18125 0
-18075 18126 0
-18076 18127 0
-18077 18128 0
-18078 18129 0
-18079 18130 0
-18080 18131 0
-18081 18132 0
-18082 18133 0
-18083 18134 0
-18084 18135 0
-18085 18136 0
-18086 18137 0
-18087 18138 0
-18088 18139 0
-18089 18140 0
-18090 18141 0
-18091 18142 0
-18092 18143 0
-18093 18144 0
-18094 18145 0
-18095 18146 0
-18096 18147 0
-18097 18148 0
-18098 18149 0
-18099 18150 0
-18100 18151 0
-1482 -18050 18102 0
-1482 -18051 18103 0
-1482 -18052 18104 0
-1482 -18053 18105 0
-1482 -18054 18106 0
-1482 -18055 18107 0
-1482 -18056 18108 0
-1482 -18057 18109 0
-1482 -18058 18110 0
-1482 -18059 18111 0
-1482 -18060 18112 0
-1482 -18061 18113 0
-1482 -18062 18114 0
-1482 -18063 18115 0
-1482 -18064 18116 0
-1482 -18065 18117 0
-1482 -18066 18118 0
-1482 -18067 18119 0
-1482 -18068 18120 0
-1482 -18069 18121 0
-1482 -18070 18122 0
-1482 -18071 18123 0
-1482 -18072 18124 0
-1482 -18073 18125 0
-1482 -18074 18126 0
-1482 -18075 18127 0
-1482 -18076 18128 0
-1482 -18077 18129 0
-1482 -18078 18130 0
-1482 -18079 18131 0
-1482 -18080 18132 0
-1482 -18081 18133 0
-1482 -18082 18134 0
-1482 -18083 18135 0
-1482 -18084 18136 0
-1482 -18085 18137 0
-1482 -18086 18138 0
-1482 -18087 18139 0
-1482 -18088 18140 0
-1482 -18089 18141 0
-1482 -18090 18142 0
-1482 -18091 18143 0
-1482 -18092 18144 0
-1482 -18093 18145 0
-1482 -18094 18146 0
-1482 -18095 18147 0
-1482 -18096 18148 0
-1482 -18097 18149 0
-1482 -18098 18150 0
-1482 -18099 18151 0
-1482 -18100 0
-18101 18152 0
-18102 18153 0
-18103 18154 0
-18104 18155 0
-18105 18156 0
-18106 18157 0
-18107 18158 0
-18108 18159 0
-18109 18160 0
-18110 18161 0
-18111 18162 0
-18112 18163 0
-18113 18164 0
-18114 18165 0
-18115 18166 0
-18116 18167 0
-18117 18168 0
-18118 18169 0
-18119 18170 0
-18120 18171 0
-18121 18172 0
-18122 18173 0
-18123 18174 0
-18124 18175 0
-18125 18176 0
-18126 18177 0
-18127 18178 0
-18128 18179 0
-18129 18180 0
-18130 18181 0
-18131 18182 0
-18132 18183 0
-18133 18184 0
-18134 18185 0
-18135 18186 0
-18136 18187 0
-18137 18188 0
-18138 18189 0
-18139 18190 0
-18140 18191 0
-18141 18192 0
-18142 18193 0
-18143 18194 0
-18144 18195 0
-18145 18196 0
-18146 18197 0
-18147 18198 0
-18148 18199 0
-18149 18200 0
-18150 18201 0
-18151 18202 0
-1484 -18101 18153 0
-1484 -18102 18154 0
-1484 -18103 18155 0
-1484 -18104 18156 0
-1484 -18105 18157 0
-1484 -18106 18158 0
-1484 -18107 18159 0
-1484 -18108 18160 0
-1484 -18109 18161 0
-1484 -18110 18162 0
-1484 -18111 18163 0
-1484 -18112 18164 0
-1484 -18113 18165 0
-1484 -18114 18166 0
-1484 -18115 18167 0
-1484 -18116 18168 0
-1484 -18117 18169 0
-1484 -18118 18170 0
-1484 -18119 18171 0
-1484 -18120 18172 0
-1484 -18121 18173 0
-1484 -18122 18174 0
-1484 -18123 18175 0
-1484 -18124 18176 0
-1484 -18125 18177 0
-1484 -18126 18178 0
-1484 -18127 18179 0
-1484 -18128 18180 0
-1484 -18129 18181 0
-1484 -18130 18182 0
-1484 -18131 18183 0
-1484 -18132 18184 0
-1484 -18133 18185 0
-1484 -18134 18186 0
-1484 -18135 18187 0
-1484 -18136 18188 0
-1484 -18137 18189 0
-1484 -18138 18190 0
-1484 -18139 18191 0
-1484 -18140 18192 0
-1484 -18141 18193 0
-1484 -18142 18194 0
-1484 -18143 18195 0
-1484 -18144 18196 0
-1484 -18145 18197 0
-1484 -18146 18198 0
-1484 -18147 18199 0
-1484 -18148 18200 0
-1484 -18149 18201 0
-1484 -18150 18202 0
-1484 -18151 0
-18152 18203 0
-18153 18204 0
-18154 18205 0
-18155 18206 0
-18156 18207 0
-18157 18208 0
-18158 18209 0
-18159 18210 0
-18160 18211 0
-18161 18212 0
-18162 18213 0
-18163 18214 0
-18164 18215 0
-18165 18216 0
-18166 18217 0
-18167 18218 0
-18168 18219 0
-18169 18220 0
-18170 18221 0
-18171 18222 0
-18172 18223 0
-18173 18224 0
-18174 18225 0
-18175 18226 0
-18176 18227 0
-18177 18228 0
-18178 18229 0
-18179 18230 0
-18180 18231 0
-18181 18232 0
-18182 18233 0
-18183 18234 0
-18184 18235 0
-18185 18236 0
-18186 18237 0
-18187 18238 0
-18188 18239 0
-18189 18240 0
-18190 18241 0
-18191 18242 0
-18192 18243 0
-18193 18244 0
-18194 18245 0
-18195 18246 0
-18196 18247 0
-18197 18248 0
-18198 18249 0
-18199 18250 0
-18200 18251 0
-18201 18252 0
-18202 18253 0
-1486 -18152 18204 0
-1486 -18153 18205 0
-1486 -18154 18206 0
-1486 -18155 18207 0
-1486 -18156 18208 0
-1486 -18157 18209 0
-1486 -18158 18210 0
-1486 -18159 18211 0
-1486 -18160 18212 0
-1486 -18161 18213 0
-1486 -18162 18214 0
-1486 -18163 18215 0
-1486 -18164 18216 0
-1486 -18165 18217 0
-1486 -18166 18218 0
-1486 -18167 18219 0
-1486 -18168 18220 0
-1486 -18169 18221 0
-1486 -18170 18222 0
-1486 -18171 18223 0
-1486 -18172 18224 0
-1486 -18173 18225 0
-1486 -18174 18226 0
-1486 -18175 18227 0
-1486 -18176 18228 0
-1486 -18177 18229 0
-1486 -18178 18230 0
-1486 -18179 18231 0
-1486 -18180 18232 0
-1486 -18181 18233 0
-1486 -18182 18234 0
-1486 -18183 18235 0
-1486 -18184 18236 0
-1486 -18185 18237 0
-1486 -18186 18238 0
-1486 -18187 18239 0
-1486 -18188 18240 0
-1486 -18189 18241 0
-1486 -18190 18242 0
-1486 -18191 18243 0
-1486 -18192 18244 0
-1486 -18193 18245 0
-1486 -18194 18246 0
-1486 -18195 18247 0
-1486 -18196 18248 0
-1486 -18197 18249 0
-1486 -18198 18250 0
-1486 -18199 18251 0
-1486 -18200 18252 0
-1486 -18201 18253 0
-1486 -18202 0
-18203 18254 0
-18204 18255 0
-18205 18256 0
-18206 18257 0
-18207 18258 0
-18208 18259 0
-18209 18260 0
-18210 18261 0
-18211 18262 0
-18212 18263 0
-18213 18264 0
-18214 18265 0
-18215 18266 0
-18216 18267 0
-18217 18268 0
-18218 18269 0
-18219 18270 0
-18220 18271 0
-18221 18272 0
-18222 18273 0
-18223 18274 0
-18224 18275 0
-18225 18276 0
-18226 18277 0
-18227 18278 0
-18228 18279 0
-18229 18280 0
-18230 18281 0
-18231 18282 0
-18232 18283 0
-18233 18284 0
-18234 18285 0
-18235 18286 0
-18236 18287 0
-18237 18288 0
-18238 18289 0
-18239 18290 0
-18240 18291 0
-18241 18292 0
-18242 18293 0
-18243 18294 0
-18244 18295 0
-18245 18296 0
-18246 18297 0
-18247 18298 0
-18248 18299 0
-18249 18300 0
-18250 18301 0
-18251 18302 0
-18252 18303 0
-18253 18304 0
-1488 -18203 18255 0
-1488 -18204 18256 0
-1488 -18205 18257 0
-1488 -18206 18258 0
-1488 -18207 18259 0
-1488 -18208 18260 0
-1488 -18209 18261 0
-1488 -18210 18262 0
-1488 -18211 18263 0
-1488 -18212 18264 0
-1488 -18213 18265 0
-1488 -18214 18266 0
-1488 -18215 18267 0
-1488 -18216 18268 0
-1488 -18217 18269 0
-1488 -18218 18270 0
-1488 -18219 18271 0
-1488 -18220 18272 0
-1488 -18221 18273 0
-1488 -18222 18274 0
-1488 -18223 18275 0
-1488 -18224 18276 0
-1488 -18225 18277 0
-1488 -18226 18278 0
-1488 -18227 18279 0
-1488 -18228 18280 0
-1488 -18229 18281 0
-1488 -18230 18282 0
-1488 -18231 18283 0
-1488 -18232 18284 0
-1488 -18233 18285 0
-1488 -18234 18286 0
-1488 -18235 18287 0
-1488 -18236 18288 0
-1488 -18237 18289 0
-1488 -18238 18290 0
-1488 -18239 18291 0
-1488 -18240 18292 0
-1488 -18241 18293 0
-1488 -18242 18294 0
-1488 -18243 18295 0
-1488 -18244 18296 0
-1488 -18245 18297 0
-1488 -18246 18298 0
-1488 -18247 18299 0
-1488 -18248 18300 0
-1488 -18249 18301 0
-1488 -18250 18302 0
-1488 -18251 18303 0
-1488 -18252 18304 0
-1488 -18253 0
-18254 18305 0
-18255 18306 0
-18256 18307 0
-18257 18308 0
-18258 18309 0
-18259 18310 0
-18260 18311 0
-18261 18312 0
-18262 18313 0
-18263 18314 0
-18264 18315 0
-18265 18316 0
-18266 18317 0
-18267 18318 0
-18268 18319 0
-18269 18320 0
-18270 18321 0
-18271 18322 0
-18272 18323 0
-18273 18324 0
-18274 18325 0
-18275 18326 0
-18276 18327 0
-18277 18328 0
-18278 18329 0
-18279 18330 0
-18280 18331 0
-18281 18332 0
-18282 18333 0
-18283 18334 0
-18284 18335 0
-18285 18336 0
-18286 18337 0
-18287 18338 0
-18288 18339 0
-18289 18340 0
-18290 18341 0
-18291 18342 0
-18292 18343 0
-18293 18344 0
-18294 18345 0
-18295 18346 0
-18296 18347 0
-18297 18348 0
-18298 18349 0
-18299 18350 0
-18300 18351 0
-18301 18352 0
-18302 18353 0
-18303 18354 0
-18304 18355 0
-1490 -18254 18306 0
-1490 -18255 18307 0
-1490 -18256 18308 0
-1490 -18257 18309 0
-1490 -18258 18310 0
-1490 -18259 18311 0
-1490 -18260 18312 0
-1490 -18261 18313 0
-1490 -18262 18314 0
-1490 -18263 18315 0
-1490 -18264 18316 0
-1490 -18265 18317 0
-1490 -18266 18318 0
-1490 -18267 18319 0
-1490 -18268 18320 0
-1490 -18269 18321 0
-1490 -18270 18322 0
-1490 -18271 18323 0
-1490 -18272 18324 0
-1490 -18273 18325 0
-1490 -18274 18326 0
-1490 -18275 18327 0
-1490 -18276 18328 0
-1490 -18277 18329 0
-1490 -18278 18330 0
-1490 -18279 18331 0
-1490 -18280 18332 0
-1490 -18281 18333 0
-1490 -18282 18334 0
-1490 -18283 18335 0
-1490 -18284 18336 0
-1490 -18285 18337 0
-1490 -18286 18338 0
-1490 -18287 18339 0
-1490 -18288 18340 0
-1490 -18289 18341 0
-1490 -18290 18342 0
-1490 -18291 18343 0
-1490 -18292 18344 0
-1490 -18293 18345 0
-1490 -18294 18346 0
-1490 -18295 18347 0
-1490 -18296 18348 0
-1490 -18297 18349 0
-1490 -18298 18350 0
-1490 -18299 18351 0
-1490 -18300 18352 0
-1490 -18301 18353 0
-1490 -18302 18354 0
-1490 -18303 18355 0
-1490 -18304 0
-18305 18356 0
-18306 18357 0
-18307 18358 0
-18308 18359 0
-18309 18360 0
-18310 18361 0
-18311 18362 0
-18312 18363 0
-18313 18364 0
-18314 18365 0
-18315 18366 0
-18316 18367 0
-18317 18368 0
-18318 18369 0
-18319 18370 0
-18320 18371 0
-18321 18372 0
-18322 18373 0
-18323 18374 0
-18324 18375 0
-18325 18376 0
-18326 18377 0
-18327 18378 0
-18328 18379 0
-18329 18380 0
-18330 18381 0
-18331 18382 0
-18332 18383 0
-18333 18384 0
-18334 18385 0
-18335 18386 0
-18336 18387 0
-18337 18388 0
-18338 18389 0
-18339 18390 0
-18340 18391 0
-18341 18392 0
-18342 18393 0
-18343 18394 0
-18344 18395 0
-18345 18396 0
-18346 18397 0
-18347 18398 0
-18348 18399 0
-18349 18400 0
-18350 18401 0
-18351 18402 0
-18352 18403 0
-18353 18404 0
-18354 18405 0
-18355 18406 0
-1492 -18305 18357 0
-1492 -18306 18358 0
-1492 -18307 18359 0
-1492 -18308 18360 0
-1492 -18309 18361 0
-1492 -18310 18362 0
-1492 -18311 18363 0
-1492 -18312 18364 0
-1492 -18313 18365 0
-1492 -18314 18366 0
-1492 -18315 18367 0
-1492 -18316 18368 0
-1492 -18317 18369 0
-1492 -18318 18370 0
-1492 -18319 18371 0
-1492 -18320 18372 0
-1492 -18321 18373 0
-1492 -18322 18374 0
-1492 -18323 18375 0
-1492 -18324 18376 0
-1492 -18325 18377 0
-1492 -18326 18378 0
-1492 -18327 18379 0
-1492 -18328 18380 0
-1492 -18329 18381 0
-1492 -18330 18382 0
-1492 -18331 18383 0
-1492 -18332 18384 0
-1492 -18333 18385 0
-1492 -18334 18386 0
-1492 -18335 18387 0
-1492 -18336 18388 0
-1492 -18337 18389 0
-1492 -18338 18390 0
-1492 -18339 18391 0
-1492 -18340 18392 0
-1492 -18341 18393 0
-1492 -18342 18394 0
-1492 -18343 18395 0
-1492 -18344 18396 0
-1492 -18345 18397 0
-1492 -18346 18398 0
-1492 -18347 18399 0
-1492 -18348 18400 0
-1492 -18349 18401 0
-1492 -18350 18402 0
-1492 -18351 18403 0
-1492 -18352 18404 0
-1492 -18353 18405 0
-1492 -18354 18406 0
-1492 -18355 0
-18356 18407 0
-18357 18408 0
-18358 18409 0
-18359 18410 0
-18360 18411 0
-18361 18412 0
-18362 18413 0
-18363 18414 0
-18364 18415 0
-18365 18416 0
-18366 18417 0
-18367 18418 0
-18368 18419 0
-18369 18420 0
-18370 18421 0
-18371 18422 0
-18372 18423 0
-18373 18424 0
-18374 18425 0
-18375 18426 0
-18376 18427 0
-18377 18428 0
-18378 18429 0
-18379 18430 0
-18380 18431 0
-18381 18432 0
-18382 18433 0
-18383 18434 0
-18384 18435 0
-18385 18436 0
-18386 18437 0
-18387 18438 0
-18388 18439 0
-18389 18440 0
-18390 18441 0
-18391 18442 0
-18392 18443 0
-18393 18444 0
-18394 18445 0
-18395 18446 0
-18396 18447 0
-18397 18448 0
-18398 18449 0
-18399 18450 0
-18400 18451 0
-18401 18452 0
-18402 18453 0
-18403 18454 0
-18404 18455 0
-18405 18456 0
-18406 18457 0
-1494 -18356 18408 0
-1494 -18357 18409 0
-1494 -18358 18410 0
-1494 -18359 18411 0
-1494 -18360 18412 0
-1494 -18361 18413 0
-1494 -18362 18414 0
-1494 -18363 18415 0
-1494 -18364 18416 0
-1494 -18365 18417 0
-1494 -18366 18418 0
-1494 -18367 18419 0
-1494 -18368 18420 0
-1494 -18369 18421 0
-1494 -18370 18422 0
-1494 -18371 18423 0
-1494 -18372 18424 0
-1494 -18373 18425 0
-1494 -18374 18426 0
-1494 -18375 18427 0
-1494 -18376 18428 0
-1494 -18377 18429 0
-1494 -18378 18430 0
-1494 -18379 18431 0
-1494 -18380 18432 0
-1494 -18381 18433 0
-1494 -18382 18434 0
-1494 -18383 18435 0
-1494 -18384 18436 0
-1494 -18385 18437 0
-1494 -18386 18438 0
-1494 -18387 18439 0
-1494 -18388 18440 0
-1494 -18389 18441 0
-1494 -18390 18442 0
-1494 -18391 18443 0
-1494 -18392 18444 0
-1494 -18393 18445 0
-1494 -18394 18446 0
-1494 -18395 18447 0
-1494 -18396 18448 0
-1494 -18397 18449 0
-1494 -18398 18450 0
-1494 -18399 18451 0
-1494 -18400 18452 0
-1494 -18401 18453 0
-1494 -18402 18454 0
-1494 -18403 18455 0
-1494 -18404 18456 0
-1494 -18405 18457 0
-1494 -18406 0
-18407 18458 0
-18408 18459 0
-18409 18460 0
-18410 18461 0
-18411 18462 0
-18412 18463 0
-18413 18464 0
-18414 18465 0
-18415 18466 0
-18416 18467 0
-18417 18468 0
-18418 18469 0
-18419 18470 0
-18420 18471 0
-18421 18472 0
-18422 18473 0
-18423 18474 0
-18424 18475 0
-18425 18476 0
-18426 18477 0
-18427 18478 0
-18428 18479 0
-18429 18480 0
-18430 18481 0
-18431 18482 0
-18432 18483 0
-18433 18484 0
-18434 18485 0
-18435 18486 0
-18436 18487 0
-18437 18488 0
-18438 18489 0
-18439 18490 0
-18440 18491 0
-18441 18492 0
-18442 18493 0
-18443 18494 0
-18444 18495 0
-18445 18496 0
-18446 18497 0
-18447 18498 0
-18448 18499 0
-18449 18500 0
-18450 18501 0
-18451 18502 0
-18452 18503 0
-18453 18504 0
-18454 18505 0
-18455 18506 0
-18456 18507 0
-18457 18508 0
-1496 -18407 18459 0
-1496 -18408 18460 0
-1496 -18409 18461 0
-1496 -18410 18462 0
-1496 -18411 18463 0
-1496 -18412 18464 0
-1496 -18413 18465 0
-1496 -18414 18466 0
-1496 -18415 18467 0
-1496 -18416 18468 0
-1496 -18417 18469 0
-1496 -18418 18470 0
-1496 -18419 18471 0
-1496 -18420 18472 0
-1496 -18421 18473 0
-1496 -18422 18474 0
-1496 -18423 18475 0
-1496 -18424 18476 0
-1496 -18425 18477 0
-1496 -18426 18478 0
-1496 -18427 18479 0
-1496 -18428 18480 0
-1496 -18429 18481 0
-1496 -18430 18482 0
-1496 -18431 18483 0
-1496 -18432 18484 0
-1496 -18433 18485 0
-1496 -18434 18486 0
-1496 -18435 18487 0
-1496 -18436 18488 0
-1496 -18437 18489 0
-1496 -18438 18490 0
-1496 -18439 18491 0
-1496 -18440 18492 0
-1496 -18441 18493 0
-1496 -18442 18494 0
-1496 -18443 18495 0
-1496 -18444 18496 0
-1496 -18445 18497 0
-1496 -18446 18498 0
-1496 -18447 18499 0
-1496 -18448 18500 0
-1496 -18449 18501 0
-1496 -18450 18502 0
-1496 -18451 18503 0
-1496 -18452 18504 0
-1496 -18453 18505 0
-1496 -18454 18506 0
-1496 -18455 18507 0
-1496 -18456 18508 0
-1496 -18457 0
-18458 18509 0
-18459 18510 0
-18460 18511 0
-18461 18512 0
-18462 18513 0
-18463 18514 0
-18464 18515 0
-18465 18516 0
-18466 18517 0
-18467 18518 0
-18468 18519 0
-18469 18520 0
-18470 18521 0
-18471 18522 0
-18472 18523 0
-18473 18524 0
-18474 18525 0
-18475 18526 0
-18476 18527 0
-18477 18528 0
-18478 18529 0
-18479 18530 0
-18480 18531 0
-18481 18532 0
-18482 18533 0
-18483 18534 0
-18484 18535 0
-18485 18536 0
-18486 18537 0
-18487 18538 0
-18488 18539 0
-18489 18540 0
-18490 18541 0
-18491 18542 0
-18492 18543 0
-18493 18544 0
-18494 18545 0
-18495 18546 0
-18496 18547 0
-18497 18548 0
-18498 18549 0
-18499 18550 0
-18500 18551 0
-18501 18552 0
-18502 18553 0
-18503 18554 0
-18504 18555 0
-18505 18556 0
-18506 18557 0
-18507 18558 0
-18508 18559 0
-1498 -18458 18510 0
-1498 -18459 18511 0
-1498 -18460 18512 0
-1498 -18461 18513 0
-1498 -18462 18514 0
-1498 -18463 18515 0
-1498 -18464 18516 0
-1498 -18465 18517 0
-1498 -18466 18518 0
-1498 -18467 18519 0
-1498 -18468 18520 0
-1498 -18469 18521 0
-1498 -18470 18522 0
-1498 -18471 18523 0
-1498 -18472 18524 0
-1498 -18473 18525 0
-1498 -18474 18526 0
-1498 -18475 18527 0
-1498 -18476 18528 0
-1498 -18477 18529 0
-1498 -18478 18530 0
-1498 -18479 18531 0
-1498 -18480 18532 0
-1498 -18481 18533 0
-1498 -18482 18534 0
-1498 -18483 18535 0
-1498 -18484 18536 0
-1498 -18485 18537 0
-1498 -18486 18538 0
-1498 -18487 18539 0
-1498 -18488 18540 0
-1498 -18489 18541 0
-1498 -18490 18542 0
-1498 -18491 18543 0
-1498 -18492 18544 0
-1498 -18493 18545 0
-1498 -18494 18546 0
-1498 -18495 18547 0
-1498 -18496 18548 0
-1498 -18497 18549 0
-1498 -18498 18550 0
-1498 -18499 18551 0
-1498 -18500 18552 0
-1498 -18501 18553 0
-1498 -18502 18554 0
-1498 -18503 18555 0
-1498 -18504 18556 0
-1498 -18505 18557 0
-1498 -18506 18558 0
-1498 -18507 18559 0
-1498 -18508 0
-18509 18560 0
-18510 18561 0
-18511 18562 0
-18512 18563 0
-18513 18564 0
-18514 18565 0
-18515 18566 0
-18516 18567 0
-18517 18568 0
-18518 18569 0
-18519 18570 0
-18520 18571 0
-18521 18572 0
-18522 18573 0
-18523 18574 0
-18524 18575 0
-18525 18576 0
-18526 18577 0
-18527 18578 0
-18528 18579 0
-18529 18580 0
-18530 18581 0
-18531 18582 0
-18532 18583 0
-18533 18584 0
-18534 18585 0
-18535 18586 0
-18536 18587 0
-18537 18588 0
-18538 18589 0
-18539 18590 0
-18540 18591 0
-18541 18592 0
-18542 18593 0
-18543 18594 0
-18544 18595 0
-18545 18596 0
-18546 18597 0
-18547 18598 0
-18548 18599 0
-18549 18600 0
-18550 18601 0
-18551 18602 0
-18552 18603 0
-18553 18604 0
-18554 18605 0
-18555 18606 0
-18556 18607 0
-18557 18608 0
-18558 18609 0
-18559 18610 0
-1500 -18509 18561 0
-1500 -18510 18562 0
-1500 -18511 18563 0
-1500 -18512 18564 0
-1500 -18513 18565 0
-1500 -18514 18566 0
-1500 -18515 18567 0
-1500 -18516 18568 0
-1500 -18517 18569 0
-1500 -18518 18570 0
-1500 -18519 18571 0
-1500 -18520 18572 0
-1500 -18521 18573 0
-1500 -18522 18574 0
-1500 -18523 18575 0
-1500 -18524 18576 0
-1500 -18525 18577 0
-1500 -18526 18578 0
-1500 -18527 18579 0
-1500 -18528 18580 0
-1500 -18529 18581 0
-1500 -18530 18582 0
-1500 -18531 18583 0
-1500 -18532 18584 0
-1500 -18533 18585 0
-1500 -18534 18586 0
-1500 -18535 18587 0
-1500 -18536 18588 0
-1500 -18537 18589 0
-1500 -18538 18590 0
-1500 -18539 18591 0
-1500 -18540 18592 0
-1500 -18541 18593 0
-1500 -18542 18594 0
-1500 -18543 18595 0
-1500 -18544 18596 0
-1500 -18545 18597 0
-1500 -18546 18598 0
-1500 -18547 18599 0
-1500 -18548 18600 0
-1500 -18549 18601 0
-1500 -18550 18602 0
-1500 -18551 18603 0
-1500 -18552 18604 0
-1500 -18553 18605 0
-1500 -18554 18606 0
-1500 -18555 18607 0
-1500 -18556 18608 0
-1500 -18557 18609 0
-1500 -18558 18610 0
-1500 -18559 0
-18560 18611 0
-18561 18612 0
-18562 18613 0
-18563 18614 0
-18564 18615 0
-18565 18616 0
-18566 18617 0
-18567 18618 0
-18568 18619 0
-18569 18620 0
-18570 18621 0
-18571 18622 0
-18572 18623 0
-18573 18624 0
-18574 18625 0
-18575 18626 0
-18576 18627 0
-18577 18628 0
-18578 18629 0
-18579 18630 0
-18580 18631 0
-18581 18632 0
-18582 18633 0
-18583 18634 0
-18584 18635 0
-18585 18636 0
-18586 18637 0
-18587 18638 0
-18588 18639 0
-18589 18640 0
-18590 18641 0
-18591 18642 0
-18592 18643 0
-18593 18644 0
-18594 18645 0
-18595 18646 0
-18596 18647 0
-18597 18648 0
-18598 18649 0
-18599 18650 0
-18600 18651 0
-18601 18652 0
-18602 18653 0
-18603 18654 0
-18604 18655 0
-18605 18656 0
-18606 18657 0
-18607 18658 0
-18608 18659 0
-18609 18660 0
-18610 18661 0
-1502 -18560 18612 0
-1502 -18561 18613 0
-1502 -18562 18614 0
-1502 -18563 18615 0
-1502 -18564 18616 0
-1502 -18565 18617 0
-1502 -18566 18618 0
-1502 -18567 18619 0
-1502 -18568 18620 0
-1502 -18569 18621 0
-1502 -18570 18622 0
-1502 -18571 18623 0
-1502 -18572 18624 0
-1502 -18573 18625 0
-1502 -18574 18626 0
-1502 -18575 18627 0
-1502 -18576 18628 0
-1502 -18577 18629 0
-1502 -18578 18630 0
-1502 -18579 18631 0
-1502 -18580 18632 0
-1502 -18581 18633 0
-1502 -18582 18634 0
-1502 -18583 18635 0
-1502 -18584 18636 0
-1502 -18585 18637 0
-1502 -18586 18638 0
-1502 -18587 18639 0
-1502 -18588 18640 0
-1502 -18589 18641 0
-1502 -18590 18642 0
-1502 -18591 18643 0
-1502 -18592 18644 0
-1502 -18593 18645 0
-1502 -18594 18646 0
-1502 -18595 18647 0
-1502 -18596 18648 0
-1502 -18597 18649 0
-1502 -18598 18650 0
-1502 -18599 18651 0
-1502 -18600 18652 0
-1502 -18601 18653 0
-1502 -18602 18654 0
-1502 -18603 18655 0
-1502 -18604 18656 0
-1502 -18605 18657 0
-1502 -18606 18658 0
-1502 -18607 18659 0
-1502 -18608 18660 0
-1502 -18609 18661 0
-1502 -18610 0
-18611 18662 0
-18612 18663 0
-18613 18664 0
-18614 18665 0
-18615 18666 0
-18616 18667 0
-18617 18668 0
-18618 18669 0
-18619 18670 0
-18620 18671 0
-18621 18672 0
-18622 18673 0
-18623 18674 0
-18624 18675 0
-18625 18676 0
-18626 18677 0
-18627 18678 0
-18628 18679 0
-18629 18680 0
-18630 18681 0
-18631 18682 0
-18632 18683 0
-18633 18684 0
-18634 18685 0
-18635 18686 0
-18636 18687 0
-18637 18688 0
-18638 18689 0
-18639 18690 0
-18640 18691 0
-18641 18692 0
-18642 18693 0
-18643 18694 0
-18644 18695 0
-18645 18696 0
-18646 18697 0
-18647 18698 0
-18648 18699 0
-18649 18700 0
-18650 18701 0
-18651 18702 0
-18652 18703 0
-18653 18704 0
-18654 18705 0
-18655 18706 0
-18656 18707 0
-18657 18708 0
-18658 18709 0
-18659 18710 0
-18660 18711 0
-18661 18712 0
-1504 -18611 18663 0
-1504 -18612 18664 0
-1504 -18613 18665 0
-1504 -18614 18666 0
-1504 -18615 18667 0
-1504 -18616 18668 0
-1504 -18617 18669 0
-1504 -18618 18670 0
-1504 -18619 18671 0
-1504 -18620 18672 0
-1504 -18621 18673 0
-1504 -18622 18674 0
-1504 -18623 18675 0
-1504 -18624 18676 0
-1504 -18625 18677 0
-1504 -18626 18678 0
-1504 -18627 18679 0
-1504 -18628 18680 0
-1504 -18629 18681 0
-1504 -18630 18682 0
-1504 -18631 18683 0
-1504 -18632 18684 0
-1504 -18633 18685 0
-1504 -18634 18686 0
-1504 -18635 18687 0
-1504 -18636 18688 0
-1504 -18637 18689 0
-1504 -18638 18690 0
-1504 -18639 18691 0
-1504 -18640 18692 0
-1504 -18641 18693 0
-1504 -18642 18694 0
-1504 -18643 18695 0
-1504 -18644 18696 0
-1504 -18645 18697 0
-1504 -18646 18698 0
-1504 -18647 18699 0
-1504 -18648 18700 0
-1504 -18649 18701 0
-1504 -18650 18702 0
-1504 -18651 18703 0
-1504 -18652 18704 0
-1504 -18653 18705 0
-1504 -18654 18706 0
-1504 -18655 18707 0
-1504 -18656 18708 0
-1504 -18657 18709 0
-1504 -18658 18710 0
-1504 -18659 18711 0
-1504 -18660 18712 0
-1504 -18661 0
-18662 18713 0
-18663 18714 0
-18664 18715 0
-18665 18716 0
-18666 18717 0
-18667 18718 0
-18668 18719 0
-18669 18720 0
-18670 18721 0
-18671 18722 0
-18672 18723 0
-18673 18724 0
-18674 18725 0
-18675 18726 0
-18676 18727 0
-18677 18728 0
-18678 18729 0
-18679 18730 0
-18680 18731 0
-18681 18732 0
-18682 18733 0
-18683 18734 0
-18684 18735 0
-18685 18736 0
-18686 18737 0
-18687 18738 0
-18688 18739 0
-18689 18740 0
-18690 18741 0
-18691 18742 0
-18692 18743 0
-18693 18744 0
-18694 18745 0
-18695 18746 0
-18696 18747 0
-18697 18748 0
-18698 18749 0
-18699 18750 0
-18700 18751 0
-18701 18752 0
-18702 18753 0
-18703 18754 0
-18704 18755 0
-18705 18756 0
-18706 18757 0
-18707 18758 0
-18708 18759 0
-18709 18760 0
-18710 18761 0
-18711 18762 0
-18712 18763 0
-1506 -18662 18714 0
-1506 -18663 18715 0
-1506 -18664 18716 0
-1506 -18665 18717 0
-1506 -18666 18718 0
-1506 -18667 18719 0
-1506 -18668 18720 0
-1506 -18669 18721 0
-1506 -18670 18722 0
-1506 -18671 18723 0
-1506 -18672 18724 0
-1506 -18673 18725 0
-1506 -18674 18726 0
-1506 -18675 18727 0
-1506 -18676 18728 0
-1506 -18677 18729 0
-1506 -18678 18730 0
-1506 -18679 18731 0
-1506 -18680 18732 0
-1506 -18681 18733 0
-1506 -18682 18734 0
-1506 -18683 18735 0
-1506 -18684 18736 0
-1506 -18685 18737 0
-1506 -18686 18738 0
-1506 -18687 18739 0
-1506 -18688 18740 0
-1506 -18689 18741 0
-1506 -18690 18742 0
-1506 -18691 18743 0
-1506 -18692 18744 0
-1506 -18693 18745 0
-1506 -18694 18746 0
-1506 -18695 18747 0
-1506 -18696 18748 0
-1506 -18697 18749 0
-1506 -18698 18750 0
-1506 -18699 18751 0
-1506 -18700 18752 0
-1506 -18701 18753 0
-1506 -18702 18754 0
-1506 -18703 18755 0
-1506 -18704 18756 0
-1506 -18705 18757 0
-1506 -18706 18758 0
-1506 -18707 18759 0
-1506 -18708 18760 0
-1506 -18709 18761 0
-1506 -18710 18762 0
-1506 -18711 18763 0
-1506 -18712 0
-18713 18764 0
-18714 18765 0
-18715 18766 0
-18716 18767 0
-18717 18768 0
-18718 18769 0
-18719 18770 0
-18720 18771 0
-18721 18772 0
-18722 18773 0
-18723 18774 0
-18724 18775 0
-18725 18776 0
-18726 18777 0
-18727 18778 0
-18728 18779 0
-18729 18780 0
-18730 18781 0
-18731 18782 0
-18732 18783 0
-18733 18784 0
-18734 18785 0
-18735 18786 0
-18736 18787 0
-18737 18788 0
-18738 18789 0
-18739 18790 0
-18740 18791 0
-18741 18792 0
-18742 18793 0
-18743 18794 0
-18744 18795 0
-18745 18796 0
-18746 18797 0
-18747 18798 0
-18748 18799 0
-18749 18800 0
-18750 18801 0
-18751 18802 0
-18752 18803 0
-18753 18804 0
-18754 18805 0
-18755 18806 0
-18756 18807 0
-18757 18808 0
-18758 18809 0
-18759 18810 0
-18760 18811 0
-18761 18812 0
-18762 18813 0
-18763 18814 0
-1508 -18713 18765 0
-1508 -18714 18766 0
-1508 -18715 18767 0
-1508 -18716 18768 0
-1508 -18717 18769 0
-1508 -18718 18770 0
-1508 -18719 18771 0
-1508 -18720 18772 0
-1508 -18721 18773 0
-1508 -18722 18774 0
-1508 -18723 18775 0
-1508 -18724 18776 0
-1508 -18725 18777 0
-1508 -18726 18778 0
-1508 -18727 18779 0
-1508 -18728 18780 0
-1508 -18729 18781 0
-1508 -18730 18782 0
-1508 -18731 18783 0
-1508 -18732 18784 0
-1508 -18733 18785 0
-1508 -18734 18786 0
-1508 -18735 18787 0
-1508 -18736 18788 0
-1508 -18737 18789 0
-1508 -18738 18790 0
-1508 -18739 18791 0
-1508 -18740 18792 0
-1508 -18741 18793 0
-1508 -18742 18794 0
-1508 -18743 18795 0
-1508 -18744 18796 0
-1508 -18745 18797 0
-1508 -18746 18798 0
-1508 -18747 18799 0
-1508 -18748 18800 0
-1508 -18749 18801 0
-1508 -18750 18802 0
-1508 -18751 18803 0
-1508 -18752 18804 0
-1508 -18753 18805 0
-1508 -18754 18806 0
-1508 -18755 18807 0
-1508 -18756 18808 0
-1508 -18757 18809 0
-1508 -18758 18810 0
-1508 -18759 18811 0
-1508 -18760 18812 0
-1508 -18761 18813 0
-1508 -18762 18814 0
-1508 -18763 0
-18764 18815 0
-18765 18816 0
-18766 18817 0
-18767 18818 0
-18768 18819 0
-18769 18820 0
-18770 18821 0
-18771 18822 0
-18772 18823 0
-18773 18824 0
-18774 18825 0
-18775 18826 0
-18776 18827 0
-18777 18828 0
-18778 18829 0
-18779 18830 0
-18780 18831 0
-18781 18832 0
-18782 18833 0
-18783 18834 0
-18784 18835 0
-18785 18836 0
-18786 18837 0
-18787 18838 0
-18788 18839 0
-18789 18840 0
-18790 18841 0
-18791 18842 0
-18792 18843 0
-18793 18844 0
-18794 18845 0
-18795 18846 0
-18796 18847 0
-18797 18848 0
-18798 18849 0
-18799 18850 0
-18800 18851 0
-18801 18852 0
-18802 18853 0
-18803 18854 0
-18804 18855 0
-18805 18856 0
-18806 18857 0
-18807 18858 0
-18808 18859 0
-18809 18860 0
-18810 18861 0
-18811 18862 0
-18812 18863 0
-18813 18864 0
-18814 18865 0
-1510 -18764 18816 0
-1510 -18765 18817 0
-1510 -18766 18818 0
-1510 -18767 18819 0
-1510 -18768 18820 0
-1510 -18769 18821 0
-1510 -18770 18822 0
-1510 -18771 18823 0
-1510 -18772 18824 0
-1510 -18773 18825 0
-1510 -18774 18826 0
-1510 -18775 18827 0
-1510 -18776 18828 0
-1510 -18777 18829 0
-1510 -18778 18830 0
-1510 -18779 18831 0
-1510 -18780 18832 0
-1510 -18781 18833 0
-1510 -18782 18834 0
-1510 -18783 18835 0
-1510 -18784 18836 0
-1510 -18785 18837 0
-1510 -18786 18838 0
-1510 -18787 18839 0
-1510 -18788 18840 0
-1510 -18789 18841 0
-1510 -18790 18842 0
-1510 -18791 18843 0
-1510 -18792 18844 0
-1510 -18793 18845 0
-1510 -18794 18846 0
-1510 -18795 18847 0
-1510 -18796 18848 0
-1510 -18797 18849 0
-1510 -18798 18850 0
-1510 -18799 18851 0
-1510 -18800 18852 0
-1510 -18801 18853 0
-1510 -18802 18854 0
-1510 -18803 18855 0
-1510 -18804 18856 0
-1510 -18805 18857 0
-1510 -18806 18858 0
-1510 -18807 18859 0
-1510 -18808 18860 0
-1510 -18809 18861 0
-1510 -18810 18862 0
-1510 -18811 18863 0
-1510 -18812 18864 0
-1510 -18813 18865 0
-1510 -18814 0
-18815 18866 0
-18816 18867 0
-18817 18868 0
-18818 18869 0
-18819 18870 0
-18820 18871 0
-18821 18872 0
-18822 18873 0
-18823 18874 0
-18824 18875 0
-18825 18876 0
-18826 18877 0
-18827 18878 0
-18828 18879 0
-18829 18880 0
-18830 18881 0
-18831 18882 0
-18832 18883 0
-18833 18884 0
-18834 18885 0
-18835 18886 0
-18836 18887 0
-18837 18888 0
-18838 18889 0
-18839 18890 0
-18840 18891 0
-18841 18892 0
-18842 18893 0
-18843 18894 0
-18844 18895 0
-18845 18896 0
-18846 18897 0
-18847 18898 0
-18848 18899 0
-18849 18900 0
-18850 18901 0
-18851 18902 0
-18852 18903 0
-18853 18904 0
-18854 18905 0
-18855 18906 0
-18856 18907 0
-18857 18908 0
-18858 18909 0
-18859 18910 0
-18860 18911 0
-18861 18912 0
-18862 18913 0
-18863 18914 0
-18864 18915 0
-18865 18916 0
-1512 -18815 18867 0
-1512 -18816 18868 0
-1512 -18817 18869 0
-1512 -18818 18870 0
-1512 -18819 18871 0
-1512 -18820 18872 0
-1512 -18821 18873 0
-1512 -18822 18874 0
-1512 -18823 18875 0
-1512 -18824 18876 0
-1512 -18825 18877 0
-1512 -18826 18878 0
-1512 -18827 18879 0
-1512 -18828 18880 0
-1512 -18829 18881 0
-1512 -18830 18882 0
-1512 -18831 18883 0
-1512 -18832 18884 0
-1512 -18833 18885 0
-1512 -18834 18886 0
-1512 -18835 18887 0
-1512 -18836 18888 0
-1512 -18837 18889 0
-1512 -18838 18890 0
-1512 -18839 18891 0
-1512 -18840 18892 0
-1512 -18841 18893 0
-1512 -18842 18894 0
-1512 -18843 18895 0
-1512 -18844 18896 0
-1512 -18845 18897 0
-1512 -18846 18898 0
-1512 -18847 18899 0
-1512 -18848 18900 0
-1512 -18849 18901 0
-1512 -18850 18902 0
-1512 -18851 18903 0
-1512 -18852 18904 0
-1512 -18853 18905 0
-1512 -18854 18906 0
-1512 -18855 18907 0
-1512 -18856 18908 0
-1512 -18857 18909 0
-1512 -18858 18910 0
-1512 -18859 18911 0
-1512 -18860 18912 0
-1512 -18861 18913 0
-1512 -18862 18914 0
-1512 -18863 18915 0
-1512 -18864 18916 0
-1512 -18865 0
-18866 18917 0
-18867 18918 0
-18868 18919 0
-18869 18920 0
-18870 18921 0
-18871 18922 0
-18872 18923 0
-18873 18924 0
-18874 18925 0
-18875 18926 0
-18876 18927 0
-18877 18928 0
-18878 18929 0
-18879 18930 0
-18880 18931 0
-18881 18932 0
-18882 18933 0
-18883 18934 0
-18884 18935 0
-18885 18936 0
-18886 18937 0
-18887 18938 0
-18888 18939 0
-18889 18940 0
-18890 18941 0
-18891 18942 0
-18892 18943 0
-18893 18944 0
-18894 18945 0
-18895 18946 0
-18896 18947 0
-18897 18948 0
-18898 18949 0
-18899 18950 0
-18900 18951 0
-18901 18952 0
-18902 18953 0
-18903 18954 0
-18904 18955 0
-18905 18956 0
-18906 18957 0
-18907 18958 0
-18908 18959 0
-18909 18960 0
-18910 18961 0
-18911 18962 0
-18912 18963 0
-18913 18964 0
-18914 18965 0
-18915 18966 0
-18916 18967 0
-1514 -18866 18918 0
-1514 -18867 18919 0
-1514 -18868 18920 0
-1514 -18869 18921 0
-1514 -18870 18922 0
-1514 -18871 18923 0
-1514 -18872 18924 0
-1514 -18873 18925 0
-1514 -18874 18926 0
-1514 -18875 18927 0
-1514 -18876 18928 0
-1514 -18877 18929 0
-1514 -18878 18930 0
-1514 -18879 18931 0
-1514 -18880 18932 0
-1514 -18881 18933 0
-1514 -18882 18934 0
-1514 -18883 18935 0
-1514 -18884 18936 0
-1514 -18885 18937 0
-1514 -18886 18938 0
-1514 -18887 18939 0
-1514 -18888 18940 0
-1514 -18889 18941 0
-1514 -18890 18942 0
-1514 -18891 18943 0
-1514 -18892 18944 0
-1514 -18893 18945 0
-1514 -18894 18946 0
-1514 -18895 18947 0
-1514 -18896 18948 0
-1514 -18897 18949 0
-1514 -18898 18950 0
-1514 -18899 18951 0
-1514 -18900 18952 0
-1514 -18901 18953 0
-1514 -18902 18954 0
-1514 -18903 18955 0
-1514 -18904 18956 0
-1514 -18905 18957 0
-1514 -18906 18958 0
-1514 -18907 18959 0
-1514 -18908 18960 0
-1514 -18909 18961 0
-1514 -18910 18962 0
-1514 -18911 18963 0
-1514 -18912 18964 0
-1514 -18913 18965 0
-1514 -18914 18966 0
-1514 -18915 18967 0
-1514 -18916 0
-18917 18968 0
-18918 18969 0
-18919 18970 0
-18920 18971 0
-18921 18972 0
-18922 18973 0
-18923 18974 0
-18924 18975 0
-18925 18976 0
-18926 18977 0
-18927 18978 0
-18928 18979 0
-18929 18980 0
-18930 18981 0
-18931 18982 0
-18932 18983 0
-18933 18984 0
-18934 18985 0
-18935 18986 0
-18936 18987 0
-18937 18988 0
-18938 18989 0
-18939 18990 0
-18940 18991 0
-18941 18992 0
-18942 18993 0
-18943 18994 0
-18944 18995 0
-18945 18996 0
-18946 18997 0
-18947 18998 0
-18948 18999 0
-18949 19000 0
-18950 19001 0
-18951 19002 0
-18952 19003 0
-18953 19004 0
-18954 19005 0
-18955 19006 0
-18956 19007 0
-18957 19008 0
-18958 19009 0
-18959 19010 0
-18960 19011 0
-18961 19012 0
-18962 19013 0
-18963 19014 0
-18964 19015 0
-18965 19016 0
-18966 19017 0
-18967 19018 0
-1516 -18917 18969 0
-1516 -18918 18970 0
-1516 -18919 18971 0
-1516 -18920 18972 0
-1516 -18921 18973 0
-1516 -18922 18974 0
-1516 -18923 18975 0
-1516 -18924 18976 0
-1516 -18925 18977 0
-1516 -18926 18978 0
-1516 -18927 18979 0
-1516 -18928 18980 0
-1516 -18929 18981 0
-1516 -18930 18982 0
-1516 -18931 18983 0
-1516 -18932 18984 0
-1516 -18933 18985 0
-1516 -18934 18986 0
-1516 -18935 18987 0
-1516 -18936 18988 0
-1516 -18937 18989 0
-1516 -18938 18990 0
-1516 -18939 18991 0
-1516 -18940 18992 0
-1516 -18941 18993 0
-1516 -18942 18994 0
-1516 -18943 18995 0
-1516 -18944 18996 0
-1516 -18945 18997 0
-1516 -18946 18998 0
-1516 -18947 18999 0
-1516 -18948 19000 0
-1516 -18949 19001 0
-1516 -18950 19002 0
-1516 -18951 19003 0
-1516 -18952 19004 0
-1516 -18953 19005 0
-1516 -18954 19006 0
-1516 -18955 19007 0
-1516 -18956 19008 0
-1516 -18957 19009 0
-1516 -18958 19010 0
-1516 -18959 19011 0
-1516 -18960 19012 0
-1516 -18961 19013 0
-1516 -18962 19014 0
-1516 -18963 19015 0
-1516 -18964 19016 0
-1516 -18965 19017 0
-1516 -18966 19018 0
-1516 -18967 0
-18968 19019 0
-18969 19020 0
-18970 19021 0
-18971 19022 0
-18972 19023 0
-18973 19024 0
-18974 19025 0
-18975 19026 0
-18976 19027 0
-18977 19028 0
-18978 19029 0
-18979 19030 0
-18980 19031 0
-18981 19032 0
-18982 19033 0
-18983 19034 0
-18984 19035 0
-18985 19036 0
-18986 19037 0
-18987 19038 0
-18988 19039 0
-18989 19040 0
-18990 19041 0
-18991 19042 0
-18992 19043 0
-18993 19044 0
-18994 19045 0
-18995 19046 0
-18996 19047 0
-18997 19048 0
-18998 19049 0
-18999 19050 0
-19000 19051 0
-19001 19052 0
-19002 19053 0
-19003 19054 0
-19004 19055 0
-19005 19056 0
-19006 19057 0
-19007 19058 0
-19008 19059 0
-19009 19060 0
-19010 19061 0
-19011 19062 0
-19012 19063 0
-19013 19064 0
-19014 19065 0
-19015 19066 0
-19016 19067 0
-19017 19068 0
-19018 19069 0
-1518 -18968 19020 0
-1518 -18969 19021 0
-1518 -18970 19022 0
-1518 -18971 19023 0
-1518 -18972 19024 0
-1518 -18973 19025 0
-1518 -18974 19026 0
-1518 -18975 19027 0
-1518 -18976 19028 0
-1518 -18977 19029 0
-1518 -18978 19030 0
-1518 -18979 19031 0
-1518 -18980 19032 0
-1518 -18981 19033 0
-1518 -18982 19034 0
-1518 -18983 19035 0
-1518 -18984 19036 0
-1518 -18985 19037 0
-1518 -18986 19038 0
-1518 -18987 19039 0
-1518 -18988 19040 0
-1518 -18989 19041 0
-1518 -18990 19042 0
-1518 -18991 19043 0
-1518 -18992 19044 0
-1518 -18993 19045 0
-1518 -18994 19046 0
-1518 -18995 19047 0
-1518 -18996 19048 0
-1518 -18997 19049 0
-1518 -18998 19050 0
-1518 -18999 19051 0
-1518 -19000 19052 0
-1518 -19001 19053 0
-1518 -19002 19054 0
-1518 -19003 19055 0
-1518 -19004 19056 0
-1518 -19005 19057 0
-1518 -19006 19058 0
-1518 -19007 19059 0
-1518 -19008 19060 0
-1518 -19009 19061 0
-1518 -19010 19062 0
-1518 -19011 19063 0
-1518 -19012 19064 0
-1518 -19013 19065 0
-1518 -19014 19066 0
-1518 -19015 19067 0
-1518 -19016 19068 0
-1518 -19017 19069 0
-1518 -19018 0
-19019 19070 0
-19020 19071 0
-19021 19072 0
-19022 19073 0
-19023 19074 0
-19024 19075 0
-19025 19076 0
-19026 19077 0
-19027 19078 0
-19028 19079 0
-19029 19080 0
-19030 19081 0
-19031 19082 0
-19032 19083 0
-19033 19084 0
-19034 19085 0
-19035 19086 0
-19036 19087 0
-19037 19088 0
-19038 19089 0
-19039 19090 0
-19040 19091 0
-19041 19092 0
-19042 19093 0
-19043 19094 0
-19044 19095 0
-19045 19096 0
-19046 19097 0
-19047 19098 0
-19048 19099 0
-19049 19100 0
-19050 19101 0
-19051 19102 0
-19052 19103 0
-19053 19104 0
-19054 19105 0
-19055 19106 0
-19056 19107 0
-19057 19108 0
-19058 19109 0
-19059 19110 0
-19060 19111 0
-19061 19112 0
-19062 19113 0
-19063 19114 0
-19064 19115 0
-19065 19116 0
-19066 19117 0
-19067 19118 0
-19068 19119 0
-19069 19120 0
-1520 -19019 19071 0
-1520 -19020 19072 0
-1520 -19021 19073 0
-1520 -19022 19074 0
-1520 -19023 19075 0
-1520 -19024 19076 0
-1520 -19025 19077 0
-1520 -19026 19078 0
-1520 -19027 19079 0
-1520 -19028 19080 0
-1520 -19029 19081 0
-1520 -19030 19082 0
-1520 -19031 19083 0
-1520 -19032 19084 0
-1520 -19033 19085 0
-1520 -19034 19086 0
-1520 -19035 19087 0
-1520 -19036 19088 0
-1520 -19037 19089 0
-1520 -19038 19090 0
-1520 -19039 19091 0
-1520 -19040 19092 0
-1520 -19041 19093 0
-1520 -19042 19094 0
-1520 -19043 19095 0
-1520 -19044 19096 0
-1520 -19045 19097 0
-1520 -19046 19098 0
-1520 -19047 19099 0
-1520 -19048 19100 0
-1520 -19049 19101 0
-1520 -19050 19102 0
-1520 -19051 19103 0
-1520 -19052 19104 0
-1520 -19053 19105 0
-1520 -19054 19106 0
-1520 -19055 19107 0
-1520 -19056 19108 0
-1520 -19057 19109 0
-1520 -19058 19110 0
-1520 -19059 19111 0
-1520 -19060 19112 0
-1520 -19061 19113 0
-1520 -19062 19114 0
-1520 -19063 19115 0
-1520 -19064 19116 0
-1520 -19065 19117 0
-1520 -19066 19118 0
-1520 -19067 19119 0
-1520 -19068 19120 0
-1520 -19069 0
-19070 19121 0
-19071 19122 0
-19072 19123 0
-19073 19124 0
-19074 19125 0
-19075 19126 0
-19076 19127 0
-19077 19128 0
-19078 19129 0
-19079 19130 0
-19080 19131 0
-19081 19132 0
-19082 19133 0
-19083 19134 0
-19084 19135 0
-19085 19136 0
-19086 19137 0
-19087 19138 0
-19088 19139 0
-19089 19140 0
-19090 19141 0
-19091 19142 0
-19092 19143 0
-19093 19144 0
-19094 19145 0
-19095 19146 0
-19096 19147 0
-19097 19148 0
-19098 19149 0
-19099 19150 0
-19100 19151 0
-19101 19152 0
-19102 19153 0
-19103 19154 0
-19104 19155 0
-19105 19156 0
-19106 19157 0
-19107 19158 0
-19108 19159 0
-19109 19160 0
-19110 19161 0
-19111 19162 0
-19112 19163 0
-19113 19164 0
-19114 19165 0
-19115 19166 0
-19116 19167 0
-19117 19168 0
-19118 19169 0
-19119 19170 0
-19120 19171 0
-1522 -19070 19122 0
-1522 -19071 19123 0
-1522 -19072 19124 0
-1522 -19073 19125 0
-1522 -19074 19126 0
-1522 -19075 19127 0
-1522 -19076 19128 0
-1522 -19077 19129 0
-1522 -19078 19130 0
-1522 -19079 19131 0
-1522 -19080 19132 0
-1522 -19081 19133 0
-1522 -19082 19134 0
-1522 -19083 19135 0
-1522 -19084 19136 0
-1522 -19085 19137 0
-1522 -19086 19138 0
-1522 -19087 19139 0
-1522 -19088 19140 0
-1522 -19089 19141 0
-1522 -19090 19142 0
-1522 -19091 19143 0
-1522 -19092 19144 0
-1522 -19093 19145 0
-1522 -19094 19146 0
-1522 -19095 19147 0
-1522 -19096 19148 0
-1522 -19097 19149 0
-1522 -19098 19150 0
-1522 -19099 19151 0
-1522 -19100 19152 0
-1522 -19101 19153 0
-1522 -19102 19154 0
-1522 -19103 19155 0
-1522 -19104 19156 0
-1522 -19105 19157 0
-1522 -19106 19158 0
-1522 -19107 19159 0
-1522 -19108 19160 0
-1522 -19109 19161 0
-1522 -19110 19162 0
-1522 -19111 19163 0
-1522 -19112 19164 0
-1522 -19113 19165 0
-1522 -19114 19166 0
-1522 -19115 19167 0
-1522 -19116 19168 0
-1522 -19117 19169 0
-1522 -19118 19170 0
-1522 -19119 19171 0
-1522 -19120 0
-19121 19172 0
-19122 19173 0
-19123 19174 0
-19124 19175 0
-19125 19176 0
-19126 19177 0
-19127 19178 0
-19128 19179 0
-19129 19180 0
-19130 19181 0
-19131 19182 0
-19132 19183 0
-19133 19184 0
-19134 19185 0
-19135 19186 0
-19136 19187 0
-19137 19188 0
-19138 19189 0
-19139 19190 0
-19140 19191 0
-19141 19192 0
-19142 19193 0
-19143 19194 0
-19144 19195 0
-19145 19196 0
-19146 19197 0
-19147 19198 0
-19148 19199 0
-19149 19200 0
-19150 19201 0
-19151 19202 0
-19152 19203 0
-19153 19204 0
-19154 19205 0
-19155 19206 0
-19156 19207 0
-19157 19208 0
-19158 19209 0
-19159 19210 0
-19160 19211 0
-19161 19212 0
-19162 19213 0
-19163 19214 0
-19164 19215 0
-19165 19216 0
-19166 19217 0
-19167 19218 0
-19168 19219 0
-19169 19220 0
-19170 19221 0
-19171 19222 0
-1524 -19121 19173 0
-1524 -19122 19174 0
-1524 -19123 19175 0
-1524 -19124 19176 0
-1524 -19125 19177 0
-1524 -19126 19178 0
-1524 -19127 19179 0
-1524 -19128 19180 0
-1524 -19129 19181 0
-1524 -19130 19182 0
-1524 -19131 19183 0
-1524 -19132 19184 0
-1524 -19133 19185 0
-1524 -19134 19186 0
-1524 -19135 19187 0
-1524 -19136 19188 0
-1524 -19137 19189 0
-1524 -19138 19190 0
-1524 -19139 19191 0
-1524 -19140 19192 0
-1524 -19141 19193 0
-1524 -19142 19194 0
-1524 -19143 19195 0
-1524 -19144 19196 0
-1524 -19145 19197 0
-1524 -19146 19198 0
-1524 -19147 19199 0
-1524 -19148 19200 0
-1524 -19149 19201 0
-1524 -19150 19202 0
-1524 -19151 19203 0
-1524 -19152 19204 0
-1524 -19153 19205 0
-1524 -19154 19206 0
-1524 -19155 19207 0
-1524 -19156 19208 0
-1524 -19157 19209 0
-1524 -19158 19210 0
-1524 -19159 19211 0
-1524 -19160 19212 0
-1524 -19161 19213 0
-1524 -19162 19214 0
-1524 -19163 19215 0
-1524 -19164 19216 0
-1524 -19165 19217 0
-1524 -19166 19218 0
-1524 -19167 19219 0
-1524 -19168 19220 0
-1524 -19169 19221 0
-1524 -19170 19222 0
-1524 -19171 0
-19172 19223 0
-19173 19224 0
-19174 19225 0
-19175 19226 0
-19176 19227 0
-19177 19228 0
-19178 19229 0
-19179 19230 0
-19180 19231 0
-19181 19232 0
-19182 19233 0
-19183 19234 0
-19184 19235 0
-19185 19236 0
-19186 19237 0
-19187 19238 0
-19188 19239 0
-19189 19240 0
-19190 19241 0
-19191 19242 0
-19192 19243 0
-19193 19244 0
-19194 19245 0
-19195 19246 0
-19196 19247 0
-19197 19248 0
-19198 19249 0
-19199 19250 0
-19200 19251 0
-19201 19252 0
-19202 19253 0
-19203 19254 0
-19204 19255 0
-19205 19256 0
-19206 19257 0
-19207 19258 0
-19208 19259 0
-19209 19260 0
-19210 19261 0
-19211 19262 0
-19212 19263 0
-19213 19264 0
-19214 19265 0
-19215 19266 0
-19216 19267 0
-19217 19268 0
-19218 19269 0
-19219 19270 0
-19220 19271 0
-19221 19272 0
-19222 19273 0
-1526 -19172 19224 0
-1526 -19173 19225 0
-1526 -19174 19226 0
-1526 -19175 19227 0
-1526 -19176 19228 0
-1526 -19177 19229 0
-1526 -19178 19230 0
-1526 -19179 19231 0
-1526 -19180 19232 0
-1526 -19181 19233 0
-1526 -19182 19234 0
-1526 -19183 19235 0
-1526 -19184 19236 0
-1526 -19185 19237 0
-1526 -19186 19238 0
-1526 -19187 19239 0
-1526 -19188 19240 0
-1526 -19189 19241 0
-1526 -19190 19242 0
-1526 -19191 19243 0
-1526 -19192 19244 0
-1526 -19193 19245 0
-1526 -19194 19246 0
-1526 -19195 19247 0
-1526 -19196 19248 0
-1526 -19197 19249 0
-1526 -19198 19250 0
-1526 -19199 19251 0
-1526 -19200 19252 0
-1526 -19201 19253 0
-1526 -19202 19254 0
-1526 -19203 19255 0
-1526 -19204 19256 0
-1526 -19205 19257 0
-1526 -19206 19258 0
-1526 -19207 19259 0
-1526 -19208 19260 0
-1526 -19209 19261 0
-1526 -19210 19262 0
-1526 -19211 19263 0
-1526 -19212 19264 0
-1526 -19213 19265 0
-1526 -19214 19266 0
-1526 -19215 19267 0
-1526 -19216 19268 0
-1526 -19217 19269 0
-1526 -19218 19270 0
-1526 -19219 19271 0
-1526 -19220 19272 0
-1526 -19221 19273 0
-1526 -19222 0
-19223 19274 0
-19224 19275 0
-19225 19276 0
-19226 19277 0
-19227 19278 0
-19228 19279 0
-19229 19280 0
-19230 19281 0
-19231 19282 0
-19232 19283 0
-19233 19284 0
-19234 19285 0
-19235 19286 0
-19236 19287 0
-19237 19288 0
-19238 19289 0
-19239 19290 0
-19240 19291 0
-19241 19292 0
-19242 19293 0
-19243 19294 0
-19244 19295 0
-19245 19296 0
-19246 19297 0
-19247 19298 0
-19248 19299 0
-19249 19300 0
-19250 19301 0
-19251 19302 0
-19252 19303 0
-19253 19304 0
-19254 19305 0
-19255 19306 0
-19256 19307 0
-19257 19308 0
-19258 19309 0
-19259 19310 0
-19260 19311 0
-19261 19312 0
-19262 19313 0
-19263 19314 0
-19264 19315 0
-19265 19316 0
-19266 19317 0
-19267 19318 0
-19268 19319 0
-19269 19320 0
-19270 19321 0
-19271 19322 0
-19272 19323 0
-19273 19324 0
-1528 -19223 19275 0
-1528 -19224 19276 0
-1528 -19225 19277 0
-1528 -19226 19278 0
-1528 -19227 19279 0
-1528 -19228 19280 0
-1528 -19229 19281 0
-1528 -19230 19282 0
-1528 -19231 19283 0
-1528 -19232 19284 0
-1528 -19233 19285 0
-1528 -19234 19286 0
-1528 -19235 19287 0
-1528 -19236 19288 0
-1528 -19237 19289 0
-1528 -19238 19290 0
-1528 -19239 19291 0
-1528 -19240 19292 0
-1528 -19241 19293 0
-1528 -19242 19294 0
-1528 -19243 19295 0
-1528 -19244 19296 0
-1528 -19245 19297 0
-1528 -19246 19298 0
-1528 -19247 19299 0
-1528 -19248 19300 0
-1528 -19249 19301 0
-1528 -19250 19302 0
-1528 -19251 19303 0
-1528 -19252 19304 0
-1528 -19253 19305 0
-1528 -19254 19306 0
-1528 -19255 19307 0
-1528 -19256 19308 0
-1528 -19257 19309 0
-1528 -19258 19310 0
-1528 -19259 19311 0
-1528 -19260 19312 0
-1528 -19261 19313 0
-1528 -19262 19314 0
-1528 -19263 19315 0
-1528 -19264 19316 0
-1528 -19265 19317 0
-1528 -19266 19318 0
-1528 -19267 19319 0
-1528 -19268 19320 0
-1528 -19269 19321 0
-1528 -19270 19322 0
-1528 -19271 19323 0
-1528 -19272 19324 0
-1528 -19273 0
-19274 19325 0
-19275 19326 0
-19276 19327 0
-19277 19328 0
-19278 19329 0
-19279 19330 0
-19280 19331 0
-19281 19332 0
-19282 19333 0
-19283 19334 0
-19284 19335 0
-19285 19336 0
-19286 19337 0
-19287 19338 0
-19288 19339 0
-19289 19340 0
-19290 19341 0
-19291 19342 0
-19292 19343 0
-19293 19344 0
-19294 19345 0
-19295 19346 0
-19296 19347 0
-19297 19348 0
-19298 19349 0
-19299 19350 0
-19300 19351 0
-19301 19352 0
-19302 19353 0
-19303 19354 0
-19304 19355 0
-19305 19356 0
-19306 19357 0
-19307 19358 0
-19308 19359 0
-19309 19360 0
-19310 19361 0
-19311 19362 0
-19312 19363 0
-19313 19364 0
-19314 19365 0
-19315 19366 0
-19316 19367 0
-19317 19368 0
-19318 19369 0
-19319 19370 0
-19320 19371 0
-19321 19372 0
-19322 19373 0
-19323 19374 0
-19324 19375 0
-1530 -19274 19326 0
-1530 -19275 19327 0
-1530 -19276 19328 0
-1530 -19277 19329 0
-1530 -19278 19330 0
-1530 -19279 19331 0
-1530 -19280 19332 0
-1530 -19281 19333 0
-1530 -19282 19334 0
-1530 -19283 19335 0
-1530 -19284 19336 0
-1530 -19285 19337 0
-1530 -19286 19338 0
-1530 -19287 19339 0
-1530 -19288 19340 0
-1530 -19289 19341 0
-1530 -19290 19342 0
-1530 -19291 19343 0
-1530 -19292 19344 0
-1530 -19293 19345 0
-1530 -19294 19346 0
-1530 -19295 19347 0
-1530 -19296 19348 0
-1530 -19297 19349 0
-1530 -19298 19350 0
-1530 -19299 19351 0
-1530 -19300 19352 0
-1530 -19301 19353 0
-1530 -19302 19354 0
-1530 -19303 19355 0
-1530 -19304 19356 0
-1530 -19305 19357 0
-1530 -19306 19358 0
-1530 -19307 19359 0
-1530 -19308 19360 0
-1530 -19309 19361 0
-1530 -19310 19362 0
-1530 -19311 19363 0
-1530 -19312 19364 0
-1530 -19313 19365 0
-1530 -19314 19366 0
-1530 -19315 19367 0
-1530 -19316 19368 0
-1530 -19317 19369 0
-1530 -19318 19370 0
-1530 -19319 19371 0
-1530 -19320 19372 0
-1530 -19321 19373 0
-1530 -19322 19374 0
-1530 -19323 19375 0
-1530 -19324 0
-19325 19376 0
-19326 19377 0
-19327 19378 0
-19328 19379 0
-19329 19380 0
-19330 19381 0
-19331 19382 0
-19332 19383 0
-19333 19384 0
-19334 19385 0
-19335 19386 0
-19336 19387 0
-19337 19388 0
-19338 19389 0
-19339 19390 0
-19340 19391 0
-19341 19392 0
-19342 19393 0
-19343 19394 0
-19344 19395 0
-19345 19396 0
-19346 19397 0
-19347 19398 0
-19348 19399 0
-19349 19400 0
-19350 19401 0
-19351 19402 0
-19352 19403 0
-19353 19404 0
-19354 19405 0
-19355 19406 0
-19356 19407 0
-19357 19408 0
-19358 19409 0
-19359 19410 0
-19360 19411 0
-19361 19412 0
-19362 19413 0
-19363 19414 0
-19364 19415 0
-19365 19416 0
-19366 19417 0
-19367 19418 0
-19368 19419 0
-19369 19420 0
-19370 19421 0
-19371 19422 0
-19372 19423 0
-19373 19424 0
-19374 19425 0
-19375 19426 0
-1532 -19325 19377 0
-1532 -19326 19378 0
-1532 -19327 19379 0
-1532 -19328 19380 0
-1532 -19329 19381 0
-1532 -19330 19382 0
-1532 -19331 19383 0
-1532 -19332 19384 0
-1532 -19333 19385 0
-1532 -19334 19386 0
-1532 -19335 19387 0
-1532 -19336 19388 0
-1532 -19337 19389 0
-1532 -19338 19390 0
-1532 -19339 19391 0
-1532 -19340 19392 0
-1532 -19341 19393 0
-1532 -19342 19394 0
-1532 -19343 19395 0
-1532 -19344 19396 0
-1532 -19345 19397 0
-1532 -19346 19398 0
-1532 -19347 19399 0
-1532 -19348 19400 0
-1532 -19349 19401 0
-1532 -19350 19402 0
-1532 -19351 19403 0
-1532 -19352 19404 0
-1532 -19353 19405 0
-1532 -19354 19406 0
-1532 -19355 19407 0
-1532 -19356 19408 0
-1532 -19357 19409 0
-1532 -19358 19410 0
-1532 -19359 19411 0
-1532 -19360 19412 0
-1532 -19361 19413 0
-1532 -19362 19414 0
-1532 -19363 19415 0
-1532 -19364 19416 0
-1532 -19365 19417 0
-1532 -19366 19418 0
-1532 -19367 19419 0
-1532 -19368 19420 0
-1532 -19369 19421 0
-1532 -19370 19422 0
-1532 -19371 19423 0
-1532 -19372 19424 0
-1532 -19373 19425 0
-1532 -19374 19426 0
-1532 -19375 0
-19376 19427 0
-19377 19428 0
-19378 19429 0
-19379 19430 0
-19380 19431 0
-19381 19432 0
-19382 19433 0
-19383 19434 0
-19384 19435 0
-19385 19436 0
-19386 19437 0
-19387 19438 0
-19388 19439 0
-19389 19440 0
-19390 19441 0
-19391 19442 0
-19392 19443 0
-19393 19444 0
-19394 19445 0
-19395 19446 0
-19396 19447 0
-19397 19448 0
-19398 19449 0
-19399 19450 0
-19400 19451 0
-19401 19452 0
-19402 19453 0
-19403 19454 0
-19404 19455 0
-19405 19456 0
-19406 19457 0
-19407 19458 0
-19408 19459 0
-19409 19460 0
-19410 19461 0
-19411 19462 0
-19412 19463 0
-19413 19464 0
-19414 19465 0
-19415 19466 0
-19416 19467 0
-19417 19468 0
-19418 19469 0
-19419 19470 0
-19420 19471 0
-19421 19472 0
-19422 19473 0
-19423 19474 0
-19424 19475 0
-19425 19476 0
-19426 19477 0
-1534 -19376 19428 0
-1534 -19377 19429 0
-1534 -19378 19430 0
-1534 -19379 19431 0
-1534 -19380 19432 0
-1534 -19381 19433 0
-1534 -19382 19434 0
-1534 -19383 19435 0
-1534 -19384 19436 0
-1534 -19385 19437 0
-1534 -19386 19438 0
-1534 -19387 19439 0
-1534 -19388 19440 0
-1534 -19389 19441 0
-1534 -19390 19442 0
-1534 -19391 19443 0
-1534 -19392 19444 0
-1534 -19393 19445 0
-1534 -19394 19446 0
-1534 -19395 19447 0
-1534 -19396 19448 0
-1534 -19397 19449 0
-1534 -19398 19450 0
-1534 -19399 19451 0
-1534 -19400 19452 0
-1534 -19401 19453 0
-1534 -19402 19454 0
-1534 -19403 19455 0
-1534 -19404 19456 0
-1534 -19405 19457 0
-1534 -19406 19458 0
-1534 -19407 19459 0
-1534 -19408 19460 0
-1534 -19409 19461 0
-1534 -19410 19462 0
-1534 -19411 19463 0
-1534 -19412 19464 0
-1534 -19413 19465 0
-1534 -19414 19466 0
-1534 -19415 19467 0
-1534 -19416 19468 0
-1534 -19417 19469 0
-1534 -19418 19470 0
-1534 -19419 19471 0
-1534 -19420 19472 0
-1534 -19421 19473 0
-1534 -19422 19474 0
-1534 -19423 19475 0
-1534 -19424 19476 0
-1534 -19425 19477 0
-1534 -19426 0
-19427 19478 0
-19428 19479 0
-19429 19480 0
-19430 19481 0
-19431 19482 0
-19432 19483 0
-19433 19484 0
-19434 19485 0
-19435 19486 0
-19436 19487 0
-19437 19488 0
-19438 19489 0
-19439 19490 0
-19440 19491 0
-19441 19492 0
-19442 19493 0
-19443 19494 0
-19444 19495 0
-19445 19496 0
-19446 19497 0
-19447 19498 0
-19448 19499 0
-19449 19500 0
-19450 19501 0
-19451 19502 0
-19452 19503 0
-19453 19504 0
-19454 19505 0
-19455 19506 0
-19456 19507 0
-19457 19508 0
-19458 19509 0
-19459 19510 0
-19460 19511 0
-19461 19512 0
-19462 19513 0
-19463 19514 0
-19464 19515 0
-19465 19516 0
-19466 19517 0
-19467 19518 0
-19468 19519 0
-19469 19520 0
-19470 19521 0
-19471 19522 0
-19472 19523 0
-19473 19524 0
-19474 19525 0
-19475 19526 0
-19476 19527 0
-19477 19528 0
-1536 -19427 19479 0
-1536 -19428 19480 0
-1536 -19429 19481 0
-1536 -19430 19482 0
-1536 -19431 19483 0
-1536 -19432 19484 0
-1536 -19433 19485 0
-1536 -19434 19486 0
-1536 -19435 19487 0
-1536 -19436 19488 0
-1536 -19437 19489 0
-1536 -19438 19490 0
-1536 -19439 19491 0
-1536 -19440 19492 0
-1536 -19441 19493 0
-1536 -19442 19494 0
-1536 -19443 19495 0
-1536 -19444 19496 0
-1536 -19445 19497 0
-1536 -19446 19498 0
-1536 -19447 19499 0
-1536 -19448 19500 0
-1536 -19449 19501 0
-1536 -19450 19502 0
-1536 -19451 19503 0
-1536 -19452 19504 0
-1536 -19453 19505 0
-1536 -19454 19506 0
-1536 -19455 19507 0
-1536 -19456 19508 0
-1536 -19457 19509 0
-1536 -19458 19510 0
-1536 -19459 19511 0
-1536 -19460 19512 0
-1536 -19461 19513 0
-1536 -19462 19514 0
-1536 -19463 19515 0
-1536 -19464 19516 0
-1536 -19465 19517 0
-1536 -19466 19518 0
-1536 -19467 19519 0
-1536 -19468 19520 0
-1536 -19469 19521 0
-1536 -19470 19522 0
-1536 -19471 19523 0
-1536 -19472 19524 0
-1536 -19473 19525 0
-1536 -19474 19526 0
-1536 -19475 19527 0
-1536 -19476 19528 0
-1536 -19477 0
-19478 19529 0
-19479 19530 0
-19480 19531 0
-19481 19532 0
-19482 19533 0
-19483 19534 0
-19484 19535 0
-19485 19536 0
-19486 19537 0
-19487 19538 0
-19488 19539 0
-19489 19540 0
-19490 19541 0
-19491 19542 0
-19492 19543 0
-19493 19544 0
-19494 19545 0
-19495 19546 0
-19496 19547 0
-19497 19548 0
-19498 19549 0
-19499 19550 0
-19500 19551 0
-19501 19552 0
-19502 19553 0
-19503 19554 0
-19504 19555 0
-19505 19556 0
-19506 19557 0
-19507 19558 0
-19508 19559 0
-19509 19560 0
-19510 19561 0
-19511 19562 0
-19512 19563 0
-19513 19564 0
-19514 19565 0
-19515 19566 0
-19516 19567 0
-19517 19568 0
-19518 19569 0
-19519 19570 0
-19520 19571 0
-19521 19572 0
-19522 19573 0
-19523 19574 0
-19524 19575 0
-19525 19576 0
-19526 19577 0
-19527 19578 0
-19528 19579 0
-1538 -19478 19530 0
-1538 -19479 19531 0
-1538 -19480 19532 0
-1538 -19481 19533 0
-1538 -19482 19534 0
-1538 -19483 19535 0
-1538 -19484 19536 0
-1538 -19485 19537 0
-1538 -19486 19538 0
-1538 -19487 19539 0
-1538 -19488 19540 0
-1538 -19489 19541 0
-1538 -19490 19542 0
-1538 -19491 19543 0
-1538 -19492 19544 0
-1538 -19493 19545 0
-1538 -19494 19546 0
-1538 -19495 19547 0
-1538 -19496 19548 0
-1538 -19497 19549 0
-1538 -19498 19550 0
-1538 -19499 19551 0
-1538 -19500 19552 0
-1538 -19501 19553 0
-1538 -19502 19554 0
-1538 -19503 19555 0
-1538 -19504 19556 0
-1538 -19505 19557 0
-1538 -19506 19558 0
-1538 -19507 19559 0
-1538 -19508 19560 0
-1538 -19509 19561 0
-1538 -19510 19562 0
-1538 -19511 19563 0
-1538 -19512 19564 0
-1538 -19513 19565 0
-1538 -19514 19566 0
-1538 -19515 19567 0
-1538 -19516 19568 0
-1538 -19517 19569 0
-1538 -19518 19570 0
-1538 -19519 19571 0
-1538 -19520 19572 0
-1538 -19521 19573 0
-1538 -19522 19574 0
-1538 -19523 19575 0
-1538 -19524 19576 0
-1538 -19525 19577 0
-1538 -19526 19578 0
-1538 -19527 19579 0
-1538 -19528 0
-19529 19580 0
-19530 19581 0
-19531 19582 0
-19532 19583 0
-19533 19584 0
-19534 19585 0
-19535 19586 0
-19536 19587 0
-19537 19588 0
-19538 19589 0
-19539 19590 0
-19540 19591 0
-19541 19592 0
-19542 19593 0
-19543 19594 0
-19544 19595 0
-19545 19596 0
-19546 19597 0
-19547 19598 0
-19548 19599 0
-19549 19600 0
-19550 19601 0
-19551 19602 0
-19552 19603 0
-19553 19604 0
-19554 19605 0
-19555 19606 0
-19556 19607 0
-19557 19608 0
-19558 19609 0
-19559 19610 0
-19560 19611 0
-19561 19612 0
-19562 19613 0
-19563 19614 0
-19564 19615 0
-19565 19616 0
-19566 19617 0
-19567 19618 0
-19568 19619 0
-19569 19620 0
-19570 19621 0
-19571 19622 0
-19572 19623 0
-19573 19624 0
-19574 19625 0
-19575 19626 0
-19576 19627 0
-19577 19628 0
-19578 19629 0
-19579 19630 0
-1540 -19529 19581 0
-1540 -19530 19582 0
-1540 -19531 19583 0
-1540 -19532 19584 0
-1540 -19533 19585 0
-1540 -19534 19586 0
-1540 -19535 19587 0
-1540 -19536 19588 0
-1540 -19537 19589 0
-1540 -19538 19590 0
-1540 -19539 19591 0
-1540 -19540 19592 0
-1540 -19541 19593 0
-1540 -19542 19594 0
-1540 -19543 19595 0
-1540 -19544 19596 0
-1540 -19545 19597 0
-1540 -19546 19598 0
-1540 -19547 19599 0
-1540 -19548 19600 0
-1540 -19549 19601 0
-1540 -19550 19602 0
-1540 -19551 19603 0
-1540 -19552 19604 0
-1540 -19553 19605 0
-1540 -19554 19606 0
-1540 -19555 19607 0
-1540 -19556 19608 0
-1540 -19557 19609 0
-1540 -19558 19610 0
-1540 -19559 19611 0
-1540 -19560 19612 0
-1540 -19561 19613 0
-1540 -19562 19614 0
-1540 -19563 19615 0
-1540 -19564 19616 0
-1540 -19565 19617 0
-1540 -19566 19618 0
-1540 -19567 19619 0
-1540 -19568 19620 0
-1540 -19569 19621 0
-1540 -19570 19622 0
-1540 -19571 19623 0
-1540 -19572 19624 0
-1540 -19573 19625 0
-1540 -19574 19626 0
-1540 -19575 19627 0
-1540 -19576 19628 0
-1540 -19577 19629 0
-1540 -19578 19630 0
-1540 -19579 0
-19580 19631 0
-19581 19632 0
-19582 19633 0
-19583 19634 0
-19584 19635 0
-19585 19636 0
-19586 19637 0
-19587 19638 0
-19588 19639 0
-19589 19640 0
-19590 19641 0
-19591 19642 0
-19592 19643 0
-19593 19644 0
-19594 19645 0
-19595 19646 0
-19596 19647 0
-19597 19648 0
-19598 19649 0
-19599 19650 0
-19600 19651 0
-19601 19652 0
-19602 19653 0
-19603 19654 0
-19604 19655 0
-19605 19656 0
-19606 19657 0
-19607 19658 0
-19608 19659 0
-19609 19660 0
-19610 19661 0
-19611 19662 0
-19612 19663 0
-19613 19664 0
-19614 19665 0
-19615 19666 0
-19616 19667 0
-19617 19668 0
-19618 19669 0
-19619 19670 0
-19620 19671 0
-19621 19672 0
-19622 19673 0
-19623 19674 0
-19624 19675 0
-19625 19676 0
-19626 19677 0
-19627 19678 0
-19628 19679 0
-19629 19680 0
-19630 19681 0
-1542 -19580 19632 0
-1542 -19581 19633 0
-1542 -19582 19634 0
-1542 -19583 19635 0
-1542 -19584 19636 0
-1542 -19585 19637 0
-1542 -19586 19638 0
-1542 -19587 19639 0
-1542 -19588 19640 0
-1542 -19589 19641 0
-1542 -19590 19642 0
-1542 -19591 19643 0
-1542 -19592 19644 0
-1542 -19593 19645 0
-1542 -19594 19646 0
-1542 -19595 19647 0
-1542 -19596 19648 0
-1542 -19597 19649 0
-1542 -19598 19650 0
-1542 -19599 19651 0
-1542 -19600 19652 0
-1542 -19601 19653 0
-1542 -19602 19654 0
-1542 -19603 19655 0
-1542 -19604 19656 0
-1542 -19605 19657 0
-1542 -19606 19658 0
-1542 -19607 19659 0
-1542 -19608 19660 0
-1542 -19609 19661 0
-1542 -19610 19662 0
-1542 -19611 19663 0
-1542 -19612 19664 0
-1542 -19613 19665 0
-1542 -19614 19666 0
-1542 -19615 19667 0
-1542 -19616 19668 0
-1542 -19617 19669 0
-1542 -19618 19670 0
-1542 -19619 19671 0
-1542 -19620 19672 0
-1542 -19621 19673 0
-1542 -19622 19674 0
-1542 -19623 19675 0
-1542 -19624 19676 0
-1542 -19625 19677 0
-1542 -19626 19678 0
-1542 -19627 19679 0
-1542 -19628 19680 0
-1542 -19629 19681 0
-1542 -19630 0
-19631 19682 0
-19632 19683 0
-19633 19684 0
-19634 19685 0
-19635 19686 0
-19636 19687 0
-19637 19688 0
-19638 19689 0
-19639 19690 0
-19640 19691 0
-19641 19692 0
-19642 19693 0
-19643 19694 0
-19644 19695 0
-19645 19696 0
-19646 19697 0
-19647 19698 0
-19648 19699 0
-19649 19700 0
-19650 19701 0
-19651 19702 0
-19652 19703 0
-19653 19704 0
-19654 19705 0
-19655 19706 0
-19656 19707 0
-19657 19708 0
-19658 19709 0
-19659 19710 0
-19660 19711 0
-19661 19712 0
-19662 19713 0
-19663 19714 0
-19664 19715 0
-19665 19716 0
-19666 19717 0
-19667 19718 0
-19668 19719 0
-19669 19720 0
-19670 19721 0
-19671 19722 0
-19672 19723 0
-19673 19724 0
-19674 19725 0
-19675 19726 0
-19676 19727 0
-19677 19728 0
-19678 19729 0
-19679 19730 0
-19680 19731 0
-19681 19732 0
-1544 -19631 19683 0
-1544 -19632 19684 0
-1544 -19633 19685 0
-1544 -19634 19686 0
-1544 -19635 19687 0
-1544 -19636 19688 0
-1544 -19637 19689 0
-1544 -19638 19690 0
-1544 -19639 19691 0
-1544 -19640 19692 0
-1544 -19641 19693 0
-1544 -19642 19694 0
-1544 -19643 19695 0
-1544 -19644 19696 0
-1544 -19645 19697 0
-1544 -19646 19698 0
-1544 -19647 19699 0
-1544 -19648 19700 0
-1544 -19649 19701 0
-1544 -19650 19702 0
-1544 -19651 19703 0
-1544 -19652 19704 0
-1544 -19653 19705 0
-1544 -19654 19706 0
-1544 -19655 19707 0
-1544 -19656 19708 0
-1544 -19657 19709 0
-1544 -19658 19710 0
-1544 -19659 19711 0
-1544 -19660 19712 0
-1544 -19661 19713 0
-1544 -19662 19714 0
-1544 -19663 19715 0
-1544 -19664 19716 0
-1544 -19665 19717 0
-1544 -19666 19718 0
-1544 -19667 19719 0
-1544 -19668 19720 0
-1544 -19669 19721 0
-1544 -19670 19722 0
-1544 -19671 19723 0
-1544 -19672 19724 0
-1544 -19673 19725 0
-1544 -19674 19726 0
-1544 -19675 19727 0
-1544 -19676 19728 0
-1544 -19677 19729 0
-1544 -19678 19730 0
-1544 -19679 19731 0
-1544 -19680 19732 0
-1544 -19681 0
-19682 19733 0
-19683 19734 0
-19684 19735 0
-19685 19736 0
-19686 19737 0
-19687 19738 0
-19688 19739 0
-19689 19740 0
-19690 19741 0
-19691 19742 0
-19692 19743 0
-19693 19744 0
-19694 19745 0
-19695 19746 0
-19696 19747 0
-19697 19748 0
-19698 19749 0
-19699 19750 0
-19700 19751 0
-19701 19752 0
-19702 19753 0
-19703 19754 0
-19704 19755 0
-19705 19756 0
-19706 19757 0
-19707 19758 0
-19708 19759 0
-19709 19760 0
-19710 19761 0
-19711 19762 0
-19712 19763 0
-19713 19764 0
-19714 19765 0
-19715 19766 0
-19716 19767 0
-19717 19768 0
-19718 19769 0
-19719 19770 0
-19720 19771 0
-19721 19772 0
-19722 19773 0
-19723 19774 0
-19724 19775 0
-19725 19776 0
-19726 19777 0
-19727 19778 0
-19728 19779 0
-19729 19780 0
-19730 19781 0
-19731 19782 0
-19732 19783 0
-1546 -19682 19734 0
-1546 -19683 19735 0
-1546 -19684 19736 0
-1546 -19685 19737 0
-1546 -19686 19738 0
-1546 -19687 19739 0
-1546 -19688 19740 0
-1546 -19689 19741 0
-1546 -19690 19742 0
-1546 -19691 19743 0
-1546 -19692 19744 0
-1546 -19693 19745 0
-1546 -19694 19746 0
-1546 -19695 19747 0
-1546 -19696 19748 0
-1546 -19697 19749 0
-1546 -19698 19750 0
-1546 -19699 19751 0
-1546 -19700 19752 0
-1546 -19701 19753 0
-1546 -19702 19754 0
-1546 -19703 19755 0
-1546 -19704 19756 0
-1546 -19705 19757 0
-1546 -19706 19758 0
-1546 -19707 19759 0
-1546 -19708 19760 0
-1546 -19709 19761 0
-1546 -19710 19762 0
-1546 -19711 19763 0
-1546 -19712 19764 0
-1546 -19713 19765 0
-1546 -19714 19766 0
-1546 -19715 19767 0
-1546 -19716 19768 0
-1546 -19717 19769 0
-1546 -19718 19770 0
-1546 -19719 19771 0
-1546 -19720 19772 0
-1546 -19721 19773 0
-1546 -19722 19774 0
-1546 -19723 19775 0
-1546 -19724 19776 0
-1546 -19725 19777 0
-1546 -19726 19778 0
-1546 -19727 19779 0
-1546 -19728 19780 0
-1546 -19729 19781 0
-1546 -19730 19782 0
-1546 -19731 19783 0
-1546 -19732 0
-19733 19784 0
-19734 19785 0
-19735 19786 0
-19736 19787 0
-19737 19788 0
-19738 19789 0
-19739 19790 0
-19740 19791 0
-19741 19792 0
-19742 19793 0
-19743 19794 0
-19744 19795 0
-19745 19796 0
-19746 19797 0
-19747 19798 0
-19748 19799 0
-19749 19800 0
-19750 19801 0
-19751 19802 0
-19752 19803 0
-19753 19804 0
-19754 19805 0
-19755 19806 0
-19756 19807 0
-19757 19808 0
-19758 19809 0
-19759 19810 0
-19760 19811 0
-19761 19812 0
-19762 19813 0
-19763 19814 0
-19764 19815 0
-19765 19816 0
-19766 19817 0
-19767 19818 0
-19768 19819 0
-19769 19820 0
-19770 19821 0
-19771 19822 0
-19772 19823 0
-19773 19824 0
-19774 19825 0
-19775 19826 0
-19776 19827 0
-19777 19828 0
-19778 19829 0
-19779 19830 0
-19780 19831 0
-19781 19832 0
-19782 19833 0
-19783 19834 0
-1548 -19733 19785 0
-1548 -19734 19786 0
-1548 -19735 19787 0
-1548 -19736 19788 0
-1548 -19737 19789 0
-1548 -19738 19790 0
-1548 -19739 19791 0
-1548 -19740 19792 0
-1548 -19741 19793 0
-1548 -19742 19794 0
-1548 -19743 19795 0
-1548 -19744 19796 0
-1548 -19745 19797 0
-1548 -19746 19798 0
-1548 -19747 19799 0
-1548 -19748 19800 0
-1548 -19749 19801 0
-1548 -19750 19802 0
-1548 -19751 19803 0
-1548 -19752 19804 0
-1548 -19753 19805 0
-1548 -19754 19806 0
-1548 -19755 19807 0
-1548 -19756 19808 0
-1548 -19757 19809 0
-1548 -19758 19810 0
-1548 -19759 19811 0
-1548 -19760 19812 0
-1548 -19761 19813 0
-1548 -19762 19814 0
-1548 -19763 19815 0
-1548 -19764 19816 0
-1548 -19765 19817 0
-1548 -19766 19818 0
-1548 -19767 19819 0
-1548 -19768 19820 0
-1548 -19769 19821 0
-1548 -19770 19822 0
-1548 -19771 19823 0
-1548 -19772 19824 0
-1548 -19773 19825 0
-1548 -19774 19826 0
-1548 -19775 19827 0
-1548 -19776 19828 0
-1548 -19777 19829 0
-1548 -19778 19830 0
-1548 -19779 19831 0
-1548 -19780 19832 0
-1548 -19781 19833 0
-1548 -19782 19834 0
-1548 -19783 0
-19784 19835 0
-19785 19836 0
-19786 19837 0
-19787 19838 0
-19788 19839 0
-19789 19840 0
-19790 19841 0
-19791 19842 0
-19792 19843 0
-19793 19844 0
-19794 19845 0
-19795 19846 0
-19796 19847 0
-19797 19848 0
-19798 19849 0
-19799 19850 0
-19800 19851 0
-19801 19852 0
-19802 19853 0
-19803 19854 0
-19804 19855 0
-19805 19856 0
-19806 19857 0
-19807 19858 0
-19808 19859 0
-19809 19860 0
-19810 19861 0
-19811 19862 0
-19812 19863 0
-19813 19864 0
-19814 19865 0
-19815 19866 0
-19816 19867 0
-19817 19868 0
-19818 19869 0
-19819 19870 0
-19820 19871 0
-19821 19872 0
-19822 19873 0
-19823 19874 0
-19824 19875 0
-19825 19876 0
-19826 19877 0
-19827 19878 0
-19828 19879 0
-19829 19880 0
-19830 19881 0
-19831 19882 0
-19832 19883 0
-19833 19884 0
-19834 19885 0
-1550 -19784 19836 0
-1550 -19785 19837 0
-1550 -19786 19838 0
-1550 -19787 19839 0
-1550 -19788 19840 0
-1550 -19789 19841 0
-1550 -19790 19842 0
-1550 -19791 19843 0
-1550 -19792 19844 0
-1550 -19793 19845 0
-1550 -19794 19846 0
-1550 -19795 19847 0
-1550 -19796 19848 0
-1550 -19797 19849 0
-1550 -19798 19850 0
-1550 -19799 19851 0
-1550 -19800 19852 0
-1550 -19801 19853 0
-1550 -19802 19854 0
-1550 -19803 19855 0
-1550 -19804 19856 0
-1550 -19805 19857 0
-1550 -19806 19858 0
-1550 -19807 19859 0
-1550 -19808 19860 0
-1550 -19809 19861 0
-1550 -19810 19862 0
-1550 -19811 19863 0
-1550 -19812 19864 0
-1550 -19813 19865 0
-1550 -19814 19866 0
-1550 -19815 19867 0
-1550 -19816 19868 0
-1550 -19817 19869 0
-1550 -19818 19870 0
-1550 -19819 19871 0
-1550 -19820 19872 0
-1550 -19821 19873 0
-1550 -19822 19874 0
-1550 -19823 19875 0
-1550 -19824 19876 0
-1550 -19825 19877 0
-1550 -19826 19878 0
-1550 -19827 19879 0
-1550 -19828 19880 0
-1550 -19829 19881 0
-1550 -19830 19882 0
-1550 -19831 19883 0
-1550 -19832 19884 0
-1550 -19833 19885 0
-1550 -19834 0
-19835 19886 0
-19836 19887 0
-19837 19888 0
-19838 19889 0
-19839 19890 0
-19840 19891 0
-19841 19892 0
-19842 19893 0
-19843 19894 0
-19844 19895 0
-19845 19896 0
-19846 19897 0
-19847 19898 0
-19848 19899 0
-19849 19900 0
-19850 19901 0
-19851 19902 0
-19852 19903 0
-19853 19904 0
-19854 19905 0
-19855 19906 0
-19856 19907 0
-19857 19908 0
-19858 19909 0
-19859 19910 0
-19860 19911 0
-19861 19912 0
-19862 19913 0
-19863 19914 0
-19864 19915 0
-19865 19916 0
-19866 19917 0
-19867 19918 0
-19868 19919 0
-19869 19920 0
-19870 19921 0
-19871 19922 0
-19872 19923 0
-19873 19924 0
-19874 19925 0
-19875 19926 0
-19876 19927 0
-19877 19928 0
-19878 19929 0
-19879 19930 0
-19880 19931 0
-19881 19932 0
-19882 19933 0
-19883 19934 0
-19884 19935 0
-19885 19936 0
-1552 -19835 19887 0
-1552 -19836 19888 0
-1552 -19837 19889 0
-1552 -19838 19890 0
-1552 -19839 19891 0
-1552 -19840 19892 0
-1552 -19841 19893 0
-1552 -19842 19894 0
-1552 -19843 19895 0
-1552 -19844 19896 0
-1552 -19845 19897 0
-1552 -19846 19898 0
-1552 -19847 19899 0
-1552 -19848 19900 0
-1552 -19849 19901 0
-1552 -19850 19902 0
-1552 -19851 19903 0
-1552 -19852 19904 0
-1552 -19853 19905 0
-1552 -19854 19906 0
-1552 -19855 19907 0
-1552 -19856 19908 0
-1552 -19857 19909 0
-1552 -19858 19910 0
-1552 -19859 19911 0
-1552 -19860 19912 0
-1552 -19861 19913 0
-1552 -19862 19914 0
-1552 -19863 19915 0
-1552 -19864 19916 0
-1552 -19865 19917 0
-1552 -19866 19918 0
-1552 -19867 19919 0
-1552 -19868 19920 0
-1552 -19869 19921 0
-1552 -19870 19922 0
-1552 -19871 19923 0
-1552 -19872 19924 0
-1552 -19873 19925 0
-1552 -19874 19926 0
-1552 -19875 19927 0
-1552 -19876 19928 0
-1552 -19877 19929 0
-1552 -19878 19930 0
-1552 -19879 19931 0
-1552 -19880 19932 0
-1552 -19881 19933 0
-1552 -19882 19934 0
-1552 -19883 19935 0
-1552 -19884 19936 0
-1552 -19885 0
-19886 19937 0
-19887 19938 0
-19888 19939 0
-19889 19940 0
-19890 19941 0
-19891 19942 0
-19892 19943 0
-19893 19944 0
-19894 19945 0
-19895 19946 0
-19896 19947 0
-19897 19948 0
-19898 19949 0
-19899 19950 0
-19900 19951 0
-19901 19952 0
-19902 19953 0
-19903 19954 0
-19904 19955 0
-19905 19956 0
-19906 19957 0
-19907 19958 0
-19908 19959 0
-19909 19960 0
-19910 19961 0
-19911 19962 0
-19912 19963 0
-19913 19964 0
-19914 19965 0
-19915 19966 0
-19916 19967 0
-19917 19968 0
-19918 19969 0
-19919 19970 0
-19920 19971 0
-19921 19972 0
-19922 19973 0
-19923 19974 0
-19924 19975 0
-19925 19976 0
-19926 19977 0
-19927 19978 0
-19928 19979 0
-19929 19980 0
-19930 19981 0
-19931 19982 0
-19932 19983 0
-19933 19984 0
-19934 19985 0
-19935 19986 0
-19936 19987 0
-1554 -19886 19938 0
-1554 -19887 19939 0
-1554 -19888 19940 0
-1554 -19889 19941 0
-1554 -19890 19942 0
-1554 -19891 19943 0
-1554 -19892 19944 0
-1554 -19893 19945 0
-1554 -19894 19946 0
-1554 -19895 19947 0
-1554 -19896 19948 0
-1554 -19897 19949 0
-1554 -19898 19950 0
-1554 -19899 19951 0
-1554 -19900 19952 0
-1554 -19901 19953 0
-1554 -19902 19954 0
-1554 -19903 19955 0
-1554 -19904 19956 0
-1554 -19905 19957 0
-1554 -19906 19958 0
-1554 -19907 19959 0
-1554 -19908 19960 0
-1554 -19909 19961 0
-1554 -19910 19962 0
-1554 -19911 19963 0
-1554 -19912 19964 0
-1554 -19913 19965 0
-1554 -19914 19966 0
-1554 -19915 19967 0
-1554 -19916 19968 0
-1554 -19917 19969 0
-1554 -19918 19970 0
-1554 -19919 19971 0
-1554 -19920 19972 0
-1554 -19921 19973 0
-1554 -19922 19974 0
-1554 -19923 19975 0
-1554 -19924 19976 0
-1554 -19925 19977 0
-1554 -19926 19978 0
-1554 -19927 19979 0
-1554 -19928 19980 0
-1554 -19929 19981 0
-1554 -19930 19982 0
-1554 -19931 19983 0
-1554 -19932 19984 0
-1554 -19933 19985 0
-1554 -19934 19986 0
-1554 -19935 19987 0
-1554 -19936 0
-19937 19988 0
-19938 19989 0
-19939 19990 0
-19940 19991 0
-19941 19992 0
-19942 19993 0
-19943 19994 0
-19944 19995 0
-19945 19996 0
-19946 19997 0
-19947 19998 0
-19948 19999 0
-19949 20000 0
-19950 20001 0
-19951 20002 0
-19952 20003 0
-19953 20004 0
-19954 20005 0
-19955 20006 0
-19956 20007 0
-19957 20008 0
-19958 20009 0
-19959 20010 0
-19960 20011 0
-19961 20012 0
-19962 20013 0
-19963 20014 0
-19964 20015 0
-19965 20016 0
-19966 20017 0
-19967 20018 0
-19968 20019 0
-19969 20020 0
-19970 20021 0
-19971 20022 0
-19972 20023 0
-19973 20024 0
-19974 20025 0
-19975 20026 0
-19976 20027 0
-19977 20028 0
-19978 20029 0
-19979 20030 0
-19980 20031 0
-19981 20032 0
-19982 20033 0
-19983 20034 0
-19984 20035 0
-19985 20036 0
-19986 20037 0
-19987 20038 0
-1556 -19937 19989 0
-1556 -19938 19990 0
-1556 -19939 19991 0
-1556 -19940 19992 0
-1556 -19941 19993 0
-1556 -19942 19994 0
-1556 -19943 19995 0
-1556 -19944 19996 0
-1556 -19945 19997 0
-1556 -19946 19998 0
-1556 -19947 19999 0
-1556 -19948 20000 0
-1556 -19949 20001 0
-1556 -19950 20002 0
-1556 -19951 20003 0
-1556 -19952 20004 0
-1556 -19953 20005 0
-1556 -19954 20006 0
-1556 -19955 20007 0
-1556 -19956 20008 0
-1556 -19957 20009 0
-1556 -19958 20010 0
-1556 -19959 20011 0
-1556 -19960 20012 0
-1556 -19961 20013 0
-1556 -19962 20014 0
-1556 -19963 20015 0
-1556 -19964 20016 0
-1556 -19965 20017 0
-1556 -19966 20018 0
-1556 -19967 20019 0
-1556 -19968 20020 0
-1556 -19969 20021 0
-1556 -19970 20022 0
-1556 -19971 20023 0
-1556 -19972 20024 0
-1556 -19973 20025 0
-1556 -19974 20026 0
-1556 -19975 20027 0
-1556 -19976 20028 0
-1556 -19977 20029 0
-1556 -19978 20030 0
-1556 -19979 20031 0
-1556 -19980 20032 0
-1556 -19981 20033 0
-1556 -19982 20034 0
-1556 -19983 20035 0
-1556 -19984 20036 0
-1556 -19985 20037 0
-1556 -19986 20038 0
-1556 -19987 0
-19988 20039 0
-19989 20040 0
-19990 20041 0
-19991 20042 0
-19992 20043 0
-19993 20044 0
-19994 20045 0
-19995 20046 0
-19996 20047 0
-19997 20048 0
-19998 20049 0
-19999 20050 0
-20000 20051 0
-20001 20052 0
-20002 20053 0
-20003 20054 0
-20004 20055 0
-20005 20056 0
-20006 20057 0
-20007 20058 0
-20008 20059 0
-20009 20060 0
-20010 20061 0
-20011 20062 0
-20012 20063 0
-20013 20064 0
-20014 20065 0
-20015 20066 0
-20016 20067 0
-20017 20068 0
-20018 20069 0
-20019 20070 0
-20020 20071 0
-20021 20072 0
-20022 20073 0
-20023 20074 0
-20024 20075 0
-20025 20076 0
-20026 20077 0
-20027 20078 0
-20028 20079 0
-20029 20080 0
-20030 20081 0
-20031 20082 0
-20032 20083 0
-20033 20084 0
-20034 20085 0
-20035 20086 0
-20036 20087 0
-20037 20088 0
-20038 20089 0
-1558 -19988 20040 0
-1558 -19989 20041 0
-1558 -19990 20042 0
-1558 -19991 20043 0
-1558 -19992 20044 0
-1558 -19993 20045 0
-1558 -19994 20046 0
-1558 -19995 20047 0
-1558 -19996 20048 0
-1558 -19997 20049 0
-1558 -19998 20050 0
-1558 -19999 20051 0
-1558 -20000 20052 0
-1558 -20001 20053 0
-1558 -20002 20054 0
-1558 -20003 20055 0
-1558 -20004 20056 0
-1558 -20005 20057 0
-1558 -20006 20058 0
-1558 -20007 20059 0
-1558 -20008 20060 0
-1558 -20009 20061 0
-1558 -20010 20062 0
-1558 -20011 20063 0
-1558 -20012 20064 0
-1558 -20013 20065 0
-1558 -20014 20066 0
-1558 -20015 20067 0
-1558 -20016 20068 0
-1558 -20017 20069 0
-1558 -20018 20070 0
-1558 -20019 20071 0
-1558 -20020 20072 0
-1558 -20021 20073 0
-1558 -20022 20074 0
-1558 -20023 20075 0
-1558 -20024 20076 0
-1558 -20025 20077 0
-1558 -20026 20078 0
-1558 -20027 20079 0
-1558 -20028 20080 0
-1558 -20029 20081 0
-1558 -20030 20082 0
-1558 -20031 20083 0
-1558 -20032 20084 0
-1558 -20033 20085 0
-1558 -20034 20086 0
-1558 -20035 20087 0
-1558 -20036 20088 0
-1558 -20037 20089 0
-1558 -20038 0
-20039 20090 0
-20040 20091 0
-20041 20092 0
-20042 20093 0
-20043 20094 0
-20044 20095 0
-20045 20096 0
-20046 20097 0
-20047 20098 0
-20048 20099 0
-20049 20100 0
-20050 20101 0
-20051 20102 0
-20052 20103 0
-20053 20104 0
-20054 20105 0
-20055 20106 0
-20056 20107 0
-20057 20108 0
-20058 20109 0
-20059 20110 0
-20060 20111 0
-20061 20112 0
-20062 20113 0
-20063 20114 0
-20064 20115 0
-20065 20116 0
-20066 20117 0
-20067 20118 0
-20068 20119 0
-20069 20120 0
-20070 20121 0
-20071 20122 0
-20072 20123 0
-20073 20124 0
-20074 20125 0
-20075 20126 0
-20076 20127 0
-20077 20128 0
-20078 20129 0
-20079 20130 0
-20080 20131 0
-20081 20132 0
-20082 20133 0
-20083 20134 0
-20084 20135 0
-20085 20136 0
-20086 20137 0
-20087 20138 0
-20088 20139 0
-20089 20140 0
-1560 -20039 20091 0
-1560 -20040 20092 0
-1560 -20041 20093 0
-1560 -20042 20094 0
-1560 -20043 20095 0
-1560 -20044 20096 0
-1560 -20045 20097 0
-1560 -20046 20098 0
-1560 -20047 20099 0
-1560 -20048 20100 0
-1560 -20049 20101 0
-1560 -20050 20102 0
-1560 -20051 20103 0
-1560 -20052 20104 0
-1560 -20053 20105 0
-1560 -20054 20106 0
-1560 -20055 20107 0
-1560 -20056 20108 0
-1560 -20057 20109 0
-1560 -20058 20110 0
-1560 -20059 20111 0
-1560 -20060 20112 0
-1560 -20061 20113 0
-1560 -20062 20114 0
-1560 -20063 20115 0
-1560 -20064 20116 0
-1560 -20065 20117 0
-1560 -20066 20118 0
-1560 -20067 20119 0
-1560 -20068 20120 0
-1560 -20069 20121 0
-1560 -20070 20122 0
-1560 -20071 20123 0
-1560 -20072 20124 0
-1560 -20073 20125 0
-1560 -20074 20126 0
-1560 -20075 20127 0
-1560 -20076 20128 0
-1560 -20077 20129 0
-1560 -20078 20130 0
-1560 -20079 20131 0
-1560 -20080 20132 0
-1560 -20081 20133 0
-1560 -20082 20134 0
-1560 -20083 20135 0
-1560 -20084 20136 0
-1560 -20085 20137 0
-1560 -20086 20138 0
-1560 -20087 20139 0
-1560 -20088 20140 0
-1560 -20089 0
-20090 20141 0
-20091 20142 0
-20092 20143 0
-20093 20144 0
-20094 20145 0
-20095 20146 0
-20096 20147 0
-20097 20148 0
-20098 20149 0
-20099 20150 0
-20100 20151 0
-20101 20152 0
-20102 20153 0
-20103 20154 0
-20104 20155 0
-20105 20156 0
-20106 20157 0
-20107 20158 0
-20108 20159 0
-20109 20160 0
-20110 20161 0
-20111 20162 0
-20112 20163 0
-20113 20164 0
-20114 20165 0
-20115 20166 0
-20116 20167 0
-20117 20168 0
-20118 20169 0
-20119 20170 0
-20120 20171 0
-20121 20172 0
-20122 20173 0
-20123 20174 0
-20124 20175 0
-20125 20176 0
-20126 20177 0
-20127 20178 0
-20128 20179 0
-20129 20180 0
-20130 20181 0
-20131 20182 0
-20132 20183 0
-20133 20184 0
-20134 20185 0
-20135 20186 0
-20136 20187 0
-20137 20188 0
-20138 20189 0
-20139 20190 0
-20140 20191 0
-1562 -20090 20142 0
-1562 -20091 20143 0
-1562 -20092 20144 0
-1562 -20093 20145 0
-1562 -20094 20146 0
-1562 -20095 20147 0
-1562 -20096 20148 0
-1562 -20097 20149 0
-1562 -20098 20150 0
-1562 -20099 20151 0
-1562 -20100 20152 0
-1562 -20101 20153 0
-1562 -20102 20154 0
-1562 -20103 20155 0
-1562 -20104 20156 0
-1562 -20105 20157 0
-1562 -20106 20158 0
-1562 -20107 20159 0
-1562 -20108 20160 0
-1562 -20109 20161 0
-1562 -20110 20162 0
-1562 -20111 20163 0
-1562 -20112 20164 0
-1562 -20113 20165 0
-1562 -20114 20166 0
-1562 -20115 20167 0
-1562 -20116 20168 0
-1562 -20117 20169 0
-1562 -20118 20170 0
-1562 -20119 20171 0
-1562 -20120 20172 0
-1562 -20121 20173 0
-1562 -20122 20174 0
-1562 -20123 20175 0
-1562 -20124 20176 0
-1562 -20125 20177 0
-1562 -20126 20178 0
-1562 -20127 20179 0
-1562 -20128 20180 0
-1562 -20129 20181 0
-1562 -20130 20182 0
-1562 -20131 20183 0
-1562 -20132 20184 0
-1562 -20133 20185 0
-1562 -20134 20186 0
-1562 -20135 20187 0
-1562 -20136 20188 0
-1562 -20137 20189 0
-1562 -20138 20190 0
-1562 -20139 20191 0
-1562 -20140 0
-20141 20192 0
-20142 20193 0
-20143 20194 0
-20144 20195 0
-20145 20196 0
-20146 20197 0
-20147 20198 0
-20148 20199 0
-20149 20200 0
-20150 20201 0
-20151 20202 0
-20152 20203 0
-20153 20204 0
-20154 20205 0
-20155 20206 0
-20156 20207 0
-20157 20208 0
-20158 20209 0
-20159 20210 0
-20160 20211 0
-20161 20212 0
-20162 20213 0
-20163 20214 0
-20164 20215 0
-20165 20216 0
-20166 20217 0
-20167 20218 0
-20168 20219 0
-20169 20220 0
-20170 20221 0
-20171 20222 0
-20172 20223 0
-20173 20224 0
-20174 20225 0
-20175 20226 0
-20176 20227 0
-20177 20228 0
-20178 20229 0
-20179 20230 0
-20180 20231 0
-20181 20232 0
-20182 20233 0
-20183 20234 0
-20184 20235 0
-20185 20236 0
-20186 20237 0
-20187 20238 0
-20188 20239 0
-20189 20240 0
-20190 20241 0
-20191 20242 0
-1564 -20141 20193 0
-1564 -20142 20194 0
-1564 -20143 20195 0
-1564 -20144 20196 0
-1564 -20145 20197 0
-1564 -20146 20198 0
-1564 -20147 20199 0
-1564 -20148 20200 0
-1564 -20149 20201 0
-1564 -20150 20202 0
-1564 -20151 20203 0
-1564 -20152 20204 0
-1564 -20153 20205 0
-1564 -20154 20206 0
-1564 -20155 20207 0
-1564 -20156 20208 0
-1564 -20157 20209 0
-1564 -20158 20210 0
-1564 -20159 20211 0
-1564 -20160 20212 0
-1564 -20161 20213 0
-1564 -20162 20214 0
-1564 -20163 20215 0
-1564 -20164 20216 0
-1564 -20165 20217 0
-1564 -20166 20218 0
-1564 -20167 20219 0
-1564 -20168 20220 0
-1564 -20169 20221 0
-1564 -20170 20222 0
-1564 -20171 20223 0
-1564 -20172 20224 0
-1564 -20173 20225 0
-1564 -20174 20226 0
-1564 -20175 20227 0
-1564 -20176 20228 0
-1564 -20177 20229 0
-1564 -20178 20230 0
-1564 -20179 20231 0
-1564 -20180 20232 0
-1564 -20181 20233 0
-1564 -20182 20234 0
-1564 -20183 20235 0
-1564 -20184 20236 0
-1564 -20185 20237 0
-1564 -20186 20238 0
-1564 -20187 20239 0
-1564 -20188 20240 0
-1564 -20189 20241 0
-1564 -20190 20242 0
-1564 -20191 0
-20192 20243 0
-20193 20244 0
-20194 20245 0
-20195 20246 0
-20196 20247 0
-20197 20248 0
-20198 20249 0
-20199 20250 0
-20200 20251 0
-20201 20252 0
-20202 20253 0
-20203 20254 0
-20204 20255 0
-20205 20256 0
-20206 20257 0
-20207 20258 0
-20208 20259 0
-20209 20260 0
-20210 20261 0
-20211 20262 0
-20212 20263 0
-20213 20264 0
-20214 20265 0
-20215 20266 0
-20216 20267 0
-20217 20268 0
-20218 20269 0
-20219 20270 0
-20220 20271 0
-20221 20272 0
-20222 20273 0
-20223 20274 0
-20224 20275 0
-20225 20276 0
-20226 20277 0
-20227 20278 0
-20228 20279 0
-20229 20280 0
-20230 20281 0
-20231 20282 0
-20232 20283 0
-20233 20284 0
-20234 20285 0
-20235 20286 0
-20236 20287 0
-20237 20288 0
-20238 20289 0
-20239 20290 0
-20240 20291 0
-20241 20292 0
-20242 20293 0
-1566 -20192 20244 0
-1566 -20193 20245 0
-1566 -20194 20246 0
-1566 -20195 20247 0
-1566 -20196 20248 0
-1566 -20197 20249 0
-1566 -20198 20250 0
-1566 -20199 20251 0
-1566 -20200 20252 0
-1566 -20201 20253 0
-1566 -20202 20254 0
-1566 -20203 20255 0
-1566 -20204 20256 0
-1566 -20205 20257 0
-1566 -20206 20258 0
-1566 -20207 20259 0
-1566 -20208 20260 0
-1566 -20209 20261 0
-1566 -20210 20262 0
-1566 -20211 20263 0
-1566 -20212 20264 0
-1566 -20213 20265 0
-1566 -20214 20266 0
-1566 -20215 20267 0
-1566 -20216 20268 0
-1566 -20217 20269 0
-1566 -20218 20270 0
-1566 -20219 20271 0
-1566 -20220 20272 0
-1566 -20221 20273 0
-1566 -20222 20274 0
-1566 -20223 20275 0
-1566 -20224 20276 0
-1566 -20225 20277 0
-1566 -20226 20278 0
-1566 -20227 20279 0
-1566 -20228 20280 0
-1566 -20229 20281 0
-1566 -20230 20282 0
-1566 -20231 20283 0
-1566 -20232 20284 0
-1566 -20233 20285 0
-1566 -20234 20286 0
-1566 -20235 20287 0
-1566 -20236 20288 0
-1566 -20237 20289 0
-1566 -20238 20290 0
-1566 -20239 20291 0
-1566 -20240 20292 0
-1566 -20241 20293 0
-1566 -20242 0
-20243 20294 0
-20244 20295 0
-20245 20296 0
-20246 20297 0
-20247 20298 0
-20248 20299 0
-20249 20300 0
-20250 20301 0
-20251 20302 0
-20252 20303 0
-20253 20304 0
-20254 20305 0
-20255 20306 0
-20256 20307 0
-20257 20308 0
-20258 20309 0
-20259 20310 0
-20260 20311 0
-20261 20312 0
-20262 20313 0
-20263 20314 0
-20264 20315 0
-20265 20316 0
-20266 20317 0
-20267 20318 0
-20268 20319 0
-20269 20320 0
-20270 20321 0
-20271 20322 0
-20272 20323 0
-20273 20324 0
-20274 20325 0
-20275 20326 0
-20276 20327 0
-20277 20328 0
-20278 20329 0
-20279 20330 0
-20280 20331 0
-20281 20332 0
-20282 20333 0
-20283 20334 0
-20284 20335 0
-20285 20336 0
-20286 20337 0
-20287 20338 0
-20288 20339 0
-20289 20340 0
-20290 20341 0
-20291 20342 0
-20292 20343 0
-20293 20344 0
-1568 -20243 20295 0
-1568 -20244 20296 0
-1568 -20245 20297 0
-1568 -20246 20298 0
-1568 -20247 20299 0
-1568 -20248 20300 0
-1568 -20249 20301 0
-1568 -20250 20302 0
-1568 -20251 20303 0
-1568 -20252 20304 0
-1568 -20253 20305 0
-1568 -20254 20306 0
-1568 -20255 20307 0
-1568 -20256 20308 0
-1568 -20257 20309 0
-1568 -20258 20310 0
-1568 -20259 20311 0
-1568 -20260 20312 0
-1568 -20261 20313 0
-1568 -20262 20314 0
-1568 -20263 20315 0
-1568 -20264 20316 0
-1568 -20265 20317 0
-1568 -20266 20318 0
-1568 -20267 20319 0
-1568 -20268 20320 0
-1568 -20269 20321 0
-1568 -20270 20322 0
-1568 -20271 20323 0
-1568 -20272 20324 0
-1568 -20273 20325 0
-1568 -20274 20326 0
-1568 -20275 20327 0
-1568 -20276 20328 0
-1568 -20277 20329 0
-1568 -20278 20330 0
-1568 -20279 20331 0
-1568 -20280 20332 0
-1568 -20281 20333 0
-1568 -20282 20334 0
-1568 -20283 20335 0
-1568 -20284 20336 0
-1568 -20285 20337 0
-1568 -20286 20338 0
-1568 -20287 20339 0
-1568 -20288 20340 0
-1568 -20289 20341 0
-1568 -20290 20342 0
-1568 -20291 20343 0
-1568 -20292 20344 0
-1568 -20293 0
-20294 20345 0
-20295 20346 0
-20296 20347 0
-20297 20348 0
-20298 20349 0
-20299 20350 0
-20300 20351 0
-20301 20352 0
-20302 20353 0
-20303 20354 0
-20304 20355 0
-20305 20356 0
-20306 20357 0
-20307 20358 0
-20308 20359 0
-20309 20360 0
-20310 20361 0
-20311 20362 0
-20312 20363 0
-20313 20364 0
-20314 20365 0
-20315 20366 0
-20316 20367 0
-20317 20368 0
-20318 20369 0
-20319 20370 0
-20320 20371 0
-20321 20372 0
-20322 20373 0
-20323 20374 0
-20324 20375 0
-20325 20376 0
-20326 20377 0
-20327 20378 0
-20328 20379 0
-20329 20380 0
-20330 20381 0
-20331 20382 0
-20332 20383 0
-20333 20384 0
-20334 20385 0
-20335 20386 0
-20336 20387 0
-20337 20388 0
-20338 20389 0
-20339 20390 0
-20340 20391 0
-20341 20392 0
-20342 20393 0
-20343 20394 0
-20344 20395 0
-1570 -20294 20346 0
-1570 -20295 20347 0
-1570 -20296 20348 0
-1570 -20297 20349 0
-1570 -20298 20350 0
-1570 -20299 20351 0
-1570 -20300 20352 0
-1570 -20301 20353 0
-1570 -20302 20354 0
-1570 -20303 20355 0
-1570 -20304 20356 0
-1570 -20305 20357 0
-1570 -20306 20358 0
-1570 -20307 20359 0
-1570 -20308 20360 0
-1570 -20309 20361 0
-1570 -20310 20362 0
-1570 -20311 20363 0
-1570 -20312 20364 0
-1570 -20313 20365 0
-1570 -20314 20366 0
-1570 -20315 20367 0
-1570 -20316 20368 0
-1570 -20317 20369 0
-1570 -20318 20370 0
-1570 -20319 20371 0
-1570 -20320 20372 0
-1570 -20321 20373 0
-1570 -20322 20374 0
-1570 -20323 20375 0
-1570 -20324 20376 0
-1570 -20325 20377 0
-1570 -20326 20378 0
-1570 -20327 20379 0
-1570 -20328 20380 0
-1570 -20329 20381 0
-1570 -20330 20382 0
-1570 -20331 20383 0
-1570 -20332 20384 0
-1570 -20333 20385 0
-1570 -20334 20386 0
-1570 -20335 20387 0
-1570 -20336 20388 0
-1570 -20337 20389 0
-1570 -20338 20390 0
-1570 -20339 20391 0
-1570 -20340 20392 0
-1570 -20341 20393 0
-1570 -20342 20394 0
-1570 -20343 20395 0
-1570 -20344 0
-20345 20396 0
-20346 20397 0
-20347 20398 0
-20348 20399 0
-20349 20400 0
-20350 20401 0
-20351 20402 0
-20352 20403 0
-20353 20404 0
-20354 20405 0
-20355 20406 0
-20356 20407 0
-20357 20408 0
-20358 20409 0
-20359 20410 0
-20360 20411 0
-20361 20412 0
-20362 20413 0
-20363 20414 0
-20364 20415 0
-20365 20416 0
-20366 20417 0
-20367 20418 0
-20368 20419 0
-20369 20420 0
-20370 20421 0
-20371 20422 0
-20372 20423 0
-20373 20424 0
-20374 20425 0
-20375 20426 0
-20376 20427 0
-20377 20428 0
-20378 20429 0
-20379 20430 0
-20380 20431 0
-20381 20432 0
-20382 20433 0
-20383 20434 0
-20384 20435 0
-20385 20436 0
-20386 20437 0
-20387 20438 0
-20388 20439 0
-20389 20440 0
-20390 20441 0
-20391 20442 0
-20392 20443 0
-20393 20444 0
-20394 20445 0
-20395 20446 0
-1572 -20345 20397 0
-1572 -20346 20398 0
-1572 -20347 20399 0
-1572 -20348 20400 0
-1572 -20349 20401 0
-1572 -20350 20402 0
-1572 -20351 20403 0
-1572 -20352 20404 0
-1572 -20353 20405 0
-1572 -20354 20406 0
-1572 -20355 20407 0
-1572 -20356 20408 0
-1572 -20357 20409 0
-1572 -20358 20410 0
-1572 -20359 20411 0
-1572 -20360 20412 0
-1572 -20361 20413 0
-1572 -20362 20414 0
-1572 -20363 20415 0
-1572 -20364 20416 0
-1572 -20365 20417 0
-1572 -20366 20418 0
-1572 -20367 20419 0
-1572 -20368 20420 0
-1572 -20369 20421 0
-1572 -20370 20422 0
-1572 -20371 20423 0
-1572 -20372 20424 0
-1572 -20373 20425 0
-1572 -20374 20426 0
-1572 -20375 20427 0
-1572 -20376 20428 0
-1572 -20377 20429 0
-1572 -20378 20430 0
-1572 -20379 20431 0
-1572 -20380 20432 0
-1572 -20381 20433 0
-1572 -20382 20434 0
-1572 -20383 20435 0
-1572 -20384 20436 0
-1572 -20385 20437 0
-1572 -20386 20438 0
-1572 -20387 20439 0
-1572 -20388 20440 0
-1572 -20389 20441 0
-1572 -20390 20442 0
-1572 -20391 20443 0
-1572 -20392 20444 0
-1572 -20393 20445 0
-1572 -20394 20446 0
-1572 -20395 0
-20396 20447 0
-20397 20448 0
-20398 20449 0
-20399 20450 0
-20400 20451 0
-20401 20452 0
-20402 20453 0
-20403 20454 0
-20404 20455 0
-20405 20456 0
-20406 20457 0
-20407 20458 0
-20408 20459 0
-20409 20460 0
-20410 20461 0
-20411 20462 0
-20412 20463 0
-20413 20464 0
-20414 20465 0
-20415 20466 0
-20416 20467 0
-20417 20468 0
-20418 20469 0
-20419 20470 0
-20420 20471 0
-20421 20472 0
-20422 20473 0
-20423 20474 0
-20424 20475 0
-20425 20476 0
-20426 20477 0
-20427 20478 0
-20428 20479 0
-20429 20480 0
-20430 20481 0
-20431 20482 0
-20432 20483 0
-20433 20484 0
-20434 20485 0
-20435 20486 0
-20436 20487 0
-20437 20488 0
-20438 20489 0
-20439 20490 0
-20440 20491 0
-20441 20492 0
-20442 20493 0
-20443 20494 0
-20444 20495 0
-20445 20496 0
-20446 20497 0
-1574 -20396 20448 0
-1574 -20397 20449 0
-1574 -20398 20450 0
-1574 -20399 20451 0
-1574 -20400 20452 0
-1574 -20401 20453 0
-1574 -20402 20454 0
-1574 -20403 20455 0
-1574 -20404 20456 0
-1574 -20405 20457 0
-1574 -20406 20458 0
-1574 -20407 20459 0
-1574 -20408 20460 0
-1574 -20409 20461 0
-1574 -20410 20462 0
-1574 -20411 20463 0
-1574 -20412 20464 0
-1574 -20413 20465 0
-1574 -20414 20466 0
-1574 -20415 20467 0
-1574 -20416 20468 0
-1574 -20417 20469 0
-1574 -20418 20470 0
-1574 -20419 20471 0
-1574 -20420 20472 0
-1574 -20421 20473 0
-1574 -20422 20474 0
-1574 -20423 20475 0
-1574 -20424 20476 0
-1574 -20425 20477 0
-1574 -20426 20478 0
-1574 -20427 20479 0
-1574 -20428 20480 0
-1574 -20429 20481 0
-1574 -20430 20482 0
-1574 -20431 20483 0
-1574 -20432 20484 0
-1574 -20433 20485 0
-1574 -20434 20486 0
-1574 -20435 20487 0
-1574 -20436 20488 0
-1574 -20437 20489 0
-1574 -20438 20490 0
-1574 -20439 20491 0
-1574 -20440 20492 0
-1574 -20441 20493 0
-1574 -20442 20494 0
-1574 -20443 20495 0
-1574 -20444 20496 0
-1574 -20445 20497 0
-1574 -20446 0
-20447 20498 0
-20448 20499 0
-20449 20500 0
-20450 20501 0
-20451 20502 0
-20452 20503 0
-20453 20504 0
-20454 20505 0
-20455 20506 0
-20456 20507 0
-20457 20508 0
-20458 20509 0
-20459 20510 0
-20460 20511 0
-20461 20512 0
-20462 20513 0
-20463 20514 0
-20464 20515 0
-20465 20516 0
-20466 20517 0
-20467 20518 0
-20468 20519 0
-20469 20520 0
-20470 20521 0
-20471 20522 0
-20472 20523 0
-20473 20524 0
-20474 20525 0
-20475 20526 0
-20476 20527 0
-20477 20528 0
-20478 20529 0
-20479 20530 0
-20480 20531 0
-20481 20532 0
-20482 20533 0
-20483 20534 0
-20484 20535 0
-20485 20536 0
-20486 20537 0
-20487 20538 0
-20488 20539 0
-20489 20540 0
-20490 20541 0
-20491 20542 0
-20492 20543 0
-20493 20544 0
-20494 20545 0
-20495 20546 0
-20496 20547 0
-20497 20548 0
-1576 -20447 20499 0
-1576 -20448 20500 0
-1576 -20449 20501 0
-1576 -20450 20502 0
-1576 -20451 20503 0
-1576 -20452 20504 0
-1576 -20453 20505 0
-1576 -20454 20506 0
-1576 -20455 20507 0
-1576 -20456 20508 0
-1576 -20457 20509 0
-1576 -20458 20510 0
-1576 -20459 20511 0
-1576 -20460 20512 0
-1576 -20461 20513 0
-1576 -20462 20514 0
-1576 -20463 20515 0
-1576 -20464 20516 0
-1576 -20465 20517 0
-1576 -20466 20518 0
-1576 -20467 20519 0
-1576 -20468 20520 0
-1576 -20469 20521 0
-1576 -20470 20522 0
-1576 -20471 20523 0
-1576 -20472 20524 0
-1576 -20473 20525 0
-1576 -20474 20526 0
-1576 -20475 20527 0
-1576 -20476 20528 0
-1576 -20477 20529 0
-1576 -20478 20530 0
-1576 -20479 20531 0
-1576 -20480 20532 0
-1576 -20481 20533 0
-1576 -20482 20534 0
-1576 -20483 20535 0
-1576 -20484 20536 0
-1576 -20485 20537 0
-1576 -20486 20538 0
-1576 -20487 20539 0
-1576 -20488 20540 0
-1576 -20489 20541 0
-1576 -20490 20542 0
-1576 -20491 20543 0
-1576 -20492 20544 0
-1576 -20493 20545 0
-1576 -20494 20546 0
-1576 -20495 20547 0
-1576 -20496 20548 0
-1576 -20497 0
