c Speck64 XOR-differential SAT CNF
c word_bits=32 alpha=8 beta=3 rounds=13
c in_dx=0x00000008 in_dy=0x00000000
c out_dx=None out_dy=None
c max_weight=59
c num_vars=25479 num_clauses=56125
p cnf 25479 56125
-1 0
-2 0
-3 0
4 0
-5 0
-6 0
-7 0
-8 0
-9 0
-10 0
-11 0
-12 0
-13 0
-14 0
-15 0
-16 0
-17 0
-18 0
-19 0
-20 0
-21 0
-22 0
-23 0
-24 0
-25 0
-26 0
-27 0
-28 0
-29 0
-30 0
-31 0
-32 0
-33 0
-34 0
-35 0
-36 0
-37 0
-38 0
-39 0
-40 0
-41 0
-42 0
-43 0
-44 0
-45 0
-46 0
-47 0
-48 0
-49 0
-50 0
-51 0
-52 0
-53 0
-54 0
-55 0
-56 0
-57 0
-58 0
-59 0
-60 0
-61 0
-62 0
-63 0
-64 0
9 33 -65 0
9 -33 65 0
-9 33 65 0
-9 -33 -65 0
9 33 65 897 0
-9 -33 -65 897 0
-897 -9 33 0
-897 9 -33 0
-897 -9 65 0
-897 9 -65 0
-897 10 34 66 -33 0
-897 10 34 -66 33 0
-897 10 -34 66 33 0
-897 10 -34 -66 -33 0
-897 -10 34 66 33 0
-897 -10 34 -66 -33 0
-897 -10 -34 66 -33 0
-897 -10 -34 -66 33 0
898 897 0
-898 -897 0
10 34 66 899 0
-10 -34 -66 899 0
-899 -10 34 0
-899 10 -34 0
-899 -10 66 0
-899 10 -66 0
-899 11 35 67 -34 0
-899 11 35 -67 34 0
-899 11 -35 67 34 0
-899 11 -35 -67 -34 0
-899 -11 35 67 34 0
-899 -11 35 -67 -34 0
-899 -11 -35 67 -34 0
-899 -11 -35 -67 34 0
900 899 0
-900 -899 0
11 35 67 901 0
-11 -35 -67 901 0
-901 -11 35 0
-901 11 -35 0
-901 -11 67 0
-901 11 -67 0
-901 12 36 68 -35 0
-901 12 36 -68 35 0
-901 12 -36 68 35 0
-901 12 -36 -68 -35 0
-901 -12 36 68 35 0
-901 -12 36 -68 -35 0
-901 -12 -36 68 -35 0
-901 -12 -36 -68 35 0
902 901 0
-902 -901 0
12 36 68 903 0
-12 -36 -68 903 0
-903 -12 36 0
-903 12 -36 0
-903 -12 68 0
-903 12 -68 0
-903 13 37 69 -36 0
-903 13 37 -69 36 0
-903 13 -37 69 36 0
-903 13 -37 -69 -36 0
-903 -13 37 69 36 0
-903 -13 37 -69 -36 0
-903 -13 -37 69 -36 0
-903 -13 -37 -69 36 0
904 903 0
-904 -903 0
13 37 69 905 0
-13 -37 -69 905 0
-905 -13 37 0
-905 13 -37 0
-905 -13 69 0
-905 13 -69 0
-905 14 38 70 -37 0
-905 14 38 -70 37 0
-905 14 -38 70 37 0
-905 14 -38 -70 -37 0
-905 -14 38 70 37 0
-905 -14 38 -70 -37 0
-905 -14 -38 70 -37 0
-905 -14 -38 -70 37 0
906 905 0
-906 -905 0
14 38 70 907 0
-14 -38 -70 907 0
-907 -14 38 0
-907 14 -38 0
-907 -14 70 0
-907 14 -70 0
-907 15 39 71 -38 0
-907 15 39 -71 38 0
-907 15 -39 71 38 0
-907 15 -39 -71 -38 0
-907 -15 39 71 38 0
-907 -15 39 -71 -38 0
-907 -15 -39 71 -38 0
-907 -15 -39 -71 38 0
908 907 0
-908 -907 0
15 39 71 909 0
-15 -39 -71 909 0
-909 -15 39 0
-909 15 -39 0
-909 -15 71 0
-909 15 -71 0
-909 16 40 72 -39 0
-909 16 40 -72 39 0
-909 16 -40 72 39 0
-909 16 -40 -72 -39 0
-909 -16 40 72 39 0
-909 -16 40 -72 -39 0
-909 -16 -40 72 -39 0
-909 -16 -40 -72 39 0
910 909 0
-910 -909 0
16 40 72 911 0
-16 -40 -72 911 0
-911 -16 40 0
-911 16 -40 0
-911 -16 72 0
-911 16 -72 0
-911 17 41 73 -40 0
-911 17 41 -73 40 0
-911 17 -41 73 40 0
-911 17 -41 -73 -40 0
-911 -17 41 73 40 0
-911 -17 41 -73 -40 0
-911 -17 -41 73 -40 0
-911 -17 -41 -73 40 0
912 911 0
-912 -911 0
17 41 73 913 0
-17 -41 -73 913 0
-913 -17 41 0
-913 17 -41 0
-913 -17 73 0
-913 17 -73 0
-913 18 42 74 -41 0
-913 18 42 -74 41 0
-913 18 -42 74 41 0
-913 18 -42 -74 -41 0
-913 -18 42 74 41 0
-913 -18 42 -74 -41 0
-913 -18 -42 74 -41 0
-913 -18 -42 -74 41 0
914 913 0
-914 -913 0
18 42 74 915 0
-18 -42 -74 915 0
-915 -18 42 0
-915 18 -42 0
-915 -18 74 0
-915 18 -74 0
-915 19 43 75 -42 0
-915 19 43 -75 42 0
-915 19 -43 75 42 0
-915 19 -43 -75 -42 0
-915 -19 43 75 42 0
-915 -19 43 -75 -42 0
-915 -19 -43 75 -42 0
-915 -19 -43 -75 42 0
916 915 0
-916 -915 0
19 43 75 917 0
-19 -43 -75 917 0
-917 -19 43 0
-917 19 -43 0
-917 -19 75 0
-917 19 -75 0
-917 20 44 76 -43 0
-917 20 44 -76 43 0
-917 20 -44 76 43 0
-917 20 -44 -76 -43 0
-917 -20 44 76 43 0
-917 -20 44 -76 -43 0
-917 -20 -44 76 -43 0
-917 -20 -44 -76 43 0
918 917 0
-918 -917 0
20 44 76 919 0
-20 -44 -76 919 0
-919 -20 44 0
-919 20 -44 0
-919 -20 76 0
-919 20 -76 0
-919 21 45 77 -44 0
-919 21 45 -77 44 0
-919 21 -45 77 44 0
-919 21 -45 -77 -44 0
-919 -21 45 77 44 0
-919 -21 45 -77 -44 0
-919 -21 -45 77 -44 0
-919 -21 -45 -77 44 0
920 919 0
-920 -919 0
21 45 77 921 0
-21 -45 -77 921 0
-921 -21 45 0
-921 21 -45 0
-921 -21 77 0
-921 21 -77 0
-921 22 46 78 -45 0
-921 22 46 -78 45 0
-921 22 -46 78 45 0
-921 22 -46 -78 -45 0
-921 -22 46 78 45 0
-921 -22 46 -78 -45 0
-921 -22 -46 78 -45 0
-921 -22 -46 -78 45 0
922 921 0
-922 -921 0
22 46 78 923 0
-22 -46 -78 923 0
-923 -22 46 0
-923 22 -46 0
-923 -22 78 0
-923 22 -78 0
-923 23 47 79 -46 0
-923 23 47 -79 46 0
-923 23 -47 79 46 0
-923 23 -47 -79 -46 0
-923 -23 47 79 46 0
-923 -23 47 -79 -46 0
-923 -23 -47 79 -46 0
-923 -23 -47 -79 46 0
924 923 0
-924 -923 0
23 47 79 925 0
-23 -47 -79 925 0
-925 -23 47 0
-925 23 -47 0
-925 -23 79 0
-925 23 -79 0
-925 24 48 80 -47 0
-925 24 48 -80 47 0
-925 24 -48 80 47 0
-925 24 -48 -80 -47 0
-925 -24 48 80 47 0
-925 -24 48 -80 -47 0
-925 -24 -48 80 -47 0
-925 -24 -48 -80 47 0
926 925 0
-926 -925 0
24 48 80 927 0
-24 -48 -80 927 0
-927 -24 48 0
-927 24 -48 0
-927 -24 80 0
-927 24 -80 0
-927 25 49 81 -48 0
-927 25 49 -81 48 0
-927 25 -49 81 48 0
-927 25 -49 -81 -48 0
-927 -25 49 81 48 0
-927 -25 49 -81 -48 0
-927 -25 -49 81 -48 0
-927 -25 -49 -81 48 0
928 927 0
-928 -927 0
25 49 81 929 0
-25 -49 -81 929 0
-929 -25 49 0
-929 25 -49 0
-929 -25 81 0
-929 25 -81 0
-929 26 50 82 -49 0
-929 26 50 -82 49 0
-929 26 -50 82 49 0
-929 26 -50 -82 -49 0
-929 -26 50 82 49 0
-929 -26 50 -82 -49 0
-929 -26 -50 82 -49 0
-929 -26 -50 -82 49 0
930 929 0
-930 -929 0
26 50 82 931 0
-26 -50 -82 931 0
-931 -26 50 0
-931 26 -50 0
-931 -26 82 0
-931 26 -82 0
-931 27 51 83 -50 0
-931 27 51 -83 50 0
-931 27 -51 83 50 0
-931 27 -51 -83 -50 0
-931 -27 51 83 50 0
-931 -27 51 -83 -50 0
-931 -27 -51 83 -50 0
-931 -27 -51 -83 50 0
932 931 0
-932 -931 0
27 51 83 933 0
-27 -51 -83 933 0
-933 -27 51 0
-933 27 -51 0
-933 -27 83 0
-933 27 -83 0
-933 28 52 84 -51 0
-933 28 52 -84 51 0
-933 28 -52 84 51 0
-933 28 -52 -84 -51 0
-933 -28 52 84 51 0
-933 -28 52 -84 -51 0
-933 -28 -52 84 -51 0
-933 -28 -52 -84 51 0
934 933 0
-934 -933 0
28 52 84 935 0
-28 -52 -84 935 0
-935 -28 52 0
-935 28 -52 0
-935 -28 84 0
-935 28 -84 0
-935 29 53 85 -52 0
-935 29 53 -85 52 0
-935 29 -53 85 52 0
-935 29 -53 -85 -52 0
-935 -29 53 85 52 0
-935 -29 53 -85 -52 0
-935 -29 -53 85 -52 0
-935 -29 -53 -85 52 0
936 935 0
-936 -935 0
29 53 85 937 0
-29 -53 -85 937 0
-937 -29 53 0
-937 29 -53 0
-937 -29 85 0
-937 29 -85 0
-937 30 54 86 -53 0
-937 30 54 -86 53 0
-937 30 -54 86 53 0
-937 30 -54 -86 -53 0
-937 -30 54 86 53 0
-937 -30 54 -86 -53 0
-937 -30 -54 86 -53 0
-937 -30 -54 -86 53 0
938 937 0
-938 -937 0
30 54 86 939 0
-30 -54 -86 939 0
-939 -30 54 0
-939 30 -54 0
-939 -30 86 0
-939 30 -86 0
-939 31 55 87 -54 0
-939 31 55 -87 54 0
-939 31 -55 87 54 0
-939 31 -55 -87 -54 0
-939 -31 55 87 54 0
-939 -31 55 -87 -54 0
-939 -31 -55 87 -54 0
-939 -31 -55 -87 54 0
940 939 0
-940 -939 0
31 55 87 941 0
-31 -55 -87 941 0
-941 -31 55 0
-941 31 -55 0
-941 -31 87 0
-941 31 -87 0
-941 32 56 88 -55 0
-941 32 56 -88 55 0
-941 32 -56 88 55 0
-941 32 -56 -88 -55 0
-941 -32 56 88 55 0
-941 -32 56 -88 -55 0
-941 -32 -56 88 -55 0
-941 -32 -56 -88 55 0
942 941 0
-942 -941 0
32 56 88 943 0
-32 -56 -88 943 0
-943 -32 56 0
-943 32 -56 0
-943 -32 88 0
-943 32 -88 0
-943 1 57 89 -56 0
-943 1 57 -89 56 0
-943 1 -57 89 56 0
-943 1 -57 -89 -56 0
-943 -1 57 89 56 0
-943 -1 57 -89 -56 0
-943 -1 -57 89 -56 0
-943 -1 -57 -89 56 0
944 943 0
-944 -943 0
1 57 89 945 0
-1 -57 -89 945 0
-945 -1 57 0
-945 1 -57 0
-945 -1 89 0
-945 1 -89 0
-945 2 58 90 -57 0
-945 2 58 -90 57 0
-945 2 -58 90 57 0
-945 2 -58 -90 -57 0
-945 -2 58 90 57 0
-945 -2 58 -90 -57 0
-945 -2 -58 90 -57 0
-945 -2 -58 -90 57 0
946 945 0
-946 -945 0
2 58 90 947 0
-2 -58 -90 947 0
-947 -2 58 0
-947 2 -58 0
-947 -2 90 0
-947 2 -90 0
-947 3 59 91 -58 0
-947 3 59 -91 58 0
-947 3 -59 91 58 0
-947 3 -59 -91 -58 0
-947 -3 59 91 58 0
-947 -3 59 -91 -58 0
-947 -3 -59 91 -58 0
-947 -3 -59 -91 58 0
948 947 0
-948 -947 0
3 59 91 949 0
-3 -59 -91 949 0
-949 -3 59 0
-949 3 -59 0
-949 -3 91 0
-949 3 -91 0
-949 4 60 92 -59 0
-949 4 60 -92 59 0
-949 4 -60 92 59 0
-949 4 -60 -92 -59 0
-949 -4 60 92 59 0
-949 -4 60 -92 -59 0
-949 -4 -60 92 -59 0
-949 -4 -60 -92 59 0
950 949 0
-950 -949 0
4 60 92 951 0
-4 -60 -92 951 0
-951 -4 60 0
-951 4 -60 0
-951 -4 92 0
-951 4 -92 0
-951 5 61 93 -60 0
-951 5 61 -93 60 0
-951 5 -61 93 60 0
-951 5 -61 -93 -60 0
-951 -5 61 93 60 0
-951 -5 61 -93 -60 0
-951 -5 -61 93 -60 0
-951 -5 -61 -93 60 0
952 951 0
-952 -951 0
5 61 93 953 0
-5 -61 -93 953 0
-953 -5 61 0
-953 5 -61 0
-953 -5 93 0
-953 5 -93 0
-953 6 62 94 -61 0
-953 6 62 -94 61 0
-953 6 -62 94 61 0
-953 6 -62 -94 -61 0
-953 -6 62 94 61 0
-953 -6 62 -94 -61 0
-953 -6 -62 94 -61 0
-953 -6 -62 -94 61 0
954 953 0
-954 -953 0
6 62 94 955 0
-6 -62 -94 955 0
-955 -6 62 0
-955 6 -62 0
-955 -6 94 0
-955 6 -94 0
-955 7 63 95 -62 0
-955 7 63 -95 62 0
-955 7 -63 95 62 0
-955 7 -63 -95 -62 0
-955 -7 63 95 62 0
-955 -7 63 -95 -62 0
-955 -7 -63 95 -62 0
-955 -7 -63 -95 62 0
956 955 0
-956 -955 0
7 63 95 957 0
-7 -63 -95 957 0
-957 -7 63 0
-957 7 -63 0
-957 -7 95 0
-957 7 -95 0
-957 8 64 96 -63 0
-957 8 64 -96 63 0
-957 8 -64 96 63 0
-957 8 -64 -96 -63 0
-957 -8 64 96 63 0
-957 -8 64 -96 -63 0
-957 -8 -64 96 -63 0
-957 -8 -64 -96 63 0
958 957 0
-958 -957 0
62 65 -97 0
62 -65 97 0
-62 65 97 0
-62 -65 -97 0
63 66 -98 0
63 -66 98 0
-63 66 98 0
-63 -66 -98 0
64 67 -99 0
64 -67 99 0
-64 67 99 0
-64 -67 -99 0
33 68 -100 0
33 -68 100 0
-33 68 100 0
-33 -68 -100 0
34 69 -101 0
34 -69 101 0
-34 69 101 0
-34 -69 -101 0
35 70 -102 0
35 -70 102 0
-35 70 102 0
-35 -70 -102 0
36 71 -103 0
36 -71 103 0
-36 71 103 0
-36 -71 -103 0
37 72 -104 0
37 -72 104 0
-37 72 104 0
-37 -72 -104 0
38 73 -105 0
38 -73 105 0
-38 73 105 0
-38 -73 -105 0
39 74 -106 0
39 -74 106 0
-39 74 106 0
-39 -74 -106 0
40 75 -107 0
40 -75 107 0
-40 75 107 0
-40 -75 -107 0
41 76 -108 0
41 -76 108 0
-41 76 108 0
-41 -76 -108 0
42 77 -109 0
42 -77 109 0
-42 77 109 0
-42 -77 -109 0
43 78 -110 0
43 -78 110 0
-43 78 110 0
-43 -78 -110 0
44 79 -111 0
44 -79 111 0
-44 79 111 0
-44 -79 -111 0
45 80 -112 0
45 -80 112 0
-45 80 112 0
-45 -80 -112 0
46 81 -113 0
46 -81 113 0
-46 81 113 0
-46 -81 -113 0
47 82 -114 0
47 -82 114 0
-47 82 114 0
-47 -82 -114 0
48 83 -115 0
48 -83 115 0
-48 83 115 0
-48 -83 -115 0
49 84 -116 0
49 -84 116 0
-49 84 116 0
-49 -84 -116 0
50 85 -117 0
50 -85 117 0
-50 85 117 0
-50 -85 -117 0
51 86 -118 0
51 -86 118 0
-51 86 118 0
-51 -86 -118 0
52 87 -119 0
52 -87 119 0
-52 87 119 0
-52 -87 -119 0
53 88 -120 0
53 -88 120 0
-53 88 120 0
-53 -88 -120 0
54 89 -121 0
54 -89 121 0
-54 89 121 0
-54 -89 -121 0
55 90 -122 0
55 -90 122 0
-55 90 122 0
-55 -90 -122 0
56 91 -123 0
56 -91 123 0
-56 91 123 0
-56 -91 -123 0
57 92 -124 0
57 -92 124 0
-57 92 124 0
-57 -92 -124 0
58 93 -125 0
58 -93 125 0
-58 93 125 0
-58 -93 -125 0
59 94 -126 0
59 -94 126 0
-59 94 126 0
-59 -94 -126 0
60 95 -127 0
60 -95 127 0
-60 95 127 0
-60 -95 -127 0
61 96 -128 0
61 -96 128 0
-61 96 128 0
-61 -96 -128 0
73 97 -129 0
73 -97 129 0
-73 97 129 0
-73 -97 -129 0
73 97 129 959 0
-73 -97 -129 959 0
-959 -73 97 0
-959 73 -97 0
-959 -73 129 0
-959 73 -129 0
-959 74 98 130 -97 0
-959 74 98 -130 97 0
-959 74 -98 130 97 0
-959 74 -98 -130 -97 0
-959 -74 98 130 97 0
-959 -74 98 -130 -97 0
-959 -74 -98 130 -97 0
-959 -74 -98 -130 97 0
960 959 0
-960 -959 0
74 98 130 961 0
-74 -98 -130 961 0
-961 -74 98 0
-961 74 -98 0
-961 -74 130 0
-961 74 -130 0
-961 75 99 131 -98 0
-961 75 99 -131 98 0
-961 75 -99 131 98 0
-961 75 -99 -131 -98 0
-961 -75 99 131 98 0
-961 -75 99 -131 -98 0
-961 -75 -99 131 -98 0
-961 -75 -99 -131 98 0
962 961 0
-962 -961 0
75 99 131 963 0
-75 -99 -131 963 0
-963 -75 99 0
-963 75 -99 0
-963 -75 131 0
-963 75 -131 0
-963 76 100 132 -99 0
-963 76 100 -132 99 0
-963 76 -100 132 99 0
-963 76 -100 -132 -99 0
-963 -76 100 132 99 0
-963 -76 100 -132 -99 0
-963 -76 -100 132 -99 0
-963 -76 -100 -132 99 0
964 963 0
-964 -963 0
76 100 132 965 0
-76 -100 -132 965 0
-965 -76 100 0
-965 76 -100 0
-965 -76 132 0
-965 76 -132 0
-965 77 101 133 -100 0
-965 77 101 -133 100 0
-965 77 -101 133 100 0
-965 77 -101 -133 -100 0
-965 -77 101 133 100 0
-965 -77 101 -133 -100 0
-965 -77 -101 133 -100 0
-965 -77 -101 -133 100 0
966 965 0
-966 -965 0
77 101 133 967 0
-77 -101 -133 967 0
-967 -77 101 0
-967 77 -101 0
-967 -77 133 0
-967 77 -133 0
-967 78 102 134 -101 0
-967 78 102 -134 101 0
-967 78 -102 134 101 0
-967 78 -102 -134 -101 0
-967 -78 102 134 101 0
-967 -78 102 -134 -101 0
-967 -78 -102 134 -101 0
-967 -78 -102 -134 101 0
968 967 0
-968 -967 0
78 102 134 969 0
-78 -102 -134 969 0
-969 -78 102 0
-969 78 -102 0
-969 -78 134 0
-969 78 -134 0
-969 79 103 135 -102 0
-969 79 103 -135 102 0
-969 79 -103 135 102 0
-969 79 -103 -135 -102 0
-969 -79 103 135 102 0
-969 -79 103 -135 -102 0
-969 -79 -103 135 -102 0
-969 -79 -103 -135 102 0
970 969 0
-970 -969 0
79 103 135 971 0
-79 -103 -135 971 0
-971 -79 103 0
-971 79 -103 0
-971 -79 135 0
-971 79 -135 0
-971 80 104 136 -103 0
-971 80 104 -136 103 0
-971 80 -104 136 103 0
-971 80 -104 -136 -103 0
-971 -80 104 136 103 0
-971 -80 104 -136 -103 0
-971 -80 -104 136 -103 0
-971 -80 -104 -136 103 0
972 971 0
-972 -971 0
80 104 136 973 0
-80 -104 -136 973 0
-973 -80 104 0
-973 80 -104 0
-973 -80 136 0
-973 80 -136 0
-973 81 105 137 -104 0
-973 81 105 -137 104 0
-973 81 -105 137 104 0
-973 81 -105 -137 -104 0
-973 -81 105 137 104 0
-973 -81 105 -137 -104 0
-973 -81 -105 137 -104 0
-973 -81 -105 -137 104 0
974 973 0
-974 -973 0
81 105 137 975 0
-81 -105 -137 975 0
-975 -81 105 0
-975 81 -105 0
-975 -81 137 0
-975 81 -137 0
-975 82 106 138 -105 0
-975 82 106 -138 105 0
-975 82 -106 138 105 0
-975 82 -106 -138 -105 0
-975 -82 106 138 105 0
-975 -82 106 -138 -105 0
-975 -82 -106 138 -105 0
-975 -82 -106 -138 105 0
976 975 0
-976 -975 0
82 106 138 977 0
-82 -106 -138 977 0
-977 -82 106 0
-977 82 -106 0
-977 -82 138 0
-977 82 -138 0
-977 83 107 139 -106 0
-977 83 107 -139 106 0
-977 83 -107 139 106 0
-977 83 -107 -139 -106 0
-977 -83 107 139 106 0
-977 -83 107 -139 -106 0
-977 -83 -107 139 -106 0
-977 -83 -107 -139 106 0
978 977 0
-978 -977 0
83 107 139 979 0
-83 -107 -139 979 0
-979 -83 107 0
-979 83 -107 0
-979 -83 139 0
-979 83 -139 0
-979 84 108 140 -107 0
-979 84 108 -140 107 0
-979 84 -108 140 107 0
-979 84 -108 -140 -107 0
-979 -84 108 140 107 0
-979 -84 108 -140 -107 0
-979 -84 -108 140 -107 0
-979 -84 -108 -140 107 0
980 979 0
-980 -979 0
84 108 140 981 0
-84 -108 -140 981 0
-981 -84 108 0
-981 84 -108 0
-981 -84 140 0
-981 84 -140 0
-981 85 109 141 -108 0
-981 85 109 -141 108 0
-981 85 -109 141 108 0
-981 85 -109 -141 -108 0
-981 -85 109 141 108 0
-981 -85 109 -141 -108 0
-981 -85 -109 141 -108 0
-981 -85 -109 -141 108 0
982 981 0
-982 -981 0
85 109 141 983 0
-85 -109 -141 983 0
-983 -85 109 0
-983 85 -109 0
-983 -85 141 0
-983 85 -141 0
-983 86 110 142 -109 0
-983 86 110 -142 109 0
-983 86 -110 142 109 0
-983 86 -110 -142 -109 0
-983 -86 110 142 109 0
-983 -86 110 -142 -109 0
-983 -86 -110 142 -109 0
-983 -86 -110 -142 109 0
984 983 0
-984 -983 0
86 110 142 985 0
-86 -110 -142 985 0
-985 -86 110 0
-985 86 -110 0
-985 -86 142 0
-985 86 -142 0
-985 87 111 143 -110 0
-985 87 111 -143 110 0
-985 87 -111 143 110 0
-985 87 -111 -143 -110 0
-985 -87 111 143 110 0
-985 -87 111 -143 -110 0
-985 -87 -111 143 -110 0
-985 -87 -111 -143 110 0
986 985 0
-986 -985 0
87 111 143 987 0
-87 -111 -143 987 0
-987 -87 111 0
-987 87 -111 0
-987 -87 143 0
-987 87 -143 0
-987 88 112 144 -111 0
-987 88 112 -144 111 0
-987 88 -112 144 111 0
-987 88 -112 -144 -111 0
-987 -88 112 144 111 0
-987 -88 112 -144 -111 0
-987 -88 -112 144 -111 0
-987 -88 -112 -144 111 0
988 987 0
-988 -987 0
88 112 144 989 0
-88 -112 -144 989 0
-989 -88 112 0
-989 88 -112 0
-989 -88 144 0
-989 88 -144 0
-989 89 113 145 -112 0
-989 89 113 -145 112 0
-989 89 -113 145 112 0
-989 89 -113 -145 -112 0
-989 -89 113 145 112 0
-989 -89 113 -145 -112 0
-989 -89 -113 145 -112 0
-989 -89 -113 -145 112 0
990 989 0
-990 -989 0
89 113 145 991 0
-89 -113 -145 991 0
-991 -89 113 0
-991 89 -113 0
-991 -89 145 0
-991 89 -145 0
-991 90 114 146 -113 0
-991 90 114 -146 113 0
-991 90 -114 146 113 0
-991 90 -114 -146 -113 0
-991 -90 114 146 113 0
-991 -90 114 -146 -113 0
-991 -90 -114 146 -113 0
-991 -90 -114 -146 113 0
992 991 0
-992 -991 0
90 114 146 993 0
-90 -114 -146 993 0
-993 -90 114 0
-993 90 -114 0
-993 -90 146 0
-993 90 -146 0
-993 91 115 147 -114 0
-993 91 115 -147 114 0
-993 91 -115 147 114 0
-993 91 -115 -147 -114 0
-993 -91 115 147 114 0
-993 -91 115 -147 -114 0
-993 -91 -115 147 -114 0
-993 -91 -115 -147 114 0
994 993 0
-994 -993 0
91 115 147 995 0
-91 -115 -147 995 0
-995 -91 115 0
-995 91 -115 0
-995 -91 147 0
-995 91 -147 0
-995 92 116 148 -115 0
-995 92 116 -148 115 0
-995 92 -116 148 115 0
-995 92 -116 -148 -115 0
-995 -92 116 148 115 0
-995 -92 116 -148 -115 0
-995 -92 -116 148 -115 0
-995 -92 -116 -148 115 0
996 995 0
-996 -995 0
92 116 148 997 0
-92 -116 -148 997 0
-997 -92 116 0
-997 92 -116 0
-997 -92 148 0
-997 92 -148 0
-997 93 117 149 -116 0
-997 93 117 -149 116 0
-997 93 -117 149 116 0
-997 93 -117 -149 -116 0
-997 -93 117 149 116 0
-997 -93 117 -149 -116 0
-997 -93 -117 149 -116 0
-997 -93 -117 -149 116 0
998 997 0
-998 -997 0
93 117 149 999 0
-93 -117 -149 999 0
-999 -93 117 0
-999 93 -117 0
-999 -93 149 0
-999 93 -149 0
-999 94 118 150 -117 0
-999 94 118 -150 117 0
-999 94 -118 150 117 0
-999 94 -118 -150 -117 0
-999 -94 118 150 117 0
-999 -94 118 -150 -117 0
-999 -94 -118 150 -117 0
-999 -94 -118 -150 117 0
1000 999 0
-1000 -999 0
94 118 150 1001 0
-94 -118 -150 1001 0
-1001 -94 118 0
-1001 94 -118 0
-1001 -94 150 0
-1001 94 -150 0
-1001 95 119 151 -118 0
-1001 95 119 -151 118 0
-1001 95 -119 151 118 0
-1001 95 -119 -151 -118 0
-1001 -95 119 151 118 0
-1001 -95 119 -151 -118 0
-1001 -95 -119 151 -118 0
-1001 -95 -119 -151 118 0
1002 1001 0
-1002 -1001 0
95 119 151 1003 0
-95 -119 -151 1003 0
-1003 -95 119 0
-1003 95 -119 0
-1003 -95 151 0
-1003 95 -151 0
-1003 96 120 152 -119 0
-1003 96 120 -152 119 0
-1003 96 -120 152 119 0
-1003 96 -120 -152 -119 0
-1003 -96 120 152 119 0
-1003 -96 120 -152 -119 0
-1003 -96 -120 152 -119 0
-1003 -96 -120 -152 119 0
1004 1003 0
-1004 -1003 0
96 120 152 1005 0
-96 -120 -152 1005 0
-1005 -96 120 0
-1005 96 -120 0
-1005 -96 152 0
-1005 96 -152 0
-1005 65 121 153 -120 0
-1005 65 121 -153 120 0
-1005 65 -121 153 120 0
-1005 65 -121 -153 -120 0
-1005 -65 121 153 120 0
-1005 -65 121 -153 -120 0
-1005 -65 -121 153 -120 0
-1005 -65 -121 -153 120 0
1006 1005 0
-1006 -1005 0
65 121 153 1007 0
-65 -121 -153 1007 0
-1007 -65 121 0
-1007 65 -121 0
-1007 -65 153 0
-1007 65 -153 0
-1007 66 122 154 -121 0
-1007 66 122 -154 121 0
-1007 66 -122 154 121 0
-1007 66 -122 -154 -121 0
-1007 -66 122 154 121 0
-1007 -66 122 -154 -121 0
-1007 -66 -122 154 -121 0
-1007 -66 -122 -154 121 0
1008 1007 0
-1008 -1007 0
66 122 154 1009 0
-66 -122 -154 1009 0
-1009 -66 122 0
-1009 66 -122 0
-1009 -66 154 0
-1009 66 -154 0
-1009 67 123 155 -122 0
-1009 67 123 -155 122 0
-1009 67 -123 155 122 0
-1009 67 -123 -155 -122 0
-1009 -67 123 155 122 0
-1009 -67 123 -155 -122 0
-1009 -67 -123 155 -122 0
-1009 -67 -123 -155 122 0
1010 1009 0
-1010 -1009 0
67 123 155 1011 0
-67 -123 -155 1011 0
-1011 -67 123 0
-1011 67 -123 0
-1011 -67 155 0
-1011 67 -155 0
-1011 68 124 156 -123 0
-1011 68 124 -156 123 0
-1011 68 -124 156 123 0
-1011 68 -124 -156 -123 0
-1011 -68 124 156 123 0
-1011 -68 124 -156 -123 0
-1011 -68 -124 156 -123 0
-1011 -68 -124 -156 123 0
1012 1011 0
-1012 -1011 0
68 124 156 1013 0
-68 -124 -156 1013 0
-1013 -68 124 0
-1013 68 -124 0
-1013 -68 156 0
-1013 68 -156 0
-1013 69 125 157 -124 0
-1013 69 125 -157 124 0
-1013 69 -125 157 124 0
-1013 69 -125 -157 -124 0
-1013 -69 125 157 124 0
-1013 -69 125 -157 -124 0
-1013 -69 -125 157 -124 0
-1013 -69 -125 -157 124 0
1014 1013 0
-1014 -1013 0
69 125 157 1015 0
-69 -125 -157 1015 0
-1015 -69 125 0
-1015 69 -125 0
-1015 -69 157 0
-1015 69 -157 0
-1015 70 126 158 -125 0
-1015 70 126 -158 125 0
-1015 70 -126 158 125 0
-1015 70 -126 -158 -125 0
-1015 -70 126 158 125 0
-1015 -70 126 -158 -125 0
-1015 -70 -126 158 -125 0
-1015 -70 -126 -158 125 0
1016 1015 0
-1016 -1015 0
70 126 158 1017 0
-70 -126 -158 1017 0
-1017 -70 126 0
-1017 70 -126 0
-1017 -70 158 0
-1017 70 -158 0
-1017 71 127 159 -126 0
-1017 71 127 -159 126 0
-1017 71 -127 159 126 0
-1017 71 -127 -159 -126 0
-1017 -71 127 159 126 0
-1017 -71 127 -159 -126 0
-1017 -71 -127 159 -126 0
-1017 -71 -127 -159 126 0
1018 1017 0
-1018 -1017 0
71 127 159 1019 0
-71 -127 -159 1019 0
-1019 -71 127 0
-1019 71 -127 0
-1019 -71 159 0
-1019 71 -159 0
-1019 72 128 160 -127 0
-1019 72 128 -160 127 0
-1019 72 -128 160 127 0
-1019 72 -128 -160 -127 0
-1019 -72 128 160 127 0
-1019 -72 128 -160 -127 0
-1019 -72 -128 160 -127 0
-1019 -72 -128 -160 127 0
1020 1019 0
-1020 -1019 0
126 129 -161 0
126 -129 161 0
-126 129 161 0
-126 -129 -161 0
127 130 -162 0
127 -130 162 0
-127 130 162 0
-127 -130 -162 0
128 131 -163 0
128 -131 163 0
-128 131 163 0
-128 -131 -163 0
97 132 -164 0
97 -132 164 0
-97 132 164 0
-97 -132 -164 0
98 133 -165 0
98 -133 165 0
-98 133 165 0
-98 -133 -165 0
99 134 -166 0
99 -134 166 0
-99 134 166 0
-99 -134 -166 0
100 135 -167 0
100 -135 167 0
-100 135 167 0
-100 -135 -167 0
101 136 -168 0
101 -136 168 0
-101 136 168 0
-101 -136 -168 0
102 137 -169 0
102 -137 169 0
-102 137 169 0
-102 -137 -169 0
103 138 -170 0
103 -138 170 0
-103 138 170 0
-103 -138 -170 0
104 139 -171 0
104 -139 171 0
-104 139 171 0
-104 -139 -171 0
105 140 -172 0
105 -140 172 0
-105 140 172 0
-105 -140 -172 0
106 141 -173 0
106 -141 173 0
-106 141 173 0
-106 -141 -173 0
107 142 -174 0
107 -142 174 0
-107 142 174 0
-107 -142 -174 0
108 143 -175 0
108 -143 175 0
-108 143 175 0
-108 -143 -175 0
109 144 -176 0
109 -144 176 0
-109 144 176 0
-109 -144 -176 0
110 145 -177 0
110 -145 177 0
-110 145 177 0
-110 -145 -177 0
111 146 -178 0
111 -146 178 0
-111 146 178 0
-111 -146 -178 0
112 147 -179 0
112 -147 179 0
-112 147 179 0
-112 -147 -179 0
113 148 -180 0
113 -148 180 0
-113 148 180 0
-113 -148 -180 0
114 149 -181 0
114 -149 181 0
-114 149 181 0
-114 -149 -181 0
115 150 -182 0
115 -150 182 0
-115 150 182 0
-115 -150 -182 0
116 151 -183 0
116 -151 183 0
-116 151 183 0
-116 -151 -183 0
117 152 -184 0
117 -152 184 0
-117 152 184 0
-117 -152 -184 0
118 153 -185 0
118 -153 185 0
-118 153 185 0
-118 -153 -185 0
119 154 -186 0
119 -154 186 0
-119 154 186 0
-119 -154 -186 0
120 155 -187 0
120 -155 187 0
-120 155 187 0
-120 -155 -187 0
121 156 -188 0
121 -156 188 0
-121 156 188 0
-121 -156 -188 0
122 157 -189 0
122 -157 189 0
-122 157 189 0
-122 -157 -189 0
123 158 -190 0
123 -158 190 0
-123 158 190 0
-123 -158 -190 0
124 159 -191 0
124 -159 191 0
-124 159 191 0
-124 -159 -191 0
125 160 -192 0
125 -160 192 0
-125 160 192 0
-125 -160 -192 0
137 161 -193 0
137 -161 193 0
-137 161 193 0
-137 -161 -193 0
137 161 193 1021 0
-137 -161 -193 1021 0
-1021 -137 161 0
-1021 137 -161 0
-1021 -137 193 0
-1021 137 -193 0
-1021 138 162 194 -161 0
-1021 138 162 -194 161 0
-1021 138 -162 194 161 0
-1021 138 -162 -194 -161 0
-1021 -138 162 194 161 0
-1021 -138 162 -194 -161 0
-1021 -138 -162 194 -161 0
-1021 -138 -162 -194 161 0
1022 1021 0
-1022 -1021 0
138 162 194 1023 0
-138 -162 -194 1023 0
-1023 -138 162 0
-1023 138 -162 0
-1023 -138 194 0
-1023 138 -194 0
-1023 139 163 195 -162 0
-1023 139 163 -195 162 0
-1023 139 -163 195 162 0
-1023 139 -163 -195 -162 0
-1023 -139 163 195 162 0
-1023 -139 163 -195 -162 0
-1023 -139 -163 195 -162 0
-1023 -139 -163 -195 162 0
1024 1023 0
-1024 -1023 0
139 163 195 1025 0
-139 -163 -195 1025 0
-1025 -139 163 0
-1025 139 -163 0
-1025 -139 195 0
-1025 139 -195 0
-1025 140 164 196 -163 0
-1025 140 164 -196 163 0
-1025 140 -164 196 163 0
-1025 140 -164 -196 -163 0
-1025 -140 164 196 163 0
-1025 -140 164 -196 -163 0
-1025 -140 -164 196 -163 0
-1025 -140 -164 -196 163 0
1026 1025 0
-1026 -1025 0
140 164 196 1027 0
-140 -164 -196 1027 0
-1027 -140 164 0
-1027 140 -164 0
-1027 -140 196 0
-1027 140 -196 0
-1027 141 165 197 -164 0
-1027 141 165 -197 164 0
-1027 141 -165 197 164 0
-1027 141 -165 -197 -164 0
-1027 -141 165 197 164 0
-1027 -141 165 -197 -164 0
-1027 -141 -165 197 -164 0
-1027 -141 -165 -197 164 0
1028 1027 0
-1028 -1027 0
141 165 197 1029 0
-141 -165 -197 1029 0
-1029 -141 165 0
-1029 141 -165 0
-1029 -141 197 0
-1029 141 -197 0
-1029 142 166 198 -165 0
-1029 142 166 -198 165 0
-1029 142 -166 198 165 0
-1029 142 -166 -198 -165 0
-1029 -142 166 198 165 0
-1029 -142 166 -198 -165 0
-1029 -142 -166 198 -165 0
-1029 -142 -166 -198 165 0
1030 1029 0
-1030 -1029 0
142 166 198 1031 0
-142 -166 -198 1031 0
-1031 -142 166 0
-1031 142 -166 0
-1031 -142 198 0
-1031 142 -198 0
-1031 143 167 199 -166 0
-1031 143 167 -199 166 0
-1031 143 -167 199 166 0
-1031 143 -167 -199 -166 0
-1031 -143 167 199 166 0
-1031 -143 167 -199 -166 0
-1031 -143 -167 199 -166 0
-1031 -143 -167 -199 166 0
1032 1031 0
-1032 -1031 0
143 167 199 1033 0
-143 -167 -199 1033 0
-1033 -143 167 0
-1033 143 -167 0
-1033 -143 199 0
-1033 143 -199 0
-1033 144 168 200 -167 0
-1033 144 168 -200 167 0
-1033 144 -168 200 167 0
-1033 144 -168 -200 -167 0
-1033 -144 168 200 167 0
-1033 -144 168 -200 -167 0
-1033 -144 -168 200 -167 0
-1033 -144 -168 -200 167 0
1034 1033 0
-1034 -1033 0
144 168 200 1035 0
-144 -168 -200 1035 0
-1035 -144 168 0
-1035 144 -168 0
-1035 -144 200 0
-1035 144 -200 0
-1035 145 169 201 -168 0
-1035 145 169 -201 168 0
-1035 145 -169 201 168 0
-1035 145 -169 -201 -168 0
-1035 -145 169 201 168 0
-1035 -145 169 -201 -168 0
-1035 -145 -169 201 -168 0
-1035 -145 -169 -201 168 0
1036 1035 0
-1036 -1035 0
145 169 201 1037 0
-145 -169 -201 1037 0
-1037 -145 169 0
-1037 145 -169 0
-1037 -145 201 0
-1037 145 -201 0
-1037 146 170 202 -169 0
-1037 146 170 -202 169 0
-1037 146 -170 202 169 0
-1037 146 -170 -202 -169 0
-1037 -146 170 202 169 0
-1037 -146 170 -202 -169 0
-1037 -146 -170 202 -169 0
-1037 -146 -170 -202 169 0
1038 1037 0
-1038 -1037 0
146 170 202 1039 0
-146 -170 -202 1039 0
-1039 -146 170 0
-1039 146 -170 0
-1039 -146 202 0
-1039 146 -202 0
-1039 147 171 203 -170 0
-1039 147 171 -203 170 0
-1039 147 -171 203 170 0
-1039 147 -171 -203 -170 0
-1039 -147 171 203 170 0
-1039 -147 171 -203 -170 0
-1039 -147 -171 203 -170 0
-1039 -147 -171 -203 170 0
1040 1039 0
-1040 -1039 0
147 171 203 1041 0
-147 -171 -203 1041 0
-1041 -147 171 0
-1041 147 -171 0
-1041 -147 203 0
-1041 147 -203 0
-1041 148 172 204 -171 0
-1041 148 172 -204 171 0
-1041 148 -172 204 171 0
-1041 148 -172 -204 -171 0
-1041 -148 172 204 171 0
-1041 -148 172 -204 -171 0
-1041 -148 -172 204 -171 0
-1041 -148 -172 -204 171 0
1042 1041 0
-1042 -1041 0
148 172 204 1043 0
-148 -172 -204 1043 0
-1043 -148 172 0
-1043 148 -172 0
-1043 -148 204 0
-1043 148 -204 0
-1043 149 173 205 -172 0
-1043 149 173 -205 172 0
-1043 149 -173 205 172 0
-1043 149 -173 -205 -172 0
-1043 -149 173 205 172 0
-1043 -149 173 -205 -172 0
-1043 -149 -173 205 -172 0
-1043 -149 -173 -205 172 0
1044 1043 0
-1044 -1043 0
149 173 205 1045 0
-149 -173 -205 1045 0
-1045 -149 173 0
-1045 149 -173 0
-1045 -149 205 0
-1045 149 -205 0
-1045 150 174 206 -173 0
-1045 150 174 -206 173 0
-1045 150 -174 206 173 0
-1045 150 -174 -206 -173 0
-1045 -150 174 206 173 0
-1045 -150 174 -206 -173 0
-1045 -150 -174 206 -173 0
-1045 -150 -174 -206 173 0
1046 1045 0
-1046 -1045 0
150 174 206 1047 0
-150 -174 -206 1047 0
-1047 -150 174 0
-1047 150 -174 0
-1047 -150 206 0
-1047 150 -206 0
-1047 151 175 207 -174 0
-1047 151 175 -207 174 0
-1047 151 -175 207 174 0
-1047 151 -175 -207 -174 0
-1047 -151 175 207 174 0
-1047 -151 175 -207 -174 0
-1047 -151 -175 207 -174 0
-1047 -151 -175 -207 174 0
1048 1047 0
-1048 -1047 0
151 175 207 1049 0
-151 -175 -207 1049 0
-1049 -151 175 0
-1049 151 -175 0
-1049 -151 207 0
-1049 151 -207 0
-1049 152 176 208 -175 0
-1049 152 176 -208 175 0
-1049 152 -176 208 175 0
-1049 152 -176 -208 -175 0
-1049 -152 176 208 175 0
-1049 -152 176 -208 -175 0
-1049 -152 -176 208 -175 0
-1049 -152 -176 -208 175 0
1050 1049 0
-1050 -1049 0
152 176 208 1051 0
-152 -176 -208 1051 0
-1051 -152 176 0
-1051 152 -176 0
-1051 -152 208 0
-1051 152 -208 0
-1051 153 177 209 -176 0
-1051 153 177 -209 176 0
-1051 153 -177 209 176 0
-1051 153 -177 -209 -176 0
-1051 -153 177 209 176 0
-1051 -153 177 -209 -176 0
-1051 -153 -177 209 -176 0
-1051 -153 -177 -209 176 0
1052 1051 0
-1052 -1051 0
153 177 209 1053 0
-153 -177 -209 1053 0
-1053 -153 177 0
-1053 153 -177 0
-1053 -153 209 0
-1053 153 -209 0
-1053 154 178 210 -177 0
-1053 154 178 -210 177 0
-1053 154 -178 210 177 0
-1053 154 -178 -210 -177 0
-1053 -154 178 210 177 0
-1053 -154 178 -210 -177 0
-1053 -154 -178 210 -177 0
-1053 -154 -178 -210 177 0
1054 1053 0
-1054 -1053 0
154 178 210 1055 0
-154 -178 -210 1055 0
-1055 -154 178 0
-1055 154 -178 0
-1055 -154 210 0
-1055 154 -210 0
-1055 155 179 211 -178 0
-1055 155 179 -211 178 0
-1055 155 -179 211 178 0
-1055 155 -179 -211 -178 0
-1055 -155 179 211 178 0
-1055 -155 179 -211 -178 0
-1055 -155 -179 211 -178 0
-1055 -155 -179 -211 178 0
1056 1055 0
-1056 -1055 0
155 179 211 1057 0
-155 -179 -211 1057 0
-1057 -155 179 0
-1057 155 -179 0
-1057 -155 211 0
-1057 155 -211 0
-1057 156 180 212 -179 0
-1057 156 180 -212 179 0
-1057 156 -180 212 179 0
-1057 156 -180 -212 -179 0
-1057 -156 180 212 179 0
-1057 -156 180 -212 -179 0
-1057 -156 -180 212 -179 0
-1057 -156 -180 -212 179 0
1058 1057 0
-1058 -1057 0
156 180 212 1059 0
-156 -180 -212 1059 0
-1059 -156 180 0
-1059 156 -180 0
-1059 -156 212 0
-1059 156 -212 0
-1059 157 181 213 -180 0
-1059 157 181 -213 180 0
-1059 157 -181 213 180 0
-1059 157 -181 -213 -180 0
-1059 -157 181 213 180 0
-1059 -157 181 -213 -180 0
-1059 -157 -181 213 -180 0
-1059 -157 -181 -213 180 0
1060 1059 0
-1060 -1059 0
157 181 213 1061 0
-157 -181 -213 1061 0
-1061 -157 181 0
-1061 157 -181 0
-1061 -157 213 0
-1061 157 -213 0
-1061 158 182 214 -181 0
-1061 158 182 -214 181 0
-1061 158 -182 214 181 0
-1061 158 -182 -214 -181 0
-1061 -158 182 214 181 0
-1061 -158 182 -214 -181 0
-1061 -158 -182 214 -181 0
-1061 -158 -182 -214 181 0
1062 1061 0
-1062 -1061 0
158 182 214 1063 0
-158 -182 -214 1063 0
-1063 -158 182 0
-1063 158 -182 0
-1063 -158 214 0
-1063 158 -214 0
-1063 159 183 215 -182 0
-1063 159 183 -215 182 0
-1063 159 -183 215 182 0
-1063 159 -183 -215 -182 0
-1063 -159 183 215 182 0
-1063 -159 183 -215 -182 0
-1063 -159 -183 215 -182 0
-1063 -159 -183 -215 182 0
1064 1063 0
-1064 -1063 0
159 183 215 1065 0
-159 -183 -215 1065 0
-1065 -159 183 0
-1065 159 -183 0
-1065 -159 215 0
-1065 159 -215 0
-1065 160 184 216 -183 0
-1065 160 184 -216 183 0
-1065 160 -184 216 183 0
-1065 160 -184 -216 -183 0
-1065 -160 184 216 183 0
-1065 -160 184 -216 -183 0
-1065 -160 -184 216 -183 0
-1065 -160 -184 -216 183 0
1066 1065 0
-1066 -1065 0
160 184 216 1067 0
-160 -184 -216 1067 0
-1067 -160 184 0
-1067 160 -184 0
-1067 -160 216 0
-1067 160 -216 0
-1067 129 185 217 -184 0
-1067 129 185 -217 184 0
-1067 129 -185 217 184 0
-1067 129 -185 -217 -184 0
-1067 -129 185 217 184 0
-1067 -129 185 -217 -184 0
-1067 -129 -185 217 -184 0
-1067 -129 -185 -217 184 0
1068 1067 0
-1068 -1067 0
129 185 217 1069 0
-129 -185 -217 1069 0
-1069 -129 185 0
-1069 129 -185 0
-1069 -129 217 0
-1069 129 -217 0
-1069 130 186 218 -185 0
-1069 130 186 -218 185 0
-1069 130 -186 218 185 0
-1069 130 -186 -218 -185 0
-1069 -130 186 218 185 0
-1069 -130 186 -218 -185 0
-1069 -130 -186 218 -185 0
-1069 -130 -186 -218 185 0
1070 1069 0
-1070 -1069 0
130 186 218 1071 0
-130 -186 -218 1071 0
-1071 -130 186 0
-1071 130 -186 0
-1071 -130 218 0
-1071 130 -218 0
-1071 131 187 219 -186 0
-1071 131 187 -219 186 0
-1071 131 -187 219 186 0
-1071 131 -187 -219 -186 0
-1071 -131 187 219 186 0
-1071 -131 187 -219 -186 0
-1071 -131 -187 219 -186 0
-1071 -131 -187 -219 186 0
1072 1071 0
-1072 -1071 0
131 187 219 1073 0
-131 -187 -219 1073 0
-1073 -131 187 0
-1073 131 -187 0
-1073 -131 219 0
-1073 131 -219 0
-1073 132 188 220 -187 0
-1073 132 188 -220 187 0
-1073 132 -188 220 187 0
-1073 132 -188 -220 -187 0
-1073 -132 188 220 187 0
-1073 -132 188 -220 -187 0
-1073 -132 -188 220 -187 0
-1073 -132 -188 -220 187 0
1074 1073 0
-1074 -1073 0
132 188 220 1075 0
-132 -188 -220 1075 0
-1075 -132 188 0
-1075 132 -188 0
-1075 -132 220 0
-1075 132 -220 0
-1075 133 189 221 -188 0
-1075 133 189 -221 188 0
-1075 133 -189 221 188 0
-1075 133 -189 -221 -188 0
-1075 -133 189 221 188 0
-1075 -133 189 -221 -188 0
-1075 -133 -189 221 -188 0
-1075 -133 -189 -221 188 0
1076 1075 0
-1076 -1075 0
133 189 221 1077 0
-133 -189 -221 1077 0
-1077 -133 189 0
-1077 133 -189 0
-1077 -133 221 0
-1077 133 -221 0
-1077 134 190 222 -189 0
-1077 134 190 -222 189 0
-1077 134 -190 222 189 0
-1077 134 -190 -222 -189 0
-1077 -134 190 222 189 0
-1077 -134 190 -222 -189 0
-1077 -134 -190 222 -189 0
-1077 -134 -190 -222 189 0
1078 1077 0
-1078 -1077 0
134 190 222 1079 0
-134 -190 -222 1079 0
-1079 -134 190 0
-1079 134 -190 0
-1079 -134 222 0
-1079 134 -222 0
-1079 135 191 223 -190 0
-1079 135 191 -223 190 0
-1079 135 -191 223 190 0
-1079 135 -191 -223 -190 0
-1079 -135 191 223 190 0
-1079 -135 191 -223 -190 0
-1079 -135 -191 223 -190 0
-1079 -135 -191 -223 190 0
1080 1079 0
-1080 -1079 0
135 191 223 1081 0
-135 -191 -223 1081 0
-1081 -135 191 0
-1081 135 -191 0
-1081 -135 223 0
-1081 135 -223 0
-1081 136 192 224 -191 0
-1081 136 192 -224 191 0
-1081 136 -192 224 191 0
-1081 136 -192 -224 -191 0
-1081 -136 192 224 191 0
-1081 -136 192 -224 -191 0
-1081 -136 -192 224 -191 0
-1081 -136 -192 -224 191 0
1082 1081 0
-1082 -1081 0
190 193 -225 0
190 -193 225 0
-190 193 225 0
-190 -193 -225 0
191 194 -226 0
191 -194 226 0
-191 194 226 0
-191 -194 -226 0
192 195 -227 0
192 -195 227 0
-192 195 227 0
-192 -195 -227 0
161 196 -228 0
161 -196 228 0
-161 196 228 0
-161 -196 -228 0
162 197 -229 0
162 -197 229 0
-162 197 229 0
-162 -197 -229 0
163 198 -230 0
163 -198 230 0
-163 198 230 0
-163 -198 -230 0
164 199 -231 0
164 -199 231 0
-164 199 231 0
-164 -199 -231 0
165 200 -232 0
165 -200 232 0
-165 200 232 0
-165 -200 -232 0
166 201 -233 0
166 -201 233 0
-166 201 233 0
-166 -201 -233 0
167 202 -234 0
167 -202 234 0
-167 202 234 0
-167 -202 -234 0
168 203 -235 0
168 -203 235 0
-168 203 235 0
-168 -203 -235 0
169 204 -236 0
169 -204 236 0
-169 204 236 0
-169 -204 -236 0
170 205 -237 0
170 -205 237 0
-170 205 237 0
-170 -205 -237 0
171 206 -238 0
171 -206 238 0
-171 206 238 0
-171 -206 -238 0
172 207 -239 0
172 -207 239 0
-172 207 239 0
-172 -207 -239 0
173 208 -240 0
173 -208 240 0
-173 208 240 0
-173 -208 -240 0
174 209 -241 0
174 -209 241 0
-174 209 241 0
-174 -209 -241 0
175 210 -242 0
175 -210 242 0
-175 210 242 0
-175 -210 -242 0
176 211 -243 0
176 -211 243 0
-176 211 243 0
-176 -211 -243 0
177 212 -244 0
177 -212 244 0
-177 212 244 0
-177 -212 -244 0
178 213 -245 0
178 -213 245 0
-178 213 245 0
-178 -213 -245 0
179 214 -246 0
179 -214 246 0
-179 214 246 0
-179 -214 -246 0
180 215 -247 0
180 -215 247 0
-180 215 247 0
-180 -215 -247 0
181 216 -248 0
181 -216 248 0
-181 216 248 0
-181 -216 -248 0
182 217 -249 0
182 -217 249 0
-182 217 249 0
-182 -217 -249 0
183 218 -250 0
183 -218 250 0
-183 218 250 0
-183 -218 -250 0
184 219 -251 0
184 -219 251 0
-184 219 251 0
-184 -219 -251 0
185 220 -252 0
185 -220 252 0
-185 220 252 0
-185 -220 -252 0
186 221 -253 0
186 -221 253 0
-186 221 253 0
-186 -221 -253 0
187 222 -254 0
187 -222 254 0
-187 222 254 0
-187 -222 -254 0
188 223 -255 0
188 -223 255 0
-188 223 255 0
-188 -223 -255 0
189 224 -256 0
189 -224 256 0
-189 224 256 0
-189 -224 -256 0
201 225 -257 0
201 -225 257 0
-201 225 257 0
-201 -225 -257 0
201 225 257 1083 0
-201 -225 -257 1083 0
-1083 -201 225 0
-1083 201 -225 0
-1083 -201 257 0
-1083 201 -257 0
-1083 202 226 258 -225 0
-1083 202 226 -258 225 0
-1083 202 -226 258 225 0
-1083 202 -226 -258 -225 0
-1083 -202 226 258 225 0
-1083 -202 226 -258 -225 0
-1083 -202 -226 258 -225 0
-1083 -202 -226 -258 225 0
1084 1083 0
-1084 -1083 0
202 226 258 1085 0
-202 -226 -258 1085 0
-1085 -202 226 0
-1085 202 -226 0
-1085 -202 258 0
-1085 202 -258 0
-1085 203 227 259 -226 0
-1085 203 227 -259 226 0
-1085 203 -227 259 226 0
-1085 203 -227 -259 -226 0
-1085 -203 227 259 226 0
-1085 -203 227 -259 -226 0
-1085 -203 -227 259 -226 0
-1085 -203 -227 -259 226 0
1086 1085 0
-1086 -1085 0
203 227 259 1087 0
-203 -227 -259 1087 0
-1087 -203 227 0
-1087 203 -227 0
-1087 -203 259 0
-1087 203 -259 0
-1087 204 228 260 -227 0
-1087 204 228 -260 227 0
-1087 204 -228 260 227 0
-1087 204 -228 -260 -227 0
-1087 -204 228 260 227 0
-1087 -204 228 -260 -227 0
-1087 -204 -228 260 -227 0
-1087 -204 -228 -260 227 0
1088 1087 0
-1088 -1087 0
204 228 260 1089 0
-204 -228 -260 1089 0
-1089 -204 228 0
-1089 204 -228 0
-1089 -204 260 0
-1089 204 -260 0
-1089 205 229 261 -228 0
-1089 205 229 -261 228 0
-1089 205 -229 261 228 0
-1089 205 -229 -261 -228 0
-1089 -205 229 261 228 0
-1089 -205 229 -261 -228 0
-1089 -205 -229 261 -228 0
-1089 -205 -229 -261 228 0
1090 1089 0
-1090 -1089 0
205 229 261 1091 0
-205 -229 -261 1091 0
-1091 -205 229 0
-1091 205 -229 0
-1091 -205 261 0
-1091 205 -261 0
-1091 206 230 262 -229 0
-1091 206 230 -262 229 0
-1091 206 -230 262 229 0
-1091 206 -230 -262 -229 0
-1091 -206 230 262 229 0
-1091 -206 230 -262 -229 0
-1091 -206 -230 262 -229 0
-1091 -206 -230 -262 229 0
1092 1091 0
-1092 -1091 0
206 230 262 1093 0
-206 -230 -262 1093 0
-1093 -206 230 0
-1093 206 -230 0
-1093 -206 262 0
-1093 206 -262 0
-1093 207 231 263 -230 0
-1093 207 231 -263 230 0
-1093 207 -231 263 230 0
-1093 207 -231 -263 -230 0
-1093 -207 231 263 230 0
-1093 -207 231 -263 -230 0
-1093 -207 -231 263 -230 0
-1093 -207 -231 -263 230 0
1094 1093 0
-1094 -1093 0
207 231 263 1095 0
-207 -231 -263 1095 0
-1095 -207 231 0
-1095 207 -231 0
-1095 -207 263 0
-1095 207 -263 0
-1095 208 232 264 -231 0
-1095 208 232 -264 231 0
-1095 208 -232 264 231 0
-1095 208 -232 -264 -231 0
-1095 -208 232 264 231 0
-1095 -208 232 -264 -231 0
-1095 -208 -232 264 -231 0
-1095 -208 -232 -264 231 0
1096 1095 0
-1096 -1095 0
208 232 264 1097 0
-208 -232 -264 1097 0
-1097 -208 232 0
-1097 208 -232 0
-1097 -208 264 0
-1097 208 -264 0
-1097 209 233 265 -232 0
-1097 209 233 -265 232 0
-1097 209 -233 265 232 0
-1097 209 -233 -265 -232 0
-1097 -209 233 265 232 0
-1097 -209 233 -265 -232 0
-1097 -209 -233 265 -232 0
-1097 -209 -233 -265 232 0
1098 1097 0
-1098 -1097 0
209 233 265 1099 0
-209 -233 -265 1099 0
-1099 -209 233 0
-1099 209 -233 0
-1099 -209 265 0
-1099 209 -265 0
-1099 210 234 266 -233 0
-1099 210 234 -266 233 0
-1099 210 -234 266 233 0
-1099 210 -234 -266 -233 0
-1099 -210 234 266 233 0
-1099 -210 234 -266 -233 0
-1099 -210 -234 266 -233 0
-1099 -210 -234 -266 233 0
1100 1099 0
-1100 -1099 0
210 234 266 1101 0
-210 -234 -266 1101 0
-1101 -210 234 0
-1101 210 -234 0
-1101 -210 266 0
-1101 210 -266 0
-1101 211 235 267 -234 0
-1101 211 235 -267 234 0
-1101 211 -235 267 234 0
-1101 211 -235 -267 -234 0
-1101 -211 235 267 234 0
-1101 -211 235 -267 -234 0
-1101 -211 -235 267 -234 0
-1101 -211 -235 -267 234 0
1102 1101 0
-1102 -1101 0
211 235 267 1103 0
-211 -235 -267 1103 0
-1103 -211 235 0
-1103 211 -235 0
-1103 -211 267 0
-1103 211 -267 0
-1103 212 236 268 -235 0
-1103 212 236 -268 235 0
-1103 212 -236 268 235 0
-1103 212 -236 -268 -235 0
-1103 -212 236 268 235 0
-1103 -212 236 -268 -235 0
-1103 -212 -236 268 -235 0
-1103 -212 -236 -268 235 0
1104 1103 0
-1104 -1103 0
212 236 268 1105 0
-212 -236 -268 1105 0
-1105 -212 236 0
-1105 212 -236 0
-1105 -212 268 0
-1105 212 -268 0
-1105 213 237 269 -236 0
-1105 213 237 -269 236 0
-1105 213 -237 269 236 0
-1105 213 -237 -269 -236 0
-1105 -213 237 269 236 0
-1105 -213 237 -269 -236 0
-1105 -213 -237 269 -236 0
-1105 -213 -237 -269 236 0
1106 1105 0
-1106 -1105 0
213 237 269 1107 0
-213 -237 -269 1107 0
-1107 -213 237 0
-1107 213 -237 0
-1107 -213 269 0
-1107 213 -269 0
-1107 214 238 270 -237 0
-1107 214 238 -270 237 0
-1107 214 -238 270 237 0
-1107 214 -238 -270 -237 0
-1107 -214 238 270 237 0
-1107 -214 238 -270 -237 0
-1107 -214 -238 270 -237 0
-1107 -214 -238 -270 237 0
1108 1107 0
-1108 -1107 0
214 238 270 1109 0
-214 -238 -270 1109 0
-1109 -214 238 0
-1109 214 -238 0
-1109 -214 270 0
-1109 214 -270 0
-1109 215 239 271 -238 0
-1109 215 239 -271 238 0
-1109 215 -239 271 238 0
-1109 215 -239 -271 -238 0
-1109 -215 239 271 238 0
-1109 -215 239 -271 -238 0
-1109 -215 -239 271 -238 0
-1109 -215 -239 -271 238 0
1110 1109 0
-1110 -1109 0
215 239 271 1111 0
-215 -239 -271 1111 0
-1111 -215 239 0
-1111 215 -239 0
-1111 -215 271 0
-1111 215 -271 0
-1111 216 240 272 -239 0
-1111 216 240 -272 239 0
-1111 216 -240 272 239 0
-1111 216 -240 -272 -239 0
-1111 -216 240 272 239 0
-1111 -216 240 -272 -239 0
-1111 -216 -240 272 -239 0
-1111 -216 -240 -272 239 0
1112 1111 0
-1112 -1111 0
216 240 272 1113 0
-216 -240 -272 1113 0
-1113 -216 240 0
-1113 216 -240 0
-1113 -216 272 0
-1113 216 -272 0
-1113 217 241 273 -240 0
-1113 217 241 -273 240 0
-1113 217 -241 273 240 0
-1113 217 -241 -273 -240 0
-1113 -217 241 273 240 0
-1113 -217 241 -273 -240 0
-1113 -217 -241 273 -240 0
-1113 -217 -241 -273 240 0
1114 1113 0
-1114 -1113 0
217 241 273 1115 0
-217 -241 -273 1115 0
-1115 -217 241 0
-1115 217 -241 0
-1115 -217 273 0
-1115 217 -273 0
-1115 218 242 274 -241 0
-1115 218 242 -274 241 0
-1115 218 -242 274 241 0
-1115 218 -242 -274 -241 0
-1115 -218 242 274 241 0
-1115 -218 242 -274 -241 0
-1115 -218 -242 274 -241 0
-1115 -218 -242 -274 241 0
1116 1115 0
-1116 -1115 0
218 242 274 1117 0
-218 -242 -274 1117 0
-1117 -218 242 0
-1117 218 -242 0
-1117 -218 274 0
-1117 218 -274 0
-1117 219 243 275 -242 0
-1117 219 243 -275 242 0
-1117 219 -243 275 242 0
-1117 219 -243 -275 -242 0
-1117 -219 243 275 242 0
-1117 -219 243 -275 -242 0
-1117 -219 -243 275 -242 0
-1117 -219 -243 -275 242 0
1118 1117 0
-1118 -1117 0
219 243 275 1119 0
-219 -243 -275 1119 0
-1119 -219 243 0
-1119 219 -243 0
-1119 -219 275 0
-1119 219 -275 0
-1119 220 244 276 -243 0
-1119 220 244 -276 243 0
-1119 220 -244 276 243 0
-1119 220 -244 -276 -243 0
-1119 -220 244 276 243 0
-1119 -220 244 -276 -243 0
-1119 -220 -244 276 -243 0
-1119 -220 -244 -276 243 0
1120 1119 0
-1120 -1119 0
220 244 276 1121 0
-220 -244 -276 1121 0
-1121 -220 244 0
-1121 220 -244 0
-1121 -220 276 0
-1121 220 -276 0
-1121 221 245 277 -244 0
-1121 221 245 -277 244 0
-1121 221 -245 277 244 0
-1121 221 -245 -277 -244 0
-1121 -221 245 277 244 0
-1121 -221 245 -277 -244 0
-1121 -221 -245 277 -244 0
-1121 -221 -245 -277 244 0
1122 1121 0
-1122 -1121 0
221 245 277 1123 0
-221 -245 -277 1123 0
-1123 -221 245 0
-1123 221 -245 0
-1123 -221 277 0
-1123 221 -277 0
-1123 222 246 278 -245 0
-1123 222 246 -278 245 0
-1123 222 -246 278 245 0
-1123 222 -246 -278 -245 0
-1123 -222 246 278 245 0
-1123 -222 246 -278 -245 0
-1123 -222 -246 278 -245 0
-1123 -222 -246 -278 245 0
1124 1123 0
-1124 -1123 0
222 246 278 1125 0
-222 -246 -278 1125 0
-1125 -222 246 0
-1125 222 -246 0
-1125 -222 278 0
-1125 222 -278 0
-1125 223 247 279 -246 0
-1125 223 247 -279 246 0
-1125 223 -247 279 246 0
-1125 223 -247 -279 -246 0
-1125 -223 247 279 246 0
-1125 -223 247 -279 -246 0
-1125 -223 -247 279 -246 0
-1125 -223 -247 -279 246 0
1126 1125 0
-1126 -1125 0
223 247 279 1127 0
-223 -247 -279 1127 0
-1127 -223 247 0
-1127 223 -247 0
-1127 -223 279 0
-1127 223 -279 0
-1127 224 248 280 -247 0
-1127 224 248 -280 247 0
-1127 224 -248 280 247 0
-1127 224 -248 -280 -247 0
-1127 -224 248 280 247 0
-1127 -224 248 -280 -247 0
-1127 -224 -248 280 -247 0
-1127 -224 -248 -280 247 0
1128 1127 0
-1128 -1127 0
224 248 280 1129 0
-224 -248 -280 1129 0
-1129 -224 248 0
-1129 224 -248 0
-1129 -224 280 0
-1129 224 -280 0
-1129 193 249 281 -248 0
-1129 193 249 -281 248 0
-1129 193 -249 281 248 0
-1129 193 -249 -281 -248 0
-1129 -193 249 281 248 0
-1129 -193 249 -281 -248 0
-1129 -193 -249 281 -248 0
-1129 -193 -249 -281 248 0
1130 1129 0
-1130 -1129 0
193 249 281 1131 0
-193 -249 -281 1131 0
-1131 -193 249 0
-1131 193 -249 0
-1131 -193 281 0
-1131 193 -281 0
-1131 194 250 282 -249 0
-1131 194 250 -282 249 0
-1131 194 -250 282 249 0
-1131 194 -250 -282 -249 0
-1131 -194 250 282 249 0
-1131 -194 250 -282 -249 0
-1131 -194 -250 282 -249 0
-1131 -194 -250 -282 249 0
1132 1131 0
-1132 -1131 0
194 250 282 1133 0
-194 -250 -282 1133 0
-1133 -194 250 0
-1133 194 -250 0
-1133 -194 282 0
-1133 194 -282 0
-1133 195 251 283 -250 0
-1133 195 251 -283 250 0
-1133 195 -251 283 250 0
-1133 195 -251 -283 -250 0
-1133 -195 251 283 250 0
-1133 -195 251 -283 -250 0
-1133 -195 -251 283 -250 0
-1133 -195 -251 -283 250 0
1134 1133 0
-1134 -1133 0
195 251 283 1135 0
-195 -251 -283 1135 0
-1135 -195 251 0
-1135 195 -251 0
-1135 -195 283 0
-1135 195 -283 0
-1135 196 252 284 -251 0
-1135 196 252 -284 251 0
-1135 196 -252 284 251 0
-1135 196 -252 -284 -251 0
-1135 -196 252 284 251 0
-1135 -196 252 -284 -251 0
-1135 -196 -252 284 -251 0
-1135 -196 -252 -284 251 0
1136 1135 0
-1136 -1135 0
196 252 284 1137 0
-196 -252 -284 1137 0
-1137 -196 252 0
-1137 196 -252 0
-1137 -196 284 0
-1137 196 -284 0
-1137 197 253 285 -252 0
-1137 197 253 -285 252 0
-1137 197 -253 285 252 0
-1137 197 -253 -285 -252 0
-1137 -197 253 285 252 0
-1137 -197 253 -285 -252 0
-1137 -197 -253 285 -252 0
-1137 -197 -253 -285 252 0
1138 1137 0
-1138 -1137 0
197 253 285 1139 0
-197 -253 -285 1139 0
-1139 -197 253 0
-1139 197 -253 0
-1139 -197 285 0
-1139 197 -285 0
-1139 198 254 286 -253 0
-1139 198 254 -286 253 0
-1139 198 -254 286 253 0
-1139 198 -254 -286 -253 0
-1139 -198 254 286 253 0
-1139 -198 254 -286 -253 0
-1139 -198 -254 286 -253 0
-1139 -198 -254 -286 253 0
1140 1139 0
-1140 -1139 0
198 254 286 1141 0
-198 -254 -286 1141 0
-1141 -198 254 0
-1141 198 -254 0
-1141 -198 286 0
-1141 198 -286 0
-1141 199 255 287 -254 0
-1141 199 255 -287 254 0
-1141 199 -255 287 254 0
-1141 199 -255 -287 -254 0
-1141 -199 255 287 254 0
-1141 -199 255 -287 -254 0
-1141 -199 -255 287 -254 0
-1141 -199 -255 -287 254 0
1142 1141 0
-1142 -1141 0
199 255 287 1143 0
-199 -255 -287 1143 0
-1143 -199 255 0
-1143 199 -255 0
-1143 -199 287 0
-1143 199 -287 0
-1143 200 256 288 -255 0
-1143 200 256 -288 255 0
-1143 200 -256 288 255 0
-1143 200 -256 -288 -255 0
-1143 -200 256 288 255 0
-1143 -200 256 -288 -255 0
-1143 -200 -256 288 -255 0
-1143 -200 -256 -288 255 0
1144 1143 0
-1144 -1143 0
254 257 -289 0
254 -257 289 0
-254 257 289 0
-254 -257 -289 0
255 258 -290 0
255 -258 290 0
-255 258 290 0
-255 -258 -290 0
256 259 -291 0
256 -259 291 0
-256 259 291 0
-256 -259 -291 0
225 260 -292 0
225 -260 292 0
-225 260 292 0
-225 -260 -292 0
226 261 -293 0
226 -261 293 0
-226 261 293 0
-226 -261 -293 0
227 262 -294 0
227 -262 294 0
-227 262 294 0
-227 -262 -294 0
228 263 -295 0
228 -263 295 0
-228 263 295 0
-228 -263 -295 0
229 264 -296 0
229 -264 296 0
-229 264 296 0
-229 -264 -296 0
230 265 -297 0
230 -265 297 0
-230 265 297 0
-230 -265 -297 0
231 266 -298 0
231 -266 298 0
-231 266 298 0
-231 -266 -298 0
232 267 -299 0
232 -267 299 0
-232 267 299 0
-232 -267 -299 0
233 268 -300 0
233 -268 300 0
-233 268 300 0
-233 -268 -300 0
234 269 -301 0
234 -269 301 0
-234 269 301 0
-234 -269 -301 0
235 270 -302 0
235 -270 302 0
-235 270 302 0
-235 -270 -302 0
236 271 -303 0
236 -271 303 0
-236 271 303 0
-236 -271 -303 0
237 272 -304 0
237 -272 304 0
-237 272 304 0
-237 -272 -304 0
238 273 -305 0
238 -273 305 0
-238 273 305 0
-238 -273 -305 0
239 274 -306 0
239 -274 306 0
-239 274 306 0
-239 -274 -306 0
240 275 -307 0
240 -275 307 0
-240 275 307 0
-240 -275 -307 0
241 276 -308 0
241 -276 308 0
-241 276 308 0
-241 -276 -308 0
242 277 -309 0
242 -277 309 0
-242 277 309 0
-242 -277 -309 0
243 278 -310 0
243 -278 310 0
-243 278 310 0
-243 -278 -310 0
244 279 -311 0
244 -279 311 0
-244 279 311 0
-244 -279 -311 0
245 280 -312 0
245 -280 312 0
-245 280 312 0
-245 -280 -312 0
246 281 -313 0
246 -281 313 0
-246 281 313 0
-246 -281 -313 0
247 282 -314 0
247 -282 314 0
-247 282 314 0
-247 -282 -314 0
248 283 -315 0
248 -283 315 0
-248 283 315 0
-248 -283 -315 0
249 284 -316 0
249 -284 316 0
-249 284 316 0
-249 -284 -316 0
250 285 -317 0
250 -285 317 0
-250 285 317 0
-250 -285 -317 0
251 286 -318 0
251 -286 318 0
-251 286 318 0
-251 -286 -318 0
252 287 -319 0
252 -287 319 0
-252 287 319 0
-252 -287 -319 0
253 288 -320 0
253 -288 320 0
-253 288 320 0
-253 -288 -320 0
265 289 -321 0
265 -289 321 0
-265 289 321 0
-265 -289 -321 0
265 289 321 1145 0
-265 -289 -321 1145 0
-1145 -265 289 0
-1145 265 -289 0
-1145 -265 321 0
-1145 265 -321 0
-1145 266 290 322 -289 0
-1145 266 290 -322 289 0
-1145 266 -290 322 289 0
-1145 266 -290 -322 -289 0
-1145 -266 290 322 289 0
-1145 -266 290 -322 -289 0
-1145 -266 -290 322 -289 0
-1145 -266 -290 -322 289 0
1146 1145 0
-1146 -1145 0
266 290 322 1147 0
-266 -290 -322 1147 0
-1147 -266 290 0
-1147 266 -290 0
-1147 -266 322 0
-1147 266 -322 0
-1147 267 291 323 -290 0
-1147 267 291 -323 290 0
-1147 267 -291 323 290 0
-1147 267 -291 -323 -290 0
-1147 -267 291 323 290 0
-1147 -267 291 -323 -290 0
-1147 -267 -291 323 -290 0
-1147 -267 -291 -323 290 0
1148 1147 0
-1148 -1147 0
267 291 323 1149 0
-267 -291 -323 1149 0
-1149 -267 291 0
-1149 267 -291 0
-1149 -267 323 0
-1149 267 -323 0
-1149 268 292 324 -291 0
-1149 268 292 -324 291 0
-1149 268 -292 324 291 0
-1149 268 -292 -324 -291 0
-1149 -268 292 324 291 0
-1149 -268 292 -324 -291 0
-1149 -268 -292 324 -291 0
-1149 -268 -292 -324 291 0
1150 1149 0
-1150 -1149 0
268 292 324 1151 0
-268 -292 -324 1151 0
-1151 -268 292 0
-1151 268 -292 0
-1151 -268 324 0
-1151 268 -324 0
-1151 269 293 325 -292 0
-1151 269 293 -325 292 0
-1151 269 -293 325 292 0
-1151 269 -293 -325 -292 0
-1151 -269 293 325 292 0
-1151 -269 293 -325 -292 0
-1151 -269 -293 325 -292 0
-1151 -269 -293 -325 292 0
1152 1151 0
-1152 -1151 0
269 293 325 1153 0
-269 -293 -325 1153 0
-1153 -269 293 0
-1153 269 -293 0
-1153 -269 325 0
-1153 269 -325 0
-1153 270 294 326 -293 0
-1153 270 294 -326 293 0
-1153 270 -294 326 293 0
-1153 270 -294 -326 -293 0
-1153 -270 294 326 293 0
-1153 -270 294 -326 -293 0
-1153 -270 -294 326 -293 0
-1153 -270 -294 -326 293 0
1154 1153 0
-1154 -1153 0
270 294 326 1155 0
-270 -294 -326 1155 0
-1155 -270 294 0
-1155 270 -294 0
-1155 -270 326 0
-1155 270 -326 0
-1155 271 295 327 -294 0
-1155 271 295 -327 294 0
-1155 271 -295 327 294 0
-1155 271 -295 -327 -294 0
-1155 -271 295 327 294 0
-1155 -271 295 -327 -294 0
-1155 -271 -295 327 -294 0
-1155 -271 -295 -327 294 0
1156 1155 0
-1156 -1155 0
271 295 327 1157 0
-271 -295 -327 1157 0
-1157 -271 295 0
-1157 271 -295 0
-1157 -271 327 0
-1157 271 -327 0
-1157 272 296 328 -295 0
-1157 272 296 -328 295 0
-1157 272 -296 328 295 0
-1157 272 -296 -328 -295 0
-1157 -272 296 328 295 0
-1157 -272 296 -328 -295 0
-1157 -272 -296 328 -295 0
-1157 -272 -296 -328 295 0
1158 1157 0
-1158 -1157 0
272 296 328 1159 0
-272 -296 -328 1159 0
-1159 -272 296 0
-1159 272 -296 0
-1159 -272 328 0
-1159 272 -328 0
-1159 273 297 329 -296 0
-1159 273 297 -329 296 0
-1159 273 -297 329 296 0
-1159 273 -297 -329 -296 0
-1159 -273 297 329 296 0
-1159 -273 297 -329 -296 0
-1159 -273 -297 329 -296 0
-1159 -273 -297 -329 296 0
1160 1159 0
-1160 -1159 0
273 297 329 1161 0
-273 -297 -329 1161 0
-1161 -273 297 0
-1161 273 -297 0
-1161 -273 329 0
-1161 273 -329 0
-1161 274 298 330 -297 0
-1161 274 298 -330 297 0
-1161 274 -298 330 297 0
-1161 274 -298 -330 -297 0
-1161 -274 298 330 297 0
-1161 -274 298 -330 -297 0
-1161 -274 -298 330 -297 0
-1161 -274 -298 -330 297 0
1162 1161 0
-1162 -1161 0
274 298 330 1163 0
-274 -298 -330 1163 0
-1163 -274 298 0
-1163 274 -298 0
-1163 -274 330 0
-1163 274 -330 0
-1163 275 299 331 -298 0
-1163 275 299 -331 298 0
-1163 275 -299 331 298 0
-1163 275 -299 -331 -298 0
-1163 -275 299 331 298 0
-1163 -275 299 -331 -298 0
-1163 -275 -299 331 -298 0
-1163 -275 -299 -331 298 0
1164 1163 0
-1164 -1163 0
275 299 331 1165 0
-275 -299 -331 1165 0
-1165 -275 299 0
-1165 275 -299 0
-1165 -275 331 0
-1165 275 -331 0
-1165 276 300 332 -299 0
-1165 276 300 -332 299 0
-1165 276 -300 332 299 0
-1165 276 -300 -332 -299 0
-1165 -276 300 332 299 0
-1165 -276 300 -332 -299 0
-1165 -276 -300 332 -299 0
-1165 -276 -300 -332 299 0
1166 1165 0
-1166 -1165 0
276 300 332 1167 0
-276 -300 -332 1167 0
-1167 -276 300 0
-1167 276 -300 0
-1167 -276 332 0
-1167 276 -332 0
-1167 277 301 333 -300 0
-1167 277 301 -333 300 0
-1167 277 -301 333 300 0
-1167 277 -301 -333 -300 0
-1167 -277 301 333 300 0
-1167 -277 301 -333 -300 0
-1167 -277 -301 333 -300 0
-1167 -277 -301 -333 300 0
1168 1167 0
-1168 -1167 0
277 301 333 1169 0
-277 -301 -333 1169 0
-1169 -277 301 0
-1169 277 -301 0
-1169 -277 333 0
-1169 277 -333 0
-1169 278 302 334 -301 0
-1169 278 302 -334 301 0
-1169 278 -302 334 301 0
-1169 278 -302 -334 -301 0
-1169 -278 302 334 301 0
-1169 -278 302 -334 -301 0
-1169 -278 -302 334 -301 0
-1169 -278 -302 -334 301 0
1170 1169 0
-1170 -1169 0
278 302 334 1171 0
-278 -302 -334 1171 0
-1171 -278 302 0
-1171 278 -302 0
-1171 -278 334 0
-1171 278 -334 0
-1171 279 303 335 -302 0
-1171 279 303 -335 302 0
-1171 279 -303 335 302 0
-1171 279 -303 -335 -302 0
-1171 -279 303 335 302 0
-1171 -279 303 -335 -302 0
-1171 -279 -303 335 -302 0
-1171 -279 -303 -335 302 0
1172 1171 0
-1172 -1171 0
279 303 335 1173 0
-279 -303 -335 1173 0
-1173 -279 303 0
-1173 279 -303 0
-1173 -279 335 0
-1173 279 -335 0
-1173 280 304 336 -303 0
-1173 280 304 -336 303 0
-1173 280 -304 336 303 0
-1173 280 -304 -336 -303 0
-1173 -280 304 336 303 0
-1173 -280 304 -336 -303 0
-1173 -280 -304 336 -303 0
-1173 -280 -304 -336 303 0
1174 1173 0
-1174 -1173 0
280 304 336 1175 0
-280 -304 -336 1175 0
-1175 -280 304 0
-1175 280 -304 0
-1175 -280 336 0
-1175 280 -336 0
-1175 281 305 337 -304 0
-1175 281 305 -337 304 0
-1175 281 -305 337 304 0
-1175 281 -305 -337 -304 0
-1175 -281 305 337 304 0
-1175 -281 305 -337 -304 0
-1175 -281 -305 337 -304 0
-1175 -281 -305 -337 304 0
1176 1175 0
-1176 -1175 0
281 305 337 1177 0
-281 -305 -337 1177 0
-1177 -281 305 0
-1177 281 -305 0
-1177 -281 337 0
-1177 281 -337 0
-1177 282 306 338 -305 0
-1177 282 306 -338 305 0
-1177 282 -306 338 305 0
-1177 282 -306 -338 -305 0
-1177 -282 306 338 305 0
-1177 -282 306 -338 -305 0
-1177 -282 -306 338 -305 0
-1177 -282 -306 -338 305 0
1178 1177 0
-1178 -1177 0
282 306 338 1179 0
-282 -306 -338 1179 0
-1179 -282 306 0
-1179 282 -306 0
-1179 -282 338 0
-1179 282 -338 0
-1179 283 307 339 -306 0
-1179 283 307 -339 306 0
-1179 283 -307 339 306 0
-1179 283 -307 -339 -306 0
-1179 -283 307 339 306 0
-1179 -283 307 -339 -306 0
-1179 -283 -307 339 -306 0
-1179 -283 -307 -339 306 0
1180 1179 0
-1180 -1179 0
283 307 339 1181 0
-283 -307 -339 1181 0
-1181 -283 307 0
-1181 283 -307 0
-1181 -283 339 0
-1181 283 -339 0
-1181 284 308 340 -307 0
-1181 284 308 -340 307 0
-1181 284 -308 340 307 0
-1181 284 -308 -340 -307 0
-1181 -284 308 340 307 0
-1181 -284 308 -340 -307 0
-1181 -284 -308 340 -307 0
-1181 -284 -308 -340 307 0
1182 1181 0
-1182 -1181 0
284 308 340 1183 0
-284 -308 -340 1183 0
-1183 -284 308 0
-1183 284 -308 0
-1183 -284 340 0
-1183 284 -340 0
-1183 285 309 341 -308 0
-1183 285 309 -341 308 0
-1183 285 -309 341 308 0
-1183 285 -309 -341 -308 0
-1183 -285 309 341 308 0
-1183 -285 309 -341 -308 0
-1183 -285 -309 341 -308 0
-1183 -285 -309 -341 308 0
1184 1183 0
-1184 -1183 0
285 309 341 1185 0
-285 -309 -341 1185 0
-1185 -285 309 0
-1185 285 -309 0
-1185 -285 341 0
-1185 285 -341 0
-1185 286 310 342 -309 0
-1185 286 310 -342 309 0
-1185 286 -310 342 309 0
-1185 286 -310 -342 -309 0
-1185 -286 310 342 309 0
-1185 -286 310 -342 -309 0
-1185 -286 -310 342 -309 0
-1185 -286 -310 -342 309 0
1186 1185 0
-1186 -1185 0
286 310 342 1187 0
-286 -310 -342 1187 0
-1187 -286 310 0
-1187 286 -310 0
-1187 -286 342 0
-1187 286 -342 0
-1187 287 311 343 -310 0
-1187 287 311 -343 310 0
-1187 287 -311 343 310 0
-1187 287 -311 -343 -310 0
-1187 -287 311 343 310 0
-1187 -287 311 -343 -310 0
-1187 -287 -311 343 -310 0
-1187 -287 -311 -343 310 0
1188 1187 0
-1188 -1187 0
287 311 343 1189 0
-287 -311 -343 1189 0
-1189 -287 311 0
-1189 287 -311 0
-1189 -287 343 0
-1189 287 -343 0
-1189 288 312 344 -311 0
-1189 288 312 -344 311 0
-1189 288 -312 344 311 0
-1189 288 -312 -344 -311 0
-1189 -288 312 344 311 0
-1189 -288 312 -344 -311 0
-1189 -288 -312 344 -311 0
-1189 -288 -312 -344 311 0
1190 1189 0
-1190 -1189 0
288 312 344 1191 0
-288 -312 -344 1191 0
-1191 -288 312 0
-1191 288 -312 0
-1191 -288 344 0
-1191 288 -344 0
-1191 257 313 345 -312 0
-1191 257 313 -345 312 0
-1191 257 -313 345 312 0
-1191 257 -313 -345 -312 0
-1191 -257 313 345 312 0
-1191 -257 313 -345 -312 0
-1191 -257 -313 345 -312 0
-1191 -257 -313 -345 312 0
1192 1191 0
-1192 -1191 0
257 313 345 1193 0
-257 -313 -345 1193 0
-1193 -257 313 0
-1193 257 -313 0
-1193 -257 345 0
-1193 257 -345 0
-1193 258 314 346 -313 0
-1193 258 314 -346 313 0
-1193 258 -314 346 313 0
-1193 258 -314 -346 -313 0
-1193 -258 314 346 313 0
-1193 -258 314 -346 -313 0
-1193 -258 -314 346 -313 0
-1193 -258 -314 -346 313 0
1194 1193 0
-1194 -1193 0
258 314 346 1195 0
-258 -314 -346 1195 0
-1195 -258 314 0
-1195 258 -314 0
-1195 -258 346 0
-1195 258 -346 0
-1195 259 315 347 -314 0
-1195 259 315 -347 314 0
-1195 259 -315 347 314 0
-1195 259 -315 -347 -314 0
-1195 -259 315 347 314 0
-1195 -259 315 -347 -314 0
-1195 -259 -315 347 -314 0
-1195 -259 -315 -347 314 0
1196 1195 0
-1196 -1195 0
259 315 347 1197 0
-259 -315 -347 1197 0
-1197 -259 315 0
-1197 259 -315 0
-1197 -259 347 0
-1197 259 -347 0
-1197 260 316 348 -315 0
-1197 260 316 -348 315 0
-1197 260 -316 348 315 0
-1197 260 -316 -348 -315 0
-1197 -260 316 348 315 0
-1197 -260 316 -348 -315 0
-1197 -260 -316 348 -315 0
-1197 -260 -316 -348 315 0
1198 1197 0
-1198 -1197 0
260 316 348 1199 0
-260 -316 -348 1199 0
-1199 -260 316 0
-1199 260 -316 0
-1199 -260 348 0
-1199 260 -348 0
-1199 261 317 349 -316 0
-1199 261 317 -349 316 0
-1199 261 -317 349 316 0
-1199 261 -317 -349 -316 0
-1199 -261 317 349 316 0
-1199 -261 317 -349 -316 0
-1199 -261 -317 349 -316 0
-1199 -261 -317 -349 316 0
1200 1199 0
-1200 -1199 0
261 317 349 1201 0
-261 -317 -349 1201 0
-1201 -261 317 0
-1201 261 -317 0
-1201 -261 349 0
-1201 261 -349 0
-1201 262 318 350 -317 0
-1201 262 318 -350 317 0
-1201 262 -318 350 317 0
-1201 262 -318 -350 -317 0
-1201 -262 318 350 317 0
-1201 -262 318 -350 -317 0
-1201 -262 -318 350 -317 0
-1201 -262 -318 -350 317 0
1202 1201 0
-1202 -1201 0
262 318 350 1203 0
-262 -318 -350 1203 0
-1203 -262 318 0
-1203 262 -318 0
-1203 -262 350 0
-1203 262 -350 0
-1203 263 319 351 -318 0
-1203 263 319 -351 318 0
-1203 263 -319 351 318 0
-1203 263 -319 -351 -318 0
-1203 -263 319 351 318 0
-1203 -263 319 -351 -318 0
-1203 -263 -319 351 -318 0
-1203 -263 -319 -351 318 0
1204 1203 0
-1204 -1203 0
263 319 351 1205 0
-263 -319 -351 1205 0
-1205 -263 319 0
-1205 263 -319 0
-1205 -263 351 0
-1205 263 -351 0
-1205 264 320 352 -319 0
-1205 264 320 -352 319 0
-1205 264 -320 352 319 0
-1205 264 -320 -352 -319 0
-1205 -264 320 352 319 0
-1205 -264 320 -352 -319 0
-1205 -264 -320 352 -319 0
-1205 -264 -320 -352 319 0
1206 1205 0
-1206 -1205 0
318 321 -353 0
318 -321 353 0
-318 321 353 0
-318 -321 -353 0
319 322 -354 0
319 -322 354 0
-319 322 354 0
-319 -322 -354 0
320 323 -355 0
320 -323 355 0
-320 323 355 0
-320 -323 -355 0
289 324 -356 0
289 -324 356 0
-289 324 356 0
-289 -324 -356 0
290 325 -357 0
290 -325 357 0
-290 325 357 0
-290 -325 -357 0
291 326 -358 0
291 -326 358 0
-291 326 358 0
-291 -326 -358 0
292 327 -359 0
292 -327 359 0
-292 327 359 0
-292 -327 -359 0
293 328 -360 0
293 -328 360 0
-293 328 360 0
-293 -328 -360 0
294 329 -361 0
294 -329 361 0
-294 329 361 0
-294 -329 -361 0
295 330 -362 0
295 -330 362 0
-295 330 362 0
-295 -330 -362 0
296 331 -363 0
296 -331 363 0
-296 331 363 0
-296 -331 -363 0
297 332 -364 0
297 -332 364 0
-297 332 364 0
-297 -332 -364 0
298 333 -365 0
298 -333 365 0
-298 333 365 0
-298 -333 -365 0
299 334 -366 0
299 -334 366 0
-299 334 366 0
-299 -334 -366 0
300 335 -367 0
300 -335 367 0
-300 335 367 0
-300 -335 -367 0
301 336 -368 0
301 -336 368 0
-301 336 368 0
-301 -336 -368 0
302 337 -369 0
302 -337 369 0
-302 337 369 0
-302 -337 -369 0
303 338 -370 0
303 -338 370 0
-303 338 370 0
-303 -338 -370 0
304 339 -371 0
304 -339 371 0
-304 339 371 0
-304 -339 -371 0
305 340 -372 0
305 -340 372 0
-305 340 372 0
-305 -340 -372 0
306 341 -373 0
306 -341 373 0
-306 341 373 0
-306 -341 -373 0
307 342 -374 0
307 -342 374 0
-307 342 374 0
-307 -342 -374 0
308 343 -375 0
308 -343 375 0
-308 343 375 0
-308 -343 -375 0
309 344 -376 0
309 -344 376 0
-309 344 376 0
-309 -344 -376 0
310 345 -377 0
310 -345 377 0
-310 345 377 0
-310 -345 -377 0
311 346 -378 0
311 -346 378 0
-311 346 378 0
-311 -346 -378 0
312 347 -379 0
312 -347 379 0
-312 347 379 0
-312 -347 -379 0
313 348 -380 0
313 -348 380 0
-313 348 380 0
-313 -348 -380 0
314 349 -381 0
314 -349 381 0
-314 349 381 0
-314 -349 -381 0
315 350 -382 0
315 -350 382 0
-315 350 382 0
-315 -350 -382 0
316 351 -383 0
316 -351 383 0
-316 351 383 0
-316 -351 -383 0
317 352 -384 0
317 -352 384 0
-317 352 384 0
-317 -352 -384 0
329 353 -385 0
329 -353 385 0
-329 353 385 0
-329 -353 -385 0
329 353 385 1207 0
-329 -353 -385 1207 0
-1207 -329 353 0
-1207 329 -353 0
-1207 -329 385 0
-1207 329 -385 0
-1207 330 354 386 -353 0
-1207 330 354 -386 353 0
-1207 330 -354 386 353 0
-1207 330 -354 -386 -353 0
-1207 -330 354 386 353 0
-1207 -330 354 -386 -353 0
-1207 -330 -354 386 -353 0
-1207 -330 -354 -386 353 0
1208 1207 0
-1208 -1207 0
330 354 386 1209 0
-330 -354 -386 1209 0
-1209 -330 354 0
-1209 330 -354 0
-1209 -330 386 0
-1209 330 -386 0
-1209 331 355 387 -354 0
-1209 331 355 -387 354 0
-1209 331 -355 387 354 0
-1209 331 -355 -387 -354 0
-1209 -331 355 387 354 0
-1209 -331 355 -387 -354 0
-1209 -331 -355 387 -354 0
-1209 -331 -355 -387 354 0
1210 1209 0
-1210 -1209 0
331 355 387 1211 0
-331 -355 -387 1211 0
-1211 -331 355 0
-1211 331 -355 0
-1211 -331 387 0
-1211 331 -387 0
-1211 332 356 388 -355 0
-1211 332 356 -388 355 0
-1211 332 -356 388 355 0
-1211 332 -356 -388 -355 0
-1211 -332 356 388 355 0
-1211 -332 356 -388 -355 0
-1211 -332 -356 388 -355 0
-1211 -332 -356 -388 355 0
1212 1211 0
-1212 -1211 0
332 356 388 1213 0
-332 -356 -388 1213 0
-1213 -332 356 0
-1213 332 -356 0
-1213 -332 388 0
-1213 332 -388 0
-1213 333 357 389 -356 0
-1213 333 357 -389 356 0
-1213 333 -357 389 356 0
-1213 333 -357 -389 -356 0
-1213 -333 357 389 356 0
-1213 -333 357 -389 -356 0
-1213 -333 -357 389 -356 0
-1213 -333 -357 -389 356 0
1214 1213 0
-1214 -1213 0
333 357 389 1215 0
-333 -357 -389 1215 0
-1215 -333 357 0
-1215 333 -357 0
-1215 -333 389 0
-1215 333 -389 0
-1215 334 358 390 -357 0
-1215 334 358 -390 357 0
-1215 334 -358 390 357 0
-1215 334 -358 -390 -357 0
-1215 -334 358 390 357 0
-1215 -334 358 -390 -357 0
-1215 -334 -358 390 -357 0
-1215 -334 -358 -390 357 0
1216 1215 0
-1216 -1215 0
334 358 390 1217 0
-334 -358 -390 1217 0
-1217 -334 358 0
-1217 334 -358 0
-1217 -334 390 0
-1217 334 -390 0
-1217 335 359 391 -358 0
-1217 335 359 -391 358 0
-1217 335 -359 391 358 0
-1217 335 -359 -391 -358 0
-1217 -335 359 391 358 0
-1217 -335 359 -391 -358 0
-1217 -335 -359 391 -358 0
-1217 -335 -359 -391 358 0
1218 1217 0
-1218 -1217 0
335 359 391 1219 0
-335 -359 -391 1219 0
-1219 -335 359 0
-1219 335 -359 0
-1219 -335 391 0
-1219 335 -391 0
-1219 336 360 392 -359 0
-1219 336 360 -392 359 0
-1219 336 -360 392 359 0
-1219 336 -360 -392 -359 0
-1219 -336 360 392 359 0
-1219 -336 360 -392 -359 0
-1219 -336 -360 392 -359 0
-1219 -336 -360 -392 359 0
1220 1219 0
-1220 -1219 0
336 360 392 1221 0
-336 -360 -392 1221 0
-1221 -336 360 0
-1221 336 -360 0
-1221 -336 392 0
-1221 336 -392 0
-1221 337 361 393 -360 0
-1221 337 361 -393 360 0
-1221 337 -361 393 360 0
-1221 337 -361 -393 -360 0
-1221 -337 361 393 360 0
-1221 -337 361 -393 -360 0
-1221 -337 -361 393 -360 0
-1221 -337 -361 -393 360 0
1222 1221 0
-1222 -1221 0
337 361 393 1223 0
-337 -361 -393 1223 0
-1223 -337 361 0
-1223 337 -361 0
-1223 -337 393 0
-1223 337 -393 0
-1223 338 362 394 -361 0
-1223 338 362 -394 361 0
-1223 338 -362 394 361 0
-1223 338 -362 -394 -361 0
-1223 -338 362 394 361 0
-1223 -338 362 -394 -361 0
-1223 -338 -362 394 -361 0
-1223 -338 -362 -394 361 0
1224 1223 0
-1224 -1223 0
338 362 394 1225 0
-338 -362 -394 1225 0
-1225 -338 362 0
-1225 338 -362 0
-1225 -338 394 0
-1225 338 -394 0
-1225 339 363 395 -362 0
-1225 339 363 -395 362 0
-1225 339 -363 395 362 0
-1225 339 -363 -395 -362 0
-1225 -339 363 395 362 0
-1225 -339 363 -395 -362 0
-1225 -339 -363 395 -362 0
-1225 -339 -363 -395 362 0
1226 1225 0
-1226 -1225 0
339 363 395 1227 0
-339 -363 -395 1227 0
-1227 -339 363 0
-1227 339 -363 0
-1227 -339 395 0
-1227 339 -395 0
-1227 340 364 396 -363 0
-1227 340 364 -396 363 0
-1227 340 -364 396 363 0
-1227 340 -364 -396 -363 0
-1227 -340 364 396 363 0
-1227 -340 364 -396 -363 0
-1227 -340 -364 396 -363 0
-1227 -340 -364 -396 363 0
1228 1227 0
-1228 -1227 0
340 364 396 1229 0
-340 -364 -396 1229 0
-1229 -340 364 0
-1229 340 -364 0
-1229 -340 396 0
-1229 340 -396 0
-1229 341 365 397 -364 0
-1229 341 365 -397 364 0
-1229 341 -365 397 364 0
-1229 341 -365 -397 -364 0
-1229 -341 365 397 364 0
-1229 -341 365 -397 -364 0
-1229 -341 -365 397 -364 0
-1229 -341 -365 -397 364 0
1230 1229 0
-1230 -1229 0
341 365 397 1231 0
-341 -365 -397 1231 0
-1231 -341 365 0
-1231 341 -365 0
-1231 -341 397 0
-1231 341 -397 0
-1231 342 366 398 -365 0
-1231 342 366 -398 365 0
-1231 342 -366 398 365 0
-1231 342 -366 -398 -365 0
-1231 -342 366 398 365 0
-1231 -342 366 -398 -365 0
-1231 -342 -366 398 -365 0
-1231 -342 -366 -398 365 0
1232 1231 0
-1232 -1231 0
342 366 398 1233 0
-342 -366 -398 1233 0
-1233 -342 366 0
-1233 342 -366 0
-1233 -342 398 0
-1233 342 -398 0
-1233 343 367 399 -366 0
-1233 343 367 -399 366 0
-1233 343 -367 399 366 0
-1233 343 -367 -399 -366 0
-1233 -343 367 399 366 0
-1233 -343 367 -399 -366 0
-1233 -343 -367 399 -366 0
-1233 -343 -367 -399 366 0
1234 1233 0
-1234 -1233 0
343 367 399 1235 0
-343 -367 -399 1235 0
-1235 -343 367 0
-1235 343 -367 0
-1235 -343 399 0
-1235 343 -399 0
-1235 344 368 400 -367 0
-1235 344 368 -400 367 0
-1235 344 -368 400 367 0
-1235 344 -368 -400 -367 0
-1235 -344 368 400 367 0
-1235 -344 368 -400 -367 0
-1235 -344 -368 400 -367 0
-1235 -344 -368 -400 367 0
1236 1235 0
-1236 -1235 0
344 368 400 1237 0
-344 -368 -400 1237 0
-1237 -344 368 0
-1237 344 -368 0
-1237 -344 400 0
-1237 344 -400 0
-1237 345 369 401 -368 0
-1237 345 369 -401 368 0
-1237 345 -369 401 368 0
-1237 345 -369 -401 -368 0
-1237 -345 369 401 368 0
-1237 -345 369 -401 -368 0
-1237 -345 -369 401 -368 0
-1237 -345 -369 -401 368 0
1238 1237 0
-1238 -1237 0
345 369 401 1239 0
-345 -369 -401 1239 0
-1239 -345 369 0
-1239 345 -369 0
-1239 -345 401 0
-1239 345 -401 0
-1239 346 370 402 -369 0
-1239 346 370 -402 369 0
-1239 346 -370 402 369 0
-1239 346 -370 -402 -369 0
-1239 -346 370 402 369 0
-1239 -346 370 -402 -369 0
-1239 -346 -370 402 -369 0
-1239 -346 -370 -402 369 0
1240 1239 0
-1240 -1239 0
346 370 402 1241 0
-346 -370 -402 1241 0
-1241 -346 370 0
-1241 346 -370 0
-1241 -346 402 0
-1241 346 -402 0
-1241 347 371 403 -370 0
-1241 347 371 -403 370 0
-1241 347 -371 403 370 0
-1241 347 -371 -403 -370 0
-1241 -347 371 403 370 0
-1241 -347 371 -403 -370 0
-1241 -347 -371 403 -370 0
-1241 -347 -371 -403 370 0
1242 1241 0
-1242 -1241 0
347 371 403 1243 0
-347 -371 -403 1243 0
-1243 -347 371 0
-1243 347 -371 0
-1243 -347 403 0
-1243 347 -403 0
-1243 348 372 404 -371 0
-1243 348 372 -404 371 0
-1243 348 -372 404 371 0
-1243 348 -372 -404 -371 0
-1243 -348 372 404 371 0
-1243 -348 372 -404 -371 0
-1243 -348 -372 404 -371 0
-1243 -348 -372 -404 371 0
1244 1243 0
-1244 -1243 0
348 372 404 1245 0
-348 -372 -404 1245 0
-1245 -348 372 0
-1245 348 -372 0
-1245 -348 404 0
-1245 348 -404 0
-1245 349 373 405 -372 0
-1245 349 373 -405 372 0
-1245 349 -373 405 372 0
-1245 349 -373 -405 -372 0
-1245 -349 373 405 372 0
-1245 -349 373 -405 -372 0
-1245 -349 -373 405 -372 0
-1245 -349 -373 -405 372 0
1246 1245 0
-1246 -1245 0
349 373 405 1247 0
-349 -373 -405 1247 0
-1247 -349 373 0
-1247 349 -373 0
-1247 -349 405 0
-1247 349 -405 0
-1247 350 374 406 -373 0
-1247 350 374 -406 373 0
-1247 350 -374 406 373 0
-1247 350 -374 -406 -373 0
-1247 -350 374 406 373 0
-1247 -350 374 -406 -373 0
-1247 -350 -374 406 -373 0
-1247 -350 -374 -406 373 0
1248 1247 0
-1248 -1247 0
350 374 406 1249 0
-350 -374 -406 1249 0
-1249 -350 374 0
-1249 350 -374 0
-1249 -350 406 0
-1249 350 -406 0
-1249 351 375 407 -374 0
-1249 351 375 -407 374 0
-1249 351 -375 407 374 0
-1249 351 -375 -407 -374 0
-1249 -351 375 407 374 0
-1249 -351 375 -407 -374 0
-1249 -351 -375 407 -374 0
-1249 -351 -375 -407 374 0
1250 1249 0
-1250 -1249 0
351 375 407 1251 0
-351 -375 -407 1251 0
-1251 -351 375 0
-1251 351 -375 0
-1251 -351 407 0
-1251 351 -407 0
-1251 352 376 408 -375 0
-1251 352 376 -408 375 0
-1251 352 -376 408 375 0
-1251 352 -376 -408 -375 0
-1251 -352 376 408 375 0
-1251 -352 376 -408 -375 0
-1251 -352 -376 408 -375 0
-1251 -352 -376 -408 375 0
1252 1251 0
-1252 -1251 0
352 376 408 1253 0
-352 -376 -408 1253 0
-1253 -352 376 0
-1253 352 -376 0
-1253 -352 408 0
-1253 352 -408 0
-1253 321 377 409 -376 0
-1253 321 377 -409 376 0
-1253 321 -377 409 376 0
-1253 321 -377 -409 -376 0
-1253 -321 377 409 376 0
-1253 -321 377 -409 -376 0
-1253 -321 -377 409 -376 0
-1253 -321 -377 -409 376 0
1254 1253 0
-1254 -1253 0
321 377 409 1255 0
-321 -377 -409 1255 0
-1255 -321 377 0
-1255 321 -377 0
-1255 -321 409 0
-1255 321 -409 0
-1255 322 378 410 -377 0
-1255 322 378 -410 377 0
-1255 322 -378 410 377 0
-1255 322 -378 -410 -377 0
-1255 -322 378 410 377 0
-1255 -322 378 -410 -377 0
-1255 -322 -378 410 -377 0
-1255 -322 -378 -410 377 0
1256 1255 0
-1256 -1255 0
322 378 410 1257 0
-322 -378 -410 1257 0
-1257 -322 378 0
-1257 322 -378 0
-1257 -322 410 0
-1257 322 -410 0
-1257 323 379 411 -378 0
-1257 323 379 -411 378 0
-1257 323 -379 411 378 0
-1257 323 -379 -411 -378 0
-1257 -323 379 411 378 0
-1257 -323 379 -411 -378 0
-1257 -323 -379 411 -378 0
-1257 -323 -379 -411 378 0
1258 1257 0
-1258 -1257 0
323 379 411 1259 0
-323 -379 -411 1259 0
-1259 -323 379 0
-1259 323 -379 0
-1259 -323 411 0
-1259 323 -411 0
-1259 324 380 412 -379 0
-1259 324 380 -412 379 0
-1259 324 -380 412 379 0
-1259 324 -380 -412 -379 0
-1259 -324 380 412 379 0
-1259 -324 380 -412 -379 0
-1259 -324 -380 412 -379 0
-1259 -324 -380 -412 379 0
1260 1259 0
-1260 -1259 0
324 380 412 1261 0
-324 -380 -412 1261 0
-1261 -324 380 0
-1261 324 -380 0
-1261 -324 412 0
-1261 324 -412 0
-1261 325 381 413 -380 0
-1261 325 381 -413 380 0
-1261 325 -381 413 380 0
-1261 325 -381 -413 -380 0
-1261 -325 381 413 380 0
-1261 -325 381 -413 -380 0
-1261 -325 -381 413 -380 0
-1261 -325 -381 -413 380 0
1262 1261 0
-1262 -1261 0
325 381 413 1263 0
-325 -381 -413 1263 0
-1263 -325 381 0
-1263 325 -381 0
-1263 -325 413 0
-1263 325 -413 0
-1263 326 382 414 -381 0
-1263 326 382 -414 381 0
-1263 326 -382 414 381 0
-1263 326 -382 -414 -381 0
-1263 -326 382 414 381 0
-1263 -326 382 -414 -381 0
-1263 -326 -382 414 -381 0
-1263 -326 -382 -414 381 0
1264 1263 0
-1264 -1263 0
326 382 414 1265 0
-326 -382 -414 1265 0
-1265 -326 382 0
-1265 326 -382 0
-1265 -326 414 0
-1265 326 -414 0
-1265 327 383 415 -382 0
-1265 327 383 -415 382 0
-1265 327 -383 415 382 0
-1265 327 -383 -415 -382 0
-1265 -327 383 415 382 0
-1265 -327 383 -415 -382 0
-1265 -327 -383 415 -382 0
-1265 -327 -383 -415 382 0
1266 1265 0
-1266 -1265 0
327 383 415 1267 0
-327 -383 -415 1267 0
-1267 -327 383 0
-1267 327 -383 0
-1267 -327 415 0
-1267 327 -415 0
-1267 328 384 416 -383 0
-1267 328 384 -416 383 0
-1267 328 -384 416 383 0
-1267 328 -384 -416 -383 0
-1267 -328 384 416 383 0
-1267 -328 384 -416 -383 0
-1267 -328 -384 416 -383 0
-1267 -328 -384 -416 383 0
1268 1267 0
-1268 -1267 0
382 385 -417 0
382 -385 417 0
-382 385 417 0
-382 -385 -417 0
383 386 -418 0
383 -386 418 0
-383 386 418 0
-383 -386 -418 0
384 387 -419 0
384 -387 419 0
-384 387 419 0
-384 -387 -419 0
353 388 -420 0
353 -388 420 0
-353 388 420 0
-353 -388 -420 0
354 389 -421 0
354 -389 421 0
-354 389 421 0
-354 -389 -421 0
355 390 -422 0
355 -390 422 0
-355 390 422 0
-355 -390 -422 0
356 391 -423 0
356 -391 423 0
-356 391 423 0
-356 -391 -423 0
357 392 -424 0
357 -392 424 0
-357 392 424 0
-357 -392 -424 0
358 393 -425 0
358 -393 425 0
-358 393 425 0
-358 -393 -425 0
359 394 -426 0
359 -394 426 0
-359 394 426 0
-359 -394 -426 0
360 395 -427 0
360 -395 427 0
-360 395 427 0
-360 -395 -427 0
361 396 -428 0
361 -396 428 0
-361 396 428 0
-361 -396 -428 0
362 397 -429 0
362 -397 429 0
-362 397 429 0
-362 -397 -429 0
363 398 -430 0
363 -398 430 0
-363 398 430 0
-363 -398 -430 0
364 399 -431 0
364 -399 431 0
-364 399 431 0
-364 -399 -431 0
365 400 -432 0
365 -400 432 0
-365 400 432 0
-365 -400 -432 0
366 401 -433 0
366 -401 433 0
-366 401 433 0
-366 -401 -433 0
367 402 -434 0
367 -402 434 0
-367 402 434 0
-367 -402 -434 0
368 403 -435 0
368 -403 435 0
-368 403 435 0
-368 -403 -435 0
369 404 -436 0
369 -404 436 0
-369 404 436 0
-369 -404 -436 0
370 405 -437 0
370 -405 437 0
-370 405 437 0
-370 -405 -437 0
371 406 -438 0
371 -406 438 0
-371 406 438 0
-371 -406 -438 0
372 407 -439 0
372 -407 439 0
-372 407 439 0
-372 -407 -439 0
373 408 -440 0
373 -408 440 0
-373 408 440 0
-373 -408 -440 0
374 409 -441 0
374 -409 441 0
-374 409 441 0
-374 -409 -441 0
375 410 -442 0
375 -410 442 0
-375 410 442 0
-375 -410 -442 0
376 411 -443 0
376 -411 443 0
-376 411 443 0
-376 -411 -443 0
377 412 -444 0
377 -412 444 0
-377 412 444 0
-377 -412 -444 0
378 413 -445 0
378 -413 445 0
-378 413 445 0
-378 -413 -445 0
379 414 -446 0
379 -414 446 0
-379 414 446 0
-379 -414 -446 0
380 415 -447 0
380 -415 447 0
-380 415 447 0
-380 -415 -447 0
381 416 -448 0
381 -416 448 0
-381 416 448 0
-381 -416 -448 0
393 417 -449 0
393 -417 449 0
-393 417 449 0
-393 -417 -449 0
393 417 449 1269 0
-393 -417 -449 1269 0
-1269 -393 417 0
-1269 393 -417 0
-1269 -393 449 0
-1269 393 -449 0
-1269 394 418 450 -417 0
-1269 394 418 -450 417 0
-1269 394 -418 450 417 0
-1269 394 -418 -450 -417 0
-1269 -394 418 450 417 0
-1269 -394 418 -450 -417 0
-1269 -394 -418 450 -417 0
-1269 -394 -418 -450 417 0
1270 1269 0
-1270 -1269 0
394 418 450 1271 0
-394 -418 -450 1271 0
-1271 -394 418 0
-1271 394 -418 0
-1271 -394 450 0
-1271 394 -450 0
-1271 395 419 451 -418 0
-1271 395 419 -451 418 0
-1271 395 -419 451 418 0
-1271 395 -419 -451 -418 0
-1271 -395 419 451 418 0
-1271 -395 419 -451 -418 0
-1271 -395 -419 451 -418 0
-1271 -395 -419 -451 418 0
1272 1271 0
-1272 -1271 0
395 419 451 1273 0
-395 -419 -451 1273 0
-1273 -395 419 0
-1273 395 -419 0
-1273 -395 451 0
-1273 395 -451 0
-1273 396 420 452 -419 0
-1273 396 420 -452 419 0
-1273 396 -420 452 419 0
-1273 396 -420 -452 -419 0
-1273 -396 420 452 419 0
-1273 -396 420 -452 -419 0
-1273 -396 -420 452 -419 0
-1273 -396 -420 -452 419 0
1274 1273 0
-1274 -1273 0
396 420 452 1275 0
-396 -420 -452 1275 0
-1275 -396 420 0
-1275 396 -420 0
-1275 -396 452 0
-1275 396 -452 0
-1275 397 421 453 -420 0
-1275 397 421 -453 420 0
-1275 397 -421 453 420 0
-1275 397 -421 -453 -420 0
-1275 -397 421 453 420 0
-1275 -397 421 -453 -420 0
-1275 -397 -421 453 -420 0
-1275 -397 -421 -453 420 0
1276 1275 0
-1276 -1275 0
397 421 453 1277 0
-397 -421 -453 1277 0
-1277 -397 421 0
-1277 397 -421 0
-1277 -397 453 0
-1277 397 -453 0
-1277 398 422 454 -421 0
-1277 398 422 -454 421 0
-1277 398 -422 454 421 0
-1277 398 -422 -454 -421 0
-1277 -398 422 454 421 0
-1277 -398 422 -454 -421 0
-1277 -398 -422 454 -421 0
-1277 -398 -422 -454 421 0
1278 1277 0
-1278 -1277 0
398 422 454 1279 0
-398 -422 -454 1279 0
-1279 -398 422 0
-1279 398 -422 0
-1279 -398 454 0
-1279 398 -454 0
-1279 399 423 455 -422 0
-1279 399 423 -455 422 0
-1279 399 -423 455 422 0
-1279 399 -423 -455 -422 0
-1279 -399 423 455 422 0
-1279 -399 423 -455 -422 0
-1279 -399 -423 455 -422 0
-1279 -399 -423 -455 422 0
1280 1279 0
-1280 -1279 0
399 423 455 1281 0
-399 -423 -455 1281 0
-1281 -399 423 0
-1281 399 -423 0
-1281 -399 455 0
-1281 399 -455 0
-1281 400 424 456 -423 0
-1281 400 424 -456 423 0
-1281 400 -424 456 423 0
-1281 400 -424 -456 -423 0
-1281 -400 424 456 423 0
-1281 -400 424 -456 -423 0
-1281 -400 -424 456 -423 0
-1281 -400 -424 -456 423 0
1282 1281 0
-1282 -1281 0
400 424 456 1283 0
-400 -424 -456 1283 0
-1283 -400 424 0
-1283 400 -424 0
-1283 -400 456 0
-1283 400 -456 0
-1283 401 425 457 -424 0
-1283 401 425 -457 424 0
-1283 401 -425 457 424 0
-1283 401 -425 -457 -424 0
-1283 -401 425 457 424 0
-1283 -401 425 -457 -424 0
-1283 -401 -425 457 -424 0
-1283 -401 -425 -457 424 0
1284 1283 0
-1284 -1283 0
401 425 457 1285 0
-401 -425 -457 1285 0
-1285 -401 425 0
-1285 401 -425 0
-1285 -401 457 0
-1285 401 -457 0
-1285 402 426 458 -425 0
-1285 402 426 -458 425 0
-1285 402 -426 458 425 0
-1285 402 -426 -458 -425 0
-1285 -402 426 458 425 0
-1285 -402 426 -458 -425 0
-1285 -402 -426 458 -425 0
-1285 -402 -426 -458 425 0
1286 1285 0
-1286 -1285 0
402 426 458 1287 0
-402 -426 -458 1287 0
-1287 -402 426 0
-1287 402 -426 0
-1287 -402 458 0
-1287 402 -458 0
-1287 403 427 459 -426 0
-1287 403 427 -459 426 0
-1287 403 -427 459 426 0
-1287 403 -427 -459 -426 0
-1287 -403 427 459 426 0
-1287 -403 427 -459 -426 0
-1287 -403 -427 459 -426 0
-1287 -403 -427 -459 426 0
1288 1287 0
-1288 -1287 0
403 427 459 1289 0
-403 -427 -459 1289 0
-1289 -403 427 0
-1289 403 -427 0
-1289 -403 459 0
-1289 403 -459 0
-1289 404 428 460 -427 0
-1289 404 428 -460 427 0
-1289 404 -428 460 427 0
-1289 404 -428 -460 -427 0
-1289 -404 428 460 427 0
-1289 -404 428 -460 -427 0
-1289 -404 -428 460 -427 0
-1289 -404 -428 -460 427 0
1290 1289 0
-1290 -1289 0
404 428 460 1291 0
-404 -428 -460 1291 0
-1291 -404 428 0
-1291 404 -428 0
-1291 -404 460 0
-1291 404 -460 0
-1291 405 429 461 -428 0
-1291 405 429 -461 428 0
-1291 405 -429 461 428 0
-1291 405 -429 -461 -428 0
-1291 -405 429 461 428 0
-1291 -405 429 -461 -428 0
-1291 -405 -429 461 -428 0
-1291 -405 -429 -461 428 0
1292 1291 0
-1292 -1291 0
405 429 461 1293 0
-405 -429 -461 1293 0
-1293 -405 429 0
-1293 405 -429 0
-1293 -405 461 0
-1293 405 -461 0
-1293 406 430 462 -429 0
-1293 406 430 -462 429 0
-1293 406 -430 462 429 0
-1293 406 -430 -462 -429 0
-1293 -406 430 462 429 0
-1293 -406 430 -462 -429 0
-1293 -406 -430 462 -429 0
-1293 -406 -430 -462 429 0
1294 1293 0
-1294 -1293 0
406 430 462 1295 0
-406 -430 -462 1295 0
-1295 -406 430 0
-1295 406 -430 0
-1295 -406 462 0
-1295 406 -462 0
-1295 407 431 463 -430 0
-1295 407 431 -463 430 0
-1295 407 -431 463 430 0
-1295 407 -431 -463 -430 0
-1295 -407 431 463 430 0
-1295 -407 431 -463 -430 0
-1295 -407 -431 463 -430 0
-1295 -407 -431 -463 430 0
1296 1295 0
-1296 -1295 0
407 431 463 1297 0
-407 -431 -463 1297 0
-1297 -407 431 0
-1297 407 -431 0
-1297 -407 463 0
-1297 407 -463 0
-1297 408 432 464 -431 0
-1297 408 432 -464 431 0
-1297 408 -432 464 431 0
-1297 408 -432 -464 -431 0
-1297 -408 432 464 431 0
-1297 -408 432 -464 -431 0
-1297 -408 -432 464 -431 0
-1297 -408 -432 -464 431 0
1298 1297 0
-1298 -1297 0
408 432 464 1299 0
-408 -432 -464 1299 0
-1299 -408 432 0
-1299 408 -432 0
-1299 -408 464 0
-1299 408 -464 0
-1299 409 433 465 -432 0
-1299 409 433 -465 432 0
-1299 409 -433 465 432 0
-1299 409 -433 -465 -432 0
-1299 -409 433 465 432 0
-1299 -409 433 -465 -432 0
-1299 -409 -433 465 -432 0
-1299 -409 -433 -465 432 0
1300 1299 0
-1300 -1299 0
409 433 465 1301 0
-409 -433 -465 1301 0
-1301 -409 433 0
-1301 409 -433 0
-1301 -409 465 0
-1301 409 -465 0
-1301 410 434 466 -433 0
-1301 410 434 -466 433 0
-1301 410 -434 466 433 0
-1301 410 -434 -466 -433 0
-1301 -410 434 466 433 0
-1301 -410 434 -466 -433 0
-1301 -410 -434 466 -433 0
-1301 -410 -434 -466 433 0
1302 1301 0
-1302 -1301 0
410 434 466 1303 0
-410 -434 -466 1303 0
-1303 -410 434 0
-1303 410 -434 0
-1303 -410 466 0
-1303 410 -466 0
-1303 411 435 467 -434 0
-1303 411 435 -467 434 0
-1303 411 -435 467 434 0
-1303 411 -435 -467 -434 0
-1303 -411 435 467 434 0
-1303 -411 435 -467 -434 0
-1303 -411 -435 467 -434 0
-1303 -411 -435 -467 434 0
1304 1303 0
-1304 -1303 0
411 435 467 1305 0
-411 -435 -467 1305 0
-1305 -411 435 0
-1305 411 -435 0
-1305 -411 467 0
-1305 411 -467 0
-1305 412 436 468 -435 0
-1305 412 436 -468 435 0
-1305 412 -436 468 435 0
-1305 412 -436 -468 -435 0
-1305 -412 436 468 435 0
-1305 -412 436 -468 -435 0
-1305 -412 -436 468 -435 0
-1305 -412 -436 -468 435 0
1306 1305 0
-1306 -1305 0
412 436 468 1307 0
-412 -436 -468 1307 0
-1307 -412 436 0
-1307 412 -436 0
-1307 -412 468 0
-1307 412 -468 0
-1307 413 437 469 -436 0
-1307 413 437 -469 436 0
-1307 413 -437 469 436 0
-1307 413 -437 -469 -436 0
-1307 -413 437 469 436 0
-1307 -413 437 -469 -436 0
-1307 -413 -437 469 -436 0
-1307 -413 -437 -469 436 0
1308 1307 0
-1308 -1307 0
413 437 469 1309 0
-413 -437 -469 1309 0
-1309 -413 437 0
-1309 413 -437 0
-1309 -413 469 0
-1309 413 -469 0
-1309 414 438 470 -437 0
-1309 414 438 -470 437 0
-1309 414 -438 470 437 0
-1309 414 -438 -470 -437 0
-1309 -414 438 470 437 0
-1309 -414 438 -470 -437 0
-1309 -414 -438 470 -437 0
-1309 -414 -438 -470 437 0
1310 1309 0
-1310 -1309 0
414 438 470 1311 0
-414 -438 -470 1311 0
-1311 -414 438 0
-1311 414 -438 0
-1311 -414 470 0
-1311 414 -470 0
-1311 415 439 471 -438 0
-1311 415 439 -471 438 0
-1311 415 -439 471 438 0
-1311 415 -439 -471 -438 0
-1311 -415 439 471 438 0
-1311 -415 439 -471 -438 0
-1311 -415 -439 471 -438 0
-1311 -415 -439 -471 438 0
1312 1311 0
-1312 -1311 0
415 439 471 1313 0
-415 -439 -471 1313 0
-1313 -415 439 0
-1313 415 -439 0
-1313 -415 471 0
-1313 415 -471 0
-1313 416 440 472 -439 0
-1313 416 440 -472 439 0
-1313 416 -440 472 439 0
-1313 416 -440 -472 -439 0
-1313 -416 440 472 439 0
-1313 -416 440 -472 -439 0
-1313 -416 -440 472 -439 0
-1313 -416 -440 -472 439 0
1314 1313 0
-1314 -1313 0
416 440 472 1315 0
-416 -440 -472 1315 0
-1315 -416 440 0
-1315 416 -440 0
-1315 -416 472 0
-1315 416 -472 0
-1315 385 441 473 -440 0
-1315 385 441 -473 440 0
-1315 385 -441 473 440 0
-1315 385 -441 -473 -440 0
-1315 -385 441 473 440 0
-1315 -385 441 -473 -440 0
-1315 -385 -441 473 -440 0
-1315 -385 -441 -473 440 0
1316 1315 0
-1316 -1315 0
385 441 473 1317 0
-385 -441 -473 1317 0
-1317 -385 441 0
-1317 385 -441 0
-1317 -385 473 0
-1317 385 -473 0
-1317 386 442 474 -441 0
-1317 386 442 -474 441 0
-1317 386 -442 474 441 0
-1317 386 -442 -474 -441 0
-1317 -386 442 474 441 0
-1317 -386 442 -474 -441 0
-1317 -386 -442 474 -441 0
-1317 -386 -442 -474 441 0
1318 1317 0
-1318 -1317 0
386 442 474 1319 0
-386 -442 -474 1319 0
-1319 -386 442 0
-1319 386 -442 0
-1319 -386 474 0
-1319 386 -474 0
-1319 387 443 475 -442 0
-1319 387 443 -475 442 0
-1319 387 -443 475 442 0
-1319 387 -443 -475 -442 0
-1319 -387 443 475 442 0
-1319 -387 443 -475 -442 0
-1319 -387 -443 475 -442 0
-1319 -387 -443 -475 442 0
1320 1319 0
-1320 -1319 0
387 443 475 1321 0
-387 -443 -475 1321 0
-1321 -387 443 0
-1321 387 -443 0
-1321 -387 475 0
-1321 387 -475 0
-1321 388 444 476 -443 0
-1321 388 444 -476 443 0
-1321 388 -444 476 443 0
-1321 388 -444 -476 -443 0
-1321 -388 444 476 443 0
-1321 -388 444 -476 -443 0
-1321 -388 -444 476 -443 0
-1321 -388 -444 -476 443 0
1322 1321 0
-1322 -1321 0
388 444 476 1323 0
-388 -444 -476 1323 0
-1323 -388 444 0
-1323 388 -444 0
-1323 -388 476 0
-1323 388 -476 0
-1323 389 445 477 -444 0
-1323 389 445 -477 444 0
-1323 389 -445 477 444 0
-1323 389 -445 -477 -444 0
-1323 -389 445 477 444 0
-1323 -389 445 -477 -444 0
-1323 -389 -445 477 -444 0
-1323 -389 -445 -477 444 0
1324 1323 0
-1324 -1323 0
389 445 477 1325 0
-389 -445 -477 1325 0
-1325 -389 445 0
-1325 389 -445 0
-1325 -389 477 0
-1325 389 -477 0
-1325 390 446 478 -445 0
-1325 390 446 -478 445 0
-1325 390 -446 478 445 0
-1325 390 -446 -478 -445 0
-1325 -390 446 478 445 0
-1325 -390 446 -478 -445 0
-1325 -390 -446 478 -445 0
-1325 -390 -446 -478 445 0
1326 1325 0
-1326 -1325 0
390 446 478 1327 0
-390 -446 -478 1327 0
-1327 -390 446 0
-1327 390 -446 0
-1327 -390 478 0
-1327 390 -478 0
-1327 391 447 479 -446 0
-1327 391 447 -479 446 0
-1327 391 -447 479 446 0
-1327 391 -447 -479 -446 0
-1327 -391 447 479 446 0
-1327 -391 447 -479 -446 0
-1327 -391 -447 479 -446 0
-1327 -391 -447 -479 446 0
1328 1327 0
-1328 -1327 0
391 447 479 1329 0
-391 -447 -479 1329 0
-1329 -391 447 0
-1329 391 -447 0
-1329 -391 479 0
-1329 391 -479 0
-1329 392 448 480 -447 0
-1329 392 448 -480 447 0
-1329 392 -448 480 447 0
-1329 392 -448 -480 -447 0
-1329 -392 448 480 447 0
-1329 -392 448 -480 -447 0
-1329 -392 -448 480 -447 0
-1329 -392 -448 -480 447 0
1330 1329 0
-1330 -1329 0
446 449 -481 0
446 -449 481 0
-446 449 481 0
-446 -449 -481 0
447 450 -482 0
447 -450 482 0
-447 450 482 0
-447 -450 -482 0
448 451 -483 0
448 -451 483 0
-448 451 483 0
-448 -451 -483 0
417 452 -484 0
417 -452 484 0
-417 452 484 0
-417 -452 -484 0
418 453 -485 0
418 -453 485 0
-418 453 485 0
-418 -453 -485 0
419 454 -486 0
419 -454 486 0
-419 454 486 0
-419 -454 -486 0
420 455 -487 0
420 -455 487 0
-420 455 487 0
-420 -455 -487 0
421 456 -488 0
421 -456 488 0
-421 456 488 0
-421 -456 -488 0
422 457 -489 0
422 -457 489 0
-422 457 489 0
-422 -457 -489 0
423 458 -490 0
423 -458 490 0
-423 458 490 0
-423 -458 -490 0
424 459 -491 0
424 -459 491 0
-424 459 491 0
-424 -459 -491 0
425 460 -492 0
425 -460 492 0
-425 460 492 0
-425 -460 -492 0
426 461 -493 0
426 -461 493 0
-426 461 493 0
-426 -461 -493 0
427 462 -494 0
427 -462 494 0
-427 462 494 0
-427 -462 -494 0
428 463 -495 0
428 -463 495 0
-428 463 495 0
-428 -463 -495 0
429 464 -496 0
429 -464 496 0
-429 464 496 0
-429 -464 -496 0
430 465 -497 0
430 -465 497 0
-430 465 497 0
-430 -465 -497 0
431 466 -498 0
431 -466 498 0
-431 466 498 0
-431 -466 -498 0
432 467 -499 0
432 -467 499 0
-432 467 499 0
-432 -467 -499 0
433 468 -500 0
433 -468 500 0
-433 468 500 0
-433 -468 -500 0
434 469 -501 0
434 -469 501 0
-434 469 501 0
-434 -469 -501 0
435 470 -502 0
435 -470 502 0
-435 470 502 0
-435 -470 -502 0
436 471 -503 0
436 -471 503 0
-436 471 503 0
-436 -471 -503 0
437 472 -504 0
437 -472 504 0
-437 472 504 0
-437 -472 -504 0
438 473 -505 0
438 -473 505 0
-438 473 505 0
-438 -473 -505 0
439 474 -506 0
439 -474 506 0
-439 474 506 0
-439 -474 -506 0
440 475 -507 0
440 -475 507 0
-440 475 507 0
-440 -475 -507 0
441 476 -508 0
441 -476 508 0
-441 476 508 0
-441 -476 -508 0
442 477 -509 0
442 -477 509 0
-442 477 509 0
-442 -477 -509 0
443 478 -510 0
443 -478 510 0
-443 478 510 0
-443 -478 -510 0
444 479 -511 0
444 -479 511 0
-444 479 511 0
-444 -479 -511 0
445 480 -512 0
445 -480 512 0
-445 480 512 0
-445 -480 -512 0
457 481 -513 0
457 -481 513 0
-457 481 513 0
-457 -481 -513 0
457 481 513 1331 0
-457 -481 -513 1331 0
-1331 -457 481 0
-1331 457 -481 0
-1331 -457 513 0
-1331 457 -513 0
-1331 458 482 514 -481 0
-1331 458 482 -514 481 0
-1331 458 -482 514 481 0
-1331 458 -482 -514 -481 0
-1331 -458 482 514 481 0
-1331 -458 482 -514 -481 0
-1331 -458 -482 514 -481 0
-1331 -458 -482 -514 481 0
1332 1331 0
-1332 -1331 0
458 482 514 1333 0
-458 -482 -514 1333 0
-1333 -458 482 0
-1333 458 -482 0
-1333 -458 514 0
-1333 458 -514 0
-1333 459 483 515 -482 0
-1333 459 483 -515 482 0
-1333 459 -483 515 482 0
-1333 459 -483 -515 -482 0
-1333 -459 483 515 482 0
-1333 -459 483 -515 -482 0
-1333 -459 -483 515 -482 0
-1333 -459 -483 -515 482 0
1334 1333 0
-1334 -1333 0
459 483 515 1335 0
-459 -483 -515 1335 0
-1335 -459 483 0
-1335 459 -483 0
-1335 -459 515 0
-1335 459 -515 0
-1335 460 484 516 -483 0
-1335 460 484 -516 483 0
-1335 460 -484 516 483 0
-1335 460 -484 -516 -483 0
-1335 -460 484 516 483 0
-1335 -460 484 -516 -483 0
-1335 -460 -484 516 -483 0
-1335 -460 -484 -516 483 0
1336 1335 0
-1336 -1335 0
460 484 516 1337 0
-460 -484 -516 1337 0
-1337 -460 484 0
-1337 460 -484 0
-1337 -460 516 0
-1337 460 -516 0
-1337 461 485 517 -484 0
-1337 461 485 -517 484 0
-1337 461 -485 517 484 0
-1337 461 -485 -517 -484 0
-1337 -461 485 517 484 0
-1337 -461 485 -517 -484 0
-1337 -461 -485 517 -484 0
-1337 -461 -485 -517 484 0
1338 1337 0
-1338 -1337 0
461 485 517 1339 0
-461 -485 -517 1339 0
-1339 -461 485 0
-1339 461 -485 0
-1339 -461 517 0
-1339 461 -517 0
-1339 462 486 518 -485 0
-1339 462 486 -518 485 0
-1339 462 -486 518 485 0
-1339 462 -486 -518 -485 0
-1339 -462 486 518 485 0
-1339 -462 486 -518 -485 0
-1339 -462 -486 518 -485 0
-1339 -462 -486 -518 485 0
1340 1339 0
-1340 -1339 0
462 486 518 1341 0
-462 -486 -518 1341 0
-1341 -462 486 0
-1341 462 -486 0
-1341 -462 518 0
-1341 462 -518 0
-1341 463 487 519 -486 0
-1341 463 487 -519 486 0
-1341 463 -487 519 486 0
-1341 463 -487 -519 -486 0
-1341 -463 487 519 486 0
-1341 -463 487 -519 -486 0
-1341 -463 -487 519 -486 0
-1341 -463 -487 -519 486 0
1342 1341 0
-1342 -1341 0
463 487 519 1343 0
-463 -487 -519 1343 0
-1343 -463 487 0
-1343 463 -487 0
-1343 -463 519 0
-1343 463 -519 0
-1343 464 488 520 -487 0
-1343 464 488 -520 487 0
-1343 464 -488 520 487 0
-1343 464 -488 -520 -487 0
-1343 -464 488 520 487 0
-1343 -464 488 -520 -487 0
-1343 -464 -488 520 -487 0
-1343 -464 -488 -520 487 0
1344 1343 0
-1344 -1343 0
464 488 520 1345 0
-464 -488 -520 1345 0
-1345 -464 488 0
-1345 464 -488 0
-1345 -464 520 0
-1345 464 -520 0
-1345 465 489 521 -488 0
-1345 465 489 -521 488 0
-1345 465 -489 521 488 0
-1345 465 -489 -521 -488 0
-1345 -465 489 521 488 0
-1345 -465 489 -521 -488 0
-1345 -465 -489 521 -488 0
-1345 -465 -489 -521 488 0
1346 1345 0
-1346 -1345 0
465 489 521 1347 0
-465 -489 -521 1347 0
-1347 -465 489 0
-1347 465 -489 0
-1347 -465 521 0
-1347 465 -521 0
-1347 466 490 522 -489 0
-1347 466 490 -522 489 0
-1347 466 -490 522 489 0
-1347 466 -490 -522 -489 0
-1347 -466 490 522 489 0
-1347 -466 490 -522 -489 0
-1347 -466 -490 522 -489 0
-1347 -466 -490 -522 489 0
1348 1347 0
-1348 -1347 0
466 490 522 1349 0
-466 -490 -522 1349 0
-1349 -466 490 0
-1349 466 -490 0
-1349 -466 522 0
-1349 466 -522 0
-1349 467 491 523 -490 0
-1349 467 491 -523 490 0
-1349 467 -491 523 490 0
-1349 467 -491 -523 -490 0
-1349 -467 491 523 490 0
-1349 -467 491 -523 -490 0
-1349 -467 -491 523 -490 0
-1349 -467 -491 -523 490 0
1350 1349 0
-1350 -1349 0
467 491 523 1351 0
-467 -491 -523 1351 0
-1351 -467 491 0
-1351 467 -491 0
-1351 -467 523 0
-1351 467 -523 0
-1351 468 492 524 -491 0
-1351 468 492 -524 491 0
-1351 468 -492 524 491 0
-1351 468 -492 -524 -491 0
-1351 -468 492 524 491 0
-1351 -468 492 -524 -491 0
-1351 -468 -492 524 -491 0
-1351 -468 -492 -524 491 0
1352 1351 0
-1352 -1351 0
468 492 524 1353 0
-468 -492 -524 1353 0
-1353 -468 492 0
-1353 468 -492 0
-1353 -468 524 0
-1353 468 -524 0
-1353 469 493 525 -492 0
-1353 469 493 -525 492 0
-1353 469 -493 525 492 0
-1353 469 -493 -525 -492 0
-1353 -469 493 525 492 0
-1353 -469 493 -525 -492 0
-1353 -469 -493 525 -492 0
-1353 -469 -493 -525 492 0
1354 1353 0
-1354 -1353 0
469 493 525 1355 0
-469 -493 -525 1355 0
-1355 -469 493 0
-1355 469 -493 0
-1355 -469 525 0
-1355 469 -525 0
-1355 470 494 526 -493 0
-1355 470 494 -526 493 0
-1355 470 -494 526 493 0
-1355 470 -494 -526 -493 0
-1355 -470 494 526 493 0
-1355 -470 494 -526 -493 0
-1355 -470 -494 526 -493 0
-1355 -470 -494 -526 493 0
1356 1355 0
-1356 -1355 0
470 494 526 1357 0
-470 -494 -526 1357 0
-1357 -470 494 0
-1357 470 -494 0
-1357 -470 526 0
-1357 470 -526 0
-1357 471 495 527 -494 0
-1357 471 495 -527 494 0
-1357 471 -495 527 494 0
-1357 471 -495 -527 -494 0
-1357 -471 495 527 494 0
-1357 -471 495 -527 -494 0
-1357 -471 -495 527 -494 0
-1357 -471 -495 -527 494 0
1358 1357 0
-1358 -1357 0
471 495 527 1359 0
-471 -495 -527 1359 0
-1359 -471 495 0
-1359 471 -495 0
-1359 -471 527 0
-1359 471 -527 0
-1359 472 496 528 -495 0
-1359 472 496 -528 495 0
-1359 472 -496 528 495 0
-1359 472 -496 -528 -495 0
-1359 -472 496 528 495 0
-1359 -472 496 -528 -495 0
-1359 -472 -496 528 -495 0
-1359 -472 -496 -528 495 0
1360 1359 0
-1360 -1359 0
472 496 528 1361 0
-472 -496 -528 1361 0
-1361 -472 496 0
-1361 472 -496 0
-1361 -472 528 0
-1361 472 -528 0
-1361 473 497 529 -496 0
-1361 473 497 -529 496 0
-1361 473 -497 529 496 0
-1361 473 -497 -529 -496 0
-1361 -473 497 529 496 0
-1361 -473 497 -529 -496 0
-1361 -473 -497 529 -496 0
-1361 -473 -497 -529 496 0
1362 1361 0
-1362 -1361 0
473 497 529 1363 0
-473 -497 -529 1363 0
-1363 -473 497 0
-1363 473 -497 0
-1363 -473 529 0
-1363 473 -529 0
-1363 474 498 530 -497 0
-1363 474 498 -530 497 0
-1363 474 -498 530 497 0
-1363 474 -498 -530 -497 0
-1363 -474 498 530 497 0
-1363 -474 498 -530 -497 0
-1363 -474 -498 530 -497 0
-1363 -474 -498 -530 497 0
1364 1363 0
-1364 -1363 0
474 498 530 1365 0
-474 -498 -530 1365 0
-1365 -474 498 0
-1365 474 -498 0
-1365 -474 530 0
-1365 474 -530 0
-1365 475 499 531 -498 0
-1365 475 499 -531 498 0
-1365 475 -499 531 498 0
-1365 475 -499 -531 -498 0
-1365 -475 499 531 498 0
-1365 -475 499 -531 -498 0
-1365 -475 -499 531 -498 0
-1365 -475 -499 -531 498 0
1366 1365 0
-1366 -1365 0
475 499 531 1367 0
-475 -499 -531 1367 0
-1367 -475 499 0
-1367 475 -499 0
-1367 -475 531 0
-1367 475 -531 0
-1367 476 500 532 -499 0
-1367 476 500 -532 499 0
-1367 476 -500 532 499 0
-1367 476 -500 -532 -499 0
-1367 -476 500 532 499 0
-1367 -476 500 -532 -499 0
-1367 -476 -500 532 -499 0
-1367 -476 -500 -532 499 0
1368 1367 0
-1368 -1367 0
476 500 532 1369 0
-476 -500 -532 1369 0
-1369 -476 500 0
-1369 476 -500 0
-1369 -476 532 0
-1369 476 -532 0
-1369 477 501 533 -500 0
-1369 477 501 -533 500 0
-1369 477 -501 533 500 0
-1369 477 -501 -533 -500 0
-1369 -477 501 533 500 0
-1369 -477 501 -533 -500 0
-1369 -477 -501 533 -500 0
-1369 -477 -501 -533 500 0
1370 1369 0
-1370 -1369 0
477 501 533 1371 0
-477 -501 -533 1371 0
-1371 -477 501 0
-1371 477 -501 0
-1371 -477 533 0
-1371 477 -533 0
-1371 478 502 534 -501 0
-1371 478 502 -534 501 0
-1371 478 -502 534 501 0
-1371 478 -502 -534 -501 0
-1371 -478 502 534 501 0
-1371 -478 502 -534 -501 0
-1371 -478 -502 534 -501 0
-1371 -478 -502 -534 501 0
1372 1371 0
-1372 -1371 0
478 502 534 1373 0
-478 -502 -534 1373 0
-1373 -478 502 0
-1373 478 -502 0
-1373 -478 534 0
-1373 478 -534 0
-1373 479 503 535 -502 0
-1373 479 503 -535 502 0
-1373 479 -503 535 502 0
-1373 479 -503 -535 -502 0
-1373 -479 503 535 502 0
-1373 -479 503 -535 -502 0
-1373 -479 -503 535 -502 0
-1373 -479 -503 -535 502 0
1374 1373 0
-1374 -1373 0
479 503 535 1375 0
-479 -503 -535 1375 0
-1375 -479 503 0
-1375 479 -503 0
-1375 -479 535 0
-1375 479 -535 0
-1375 480 504 536 -503 0
-1375 480 504 -536 503 0
-1375 480 -504 536 503 0
-1375 480 -504 -536 -503 0
-1375 -480 504 536 503 0
-1375 -480 504 -536 -503 0
-1375 -480 -504 536 -503 0
-1375 -480 -504 -536 503 0
1376 1375 0
-1376 -1375 0
480 504 536 1377 0
-480 -504 -536 1377 0
-1377 -480 504 0
-1377 480 -504 0
-1377 -480 536 0
-1377 480 -536 0
-1377 449 505 537 -504 0
-1377 449 505 -537 504 0
-1377 449 -505 537 504 0
-1377 449 -505 -537 -504 0
-1377 -449 505 537 504 0
-1377 -449 505 -537 -504 0
-1377 -449 -505 537 -504 0
-1377 -449 -505 -537 504 0
1378 1377 0
-1378 -1377 0
449 505 537 1379 0
-449 -505 -537 1379 0
-1379 -449 505 0
-1379 449 -505 0
-1379 -449 537 0
-1379 449 -537 0
-1379 450 506 538 -505 0
-1379 450 506 -538 505 0
-1379 450 -506 538 505 0
-1379 450 -506 -538 -505 0
-1379 -450 506 538 505 0
-1379 -450 506 -538 -505 0
-1379 -450 -506 538 -505 0
-1379 -450 -506 -538 505 0
1380 1379 0
-1380 -1379 0
450 506 538 1381 0
-450 -506 -538 1381 0
-1381 -450 506 0
-1381 450 -506 0
-1381 -450 538 0
-1381 450 -538 0
-1381 451 507 539 -506 0
-1381 451 507 -539 506 0
-1381 451 -507 539 506 0
-1381 451 -507 -539 -506 0
-1381 -451 507 539 506 0
-1381 -451 507 -539 -506 0
-1381 -451 -507 539 -506 0
-1381 -451 -507 -539 506 0
1382 1381 0
-1382 -1381 0
451 507 539 1383 0
-451 -507 -539 1383 0
-1383 -451 507 0
-1383 451 -507 0
-1383 -451 539 0
-1383 451 -539 0
-1383 452 508 540 -507 0
-1383 452 508 -540 507 0
-1383 452 -508 540 507 0
-1383 452 -508 -540 -507 0
-1383 -452 508 540 507 0
-1383 -452 508 -540 -507 0
-1383 -452 -508 540 -507 0
-1383 -452 -508 -540 507 0
1384 1383 0
-1384 -1383 0
452 508 540 1385 0
-452 -508 -540 1385 0
-1385 -452 508 0
-1385 452 -508 0
-1385 -452 540 0
-1385 452 -540 0
-1385 453 509 541 -508 0
-1385 453 509 -541 508 0
-1385 453 -509 541 508 0
-1385 453 -509 -541 -508 0
-1385 -453 509 541 508 0
-1385 -453 509 -541 -508 0
-1385 -453 -509 541 -508 0
-1385 -453 -509 -541 508 0
1386 1385 0
-1386 -1385 0
453 509 541 1387 0
-453 -509 -541 1387 0
-1387 -453 509 0
-1387 453 -509 0
-1387 -453 541 0
-1387 453 -541 0
-1387 454 510 542 -509 0
-1387 454 510 -542 509 0
-1387 454 -510 542 509 0
-1387 454 -510 -542 -509 0
-1387 -454 510 542 509 0
-1387 -454 510 -542 -509 0
-1387 -454 -510 542 -509 0
-1387 -454 -510 -542 509 0
1388 1387 0
-1388 -1387 0
454 510 542 1389 0
-454 -510 -542 1389 0
-1389 -454 510 0
-1389 454 -510 0
-1389 -454 542 0
-1389 454 -542 0
-1389 455 511 543 -510 0
-1389 455 511 -543 510 0
-1389 455 -511 543 510 0
-1389 455 -511 -543 -510 0
-1389 -455 511 543 510 0
-1389 -455 511 -543 -510 0
-1389 -455 -511 543 -510 0
-1389 -455 -511 -543 510 0
1390 1389 0
-1390 -1389 0
455 511 543 1391 0
-455 -511 -543 1391 0
-1391 -455 511 0
-1391 455 -511 0
-1391 -455 543 0
-1391 455 -543 0
-1391 456 512 544 -511 0
-1391 456 512 -544 511 0
-1391 456 -512 544 511 0
-1391 456 -512 -544 -511 0
-1391 -456 512 544 511 0
-1391 -456 512 -544 -511 0
-1391 -456 -512 544 -511 0
-1391 -456 -512 -544 511 0
1392 1391 0
-1392 -1391 0
510 513 -545 0
510 -513 545 0
-510 513 545 0
-510 -513 -545 0
511 514 -546 0
511 -514 546 0
-511 514 546 0
-511 -514 -546 0
512 515 -547 0
512 -515 547 0
-512 515 547 0
-512 -515 -547 0
481 516 -548 0
481 -516 548 0
-481 516 548 0
-481 -516 -548 0
482 517 -549 0
482 -517 549 0
-482 517 549 0
-482 -517 -549 0
483 518 -550 0
483 -518 550 0
-483 518 550 0
-483 -518 -550 0
484 519 -551 0
484 -519 551 0
-484 519 551 0
-484 -519 -551 0
485 520 -552 0
485 -520 552 0
-485 520 552 0
-485 -520 -552 0
486 521 -553 0
486 -521 553 0
-486 521 553 0
-486 -521 -553 0
487 522 -554 0
487 -522 554 0
-487 522 554 0
-487 -522 -554 0
488 523 -555 0
488 -523 555 0
-488 523 555 0
-488 -523 -555 0
489 524 -556 0
489 -524 556 0
-489 524 556 0
-489 -524 -556 0
490 525 -557 0
490 -525 557 0
-490 525 557 0
-490 -525 -557 0
491 526 -558 0
491 -526 558 0
-491 526 558 0
-491 -526 -558 0
492 527 -559 0
492 -527 559 0
-492 527 559 0
-492 -527 -559 0
493 528 -560 0
493 -528 560 0
-493 528 560 0
-493 -528 -560 0
494 529 -561 0
494 -529 561 0
-494 529 561 0
-494 -529 -561 0
495 530 -562 0
495 -530 562 0
-495 530 562 0
-495 -530 -562 0
496 531 -563 0
496 -531 563 0
-496 531 563 0
-496 -531 -563 0
497 532 -564 0
497 -532 564 0
-497 532 564 0
-497 -532 -564 0
498 533 -565 0
498 -533 565 0
-498 533 565 0
-498 -533 -565 0
499 534 -566 0
499 -534 566 0
-499 534 566 0
-499 -534 -566 0
500 535 -567 0
500 -535 567 0
-500 535 567 0
-500 -535 -567 0
501 536 -568 0
501 -536 568 0
-501 536 568 0
-501 -536 -568 0
502 537 -569 0
502 -537 569 0
-502 537 569 0
-502 -537 -569 0
503 538 -570 0
503 -538 570 0
-503 538 570 0
-503 -538 -570 0
504 539 -571 0
504 -539 571 0
-504 539 571 0
-504 -539 -571 0
505 540 -572 0
505 -540 572 0
-505 540 572 0
-505 -540 -572 0
506 541 -573 0
506 -541 573 0
-506 541 573 0
-506 -541 -573 0
507 542 -574 0
507 -542 574 0
-507 542 574 0
-507 -542 -574 0
508 543 -575 0
508 -543 575 0
-508 543 575 0
-508 -543 -575 0
509 544 -576 0
509 -544 576 0
-509 544 576 0
-509 -544 -576 0
521 545 -577 0
521 -545 577 0
-521 545 577 0
-521 -545 -577 0
521 545 577 1393 0
-521 -545 -577 1393 0
-1393 -521 545 0
-1393 521 -545 0
-1393 -521 577 0
-1393 521 -577 0
-1393 522 546 578 -545 0
-1393 522 546 -578 545 0
-1393 522 -546 578 545 0
-1393 522 -546 -578 -545 0
-1393 -522 546 578 545 0
-1393 -522 546 -578 -545 0
-1393 -522 -546 578 -545 0
-1393 -522 -546 -578 545 0
1394 1393 0
-1394 -1393 0
522 546 578 1395 0
-522 -546 -578 1395 0
-1395 -522 546 0
-1395 522 -546 0
-1395 -522 578 0
-1395 522 -578 0
-1395 523 547 579 -546 0
-1395 523 547 -579 546 0
-1395 523 -547 579 546 0
-1395 523 -547 -579 -546 0
-1395 -523 547 579 546 0
-1395 -523 547 -579 -546 0
-1395 -523 -547 579 -546 0
-1395 -523 -547 -579 546 0
1396 1395 0
-1396 -1395 0
523 547 579 1397 0
-523 -547 -579 1397 0
-1397 -523 547 0
-1397 523 -547 0
-1397 -523 579 0
-1397 523 -579 0
-1397 524 548 580 -547 0
-1397 524 548 -580 547 0
-1397 524 -548 580 547 0
-1397 524 -548 -580 -547 0
-1397 -524 548 580 547 0
-1397 -524 548 -580 -547 0
-1397 -524 -548 580 -547 0
-1397 -524 -548 -580 547 0
1398 1397 0
-1398 -1397 0
524 548 580 1399 0
-524 -548 -580 1399 0
-1399 -524 548 0
-1399 524 -548 0
-1399 -524 580 0
-1399 524 -580 0
-1399 525 549 581 -548 0
-1399 525 549 -581 548 0
-1399 525 -549 581 548 0
-1399 525 -549 -581 -548 0
-1399 -525 549 581 548 0
-1399 -525 549 -581 -548 0
-1399 -525 -549 581 -548 0
-1399 -525 -549 -581 548 0
1400 1399 0
-1400 -1399 0
525 549 581 1401 0
-525 -549 -581 1401 0
-1401 -525 549 0
-1401 525 -549 0
-1401 -525 581 0
-1401 525 -581 0
-1401 526 550 582 -549 0
-1401 526 550 -582 549 0
-1401 526 -550 582 549 0
-1401 526 -550 -582 -549 0
-1401 -526 550 582 549 0
-1401 -526 550 -582 -549 0
-1401 -526 -550 582 -549 0
-1401 -526 -550 -582 549 0
1402 1401 0
-1402 -1401 0
526 550 582 1403 0
-526 -550 -582 1403 0
-1403 -526 550 0
-1403 526 -550 0
-1403 -526 582 0
-1403 526 -582 0
-1403 527 551 583 -550 0
-1403 527 551 -583 550 0
-1403 527 -551 583 550 0
-1403 527 -551 -583 -550 0
-1403 -527 551 583 550 0
-1403 -527 551 -583 -550 0
-1403 -527 -551 583 -550 0
-1403 -527 -551 -583 550 0
1404 1403 0
-1404 -1403 0
527 551 583 1405 0
-527 -551 -583 1405 0
-1405 -527 551 0
-1405 527 -551 0
-1405 -527 583 0
-1405 527 -583 0
-1405 528 552 584 -551 0
-1405 528 552 -584 551 0
-1405 528 -552 584 551 0
-1405 528 -552 -584 -551 0
-1405 -528 552 584 551 0
-1405 -528 552 -584 -551 0
-1405 -528 -552 584 -551 0
-1405 -528 -552 -584 551 0
1406 1405 0
-1406 -1405 0
528 552 584 1407 0
-528 -552 -584 1407 0
-1407 -528 552 0
-1407 528 -552 0
-1407 -528 584 0
-1407 528 -584 0
-1407 529 553 585 -552 0
-1407 529 553 -585 552 0
-1407 529 -553 585 552 0
-1407 529 -553 -585 -552 0
-1407 -529 553 585 552 0
-1407 -529 553 -585 -552 0
-1407 -529 -553 585 -552 0
-1407 -529 -553 -585 552 0
1408 1407 0
-1408 -1407 0
529 553 585 1409 0
-529 -553 -585 1409 0
-1409 -529 553 0
-1409 529 -553 0
-1409 -529 585 0
-1409 529 -585 0
-1409 530 554 586 -553 0
-1409 530 554 -586 553 0
-1409 530 -554 586 553 0
-1409 530 -554 -586 -553 0
-1409 -530 554 586 553 0
-1409 -530 554 -586 -553 0
-1409 -530 -554 586 -553 0
-1409 -530 -554 -586 553 0
1410 1409 0
-1410 -1409 0
530 554 586 1411 0
-530 -554 -586 1411 0
-1411 -530 554 0
-1411 530 -554 0
-1411 -530 586 0
-1411 530 -586 0
-1411 531 555 587 -554 0
-1411 531 555 -587 554 0
-1411 531 -555 587 554 0
-1411 531 -555 -587 -554 0
-1411 -531 555 587 554 0
-1411 -531 555 -587 -554 0
-1411 -531 -555 587 -554 0
-1411 -531 -555 -587 554 0
1412 1411 0
-1412 -1411 0
531 555 587 1413 0
-531 -555 -587 1413 0
-1413 -531 555 0
-1413 531 -555 0
-1413 -531 587 0
-1413 531 -587 0
-1413 532 556 588 -555 0
-1413 532 556 -588 555 0
-1413 532 -556 588 555 0
-1413 532 -556 -588 -555 0
-1413 -532 556 588 555 0
-1413 -532 556 -588 -555 0
-1413 -532 -556 588 -555 0
-1413 -532 -556 -588 555 0
1414 1413 0
-1414 -1413 0
532 556 588 1415 0
-532 -556 -588 1415 0
-1415 -532 556 0
-1415 532 -556 0
-1415 -532 588 0
-1415 532 -588 0
-1415 533 557 589 -556 0
-1415 533 557 -589 556 0
-1415 533 -557 589 556 0
-1415 533 -557 -589 -556 0
-1415 -533 557 589 556 0
-1415 -533 557 -589 -556 0
-1415 -533 -557 589 -556 0
-1415 -533 -557 -589 556 0
1416 1415 0
-1416 -1415 0
533 557 589 1417 0
-533 -557 -589 1417 0
-1417 -533 557 0
-1417 533 -557 0
-1417 -533 589 0
-1417 533 -589 0
-1417 534 558 590 -557 0
-1417 534 558 -590 557 0
-1417 534 -558 590 557 0
-1417 534 -558 -590 -557 0
-1417 -534 558 590 557 0
-1417 -534 558 -590 -557 0
-1417 -534 -558 590 -557 0
-1417 -534 -558 -590 557 0
1418 1417 0
-1418 -1417 0
534 558 590 1419 0
-534 -558 -590 1419 0
-1419 -534 558 0
-1419 534 -558 0
-1419 -534 590 0
-1419 534 -590 0
-1419 535 559 591 -558 0
-1419 535 559 -591 558 0
-1419 535 -559 591 558 0
-1419 535 -559 -591 -558 0
-1419 -535 559 591 558 0
-1419 -535 559 -591 -558 0
-1419 -535 -559 591 -558 0
-1419 -535 -559 -591 558 0
1420 1419 0
-1420 -1419 0
535 559 591 1421 0
-535 -559 -591 1421 0
-1421 -535 559 0
-1421 535 -559 0
-1421 -535 591 0
-1421 535 -591 0
-1421 536 560 592 -559 0
-1421 536 560 -592 559 0
-1421 536 -560 592 559 0
-1421 536 -560 -592 -559 0
-1421 -536 560 592 559 0
-1421 -536 560 -592 -559 0
-1421 -536 -560 592 -559 0
-1421 -536 -560 -592 559 0
1422 1421 0
-1422 -1421 0
536 560 592 1423 0
-536 -560 -592 1423 0
-1423 -536 560 0
-1423 536 -560 0
-1423 -536 592 0
-1423 536 -592 0
-1423 537 561 593 -560 0
-1423 537 561 -593 560 0
-1423 537 -561 593 560 0
-1423 537 -561 -593 -560 0
-1423 -537 561 593 560 0
-1423 -537 561 -593 -560 0
-1423 -537 -561 593 -560 0
-1423 -537 -561 -593 560 0
1424 1423 0
-1424 -1423 0
537 561 593 1425 0
-537 -561 -593 1425 0
-1425 -537 561 0
-1425 537 -561 0
-1425 -537 593 0
-1425 537 -593 0
-1425 538 562 594 -561 0
-1425 538 562 -594 561 0
-1425 538 -562 594 561 0
-1425 538 -562 -594 -561 0
-1425 -538 562 594 561 0
-1425 -538 562 -594 -561 0
-1425 -538 -562 594 -561 0
-1425 -538 -562 -594 561 0
1426 1425 0
-1426 -1425 0
538 562 594 1427 0
-538 -562 -594 1427 0
-1427 -538 562 0
-1427 538 -562 0
-1427 -538 594 0
-1427 538 -594 0
-1427 539 563 595 -562 0
-1427 539 563 -595 562 0
-1427 539 -563 595 562 0
-1427 539 -563 -595 -562 0
-1427 -539 563 595 562 0
-1427 -539 563 -595 -562 0
-1427 -539 -563 595 -562 0
-1427 -539 -563 -595 562 0
1428 1427 0
-1428 -1427 0
539 563 595 1429 0
-539 -563 -595 1429 0
-1429 -539 563 0
-1429 539 -563 0
-1429 -539 595 0
-1429 539 -595 0
-1429 540 564 596 -563 0
-1429 540 564 -596 563 0
-1429 540 -564 596 563 0
-1429 540 -564 -596 -563 0
-1429 -540 564 596 563 0
-1429 -540 564 -596 -563 0
-1429 -540 -564 596 -563 0
-1429 -540 -564 -596 563 0
1430 1429 0
-1430 -1429 0
540 564 596 1431 0
-540 -564 -596 1431 0
-1431 -540 564 0
-1431 540 -564 0
-1431 -540 596 0
-1431 540 -596 0
-1431 541 565 597 -564 0
-1431 541 565 -597 564 0
-1431 541 -565 597 564 0
-1431 541 -565 -597 -564 0
-1431 -541 565 597 564 0
-1431 -541 565 -597 -564 0
-1431 -541 -565 597 -564 0
-1431 -541 -565 -597 564 0
1432 1431 0
-1432 -1431 0
541 565 597 1433 0
-541 -565 -597 1433 0
-1433 -541 565 0
-1433 541 -565 0
-1433 -541 597 0
-1433 541 -597 0
-1433 542 566 598 -565 0
-1433 542 566 -598 565 0
-1433 542 -566 598 565 0
-1433 542 -566 -598 -565 0
-1433 -542 566 598 565 0
-1433 -542 566 -598 -565 0
-1433 -542 -566 598 -565 0
-1433 -542 -566 -598 565 0
1434 1433 0
-1434 -1433 0
542 566 598 1435 0
-542 -566 -598 1435 0
-1435 -542 566 0
-1435 542 -566 0
-1435 -542 598 0
-1435 542 -598 0
-1435 543 567 599 -566 0
-1435 543 567 -599 566 0
-1435 543 -567 599 566 0
-1435 543 -567 -599 -566 0
-1435 -543 567 599 566 0
-1435 -543 567 -599 -566 0
-1435 -543 -567 599 -566 0
-1435 -543 -567 -599 566 0
1436 1435 0
-1436 -1435 0
543 567 599 1437 0
-543 -567 -599 1437 0
-1437 -543 567 0
-1437 543 -567 0
-1437 -543 599 0
-1437 543 -599 0
-1437 544 568 600 -567 0
-1437 544 568 -600 567 0
-1437 544 -568 600 567 0
-1437 544 -568 -600 -567 0
-1437 -544 568 600 567 0
-1437 -544 568 -600 -567 0
-1437 -544 -568 600 -567 0
-1437 -544 -568 -600 567 0
1438 1437 0
-1438 -1437 0
544 568 600 1439 0
-544 -568 -600 1439 0
-1439 -544 568 0
-1439 544 -568 0
-1439 -544 600 0
-1439 544 -600 0
-1439 513 569 601 -568 0
-1439 513 569 -601 568 0
-1439 513 -569 601 568 0
-1439 513 -569 -601 -568 0
-1439 -513 569 601 568 0
-1439 -513 569 -601 -568 0
-1439 -513 -569 601 -568 0
-1439 -513 -569 -601 568 0
1440 1439 0
-1440 -1439 0
513 569 601 1441 0
-513 -569 -601 1441 0
-1441 -513 569 0
-1441 513 -569 0
-1441 -513 601 0
-1441 513 -601 0
-1441 514 570 602 -569 0
-1441 514 570 -602 569 0
-1441 514 -570 602 569 0
-1441 514 -570 -602 -569 0
-1441 -514 570 602 569 0
-1441 -514 570 -602 -569 0
-1441 -514 -570 602 -569 0
-1441 -514 -570 -602 569 0
1442 1441 0
-1442 -1441 0
514 570 602 1443 0
-514 -570 -602 1443 0
-1443 -514 570 0
-1443 514 -570 0
-1443 -514 602 0
-1443 514 -602 0
-1443 515 571 603 -570 0
-1443 515 571 -603 570 0
-1443 515 -571 603 570 0
-1443 515 -571 -603 -570 0
-1443 -515 571 603 570 0
-1443 -515 571 -603 -570 0
-1443 -515 -571 603 -570 0
-1443 -515 -571 -603 570 0
1444 1443 0
-1444 -1443 0
515 571 603 1445 0
-515 -571 -603 1445 0
-1445 -515 571 0
-1445 515 -571 0
-1445 -515 603 0
-1445 515 -603 0
-1445 516 572 604 -571 0
-1445 516 572 -604 571 0
-1445 516 -572 604 571 0
-1445 516 -572 -604 -571 0
-1445 -516 572 604 571 0
-1445 -516 572 -604 -571 0
-1445 -516 -572 604 -571 0
-1445 -516 -572 -604 571 0
1446 1445 0
-1446 -1445 0
516 572 604 1447 0
-516 -572 -604 1447 0
-1447 -516 572 0
-1447 516 -572 0
-1447 -516 604 0
-1447 516 -604 0
-1447 517 573 605 -572 0
-1447 517 573 -605 572 0
-1447 517 -573 605 572 0
-1447 517 -573 -605 -572 0
-1447 -517 573 605 572 0
-1447 -517 573 -605 -572 0
-1447 -517 -573 605 -572 0
-1447 -517 -573 -605 572 0
1448 1447 0
-1448 -1447 0
517 573 605 1449 0
-517 -573 -605 1449 0
-1449 -517 573 0
-1449 517 -573 0
-1449 -517 605 0
-1449 517 -605 0
-1449 518 574 606 -573 0
-1449 518 574 -606 573 0
-1449 518 -574 606 573 0
-1449 518 -574 -606 -573 0
-1449 -518 574 606 573 0
-1449 -518 574 -606 -573 0
-1449 -518 -574 606 -573 0
-1449 -518 -574 -606 573 0
1450 1449 0
-1450 -1449 0
518 574 606 1451 0
-518 -574 -606 1451 0
-1451 -518 574 0
-1451 518 -574 0
-1451 -518 606 0
-1451 518 -606 0
-1451 519 575 607 -574 0
-1451 519 575 -607 574 0
-1451 519 -575 607 574 0
-1451 519 -575 -607 -574 0
-1451 -519 575 607 574 0
-1451 -519 575 -607 -574 0
-1451 -519 -575 607 -574 0
-1451 -519 -575 -607 574 0
1452 1451 0
-1452 -1451 0
519 575 607 1453 0
-519 -575 -607 1453 0
-1453 -519 575 0
-1453 519 -575 0
-1453 -519 607 0
-1453 519 -607 0
-1453 520 576 608 -575 0
-1453 520 576 -608 575 0
-1453 520 -576 608 575 0
-1453 520 -576 -608 -575 0
-1453 -520 576 608 575 0
-1453 -520 576 -608 -575 0
-1453 -520 -576 608 -575 0
-1453 -520 -576 -608 575 0
1454 1453 0
-1454 -1453 0
574 577 -609 0
574 -577 609 0
-574 577 609 0
-574 -577 -609 0
575 578 -610 0
575 -578 610 0
-575 578 610 0
-575 -578 -610 0
576 579 -611 0
576 -579 611 0
-576 579 611 0
-576 -579 -611 0
545 580 -612 0
545 -580 612 0
-545 580 612 0
-545 -580 -612 0
546 581 -613 0
546 -581 613 0
-546 581 613 0
-546 -581 -613 0
547 582 -614 0
547 -582 614 0
-547 582 614 0
-547 -582 -614 0
548 583 -615 0
548 -583 615 0
-548 583 615 0
-548 -583 -615 0
549 584 -616 0
549 -584 616 0
-549 584 616 0
-549 -584 -616 0
550 585 -617 0
550 -585 617 0
-550 585 617 0
-550 -585 -617 0
551 586 -618 0
551 -586 618 0
-551 586 618 0
-551 -586 -618 0
552 587 -619 0
552 -587 619 0
-552 587 619 0
-552 -587 -619 0
553 588 -620 0
553 -588 620 0
-553 588 620 0
-553 -588 -620 0
554 589 -621 0
554 -589 621 0
-554 589 621 0
-554 -589 -621 0
555 590 -622 0
555 -590 622 0
-555 590 622 0
-555 -590 -622 0
556 591 -623 0
556 -591 623 0
-556 591 623 0
-556 -591 -623 0
557 592 -624 0
557 -592 624 0
-557 592 624 0
-557 -592 -624 0
558 593 -625 0
558 -593 625 0
-558 593 625 0
-558 -593 -625 0
559 594 -626 0
559 -594 626 0
-559 594 626 0
-559 -594 -626 0
560 595 -627 0
560 -595 627 0
-560 595 627 0
-560 -595 -627 0
561 596 -628 0
561 -596 628 0
-561 596 628 0
-561 -596 -628 0
562 597 -629 0
562 -597 629 0
-562 597 629 0
-562 -597 -629 0
563 598 -630 0
563 -598 630 0
-563 598 630 0
-563 -598 -630 0
564 599 -631 0
564 -599 631 0
-564 599 631 0
-564 -599 -631 0
565 600 -632 0
565 -600 632 0
-565 600 632 0
-565 -600 -632 0
566 601 -633 0
566 -601 633 0
-566 601 633 0
-566 -601 -633 0
567 602 -634 0
567 -602 634 0
-567 602 634 0
-567 -602 -634 0
568 603 -635 0
568 -603 635 0
-568 603 635 0
-568 -603 -635 0
569 604 -636 0
569 -604 636 0
-569 604 636 0
-569 -604 -636 0
570 605 -637 0
570 -605 637 0
-570 605 637 0
-570 -605 -637 0
571 606 -638 0
571 -606 638 0
-571 606 638 0
-571 -606 -638 0
572 607 -639 0
572 -607 639 0
-572 607 639 0
-572 -607 -639 0
573 608 -640 0
573 -608 640 0
-573 608 640 0
-573 -608 -640 0
585 609 -641 0
585 -609 641 0
-585 609 641 0
-585 -609 -641 0
585 609 641 1455 0
-585 -609 -641 1455 0
-1455 -585 609 0
-1455 585 -609 0
-1455 -585 641 0
-1455 585 -641 0
-1455 586 610 642 -609 0
-1455 586 610 -642 609 0
-1455 586 -610 642 609 0
-1455 586 -610 -642 -609 0
-1455 -586 610 642 609 0
-1455 -586 610 -642 -609 0
-1455 -586 -610 642 -609 0
-1455 -586 -610 -642 609 0
1456 1455 0
-1456 -1455 0
586 610 642 1457 0
-586 -610 -642 1457 0
-1457 -586 610 0
-1457 586 -610 0
-1457 -586 642 0
-1457 586 -642 0
-1457 587 611 643 -610 0
-1457 587 611 -643 610 0
-1457 587 -611 643 610 0
-1457 587 -611 -643 -610 0
-1457 -587 611 643 610 0
-1457 -587 611 -643 -610 0
-1457 -587 -611 643 -610 0
-1457 -587 -611 -643 610 0
1458 1457 0
-1458 -1457 0
587 611 643 1459 0
-587 -611 -643 1459 0
-1459 -587 611 0
-1459 587 -611 0
-1459 -587 643 0
-1459 587 -643 0
-1459 588 612 644 -611 0
-1459 588 612 -644 611 0
-1459 588 -612 644 611 0
-1459 588 -612 -644 -611 0
-1459 -588 612 644 611 0
-1459 -588 612 -644 -611 0
-1459 -588 -612 644 -611 0
-1459 -588 -612 -644 611 0
1460 1459 0
-1460 -1459 0
588 612 644 1461 0
-588 -612 -644 1461 0
-1461 -588 612 0
-1461 588 -612 0
-1461 -588 644 0
-1461 588 -644 0
-1461 589 613 645 -612 0
-1461 589 613 -645 612 0
-1461 589 -613 645 612 0
-1461 589 -613 -645 -612 0
-1461 -589 613 645 612 0
-1461 -589 613 -645 -612 0
-1461 -589 -613 645 -612 0
-1461 -589 -613 -645 612 0
1462 1461 0
-1462 -1461 0
589 613 645 1463 0
-589 -613 -645 1463 0
-1463 -589 613 0
-1463 589 -613 0
-1463 -589 645 0
-1463 589 -645 0
-1463 590 614 646 -613 0
-1463 590 614 -646 613 0
-1463 590 -614 646 613 0
-1463 590 -614 -646 -613 0
-1463 -590 614 646 613 0
-1463 -590 614 -646 -613 0
-1463 -590 -614 646 -613 0
-1463 -590 -614 -646 613 0
1464 1463 0
-1464 -1463 0
590 614 646 1465 0
-590 -614 -646 1465 0
-1465 -590 614 0
-1465 590 -614 0
-1465 -590 646 0
-1465 590 -646 0
-1465 591 615 647 -614 0
-1465 591 615 -647 614 0
-1465 591 -615 647 614 0
-1465 591 -615 -647 -614 0
-1465 -591 615 647 614 0
-1465 -591 615 -647 -614 0
-1465 -591 -615 647 -614 0
-1465 -591 -615 -647 614 0
1466 1465 0
-1466 -1465 0
591 615 647 1467 0
-591 -615 -647 1467 0
-1467 -591 615 0
-1467 591 -615 0
-1467 -591 647 0
-1467 591 -647 0
-1467 592 616 648 -615 0
-1467 592 616 -648 615 0
-1467 592 -616 648 615 0
-1467 592 -616 -648 -615 0
-1467 -592 616 648 615 0
-1467 -592 616 -648 -615 0
-1467 -592 -616 648 -615 0
-1467 -592 -616 -648 615 0
1468 1467 0
-1468 -1467 0
592 616 648 1469 0
-592 -616 -648 1469 0
-1469 -592 616 0
-1469 592 -616 0
-1469 -592 648 0
-1469 592 -648 0
-1469 593 617 649 -616 0
-1469 593 617 -649 616 0
-1469 593 -617 649 616 0
-1469 593 -617 -649 -616 0
-1469 -593 617 649 616 0
-1469 -593 617 -649 -616 0
-1469 -593 -617 649 -616 0
-1469 -593 -617 -649 616 0
1470 1469 0
-1470 -1469 0
593 617 649 1471 0
-593 -617 -649 1471 0
-1471 -593 617 0
-1471 593 -617 0
-1471 -593 649 0
-1471 593 -649 0
-1471 594 618 650 -617 0
-1471 594 618 -650 617 0
-1471 594 -618 650 617 0
-1471 594 -618 -650 -617 0
-1471 -594 618 650 617 0
-1471 -594 618 -650 -617 0
-1471 -594 -618 650 -617 0
-1471 -594 -618 -650 617 0
1472 1471 0
-1472 -1471 0
594 618 650 1473 0
-594 -618 -650 1473 0
-1473 -594 618 0
-1473 594 -618 0
-1473 -594 650 0
-1473 594 -650 0
-1473 595 619 651 -618 0
-1473 595 619 -651 618 0
-1473 595 -619 651 618 0
-1473 595 -619 -651 -618 0
-1473 -595 619 651 618 0
-1473 -595 619 -651 -618 0
-1473 -595 -619 651 -618 0
-1473 -595 -619 -651 618 0
1474 1473 0
-1474 -1473 0
595 619 651 1475 0
-595 -619 -651 1475 0
-1475 -595 619 0
-1475 595 -619 0
-1475 -595 651 0
-1475 595 -651 0
-1475 596 620 652 -619 0
-1475 596 620 -652 619 0
-1475 596 -620 652 619 0
-1475 596 -620 -652 -619 0
-1475 -596 620 652 619 0
-1475 -596 620 -652 -619 0
-1475 -596 -620 652 -619 0
-1475 -596 -620 -652 619 0
1476 1475 0
-1476 -1475 0
596 620 652 1477 0
-596 -620 -652 1477 0
-1477 -596 620 0
-1477 596 -620 0
-1477 -596 652 0
-1477 596 -652 0
-1477 597 621 653 -620 0
-1477 597 621 -653 620 0
-1477 597 -621 653 620 0
-1477 597 -621 -653 -620 0
-1477 -597 621 653 620 0
-1477 -597 621 -653 -620 0
-1477 -597 -621 653 -620 0
-1477 -597 -621 -653 620 0
1478 1477 0
-1478 -1477 0
597 621 653 1479 0
-597 -621 -653 1479 0
-1479 -597 621 0
-1479 597 -621 0
-1479 -597 653 0
-1479 597 -653 0
-1479 598 622 654 -621 0
-1479 598 622 -654 621 0
-1479 598 -622 654 621 0
-1479 598 -622 -654 -621 0
-1479 -598 622 654 621 0
-1479 -598 622 -654 -621 0
-1479 -598 -622 654 -621 0
-1479 -598 -622 -654 621 0
1480 1479 0
-1480 -1479 0
598 622 654 1481 0
-598 -622 -654 1481 0
-1481 -598 622 0
-1481 598 -622 0
-1481 -598 654 0
-1481 598 -654 0
-1481 599 623 655 -622 0
-1481 599 623 -655 622 0
-1481 599 -623 655 622 0
-1481 599 -623 -655 -622 0
-1481 -599 623 655 622 0
-1481 -599 623 -655 -622 0
-1481 -599 -623 655 -622 0
-1481 -599 -623 -655 622 0
1482 1481 0
-1482 -1481 0
599 623 655 1483 0
-599 -623 -655 1483 0
-1483 -599 623 0
-1483 599 -623 0
-1483 -599 655 0
-1483 599 -655 0
-1483 600 624 656 -623 0
-1483 600 624 -656 623 0
-1483 600 -624 656 623 0
-1483 600 -624 -656 -623 0
-1483 -600 624 656 623 0
-1483 -600 624 -656 -623 0
-1483 -600 -624 656 -623 0
-1483 -600 -624 -656 623 0
1484 1483 0
-1484 -1483 0
600 624 656 1485 0
-600 -624 -656 1485 0
-1485 -600 624 0
-1485 600 -624 0
-1485 -600 656 0
-1485 600 -656 0
-1485 601 625 657 -624 0
-1485 601 625 -657 624 0
-1485 601 -625 657 624 0
-1485 601 -625 -657 -624 0
-1485 -601 625 657 624 0
-1485 -601 625 -657 -624 0
-1485 -601 -625 657 -624 0
-1485 -601 -625 -657 624 0
1486 1485 0
-1486 -1485 0
601 625 657 1487 0
-601 -625 -657 1487 0
-1487 -601 625 0
-1487 601 -625 0
-1487 -601 657 0
-1487 601 -657 0
-1487 602 626 658 -625 0
-1487 602 626 -658 625 0
-1487 602 -626 658 625 0
-1487 602 -626 -658 -625 0
-1487 -602 626 658 625 0
-1487 -602 626 -658 -625 0
-1487 -602 -626 658 -625 0
-1487 -602 -626 -658 625 0
1488 1487 0
-1488 -1487 0
602 626 658 1489 0
-602 -626 -658 1489 0
-1489 -602 626 0
-1489 602 -626 0
-1489 -602 658 0
-1489 602 -658 0
-1489 603 627 659 -626 0
-1489 603 627 -659 626 0
-1489 603 -627 659 626 0
-1489 603 -627 -659 -626 0
-1489 -603 627 659 626 0
-1489 -603 627 -659 -626 0
-1489 -603 -627 659 -626 0
-1489 -603 -627 -659 626 0
1490 1489 0
-1490 -1489 0
603 627 659 1491 0
-603 -627 -659 1491 0
-1491 -603 627 0
-1491 603 -627 0
-1491 -603 659 0
-1491 603 -659 0
-1491 604 628 660 -627 0
-1491 604 628 -660 627 0
-1491 604 -628 660 627 0
-1491 604 -628 -660 -627 0
-1491 -604 628 660 627 0
-1491 -604 628 -660 -627 0
-1491 -604 -628 660 -627 0
-1491 -604 -628 -660 627 0
1492 1491 0
-1492 -1491 0
604 628 660 1493 0
-604 -628 -660 1493 0
-1493 -604 628 0
-1493 604 -628 0
-1493 -604 660 0
-1493 604 -660 0
-1493 605 629 661 -628 0
-1493 605 629 -661 628 0
-1493 605 -629 661 628 0
-1493 605 -629 -661 -628 0
-1493 -605 629 661 628 0
-1493 -605 629 -661 -628 0
-1493 -605 -629 661 -628 0
-1493 -605 -629 -661 628 0
1494 1493 0
-1494 -1493 0
605 629 661 1495 0
-605 -629 -661 1495 0
-1495 -605 629 0
-1495 605 -629 0
-1495 -605 661 0
-1495 605 -661 0
-1495 606 630 662 -629 0
-1495 606 630 -662 629 0
-1495 606 -630 662 629 0
-1495 606 -630 -662 -629 0
-1495 -606 630 662 629 0
-1495 -606 630 -662 -629 0
-1495 -606 -630 662 -629 0
-1495 -606 -630 -662 629 0
1496 1495 0
-1496 -1495 0
606 630 662 1497 0
-606 -630 -662 1497 0
-1497 -606 630 0
-1497 606 -630 0
-1497 -606 662 0
-1497 606 -662 0
-1497 607 631 663 -630 0
-1497 607 631 -663 630 0
-1497 607 -631 663 630 0
-1497 607 -631 -663 -630 0
-1497 -607 631 663 630 0
-1497 -607 631 -663 -630 0
-1497 -607 -631 663 -630 0
-1497 -607 -631 -663 630 0
1498 1497 0
-1498 -1497 0
607 631 663 1499 0
-607 -631 -663 1499 0
-1499 -607 631 0
-1499 607 -631 0
-1499 -607 663 0
-1499 607 -663 0
-1499 608 632 664 -631 0
-1499 608 632 -664 631 0
-1499 608 -632 664 631 0
-1499 608 -632 -664 -631 0
-1499 -608 632 664 631 0
-1499 -608 632 -664 -631 0
-1499 -608 -632 664 -631 0
-1499 -608 -632 -664 631 0
1500 1499 0
-1500 -1499 0
608 632 664 1501 0
-608 -632 -664 1501 0
-1501 -608 632 0
-1501 608 -632 0
-1501 -608 664 0
-1501 608 -664 0
-1501 577 633 665 -632 0
-1501 577 633 -665 632 0
-1501 577 -633 665 632 0
-1501 577 -633 -665 -632 0
-1501 -577 633 665 632 0
-1501 -577 633 -665 -632 0
-1501 -577 -633 665 -632 0
-1501 -577 -633 -665 632 0
1502 1501 0
-1502 -1501 0
577 633 665 1503 0
-577 -633 -665 1503 0
-1503 -577 633 0
-1503 577 -633 0
-1503 -577 665 0
-1503 577 -665 0
-1503 578 634 666 -633 0
-1503 578 634 -666 633 0
-1503 578 -634 666 633 0
-1503 578 -634 -666 -633 0
-1503 -578 634 666 633 0
-1503 -578 634 -666 -633 0
-1503 -578 -634 666 -633 0
-1503 -578 -634 -666 633 0
1504 1503 0
-1504 -1503 0
578 634 666 1505 0
-578 -634 -666 1505 0
-1505 -578 634 0
-1505 578 -634 0
-1505 -578 666 0
-1505 578 -666 0
-1505 579 635 667 -634 0
-1505 579 635 -667 634 0
-1505 579 -635 667 634 0
-1505 579 -635 -667 -634 0
-1505 -579 635 667 634 0
-1505 -579 635 -667 -634 0
-1505 -579 -635 667 -634 0
-1505 -579 -635 -667 634 0
1506 1505 0
-1506 -1505 0
579 635 667 1507 0
-579 -635 -667 1507 0
-1507 -579 635 0
-1507 579 -635 0
-1507 -579 667 0
-1507 579 -667 0
-1507 580 636 668 -635 0
-1507 580 636 -668 635 0
-1507 580 -636 668 635 0
-1507 580 -636 -668 -635 0
-1507 -580 636 668 635 0
-1507 -580 636 -668 -635 0
-1507 -580 -636 668 -635 0
-1507 -580 -636 -668 635 0
1508 1507 0
-1508 -1507 0
580 636 668 1509 0
-580 -636 -668 1509 0
-1509 -580 636 0
-1509 580 -636 0
-1509 -580 668 0
-1509 580 -668 0
-1509 581 637 669 -636 0
-1509 581 637 -669 636 0
-1509 581 -637 669 636 0
-1509 581 -637 -669 -636 0
-1509 -581 637 669 636 0
-1509 -581 637 -669 -636 0
-1509 -581 -637 669 -636 0
-1509 -581 -637 -669 636 0
1510 1509 0
-1510 -1509 0
581 637 669 1511 0
-581 -637 -669 1511 0
-1511 -581 637 0
-1511 581 -637 0
-1511 -581 669 0
-1511 581 -669 0
-1511 582 638 670 -637 0
-1511 582 638 -670 637 0
-1511 582 -638 670 637 0
-1511 582 -638 -670 -637 0
-1511 -582 638 670 637 0
-1511 -582 638 -670 -637 0
-1511 -582 -638 670 -637 0
-1511 -582 -638 -670 637 0
1512 1511 0
-1512 -1511 0
582 638 670 1513 0
-582 -638 -670 1513 0
-1513 -582 638 0
-1513 582 -638 0
-1513 -582 670 0
-1513 582 -670 0
-1513 583 639 671 -638 0
-1513 583 639 -671 638 0
-1513 583 -639 671 638 0
-1513 583 -639 -671 -638 0
-1513 -583 639 671 638 0
-1513 -583 639 -671 -638 0
-1513 -583 -639 671 -638 0
-1513 -583 -639 -671 638 0
1514 1513 0
-1514 -1513 0
583 639 671 1515 0
-583 -639 -671 1515 0
-1515 -583 639 0
-1515 583 -639 0
-1515 -583 671 0
-1515 583 -671 0
-1515 584 640 672 -639 0
-1515 584 640 -672 639 0
-1515 584 -640 672 639 0
-1515 584 -640 -672 -639 0
-1515 -584 640 672 639 0
-1515 -584 640 -672 -639 0
-1515 -584 -640 672 -639 0
-1515 -584 -640 -672 639 0
1516 1515 0
-1516 -1515 0
638 641 -673 0
638 -641 673 0
-638 641 673 0
-638 -641 -673 0
639 642 -674 0
639 -642 674 0
-639 642 674 0
-639 -642 -674 0
640 643 -675 0
640 -643 675 0
-640 643 675 0
-640 -643 -675 0
609 644 -676 0
609 -644 676 0
-609 644 676 0
-609 -644 -676 0
610 645 -677 0
610 -645 677 0
-610 645 677 0
-610 -645 -677 0
611 646 -678 0
611 -646 678 0
-611 646 678 0
-611 -646 -678 0
612 647 -679 0
612 -647 679 0
-612 647 679 0
-612 -647 -679 0
613 648 -680 0
613 -648 680 0
-613 648 680 0
-613 -648 -680 0
614 649 -681 0
614 -649 681 0
-614 649 681 0
-614 -649 -681 0
615 650 -682 0
615 -650 682 0
-615 650 682 0
-615 -650 -682 0
616 651 -683 0
616 -651 683 0
-616 651 683 0
-616 -651 -683 0
617 652 -684 0
617 -652 684 0
-617 652 684 0
-617 -652 -684 0
618 653 -685 0
618 -653 685 0
-618 653 685 0
-618 -653 -685 0
619 654 -686 0
619 -654 686 0
-619 654 686 0
-619 -654 -686 0
620 655 -687 0
620 -655 687 0
-620 655 687 0
-620 -655 -687 0
621 656 -688 0
621 -656 688 0
-621 656 688 0
-621 -656 -688 0
622 657 -689 0
622 -657 689 0
-622 657 689 0
-622 -657 -689 0
623 658 -690 0
623 -658 690 0
-623 658 690 0
-623 -658 -690 0
624 659 -691 0
624 -659 691 0
-624 659 691 0
-624 -659 -691 0
625 660 -692 0
625 -660 692 0
-625 660 692 0
-625 -660 -692 0
626 661 -693 0
626 -661 693 0
-626 661 693 0
-626 -661 -693 0
627 662 -694 0
627 -662 694 0
-627 662 694 0
-627 -662 -694 0
628 663 -695 0
628 -663 695 0
-628 663 695 0
-628 -663 -695 0
629 664 -696 0
629 -664 696 0
-629 664 696 0
-629 -664 -696 0
630 665 -697 0
630 -665 697 0
-630 665 697 0
-630 -665 -697 0
631 666 -698 0
631 -666 698 0
-631 666 698 0
-631 -666 -698 0
632 667 -699 0
632 -667 699 0
-632 667 699 0
-632 -667 -699 0
633 668 -700 0
633 -668 700 0
-633 668 700 0
-633 -668 -700 0
634 669 -701 0
634 -669 701 0
-634 669 701 0
-634 -669 -701 0
635 670 -702 0
635 -670 702 0
-635 670 702 0
-635 -670 -702 0
636 671 -703 0
636 -671 703 0
-636 671 703 0
-636 -671 -703 0
637 672 -704 0
637 -672 704 0
-637 672 704 0
-637 -672 -704 0
649 673 -705 0
649 -673 705 0
-649 673 705 0
-649 -673 -705 0
649 673 705 1517 0
-649 -673 -705 1517 0
-1517 -649 673 0
-1517 649 -673 0
-1517 -649 705 0
-1517 649 -705 0
-1517 650 674 706 -673 0
-1517 650 674 -706 673 0
-1517 650 -674 706 673 0
-1517 650 -674 -706 -673 0
-1517 -650 674 706 673 0
-1517 -650 674 -706 -673 0
-1517 -650 -674 706 -673 0
-1517 -650 -674 -706 673 0
1518 1517 0
-1518 -1517 0
650 674 706 1519 0
-650 -674 -706 1519 0
-1519 -650 674 0
-1519 650 -674 0
-1519 -650 706 0
-1519 650 -706 0
-1519 651 675 707 -674 0
-1519 651 675 -707 674 0
-1519 651 -675 707 674 0
-1519 651 -675 -707 -674 0
-1519 -651 675 707 674 0
-1519 -651 675 -707 -674 0
-1519 -651 -675 707 -674 0
-1519 -651 -675 -707 674 0
1520 1519 0
-1520 -1519 0
651 675 707 1521 0
-651 -675 -707 1521 0
-1521 -651 675 0
-1521 651 -675 0
-1521 -651 707 0
-1521 651 -707 0
-1521 652 676 708 -675 0
-1521 652 676 -708 675 0
-1521 652 -676 708 675 0
-1521 652 -676 -708 -675 0
-1521 -652 676 708 675 0
-1521 -652 676 -708 -675 0
-1521 -652 -676 708 -675 0
-1521 -652 -676 -708 675 0
1522 1521 0
-1522 -1521 0
652 676 708 1523 0
-652 -676 -708 1523 0
-1523 -652 676 0
-1523 652 -676 0
-1523 -652 708 0
-1523 652 -708 0
-1523 653 677 709 -676 0
-1523 653 677 -709 676 0
-1523 653 -677 709 676 0
-1523 653 -677 -709 -676 0
-1523 -653 677 709 676 0
-1523 -653 677 -709 -676 0
-1523 -653 -677 709 -676 0
-1523 -653 -677 -709 676 0
1524 1523 0
-1524 -1523 0
653 677 709 1525 0
-653 -677 -709 1525 0
-1525 -653 677 0
-1525 653 -677 0
-1525 -653 709 0
-1525 653 -709 0
-1525 654 678 710 -677 0
-1525 654 678 -710 677 0
-1525 654 -678 710 677 0
-1525 654 -678 -710 -677 0
-1525 -654 678 710 677 0
-1525 -654 678 -710 -677 0
-1525 -654 -678 710 -677 0
-1525 -654 -678 -710 677 0
1526 1525 0
-1526 -1525 0
654 678 710 1527 0
-654 -678 -710 1527 0
-1527 -654 678 0
-1527 654 -678 0
-1527 -654 710 0
-1527 654 -710 0
-1527 655 679 711 -678 0
-1527 655 679 -711 678 0
-1527 655 -679 711 678 0
-1527 655 -679 -711 -678 0
-1527 -655 679 711 678 0
-1527 -655 679 -711 -678 0
-1527 -655 -679 711 -678 0
-1527 -655 -679 -711 678 0
1528 1527 0
-1528 -1527 0
655 679 711 1529 0
-655 -679 -711 1529 0
-1529 -655 679 0
-1529 655 -679 0
-1529 -655 711 0
-1529 655 -711 0
-1529 656 680 712 -679 0
-1529 656 680 -712 679 0
-1529 656 -680 712 679 0
-1529 656 -680 -712 -679 0
-1529 -656 680 712 679 0
-1529 -656 680 -712 -679 0
-1529 -656 -680 712 -679 0
-1529 -656 -680 -712 679 0
1530 1529 0
-1530 -1529 0
656 680 712 1531 0
-656 -680 -712 1531 0
-1531 -656 680 0
-1531 656 -680 0
-1531 -656 712 0
-1531 656 -712 0
-1531 657 681 713 -680 0
-1531 657 681 -713 680 0
-1531 657 -681 713 680 0
-1531 657 -681 -713 -680 0
-1531 -657 681 713 680 0
-1531 -657 681 -713 -680 0
-1531 -657 -681 713 -680 0
-1531 -657 -681 -713 680 0
1532 1531 0
-1532 -1531 0
657 681 713 1533 0
-657 -681 -713 1533 0
-1533 -657 681 0
-1533 657 -681 0
-1533 -657 713 0
-1533 657 -713 0
-1533 658 682 714 -681 0
-1533 658 682 -714 681 0
-1533 658 -682 714 681 0
-1533 658 -682 -714 -681 0
-1533 -658 682 714 681 0
-1533 -658 682 -714 -681 0
-1533 -658 -682 714 -681 0
-1533 -658 -682 -714 681 0
1534 1533 0
-1534 -1533 0
658 682 714 1535 0
-658 -682 -714 1535 0
-1535 -658 682 0
-1535 658 -682 0
-1535 -658 714 0
-1535 658 -714 0
-1535 659 683 715 -682 0
-1535 659 683 -715 682 0
-1535 659 -683 715 682 0
-1535 659 -683 -715 -682 0
-1535 -659 683 715 682 0
-1535 -659 683 -715 -682 0
-1535 -659 -683 715 -682 0
-1535 -659 -683 -715 682 0
1536 1535 0
-1536 -1535 0
659 683 715 1537 0
-659 -683 -715 1537 0
-1537 -659 683 0
-1537 659 -683 0
-1537 -659 715 0
-1537 659 -715 0
-1537 660 684 716 -683 0
-1537 660 684 -716 683 0
-1537 660 -684 716 683 0
-1537 660 -684 -716 -683 0
-1537 -660 684 716 683 0
-1537 -660 684 -716 -683 0
-1537 -660 -684 716 -683 0
-1537 -660 -684 -716 683 0
1538 1537 0
-1538 -1537 0
660 684 716 1539 0
-660 -684 -716 1539 0
-1539 -660 684 0
-1539 660 -684 0
-1539 -660 716 0
-1539 660 -716 0
-1539 661 685 717 -684 0
-1539 661 685 -717 684 0
-1539 661 -685 717 684 0
-1539 661 -685 -717 -684 0
-1539 -661 685 717 684 0
-1539 -661 685 -717 -684 0
-1539 -661 -685 717 -684 0
-1539 -661 -685 -717 684 0
1540 1539 0
-1540 -1539 0
661 685 717 1541 0
-661 -685 -717 1541 0
-1541 -661 685 0
-1541 661 -685 0
-1541 -661 717 0
-1541 661 -717 0
-1541 662 686 718 -685 0
-1541 662 686 -718 685 0
-1541 662 -686 718 685 0
-1541 662 -686 -718 -685 0
-1541 -662 686 718 685 0
-1541 -662 686 -718 -685 0
-1541 -662 -686 718 -685 0
-1541 -662 -686 -718 685 0
1542 1541 0
-1542 -1541 0
662 686 718 1543 0
-662 -686 -718 1543 0
-1543 -662 686 0
-1543 662 -686 0
-1543 -662 718 0
-1543 662 -718 0
-1543 663 687 719 -686 0
-1543 663 687 -719 686 0
-1543 663 -687 719 686 0
-1543 663 -687 -719 -686 0
-1543 -663 687 719 686 0
-1543 -663 687 -719 -686 0
-1543 -663 -687 719 -686 0
-1543 -663 -687 -719 686 0
1544 1543 0
-1544 -1543 0
663 687 719 1545 0
-663 -687 -719 1545 0
-1545 -663 687 0
-1545 663 -687 0
-1545 -663 719 0
-1545 663 -719 0
-1545 664 688 720 -687 0
-1545 664 688 -720 687 0
-1545 664 -688 720 687 0
-1545 664 -688 -720 -687 0
-1545 -664 688 720 687 0
-1545 -664 688 -720 -687 0
-1545 -664 -688 720 -687 0
-1545 -664 -688 -720 687 0
1546 1545 0
-1546 -1545 0
664 688 720 1547 0
-664 -688 -720 1547 0
-1547 -664 688 0
-1547 664 -688 0
-1547 -664 720 0
-1547 664 -720 0
-1547 665 689 721 -688 0
-1547 665 689 -721 688 0
-1547 665 -689 721 688 0
-1547 665 -689 -721 -688 0
-1547 -665 689 721 688 0
-1547 -665 689 -721 -688 0
-1547 -665 -689 721 -688 0
-1547 -665 -689 -721 688 0
1548 1547 0
-1548 -1547 0
665 689 721 1549 0
-665 -689 -721 1549 0
-1549 -665 689 0
-1549 665 -689 0
-1549 -665 721 0
-1549 665 -721 0
-1549 666 690 722 -689 0
-1549 666 690 -722 689 0
-1549 666 -690 722 689 0
-1549 666 -690 -722 -689 0
-1549 -666 690 722 689 0
-1549 -666 690 -722 -689 0
-1549 -666 -690 722 -689 0
-1549 -666 -690 -722 689 0
1550 1549 0
-1550 -1549 0
666 690 722 1551 0
-666 -690 -722 1551 0
-1551 -666 690 0
-1551 666 -690 0
-1551 -666 722 0
-1551 666 -722 0
-1551 667 691 723 -690 0
-1551 667 691 -723 690 0
-1551 667 -691 723 690 0
-1551 667 -691 -723 -690 0
-1551 -667 691 723 690 0
-1551 -667 691 -723 -690 0
-1551 -667 -691 723 -690 0
-1551 -667 -691 -723 690 0
1552 1551 0
-1552 -1551 0
667 691 723 1553 0
-667 -691 -723 1553 0
-1553 -667 691 0
-1553 667 -691 0
-1553 -667 723 0
-1553 667 -723 0
-1553 668 692 724 -691 0
-1553 668 692 -724 691 0
-1553 668 -692 724 691 0
-1553 668 -692 -724 -691 0
-1553 -668 692 724 691 0
-1553 -668 692 -724 -691 0
-1553 -668 -692 724 -691 0
-1553 -668 -692 -724 691 0
1554 1553 0
-1554 -1553 0
668 692 724 1555 0
-668 -692 -724 1555 0
-1555 -668 692 0
-1555 668 -692 0
-1555 -668 724 0
-1555 668 -724 0
-1555 669 693 725 -692 0
-1555 669 693 -725 692 0
-1555 669 -693 725 692 0
-1555 669 -693 -725 -692 0
-1555 -669 693 725 692 0
-1555 -669 693 -725 -692 0
-1555 -669 -693 725 -692 0
-1555 -669 -693 -725 692 0
1556 1555 0
-1556 -1555 0
669 693 725 1557 0
-669 -693 -725 1557 0
-1557 -669 693 0
-1557 669 -693 0
-1557 -669 725 0
-1557 669 -725 0
-1557 670 694 726 -693 0
-1557 670 694 -726 693 0
-1557 670 -694 726 693 0
-1557 670 -694 -726 -693 0
-1557 -670 694 726 693 0
-1557 -670 694 -726 -693 0
-1557 -670 -694 726 -693 0
-1557 -670 -694 -726 693 0
1558 1557 0
-1558 -1557 0
670 694 726 1559 0
-670 -694 -726 1559 0
-1559 -670 694 0
-1559 670 -694 0
-1559 -670 726 0
-1559 670 -726 0
-1559 671 695 727 -694 0
-1559 671 695 -727 694 0
-1559 671 -695 727 694 0
-1559 671 -695 -727 -694 0
-1559 -671 695 727 694 0
-1559 -671 695 -727 -694 0
-1559 -671 -695 727 -694 0
-1559 -671 -695 -727 694 0
1560 1559 0
-1560 -1559 0
671 695 727 1561 0
-671 -695 -727 1561 0
-1561 -671 695 0
-1561 671 -695 0
-1561 -671 727 0
-1561 671 -727 0
-1561 672 696 728 -695 0
-1561 672 696 -728 695 0
-1561 672 -696 728 695 0
-1561 672 -696 -728 -695 0
-1561 -672 696 728 695 0
-1561 -672 696 -728 -695 0
-1561 -672 -696 728 -695 0
-1561 -672 -696 -728 695 0
1562 1561 0
-1562 -1561 0
672 696 728 1563 0
-672 -696 -728 1563 0
-1563 -672 696 0
-1563 672 -696 0
-1563 -672 728 0
-1563 672 -728 0
-1563 641 697 729 -696 0
-1563 641 697 -729 696 0
-1563 641 -697 729 696 0
-1563 641 -697 -729 -696 0
-1563 -641 697 729 696 0
-1563 -641 697 -729 -696 0
-1563 -641 -697 729 -696 0
-1563 -641 -697 -729 696 0
1564 1563 0
-1564 -1563 0
641 697 729 1565 0
-641 -697 -729 1565 0
-1565 -641 697 0
-1565 641 -697 0
-1565 -641 729 0
-1565 641 -729 0
-1565 642 698 730 -697 0
-1565 642 698 -730 697 0
-1565 642 -698 730 697 0
-1565 642 -698 -730 -697 0
-1565 -642 698 730 697 0
-1565 -642 698 -730 -697 0
-1565 -642 -698 730 -697 0
-1565 -642 -698 -730 697 0
1566 1565 0
-1566 -1565 0
642 698 730 1567 0
-642 -698 -730 1567 0
-1567 -642 698 0
-1567 642 -698 0
-1567 -642 730 0
-1567 642 -730 0
-1567 643 699 731 -698 0
-1567 643 699 -731 698 0
-1567 643 -699 731 698 0
-1567 643 -699 -731 -698 0
-1567 -643 699 731 698 0
-1567 -643 699 -731 -698 0
-1567 -643 -699 731 -698 0
-1567 -643 -699 -731 698 0
1568 1567 0
-1568 -1567 0
643 699 731 1569 0
-643 -699 -731 1569 0
-1569 -643 699 0
-1569 643 -699 0
-1569 -643 731 0
-1569 643 -731 0
-1569 644 700 732 -699 0
-1569 644 700 -732 699 0
-1569 644 -700 732 699 0
-1569 644 -700 -732 -699 0
-1569 -644 700 732 699 0
-1569 -644 700 -732 -699 0
-1569 -644 -700 732 -699 0
-1569 -644 -700 -732 699 0
1570 1569 0
-1570 -1569 0
644 700 732 1571 0
-644 -700 -732 1571 0
-1571 -644 700 0
-1571 644 -700 0
-1571 -644 732 0
-1571 644 -732 0
-1571 645 701 733 -700 0
-1571 645 701 -733 700 0
-1571 645 -701 733 700 0
-1571 645 -701 -733 -700 0
-1571 -645 701 733 700 0
-1571 -645 701 -733 -700 0
-1571 -645 -701 733 -700 0
-1571 -645 -701 -733 700 0
1572 1571 0
-1572 -1571 0
645 701 733 1573 0
-645 -701 -733 1573 0
-1573 -645 701 0
-1573 645 -701 0
-1573 -645 733 0
-1573 645 -733 0
-1573 646 702 734 -701 0
-1573 646 702 -734 701 0
-1573 646 -702 734 701 0
-1573 646 -702 -734 -701 0
-1573 -646 702 734 701 0
-1573 -646 702 -734 -701 0
-1573 -646 -702 734 -701 0
-1573 -646 -702 -734 701 0
1574 1573 0
-1574 -1573 0
646 702 734 1575 0
-646 -702 -734 1575 0
-1575 -646 702 0
-1575 646 -702 0
-1575 -646 734 0
-1575 646 -734 0
-1575 647 703 735 -702 0
-1575 647 703 -735 702 0
-1575 647 -703 735 702 0
-1575 647 -703 -735 -702 0
-1575 -647 703 735 702 0
-1575 -647 703 -735 -702 0
-1575 -647 -703 735 -702 0
-1575 -647 -703 -735 702 0
1576 1575 0
-1576 -1575 0
647 703 735 1577 0
-647 -703 -735 1577 0
-1577 -647 703 0
-1577 647 -703 0
-1577 -647 735 0
-1577 647 -735 0
-1577 648 704 736 -703 0
-1577 648 704 -736 703 0
-1577 648 -704 736 703 0
-1577 648 -704 -736 -703 0
-1577 -648 704 736 703 0
-1577 -648 704 -736 -703 0
-1577 -648 -704 736 -703 0
-1577 -648 -704 -736 703 0
1578 1577 0
-1578 -1577 0
702 705 -737 0
702 -705 737 0
-702 705 737 0
-702 -705 -737 0
703 706 -738 0
703 -706 738 0
-703 706 738 0
-703 -706 -738 0
704 707 -739 0
704 -707 739 0
-704 707 739 0
-704 -707 -739 0
673 708 -740 0
673 -708 740 0
-673 708 740 0
-673 -708 -740 0
674 709 -741 0
674 -709 741 0
-674 709 741 0
-674 -709 -741 0
675 710 -742 0
675 -710 742 0
-675 710 742 0
-675 -710 -742 0
676 711 -743 0
676 -711 743 0
-676 711 743 0
-676 -711 -743 0
677 712 -744 0
677 -712 744 0
-677 712 744 0
-677 -712 -744 0
678 713 -745 0
678 -713 745 0
-678 713 745 0
-678 -713 -745 0
679 714 -746 0
679 -714 746 0
-679 714 746 0
-679 -714 -746 0
680 715 -747 0
680 -715 747 0
-680 715 747 0
-680 -715 -747 0
681 716 -748 0
681 -716 748 0
-681 716 748 0
-681 -716 -748 0
682 717 -749 0
682 -717 749 0
-682 717 749 0
-682 -717 -749 0
683 718 -750 0
683 -718 750 0
-683 718 750 0
-683 -718 -750 0
684 719 -751 0
684 -719 751 0
-684 719 751 0
-684 -719 -751 0
685 720 -752 0
685 -720 752 0
-685 720 752 0
-685 -720 -752 0
686 721 -753 0
686 -721 753 0
-686 721 753 0
-686 -721 -753 0
687 722 -754 0
687 -722 754 0
-687 722 754 0
-687 -722 -754 0
688 723 -755 0
688 -723 755 0
-688 723 755 0
-688 -723 -755 0
689 724 -756 0
689 -724 756 0
-689 724 756 0
-689 -724 -756 0
690 725 -757 0
690 -725 757 0
-690 725 757 0
-690 -725 -757 0
691 726 -758 0
691 -726 758 0
-691 726 758 0
-691 -726 -758 0
692 727 -759 0
692 -727 759 0
-692 727 759 0
-692 -727 -759 0
693 728 -760 0
693 -728 760 0
-693 728 760 0
-693 -728 -760 0
694 729 -761 0
694 -729 761 0
-694 729 761 0
-694 -729 -761 0
695 730 -762 0
695 -730 762 0
-695 730 762 0
-695 -730 -762 0
696 731 -763 0
696 -731 763 0
-696 731 763 0
-696 -731 -763 0
697 732 -764 0
697 -732 764 0
-697 732 764 0
-697 -732 -764 0
698 733 -765 0
698 -733 765 0
-698 733 765 0
-698 -733 -765 0
699 734 -766 0
699 -734 766 0
-699 734 766 0
-699 -734 -766 0
700 735 -767 0
700 -735 767 0
-700 735 767 0
-700 -735 -767 0
701 736 -768 0
701 -736 768 0
-701 736 768 0
-701 -736 -768 0
713 737 -769 0
713 -737 769 0
-713 737 769 0
-713 -737 -769 0
713 737 769 1579 0
-713 -737 -769 1579 0
-1579 -713 737 0
-1579 713 -737 0
-1579 -713 769 0
-1579 713 -769 0
-1579 714 738 770 -737 0
-1579 714 738 -770 737 0
-1579 714 -738 770 737 0
-1579 714 -738 -770 -737 0
-1579 -714 738 770 737 0
-1579 -714 738 -770 -737 0
-1579 -714 -738 770 -737 0
-1579 -714 -738 -770 737 0
1580 1579 0
-1580 -1579 0
714 738 770 1581 0
-714 -738 -770 1581 0
-1581 -714 738 0
-1581 714 -738 0
-1581 -714 770 0
-1581 714 -770 0
-1581 715 739 771 -738 0
-1581 715 739 -771 738 0
-1581 715 -739 771 738 0
-1581 715 -739 -771 -738 0
-1581 -715 739 771 738 0
-1581 -715 739 -771 -738 0
-1581 -715 -739 771 -738 0
-1581 -715 -739 -771 738 0
1582 1581 0
-1582 -1581 0
715 739 771 1583 0
-715 -739 -771 1583 0
-1583 -715 739 0
-1583 715 -739 0
-1583 -715 771 0
-1583 715 -771 0
-1583 716 740 772 -739 0
-1583 716 740 -772 739 0
-1583 716 -740 772 739 0
-1583 716 -740 -772 -739 0
-1583 -716 740 772 739 0
-1583 -716 740 -772 -739 0
-1583 -716 -740 772 -739 0
-1583 -716 -740 -772 739 0
1584 1583 0
-1584 -1583 0
716 740 772 1585 0
-716 -740 -772 1585 0
-1585 -716 740 0
-1585 716 -740 0
-1585 -716 772 0
-1585 716 -772 0
-1585 717 741 773 -740 0
-1585 717 741 -773 740 0
-1585 717 -741 773 740 0
-1585 717 -741 -773 -740 0
-1585 -717 741 773 740 0
-1585 -717 741 -773 -740 0
-1585 -717 -741 773 -740 0
-1585 -717 -741 -773 740 0
1586 1585 0
-1586 -1585 0
717 741 773 1587 0
-717 -741 -773 1587 0
-1587 -717 741 0
-1587 717 -741 0
-1587 -717 773 0
-1587 717 -773 0
-1587 718 742 774 -741 0
-1587 718 742 -774 741 0
-1587 718 -742 774 741 0
-1587 718 -742 -774 -741 0
-1587 -718 742 774 741 0
-1587 -718 742 -774 -741 0
-1587 -718 -742 774 -741 0
-1587 -718 -742 -774 741 0
1588 1587 0
-1588 -1587 0
718 742 774 1589 0
-718 -742 -774 1589 0
-1589 -718 742 0
-1589 718 -742 0
-1589 -718 774 0
-1589 718 -774 0
-1589 719 743 775 -742 0
-1589 719 743 -775 742 0
-1589 719 -743 775 742 0
-1589 719 -743 -775 -742 0
-1589 -719 743 775 742 0
-1589 -719 743 -775 -742 0
-1589 -719 -743 775 -742 0
-1589 -719 -743 -775 742 0
1590 1589 0
-1590 -1589 0
719 743 775 1591 0
-719 -743 -775 1591 0
-1591 -719 743 0
-1591 719 -743 0
-1591 -719 775 0
-1591 719 -775 0
-1591 720 744 776 -743 0
-1591 720 744 -776 743 0
-1591 720 -744 776 743 0
-1591 720 -744 -776 -743 0
-1591 -720 744 776 743 0
-1591 -720 744 -776 -743 0
-1591 -720 -744 776 -743 0
-1591 -720 -744 -776 743 0
1592 1591 0
-1592 -1591 0
720 744 776 1593 0
-720 -744 -776 1593 0
-1593 -720 744 0
-1593 720 -744 0
-1593 -720 776 0
-1593 720 -776 0
-1593 721 745 777 -744 0
-1593 721 745 -777 744 0
-1593 721 -745 777 744 0
-1593 721 -745 -777 -744 0
-1593 -721 745 777 744 0
-1593 -721 745 -777 -744 0
-1593 -721 -745 777 -744 0
-1593 -721 -745 -777 744 0
1594 1593 0
-1594 -1593 0
721 745 777 1595 0
-721 -745 -777 1595 0
-1595 -721 745 0
-1595 721 -745 0
-1595 -721 777 0
-1595 721 -777 0
-1595 722 746 778 -745 0
-1595 722 746 -778 745 0
-1595 722 -746 778 745 0
-1595 722 -746 -778 -745 0
-1595 -722 746 778 745 0
-1595 -722 746 -778 -745 0
-1595 -722 -746 778 -745 0
-1595 -722 -746 -778 745 0
1596 1595 0
-1596 -1595 0
722 746 778 1597 0
-722 -746 -778 1597 0
-1597 -722 746 0
-1597 722 -746 0
-1597 -722 778 0
-1597 722 -778 0
-1597 723 747 779 -746 0
-1597 723 747 -779 746 0
-1597 723 -747 779 746 0
-1597 723 -747 -779 -746 0
-1597 -723 747 779 746 0
-1597 -723 747 -779 -746 0
-1597 -723 -747 779 -746 0
-1597 -723 -747 -779 746 0
1598 1597 0
-1598 -1597 0
723 747 779 1599 0
-723 -747 -779 1599 0
-1599 -723 747 0
-1599 723 -747 0
-1599 -723 779 0
-1599 723 -779 0
-1599 724 748 780 -747 0
-1599 724 748 -780 747 0
-1599 724 -748 780 747 0
-1599 724 -748 -780 -747 0
-1599 -724 748 780 747 0
-1599 -724 748 -780 -747 0
-1599 -724 -748 780 -747 0
-1599 -724 -748 -780 747 0
1600 1599 0
-1600 -1599 0
724 748 780 1601 0
-724 -748 -780 1601 0
-1601 -724 748 0
-1601 724 -748 0
-1601 -724 780 0
-1601 724 -780 0
-1601 725 749 781 -748 0
-1601 725 749 -781 748 0
-1601 725 -749 781 748 0
-1601 725 -749 -781 -748 0
-1601 -725 749 781 748 0
-1601 -725 749 -781 -748 0
-1601 -725 -749 781 -748 0
-1601 -725 -749 -781 748 0
1602 1601 0
-1602 -1601 0
725 749 781 1603 0
-725 -749 -781 1603 0
-1603 -725 749 0
-1603 725 -749 0
-1603 -725 781 0
-1603 725 -781 0
-1603 726 750 782 -749 0
-1603 726 750 -782 749 0
-1603 726 -750 782 749 0
-1603 726 -750 -782 -749 0
-1603 -726 750 782 749 0
-1603 -726 750 -782 -749 0
-1603 -726 -750 782 -749 0
-1603 -726 -750 -782 749 0
1604 1603 0
-1604 -1603 0
726 750 782 1605 0
-726 -750 -782 1605 0
-1605 -726 750 0
-1605 726 -750 0
-1605 -726 782 0
-1605 726 -782 0
-1605 727 751 783 -750 0
-1605 727 751 -783 750 0
-1605 727 -751 783 750 0
-1605 727 -751 -783 -750 0
-1605 -727 751 783 750 0
-1605 -727 751 -783 -750 0
-1605 -727 -751 783 -750 0
-1605 -727 -751 -783 750 0
1606 1605 0
-1606 -1605 0
727 751 783 1607 0
-727 -751 -783 1607 0
-1607 -727 751 0
-1607 727 -751 0
-1607 -727 783 0
-1607 727 -783 0
-1607 728 752 784 -751 0
-1607 728 752 -784 751 0
-1607 728 -752 784 751 0
-1607 728 -752 -784 -751 0
-1607 -728 752 784 751 0
-1607 -728 752 -784 -751 0
-1607 -728 -752 784 -751 0
-1607 -728 -752 -784 751 0
1608 1607 0
-1608 -1607 0
728 752 784 1609 0
-728 -752 -784 1609 0
-1609 -728 752 0
-1609 728 -752 0
-1609 -728 784 0
-1609 728 -784 0
-1609 729 753 785 -752 0
-1609 729 753 -785 752 0
-1609 729 -753 785 752 0
-1609 729 -753 -785 -752 0
-1609 -729 753 785 752 0
-1609 -729 753 -785 -752 0
-1609 -729 -753 785 -752 0
-1609 -729 -753 -785 752 0
1610 1609 0
-1610 -1609 0
729 753 785 1611 0
-729 -753 -785 1611 0
-1611 -729 753 0
-1611 729 -753 0
-1611 -729 785 0
-1611 729 -785 0
-1611 730 754 786 -753 0
-1611 730 754 -786 753 0
-1611 730 -754 786 753 0
-1611 730 -754 -786 -753 0
-1611 -730 754 786 753 0
-1611 -730 754 -786 -753 0
-1611 -730 -754 786 -753 0
-1611 -730 -754 -786 753 0
1612 1611 0
-1612 -1611 0
730 754 786 1613 0
-730 -754 -786 1613 0
-1613 -730 754 0
-1613 730 -754 0
-1613 -730 786 0
-1613 730 -786 0
-1613 731 755 787 -754 0
-1613 731 755 -787 754 0
-1613 731 -755 787 754 0
-1613 731 -755 -787 -754 0
-1613 -731 755 787 754 0
-1613 -731 755 -787 -754 0
-1613 -731 -755 787 -754 0
-1613 -731 -755 -787 754 0
1614 1613 0
-1614 -1613 0
731 755 787 1615 0
-731 -755 -787 1615 0
-1615 -731 755 0
-1615 731 -755 0
-1615 -731 787 0
-1615 731 -787 0
-1615 732 756 788 -755 0
-1615 732 756 -788 755 0
-1615 732 -756 788 755 0
-1615 732 -756 -788 -755 0
-1615 -732 756 788 755 0
-1615 -732 756 -788 -755 0
-1615 -732 -756 788 -755 0
-1615 -732 -756 -788 755 0
1616 1615 0
-1616 -1615 0
732 756 788 1617 0
-732 -756 -788 1617 0
-1617 -732 756 0
-1617 732 -756 0
-1617 -732 788 0
-1617 732 -788 0
-1617 733 757 789 -756 0
-1617 733 757 -789 756 0
-1617 733 -757 789 756 0
-1617 733 -757 -789 -756 0
-1617 -733 757 789 756 0
-1617 -733 757 -789 -756 0
-1617 -733 -757 789 -756 0
-1617 -733 -757 -789 756 0
1618 1617 0
-1618 -1617 0
733 757 789 1619 0
-733 -757 -789 1619 0
-1619 -733 757 0
-1619 733 -757 0
-1619 -733 789 0
-1619 733 -789 0
-1619 734 758 790 -757 0
-1619 734 758 -790 757 0
-1619 734 -758 790 757 0
-1619 734 -758 -790 -757 0
-1619 -734 758 790 757 0
-1619 -734 758 -790 -757 0
-1619 -734 -758 790 -757 0
-1619 -734 -758 -790 757 0
1620 1619 0
-1620 -1619 0
734 758 790 1621 0
-734 -758 -790 1621 0
-1621 -734 758 0
-1621 734 -758 0
-1621 -734 790 0
-1621 734 -790 0
-1621 735 759 791 -758 0
-1621 735 759 -791 758 0
-1621 735 -759 791 758 0
-1621 735 -759 -791 -758 0
-1621 -735 759 791 758 0
-1621 -735 759 -791 -758 0
-1621 -735 -759 791 -758 0
-1621 -735 -759 -791 758 0
1622 1621 0
-1622 -1621 0
735 759 791 1623 0
-735 -759 -791 1623 0
-1623 -735 759 0
-1623 735 -759 0
-1623 -735 791 0
-1623 735 -791 0
-1623 736 760 792 -759 0
-1623 736 760 -792 759 0
-1623 736 -760 792 759 0
-1623 736 -760 -792 -759 0
-1623 -736 760 792 759 0
-1623 -736 760 -792 -759 0
-1623 -736 -760 792 -759 0
-1623 -736 -760 -792 759 0
1624 1623 0
-1624 -1623 0
736 760 792 1625 0
-736 -760 -792 1625 0
-1625 -736 760 0
-1625 736 -760 0
-1625 -736 792 0
-1625 736 -792 0
-1625 705 761 793 -760 0
-1625 705 761 -793 760 0
-1625 705 -761 793 760 0
-1625 705 -761 -793 -760 0
-1625 -705 761 793 760 0
-1625 -705 761 -793 -760 0
-1625 -705 -761 793 -760 0
-1625 -705 -761 -793 760 0
1626 1625 0
-1626 -1625 0
705 761 793 1627 0
-705 -761 -793 1627 0
-1627 -705 761 0
-1627 705 -761 0
-1627 -705 793 0
-1627 705 -793 0
-1627 706 762 794 -761 0
-1627 706 762 -794 761 0
-1627 706 -762 794 761 0
-1627 706 -762 -794 -761 0
-1627 -706 762 794 761 0
-1627 -706 762 -794 -761 0
-1627 -706 -762 794 -761 0
-1627 -706 -762 -794 761 0
1628 1627 0
-1628 -1627 0
706 762 794 1629 0
-706 -762 -794 1629 0
-1629 -706 762 0
-1629 706 -762 0
-1629 -706 794 0
-1629 706 -794 0
-1629 707 763 795 -762 0
-1629 707 763 -795 762 0
-1629 707 -763 795 762 0
-1629 707 -763 -795 -762 0
-1629 -707 763 795 762 0
-1629 -707 763 -795 -762 0
-1629 -707 -763 795 -762 0
-1629 -707 -763 -795 762 0
1630 1629 0
-1630 -1629 0
707 763 795 1631 0
-707 -763 -795 1631 0
-1631 -707 763 0
-1631 707 -763 0
-1631 -707 795 0
-1631 707 -795 0
-1631 708 764 796 -763 0
-1631 708 764 -796 763 0
-1631 708 -764 796 763 0
-1631 708 -764 -796 -763 0
-1631 -708 764 796 763 0
-1631 -708 764 -796 -763 0
-1631 -708 -764 796 -763 0
-1631 -708 -764 -796 763 0
1632 1631 0
-1632 -1631 0
708 764 796 1633 0
-708 -764 -796 1633 0
-1633 -708 764 0
-1633 708 -764 0
-1633 -708 796 0
-1633 708 -796 0
-1633 709 765 797 -764 0
-1633 709 765 -797 764 0
-1633 709 -765 797 764 0
-1633 709 -765 -797 -764 0
-1633 -709 765 797 764 0
-1633 -709 765 -797 -764 0
-1633 -709 -765 797 -764 0
-1633 -709 -765 -797 764 0
1634 1633 0
-1634 -1633 0
709 765 797 1635 0
-709 -765 -797 1635 0
-1635 -709 765 0
-1635 709 -765 0
-1635 -709 797 0
-1635 709 -797 0
-1635 710 766 798 -765 0
-1635 710 766 -798 765 0
-1635 710 -766 798 765 0
-1635 710 -766 -798 -765 0
-1635 -710 766 798 765 0
-1635 -710 766 -798 -765 0
-1635 -710 -766 798 -765 0
-1635 -710 -766 -798 765 0
1636 1635 0
-1636 -1635 0
710 766 798 1637 0
-710 -766 -798 1637 0
-1637 -710 766 0
-1637 710 -766 0
-1637 -710 798 0
-1637 710 -798 0
-1637 711 767 799 -766 0
-1637 711 767 -799 766 0
-1637 711 -767 799 766 0
-1637 711 -767 -799 -766 0
-1637 -711 767 799 766 0
-1637 -711 767 -799 -766 0
-1637 -711 -767 799 -766 0
-1637 -711 -767 -799 766 0
1638 1637 0
-1638 -1637 0
711 767 799 1639 0
-711 -767 -799 1639 0
-1639 -711 767 0
-1639 711 -767 0
-1639 -711 799 0
-1639 711 -799 0
-1639 712 768 800 -767 0
-1639 712 768 -800 767 0
-1639 712 -768 800 767 0
-1639 712 -768 -800 -767 0
-1639 -712 768 800 767 0
-1639 -712 768 -800 -767 0
-1639 -712 -768 800 -767 0
-1639 -712 -768 -800 767 0
1640 1639 0
-1640 -1639 0
766 769 -801 0
766 -769 801 0
-766 769 801 0
-766 -769 -801 0
767 770 -802 0
767 -770 802 0
-767 770 802 0
-767 -770 -802 0
768 771 -803 0
768 -771 803 0
-768 771 803 0
-768 -771 -803 0
737 772 -804 0
737 -772 804 0
-737 772 804 0
-737 -772 -804 0
738 773 -805 0
738 -773 805 0
-738 773 805 0
-738 -773 -805 0
739 774 -806 0
739 -774 806 0
-739 774 806 0
-739 -774 -806 0
740 775 -807 0
740 -775 807 0
-740 775 807 0
-740 -775 -807 0
741 776 -808 0
741 -776 808 0
-741 776 808 0
-741 -776 -808 0
742 777 -809 0
742 -777 809 0
-742 777 809 0
-742 -777 -809 0
743 778 -810 0
743 -778 810 0
-743 778 810 0
-743 -778 -810 0
744 779 -811 0
744 -779 811 0
-744 779 811 0
-744 -779 -811 0
745 780 -812 0
745 -780 812 0
-745 780 812 0
-745 -780 -812 0
746 781 -813 0
746 -781 813 0
-746 781 813 0
-746 -781 -813 0
747 782 -814 0
747 -782 814 0
-747 782 814 0
-747 -782 -814 0
748 783 -815 0
748 -783 815 0
-748 783 815 0
-748 -783 -815 0
749 784 -816 0
749 -784 816 0
-749 784 816 0
-749 -784 -816 0
750 785 -817 0
750 -785 817 0
-750 785 817 0
-750 -785 -817 0
751 786 -818 0
751 -786 818 0
-751 786 818 0
-751 -786 -818 0
752 787 -819 0
752 -787 819 0
-752 787 819 0
-752 -787 -819 0
753 788 -820 0
753 -788 820 0
-753 788 820 0
-753 -788 -820 0
754 789 -821 0
754 -789 821 0
-754 789 821 0
-754 -789 -821 0
755 790 -822 0
755 -790 822 0
-755 790 822 0
-755 -790 -822 0
756 791 -823 0
756 -791 823 0
-756 791 823 0
-756 -791 -823 0
757 792 -824 0
757 -792 824 0
-757 792 824 0
-757 -792 -824 0
758 793 -825 0
758 -793 825 0
-758 793 825 0
-758 -793 -825 0
759 794 -826 0
759 -794 826 0
-759 794 826 0
-759 -794 -826 0
760 795 -827 0
760 -795 827 0
-760 795 827 0
-760 -795 -827 0
761 796 -828 0
761 -796 828 0
-761 796 828 0
-761 -796 -828 0
762 797 -829 0
762 -797 829 0
-762 797 829 0
-762 -797 -829 0
763 798 -830 0
763 -798 830 0
-763 798 830 0
-763 -798 -830 0
764 799 -831 0
764 -799 831 0
-764 799 831 0
-764 -799 -831 0
765 800 -832 0
765 -800 832 0
-765 800 832 0
-765 -800 -832 0
777 801 -833 0
777 -801 833 0
-777 801 833 0
-777 -801 -833 0
777 801 833 1641 0
-777 -801 -833 1641 0
-1641 -777 801 0
-1641 777 -801 0
-1641 -777 833 0
-1641 777 -833 0
-1641 778 802 834 -801 0
-1641 778 802 -834 801 0
-1641 778 -802 834 801 0
-1641 778 -802 -834 -801 0
-1641 -778 802 834 801 0
-1641 -778 802 -834 -801 0
-1641 -778 -802 834 -801 0
-1641 -778 -802 -834 801 0
1642 1641 0
-1642 -1641 0
778 802 834 1643 0
-778 -802 -834 1643 0
-1643 -778 802 0
-1643 778 -802 0
-1643 -778 834 0
-1643 778 -834 0
-1643 779 803 835 -802 0
-1643 779 803 -835 802 0
-1643 779 -803 835 802 0
-1643 779 -803 -835 -802 0
-1643 -779 803 835 802 0
-1643 -779 803 -835 -802 0
-1643 -779 -803 835 -802 0
-1643 -779 -803 -835 802 0
1644 1643 0
-1644 -1643 0
779 803 835 1645 0
-779 -803 -835 1645 0
-1645 -779 803 0
-1645 779 -803 0
-1645 -779 835 0
-1645 779 -835 0
-1645 780 804 836 -803 0
-1645 780 804 -836 803 0
-1645 780 -804 836 803 0
-1645 780 -804 -836 -803 0
-1645 -780 804 836 803 0
-1645 -780 804 -836 -803 0
-1645 -780 -804 836 -803 0
-1645 -780 -804 -836 803 0
1646 1645 0
-1646 -1645 0
780 804 836 1647 0
-780 -804 -836 1647 0
-1647 -780 804 0
-1647 780 -804 0
-1647 -780 836 0
-1647 780 -836 0
-1647 781 805 837 -804 0
-1647 781 805 -837 804 0
-1647 781 -805 837 804 0
-1647 781 -805 -837 -804 0
-1647 -781 805 837 804 0
-1647 -781 805 -837 -804 0
-1647 -781 -805 837 -804 0
-1647 -781 -805 -837 804 0
1648 1647 0
-1648 -1647 0
781 805 837 1649 0
-781 -805 -837 1649 0
-1649 -781 805 0
-1649 781 -805 0
-1649 -781 837 0
-1649 781 -837 0
-1649 782 806 838 -805 0
-1649 782 806 -838 805 0
-1649 782 -806 838 805 0
-1649 782 -806 -838 -805 0
-1649 -782 806 838 805 0
-1649 -782 806 -838 -805 0
-1649 -782 -806 838 -805 0
-1649 -782 -806 -838 805 0
1650 1649 0
-1650 -1649 0
782 806 838 1651 0
-782 -806 -838 1651 0
-1651 -782 806 0
-1651 782 -806 0
-1651 -782 838 0
-1651 782 -838 0
-1651 783 807 839 -806 0
-1651 783 807 -839 806 0
-1651 783 -807 839 806 0
-1651 783 -807 -839 -806 0
-1651 -783 807 839 806 0
-1651 -783 807 -839 -806 0
-1651 -783 -807 839 -806 0
-1651 -783 -807 -839 806 0
1652 1651 0
-1652 -1651 0
783 807 839 1653 0
-783 -807 -839 1653 0
-1653 -783 807 0
-1653 783 -807 0
-1653 -783 839 0
-1653 783 -839 0
-1653 784 808 840 -807 0
-1653 784 808 -840 807 0
-1653 784 -808 840 807 0
-1653 784 -808 -840 -807 0
-1653 -784 808 840 807 0
-1653 -784 808 -840 -807 0
-1653 -784 -808 840 -807 0
-1653 -784 -808 -840 807 0
1654 1653 0
-1654 -1653 0
784 808 840 1655 0
-784 -808 -840 1655 0
-1655 -784 808 0
-1655 784 -808 0
-1655 -784 840 0
-1655 784 -840 0
-1655 785 809 841 -808 0
-1655 785 809 -841 808 0
-1655 785 -809 841 808 0
-1655 785 -809 -841 -808 0
-1655 -785 809 841 808 0
-1655 -785 809 -841 -808 0
-1655 -785 -809 841 -808 0
-1655 -785 -809 -841 808 0
1656 1655 0
-1656 -1655 0
785 809 841 1657 0
-785 -809 -841 1657 0
-1657 -785 809 0
-1657 785 -809 0
-1657 -785 841 0
-1657 785 -841 0
-1657 786 810 842 -809 0
-1657 786 810 -842 809 0
-1657 786 -810 842 809 0
-1657 786 -810 -842 -809 0
-1657 -786 810 842 809 0
-1657 -786 810 -842 -809 0
-1657 -786 -810 842 -809 0
-1657 -786 -810 -842 809 0
1658 1657 0
-1658 -1657 0
786 810 842 1659 0
-786 -810 -842 1659 0
-1659 -786 810 0
-1659 786 -810 0
-1659 -786 842 0
-1659 786 -842 0
-1659 787 811 843 -810 0
-1659 787 811 -843 810 0
-1659 787 -811 843 810 0
-1659 787 -811 -843 -810 0
-1659 -787 811 843 810 0
-1659 -787 811 -843 -810 0
-1659 -787 -811 843 -810 0
-1659 -787 -811 -843 810 0
1660 1659 0
-1660 -1659 0
787 811 843 1661 0
-787 -811 -843 1661 0
-1661 -787 811 0
-1661 787 -811 0
-1661 -787 843 0
-1661 787 -843 0
-1661 788 812 844 -811 0
-1661 788 812 -844 811 0
-1661 788 -812 844 811 0
-1661 788 -812 -844 -811 0
-1661 -788 812 844 811 0
-1661 -788 812 -844 -811 0
-1661 -788 -812 844 -811 0
-1661 -788 -812 -844 811 0
1662 1661 0
-1662 -1661 0
788 812 844 1663 0
-788 -812 -844 1663 0
-1663 -788 812 0
-1663 788 -812 0
-1663 -788 844 0
-1663 788 -844 0
-1663 789 813 845 -812 0
-1663 789 813 -845 812 0
-1663 789 -813 845 812 0
-1663 789 -813 -845 -812 0
-1663 -789 813 845 812 0
-1663 -789 813 -845 -812 0
-1663 -789 -813 845 -812 0
-1663 -789 -813 -845 812 0
1664 1663 0
-1664 -1663 0
789 813 845 1665 0
-789 -813 -845 1665 0
-1665 -789 813 0
-1665 789 -813 0
-1665 -789 845 0
-1665 789 -845 0
-1665 790 814 846 -813 0
-1665 790 814 -846 813 0
-1665 790 -814 846 813 0
-1665 790 -814 -846 -813 0
-1665 -790 814 846 813 0
-1665 -790 814 -846 -813 0
-1665 -790 -814 846 -813 0
-1665 -790 -814 -846 813 0
1666 1665 0
-1666 -1665 0
790 814 846 1667 0
-790 -814 -846 1667 0
-1667 -790 814 0
-1667 790 -814 0
-1667 -790 846 0
-1667 790 -846 0
-1667 791 815 847 -814 0
-1667 791 815 -847 814 0
-1667 791 -815 847 814 0
-1667 791 -815 -847 -814 0
-1667 -791 815 847 814 0
-1667 -791 815 -847 -814 0
-1667 -791 -815 847 -814 0
-1667 -791 -815 -847 814 0
1668 1667 0
-1668 -1667 0
791 815 847 1669 0
-791 -815 -847 1669 0
-1669 -791 815 0
-1669 791 -815 0
-1669 -791 847 0
-1669 791 -847 0
-1669 792 816 848 -815 0
-1669 792 816 -848 815 0
-1669 792 -816 848 815 0
-1669 792 -816 -848 -815 0
-1669 -792 816 848 815 0
-1669 -792 816 -848 -815 0
-1669 -792 -816 848 -815 0
-1669 -792 -816 -848 815 0
1670 1669 0
-1670 -1669 0
792 816 848 1671 0
-792 -816 -848 1671 0
-1671 -792 816 0
-1671 792 -816 0
-1671 -792 848 0
-1671 792 -848 0
-1671 793 817 849 -816 0
-1671 793 817 -849 816 0
-1671 793 -817 849 816 0
-1671 793 -817 -849 -816 0
-1671 -793 817 849 816 0
-1671 -793 817 -849 -816 0
-1671 -793 -817 849 -816 0
-1671 -793 -817 -849 816 0
1672 1671 0
-1672 -1671 0
793 817 849 1673 0
-793 -817 -849 1673 0
-1673 -793 817 0
-1673 793 -817 0
-1673 -793 849 0
-1673 793 -849 0
-1673 794 818 850 -817 0
-1673 794 818 -850 817 0
-1673 794 -818 850 817 0
-1673 794 -818 -850 -817 0
-1673 -794 818 850 817 0
-1673 -794 818 -850 -817 0
-1673 -794 -818 850 -817 0
-1673 -794 -818 -850 817 0
1674 1673 0
-1674 -1673 0
794 818 850 1675 0
-794 -818 -850 1675 0
-1675 -794 818 0
-1675 794 -818 0
-1675 -794 850 0
-1675 794 -850 0
-1675 795 819 851 -818 0
-1675 795 819 -851 818 0
-1675 795 -819 851 818 0
-1675 795 -819 -851 -818 0
-1675 -795 819 851 818 0
-1675 -795 819 -851 -818 0
-1675 -795 -819 851 -818 0
-1675 -795 -819 -851 818 0
1676 1675 0
-1676 -1675 0
795 819 851 1677 0
-795 -819 -851 1677 0
-1677 -795 819 0
-1677 795 -819 0
-1677 -795 851 0
-1677 795 -851 0
-1677 796 820 852 -819 0
-1677 796 820 -852 819 0
-1677 796 -820 852 819 0
-1677 796 -820 -852 -819 0
-1677 -796 820 852 819 0
-1677 -796 820 -852 -819 0
-1677 -796 -820 852 -819 0
-1677 -796 -820 -852 819 0
1678 1677 0
-1678 -1677 0
796 820 852 1679 0
-796 -820 -852 1679 0
-1679 -796 820 0
-1679 796 -820 0
-1679 -796 852 0
-1679 796 -852 0
-1679 797 821 853 -820 0
-1679 797 821 -853 820 0
-1679 797 -821 853 820 0
-1679 797 -821 -853 -820 0
-1679 -797 821 853 820 0
-1679 -797 821 -853 -820 0
-1679 -797 -821 853 -820 0
-1679 -797 -821 -853 820 0
1680 1679 0
-1680 -1679 0
797 821 853 1681 0
-797 -821 -853 1681 0
-1681 -797 821 0
-1681 797 -821 0
-1681 -797 853 0
-1681 797 -853 0
-1681 798 822 854 -821 0
-1681 798 822 -854 821 0
-1681 798 -822 854 821 0
-1681 798 -822 -854 -821 0
-1681 -798 822 854 821 0
-1681 -798 822 -854 -821 0
-1681 -798 -822 854 -821 0
-1681 -798 -822 -854 821 0
1682 1681 0
-1682 -1681 0
798 822 854 1683 0
-798 -822 -854 1683 0
-1683 -798 822 0
-1683 798 -822 0
-1683 -798 854 0
-1683 798 -854 0
-1683 799 823 855 -822 0
-1683 799 823 -855 822 0
-1683 799 -823 855 822 0
-1683 799 -823 -855 -822 0
-1683 -799 823 855 822 0
-1683 -799 823 -855 -822 0
-1683 -799 -823 855 -822 0
-1683 -799 -823 -855 822 0
1684 1683 0
-1684 -1683 0
799 823 855 1685 0
-799 -823 -855 1685 0
-1685 -799 823 0
-1685 799 -823 0
-1685 -799 855 0
-1685 799 -855 0
-1685 800 824 856 -823 0
-1685 800 824 -856 823 0
-1685 800 -824 856 823 0
-1685 800 -824 -856 -823 0
-1685 -800 824 856 823 0
-1685 -800 824 -856 -823 0
-1685 -800 -824 856 -823 0
-1685 -800 -824 -856 823 0
1686 1685 0
-1686 -1685 0
800 824 856 1687 0
-800 -824 -856 1687 0
-1687 -800 824 0
-1687 800 -824 0
-1687 -800 856 0
-1687 800 -856 0
-1687 769 825 857 -824 0
-1687 769 825 -857 824 0
-1687 769 -825 857 824 0
-1687 769 -825 -857 -824 0
-1687 -769 825 857 824 0
-1687 -769 825 -857 -824 0
-1687 -769 -825 857 -824 0
-1687 -769 -825 -857 824 0
1688 1687 0
-1688 -1687 0
769 825 857 1689 0
-769 -825 -857 1689 0
-1689 -769 825 0
-1689 769 -825 0
-1689 -769 857 0
-1689 769 -857 0
-1689 770 826 858 -825 0
-1689 770 826 -858 825 0
-1689 770 -826 858 825 0
-1689 770 -826 -858 -825 0
-1689 -770 826 858 825 0
-1689 -770 826 -858 -825 0
-1689 -770 -826 858 -825 0
-1689 -770 -826 -858 825 0
1690 1689 0
-1690 -1689 0
770 826 858 1691 0
-770 -826 -858 1691 0
-1691 -770 826 0
-1691 770 -826 0
-1691 -770 858 0
-1691 770 -858 0
-1691 771 827 859 -826 0
-1691 771 827 -859 826 0
-1691 771 -827 859 826 0
-1691 771 -827 -859 -826 0
-1691 -771 827 859 826 0
-1691 -771 827 -859 -826 0
-1691 -771 -827 859 -826 0
-1691 -771 -827 -859 826 0
1692 1691 0
-1692 -1691 0
771 827 859 1693 0
-771 -827 -859 1693 0
-1693 -771 827 0
-1693 771 -827 0
-1693 -771 859 0
-1693 771 -859 0
-1693 772 828 860 -827 0
-1693 772 828 -860 827 0
-1693 772 -828 860 827 0
-1693 772 -828 -860 -827 0
-1693 -772 828 860 827 0
-1693 -772 828 -860 -827 0
-1693 -772 -828 860 -827 0
-1693 -772 -828 -860 827 0
1694 1693 0
-1694 -1693 0
772 828 860 1695 0
-772 -828 -860 1695 0
-1695 -772 828 0
-1695 772 -828 0
-1695 -772 860 0
-1695 772 -860 0
-1695 773 829 861 -828 0
-1695 773 829 -861 828 0
-1695 773 -829 861 828 0
-1695 773 -829 -861 -828 0
-1695 -773 829 861 828 0
-1695 -773 829 -861 -828 0
-1695 -773 -829 861 -828 0
-1695 -773 -829 -861 828 0
1696 1695 0
-1696 -1695 0
773 829 861 1697 0
-773 -829 -861 1697 0
-1697 -773 829 0
-1697 773 -829 0
-1697 -773 861 0
-1697 773 -861 0
-1697 774 830 862 -829 0
-1697 774 830 -862 829 0
-1697 774 -830 862 829 0
-1697 774 -830 -862 -829 0
-1697 -774 830 862 829 0
-1697 -774 830 -862 -829 0
-1697 -774 -830 862 -829 0
-1697 -774 -830 -862 829 0
1698 1697 0
-1698 -1697 0
774 830 862 1699 0
-774 -830 -862 1699 0
-1699 -774 830 0
-1699 774 -830 0
-1699 -774 862 0
-1699 774 -862 0
-1699 775 831 863 -830 0
-1699 775 831 -863 830 0
-1699 775 -831 863 830 0
-1699 775 -831 -863 -830 0
-1699 -775 831 863 830 0
-1699 -775 831 -863 -830 0
-1699 -775 -831 863 -830 0
-1699 -775 -831 -863 830 0
1700 1699 0
-1700 -1699 0
775 831 863 1701 0
-775 -831 -863 1701 0
-1701 -775 831 0
-1701 775 -831 0
-1701 -775 863 0
-1701 775 -863 0
-1701 776 832 864 -831 0
-1701 776 832 -864 831 0
-1701 776 -832 864 831 0
-1701 776 -832 -864 -831 0
-1701 -776 832 864 831 0
-1701 -776 832 -864 -831 0
-1701 -776 -832 864 -831 0
-1701 -776 -832 -864 831 0
1702 1701 0
-1702 -1701 0
830 833 -865 0
830 -833 865 0
-830 833 865 0
-830 -833 -865 0
831 834 -866 0
831 -834 866 0
-831 834 866 0
-831 -834 -866 0
832 835 -867 0
832 -835 867 0
-832 835 867 0
-832 -835 -867 0
801 836 -868 0
801 -836 868 0
-801 836 868 0
-801 -836 -868 0
802 837 -869 0
802 -837 869 0
-802 837 869 0
-802 -837 -869 0
803 838 -870 0
803 -838 870 0
-803 838 870 0
-803 -838 -870 0
804 839 -871 0
804 -839 871 0
-804 839 871 0
-804 -839 -871 0
805 840 -872 0
805 -840 872 0
-805 840 872 0
-805 -840 -872 0
806 841 -873 0
806 -841 873 0
-806 841 873 0
-806 -841 -873 0
807 842 -874 0
807 -842 874 0
-807 842 874 0
-807 -842 -874 0
808 843 -875 0
808 -843 875 0
-808 843 875 0
-808 -843 -875 0
809 844 -876 0
809 -844 876 0
-809 844 876 0
-809 -844 -876 0
810 845 -877 0
810 -845 877 0
-810 845 877 0
-810 -845 -877 0
811 846 -878 0
811 -846 878 0
-811 846 878 0
-811 -846 -878 0
812 847 -879 0
812 -847 879 0
-812 847 879 0
-812 -847 -879 0
813 848 -880 0
813 -848 880 0
-813 848 880 0
-813 -848 -880 0
814 849 -881 0
814 -849 881 0
-814 849 881 0
-814 -849 -881 0
815 850 -882 0
815 -850 882 0
-815 850 882 0
-815 -850 -882 0
816 851 -883 0
816 -851 883 0
-816 851 883 0
-816 -851 -883 0
817 852 -884 0
817 -852 884 0
-817 852 884 0
-817 -852 -884 0
818 853 -885 0
818 -853 885 0
-818 853 885 0
-818 -853 -885 0
819 854 -886 0
819 -854 886 0
-819 854 886 0
-819 -854 -886 0
820 855 -887 0
820 -855 887 0
-820 855 887 0
-820 -855 -887 0
821 856 -888 0
821 -856 888 0
-821 856 888 0
-821 -856 -888 0
822 857 -889 0
822 -857 889 0
-822 857 889 0
-822 -857 -889 0
823 858 -890 0
823 -858 890 0
-823 858 890 0
-823 -858 -890 0
824 859 -891 0
824 -859 891 0
-824 859 891 0
-824 -859 -891 0
825 860 -892 0
825 -860 892 0
-825 860 892 0
-825 -860 -892 0
826 861 -893 0
826 -861 893 0
-826 861 893 0
-826 -861 -893 0
827 862 -894 0
827 -862 894 0
-827 862 894 0
-827 -862 -894 0
828 863 -895 0
828 -863 895 0
-828 863 895 0
-828 -863 -895 0
829 864 -896 0
829 -864 896 0
-829 864 896 0
-829 -864 -896 0
-1704 0
-1705 0
-1706 0
-1707 0
-1708 0
-1709 0
-1710 0
-1711 0
-1712 0
-1713 0
-1714 0
-1715 0
-1716 0
-1717 0
-1718 0
-1719 0
-1720 0
-1721 0
-1722 0
-1723 0
-1724 0
-1725 0
-1726 0
-1727 0
-1728 0
-1729 0
-1730 0
-1731 0
-1732 0
-1733 0
-1734 0
-1735 0
-1736 0
-1737 0
-1738 0
-1739 0
-1740 0
-1741 0
-1742 0
-1743 0
-1744 0
-1745 0
-1746 0
-1747 0
-1748 0
-1749 0
-1750 0
-1751 0
-1752 0
-1753 0
-1754 0
-1755 0
-1756 0
-1757 0
-1758 0
-1759 0
-1760 0
-1761 0
-898 1703 0
-900 1762 0
-902 1821 0
-904 1880 0
-906 1939 0
-908 1998 0
-910 2057 0
-912 2116 0
-914 2175 0
-916 2234 0
-918 2293 0
-920 2352 0
-922 2411 0
-924 2470 0
-926 2529 0
-928 2588 0
-930 2647 0
-932 2706 0
-934 2765 0
-936 2824 0
-938 2883 0
-940 2942 0
-942 3001 0
-944 3060 0
-946 3119 0
-948 3178 0
-950 3237 0
-952 3296 0
-954 3355 0
-956 3414 0
-958 3473 0
-960 3532 0
-962 3591 0
-964 3650 0
-966 3709 0
-968 3768 0
-970 3827 0
-972 3886 0
-974 3945 0
-976 4004 0
-978 4063 0
-980 4122 0
-982 4181 0
-984 4240 0
-986 4299 0
-988 4358 0
-990 4417 0
-992 4476 0
-994 4535 0
-996 4594 0
-998 4653 0
-1000 4712 0
-1002 4771 0
-1004 4830 0
-1006 4889 0
-1008 4948 0
-1010 5007 0
-1012 5066 0
-1014 5125 0
-1016 5184 0
-1018 5243 0
-1020 5302 0
-1022 5361 0
-1024 5420 0
-1026 5479 0
-1028 5538 0
-1030 5597 0
-1032 5656 0
-1034 5715 0
-1036 5774 0
-1038 5833 0
-1040 5892 0
-1042 5951 0
-1044 6010 0
-1046 6069 0
-1048 6128 0
-1050 6187 0
-1052 6246 0
-1054 6305 0
-1056 6364 0
-1058 6423 0
-1060 6482 0
-1062 6541 0
-1064 6600 0
-1066 6659 0
-1068 6718 0
-1070 6777 0
-1072 6836 0
-1074 6895 0
-1076 6954 0
-1078 7013 0
-1080 7072 0
-1082 7131 0
-1084 7190 0
-1086 7249 0
-1088 7308 0
-1090 7367 0
-1092 7426 0
-1094 7485 0
-1096 7544 0
-1098 7603 0
-1100 7662 0
-1102 7721 0
-1104 7780 0
-1106 7839 0
-1108 7898 0
-1110 7957 0
-1112 8016 0
-1114 8075 0
-1116 8134 0
-1118 8193 0
-1120 8252 0
-1122 8311 0
-1124 8370 0
-1126 8429 0
-1128 8488 0
-1130 8547 0
-1132 8606 0
-1134 8665 0
-1136 8724 0
-1138 8783 0
-1140 8842 0
-1142 8901 0
-1144 8960 0
-1146 9019 0
-1148 9078 0
-1150 9137 0
-1152 9196 0
-1154 9255 0
-1156 9314 0
-1158 9373 0
-1160 9432 0
-1162 9491 0
-1164 9550 0
-1166 9609 0
-1168 9668 0
-1170 9727 0
-1172 9786 0
-1174 9845 0
-1176 9904 0
-1178 9963 0
-1180 10022 0
-1182 10081 0
-1184 10140 0
-1186 10199 0
-1188 10258 0
-1190 10317 0
-1192 10376 0
-1194 10435 0
-1196 10494 0
-1198 10553 0
-1200 10612 0
-1202 10671 0
-1204 10730 0
-1206 10789 0
-1208 10848 0
-1210 10907 0
-1212 10966 0
-1214 11025 0
-1216 11084 0
-1218 11143 0
-1220 11202 0
-1222 11261 0
-1224 11320 0
-1226 11379 0
-1228 11438 0
-1230 11497 0
-1232 11556 0
-1234 11615 0
-1236 11674 0
-1238 11733 0
-1240 11792 0
-1242 11851 0
-1244 11910 0
-1246 11969 0
-1248 12028 0
-1250 12087 0
-1252 12146 0
-1254 12205 0
-1256 12264 0
-1258 12323 0
-1260 12382 0
-1262 12441 0
-1264 12500 0
-1266 12559 0
-1268 12618 0
-1270 12677 0
-1272 12736 0
-1274 12795 0
-1276 12854 0
-1278 12913 0
-1280 12972 0
-1282 13031 0
-1284 13090 0
-1286 13149 0
-1288 13208 0
-1290 13267 0
-1292 13326 0
-1294 13385 0
-1296 13444 0
-1298 13503 0
-1300 13562 0
-1302 13621 0
-1304 13680 0
-1306 13739 0
-1308 13798 0
-1310 13857 0
-1312 13916 0
-1314 13975 0
-1316 14034 0
-1318 14093 0
-1320 14152 0
-1322 14211 0
-1324 14270 0
-1326 14329 0
-1328 14388 0
-1330 14447 0
-1332 14506 0
-1334 14565 0
-1336 14624 0
-1338 14683 0
-1340 14742 0
-1342 14801 0
-1344 14860 0
-1346 14919 0
-1348 14978 0
-1350 15037 0
-1352 15096 0
-1354 15155 0
-1356 15214 0
-1358 15273 0
-1360 15332 0
-1362 15391 0
-1364 15450 0
-1366 15509 0
-1368 15568 0
-1370 15627 0
-1372 15686 0
-1374 15745 0
-1376 15804 0
-1378 15863 0
-1380 15922 0
-1382 15981 0
-1384 16040 0
-1386 16099 0
-1388 16158 0
-1390 16217 0
-1392 16276 0
-1394 16335 0
-1396 16394 0
-1398 16453 0
-1400 16512 0
-1402 16571 0
-1404 16630 0
-1406 16689 0
-1408 16748 0
-1410 16807 0
-1412 16866 0
-1414 16925 0
-1416 16984 0
-1418 17043 0
-1420 17102 0
-1422 17161 0
-1424 17220 0
-1426 17279 0
-1428 17338 0
-1430 17397 0
-1432 17456 0
-1434 17515 0
-1436 17574 0
-1438 17633 0
-1440 17692 0
-1442 17751 0
-1444 17810 0
-1446 17869 0
-1448 17928 0
-1450 17987 0
-1452 18046 0
-1454 18105 0
-1456 18164 0
-1458 18223 0
-1460 18282 0
-1462 18341 0
-1464 18400 0
-1466 18459 0
-1468 18518 0
-1470 18577 0
-1472 18636 0
-1474 18695 0
-1476 18754 0
-1478 18813 0
-1480 18872 0
-1482 18931 0
-1484 18990 0
-1486 19049 0
-1488 19108 0
-1490 19167 0
-1492 19226 0
-1494 19285 0
-1496 19344 0
-1498 19403 0
-1500 19462 0
-1502 19521 0
-1504 19580 0
-1506 19639 0
-1508 19698 0
-1510 19757 0
-1512 19816 0
-1514 19875 0
-1516 19934 0
-1518 19993 0
-1520 20052 0
-1522 20111 0
-1524 20170 0
-1526 20229 0
-1528 20288 0
-1530 20347 0
-1532 20406 0
-1534 20465 0
-1536 20524 0
-1538 20583 0
-1540 20642 0
-1542 20701 0
-1544 20760 0
-1546 20819 0
-1548 20878 0
-1550 20937 0
-1552 20996 0
-1554 21055 0
-1556 21114 0
-1558 21173 0
-1560 21232 0
-1562 21291 0
-1564 21350 0
-1566 21409 0
-1568 21468 0
-1570 21527 0
-1572 21586 0
-1574 21645 0
-1576 21704 0
-1578 21763 0
-1580 21822 0
-1582 21881 0
-1584 21940 0
-1586 21999 0
-1588 22058 0
-1590 22117 0
-1592 22176 0
-1594 22235 0
-1596 22294 0
-1598 22353 0
-1600 22412 0
-1602 22471 0
-1604 22530 0
-1606 22589 0
-1608 22648 0
-1610 22707 0
-1612 22766 0
-1614 22825 0
-1616 22884 0
-1618 22943 0
-1620 23002 0
-1622 23061 0
-1624 23120 0
-1626 23179 0
-1628 23238 0
-1630 23297 0
-1632 23356 0
-1634 23415 0
-1636 23474 0
-1638 23533 0
-1640 23592 0
-1642 23651 0
-1644 23710 0
-1646 23769 0
-1648 23828 0
-1650 23887 0
-1652 23946 0
-1654 24005 0
-1656 24064 0
-1658 24123 0
-1660 24182 0
-1662 24241 0
-1664 24300 0
-1666 24359 0
-1668 24418 0
-1670 24477 0
-1672 24536 0
-1674 24595 0
-1676 24654 0
-1678 24713 0
-1680 24772 0
-1682 24831 0
-1684 24890 0
-1686 24949 0
-1688 25008 0
-1690 25067 0
-1692 25126 0
-1694 25185 0
-1696 25244 0
-1698 25303 0
-1700 25362 0
-1702 25421 0
-1703 1762 0
-1704 1763 0
-1705 1764 0
-1706 1765 0
-1707 1766 0
-1708 1767 0
-1709 1768 0
-1710 1769 0
-1711 1770 0
-1712 1771 0
-1713 1772 0
-1714 1773 0
-1715 1774 0
-1716 1775 0
-1717 1776 0
-1718 1777 0
-1719 1778 0
-1720 1779 0
-1721 1780 0
-1722 1781 0
-1723 1782 0
-1724 1783 0
-1725 1784 0
-1726 1785 0
-1727 1786 0
-1728 1787 0
-1729 1788 0
-1730 1789 0
-1731 1790 0
-1732 1791 0
-1733 1792 0
-1734 1793 0
-1735 1794 0
-1736 1795 0
-1737 1796 0
-1738 1797 0
-1739 1798 0
-1740 1799 0
-1741 1800 0
-1742 1801 0
-1743 1802 0
-1744 1803 0
-1745 1804 0
-1746 1805 0
-1747 1806 0
-1748 1807 0
-1749 1808 0
-1750 1809 0
-1751 1810 0
-1752 1811 0
-1753 1812 0
-1754 1813 0
-1755 1814 0
-1756 1815 0
-1757 1816 0
-1758 1817 0
-1759 1818 0
-1760 1819 0
-1761 1820 0
-900 -1703 1763 0
-900 -1704 1764 0
-900 -1705 1765 0
-900 -1706 1766 0
-900 -1707 1767 0
-900 -1708 1768 0
-900 -1709 1769 0
-900 -1710 1770 0
-900 -1711 1771 0
-900 -1712 1772 0
-900 -1713 1773 0
-900 -1714 1774 0
-900 -1715 1775 0
-900 -1716 1776 0
-900 -1717 1777 0
-900 -1718 1778 0
-900 -1719 1779 0
-900 -1720 1780 0
-900 -1721 1781 0
-900 -1722 1782 0
-900 -1723 1783 0
-900 -1724 1784 0
-900 -1725 1785 0
-900 -1726 1786 0
-900 -1727 1787 0
-900 -1728 1788 0
-900 -1729 1789 0
-900 -1730 1790 0
-900 -1731 1791 0
-900 -1732 1792 0
-900 -1733 1793 0
-900 -1734 1794 0
-900 -1735 1795 0
-900 -1736 1796 0
-900 -1737 1797 0
-900 -1738 1798 0
-900 -1739 1799 0
-900 -1740 1800 0
-900 -1741 1801 0
-900 -1742 1802 0
-900 -1743 1803 0
-900 -1744 1804 0
-900 -1745 1805 0
-900 -1746 1806 0
-900 -1747 1807 0
-900 -1748 1808 0
-900 -1749 1809 0
-900 -1750 1810 0
-900 -1751 1811 0
-900 -1752 1812 0
-900 -1753 1813 0
-900 -1754 1814 0
-900 -1755 1815 0
-900 -1756 1816 0
-900 -1757 1817 0
-900 -1758 1818 0
-900 -1759 1819 0
-900 -1760 1820 0
-900 -1761 0
-1762 1821 0
-1763 1822 0
-1764 1823 0
-1765 1824 0
-1766 1825 0
-1767 1826 0
-1768 1827 0
-1769 1828 0
-1770 1829 0
-1771 1830 0
-1772 1831 0
-1773 1832 0
-1774 1833 0
-1775 1834 0
-1776 1835 0
-1777 1836 0
-1778 1837 0
-1779 1838 0
-1780 1839 0
-1781 1840 0
-1782 1841 0
-1783 1842 0
-1784 1843 0
-1785 1844 0
-1786 1845 0
-1787 1846 0
-1788 1847 0
-1789 1848 0
-1790 1849 0
-1791 1850 0
-1792 1851 0
-1793 1852 0
-1794 1853 0
-1795 1854 0
-1796 1855 0
-1797 1856 0
-1798 1857 0
-1799 1858 0
-1800 1859 0
-1801 1860 0
-1802 1861 0
-1803 1862 0
-1804 1863 0
-1805 1864 0
-1806 1865 0
-1807 1866 0
-1808 1867 0
-1809 1868 0
-1810 1869 0
-1811 1870 0
-1812 1871 0
-1813 1872 0
-1814 1873 0
-1815 1874 0
-1816 1875 0
-1817 1876 0
-1818 1877 0
-1819 1878 0
-1820 1879 0
-902 -1762 1822 0
-902 -1763 1823 0
-902 -1764 1824 0
-902 -1765 1825 0
-902 -1766 1826 0
-902 -1767 1827 0
-902 -1768 1828 0
-902 -1769 1829 0
-902 -1770 1830 0
-902 -1771 1831 0
-902 -1772 1832 0
-902 -1773 1833 0
-902 -1774 1834 0
-902 -1775 1835 0
-902 -1776 1836 0
-902 -1777 1837 0
-902 -1778 1838 0
-902 -1779 1839 0
-902 -1780 1840 0
-902 -1781 1841 0
-902 -1782 1842 0
-902 -1783 1843 0
-902 -1784 1844 0
-902 -1785 1845 0
-902 -1786 1846 0
-902 -1787 1847 0
-902 -1788 1848 0
-902 -1789 1849 0
-902 -1790 1850 0
-902 -1791 1851 0
-902 -1792 1852 0
-902 -1793 1853 0
-902 -1794 1854 0
-902 -1795 1855 0
-902 -1796 1856 0
-902 -1797 1857 0
-902 -1798 1858 0
-902 -1799 1859 0
-902 -1800 1860 0
-902 -1801 1861 0
-902 -1802 1862 0
-902 -1803 1863 0
-902 -1804 1864 0
-902 -1805 1865 0
-902 -1806 1866 0
-902 -1807 1867 0
-902 -1808 1868 0
-902 -1809 1869 0
-902 -1810 1870 0
-902 -1811 1871 0
-902 -1812 1872 0
-902 -1813 1873 0
-902 -1814 1874 0
-902 -1815 1875 0
-902 -1816 1876 0
-902 -1817 1877 0
-902 -1818 1878 0
-902 -1819 1879 0
-902 -1820 0
-1821 1880 0
-1822 1881 0
-1823 1882 0
-1824 1883 0
-1825 1884 0
-1826 1885 0
-1827 1886 0
-1828 1887 0
-1829 1888 0
-1830 1889 0
-1831 1890 0
-1832 1891 0
-1833 1892 0
-1834 1893 0
-1835 1894 0
-1836 1895 0
-1837 1896 0
-1838 1897 0
-1839 1898 0
-1840 1899 0
-1841 1900 0
-1842 1901 0
-1843 1902 0
-1844 1903 0
-1845 1904 0
-1846 1905 0
-1847 1906 0
-1848 1907 0
-1849 1908 0
-1850 1909 0
-1851 1910 0
-1852 1911 0
-1853 1912 0
-1854 1913 0
-1855 1914 0
-1856 1915 0
-1857 1916 0
-1858 1917 0
-1859 1918 0
-1860 1919 0
-1861 1920 0
-1862 1921 0
-1863 1922 0
-1864 1923 0
-1865 1924 0
-1866 1925 0
-1867 1926 0
-1868 1927 0
-1869 1928 0
-1870 1929 0
-1871 1930 0
-1872 1931 0
-1873 1932 0
-1874 1933 0
-1875 1934 0
-1876 1935 0
-1877 1936 0
-1878 1937 0
-1879 1938 0
-904 -1821 1881 0
-904 -1822 1882 0
-904 -1823 1883 0
-904 -1824 1884 0
-904 -1825 1885 0
-904 -1826 1886 0
-904 -1827 1887 0
-904 -1828 1888 0
-904 -1829 1889 0
-904 -1830 1890 0
-904 -1831 1891 0
-904 -1832 1892 0
-904 -1833 1893 0
-904 -1834 1894 0
-904 -1835 1895 0
-904 -1836 1896 0
-904 -1837 1897 0
-904 -1838 1898 0
-904 -1839 1899 0
-904 -1840 1900 0
-904 -1841 1901 0
-904 -1842 1902 0
-904 -1843 1903 0
-904 -1844 1904 0
-904 -1845 1905 0
-904 -1846 1906 0
-904 -1847 1907 0
-904 -1848 1908 0
-904 -1849 1909 0
-904 -1850 1910 0
-904 -1851 1911 0
-904 -1852 1912 0
-904 -1853 1913 0
-904 -1854 1914 0
-904 -1855 1915 0
-904 -1856 1916 0
-904 -1857 1917 0
-904 -1858 1918 0
-904 -1859 1919 0
-904 -1860 1920 0
-904 -1861 1921 0
-904 -1862 1922 0
-904 -1863 1923 0
-904 -1864 1924 0
-904 -1865 1925 0
-904 -1866 1926 0
-904 -1867 1927 0
-904 -1868 1928 0
-904 -1869 1929 0
-904 -1870 1930 0
-904 -1871 1931 0
-904 -1872 1932 0
-904 -1873 1933 0
-904 -1874 1934 0
-904 -1875 1935 0
-904 -1876 1936 0
-904 -1877 1937 0
-904 -1878 1938 0
-904 -1879 0
-1880 1939 0
-1881 1940 0
-1882 1941 0
-1883 1942 0
-1884 1943 0
-1885 1944 0
-1886 1945 0
-1887 1946 0
-1888 1947 0
-1889 1948 0
-1890 1949 0
-1891 1950 0
-1892 1951 0
-1893 1952 0
-1894 1953 0
-1895 1954 0
-1896 1955 0
-1897 1956 0
-1898 1957 0
-1899 1958 0
-1900 1959 0
-1901 1960 0
-1902 1961 0
-1903 1962 0
-1904 1963 0
-1905 1964 0
-1906 1965 0
-1907 1966 0
-1908 1967 0
-1909 1968 0
-1910 1969 0
-1911 1970 0
-1912 1971 0
-1913 1972 0
-1914 1973 0
-1915 1974 0
-1916 1975 0
-1917 1976 0
-1918 1977 0
-1919 1978 0
-1920 1979 0
-1921 1980 0
-1922 1981 0
-1923 1982 0
-1924 1983 0
-1925 1984 0
-1926 1985 0
-1927 1986 0
-1928 1987 0
-1929 1988 0
-1930 1989 0
-1931 1990 0
-1932 1991 0
-1933 1992 0
-1934 1993 0
-1935 1994 0
-1936 1995 0
-1937 1996 0
-1938 1997 0
-906 -1880 1940 0
-906 -1881 1941 0
-906 -1882 1942 0
-906 -1883 1943 0
-906 -1884 1944 0
-906 -1885 1945 0
-906 -1886 1946 0
-906 -1887 1947 0
-906 -1888 1948 0
-906 -1889 1949 0
-906 -1890 1950 0
-906 -1891 1951 0
-906 -1892 1952 0
-906 -1893 1953 0
-906 -1894 1954 0
-906 -1895 1955 0
-906 -1896 1956 0
-906 -1897 1957 0
-906 -1898 1958 0
-906 -1899 1959 0
-906 -1900 1960 0
-906 -1901 1961 0
-906 -1902 1962 0
-906 -1903 1963 0
-906 -1904 1964 0
-906 -1905 1965 0
-906 -1906 1966 0
-906 -1907 1967 0
-906 -1908 1968 0
-906 -1909 1969 0
-906 -1910 1970 0
-906 -1911 1971 0
-906 -1912 1972 0
-906 -1913 1973 0
-906 -1914 1974 0
-906 -1915 1975 0
-906 -1916 1976 0
-906 -1917 1977 0
-906 -1918 1978 0
-906 -1919 1979 0
-906 -1920 1980 0
-906 -1921 1981 0
-906 -1922 1982 0
-906 -1923 1983 0
-906 -1924 1984 0
-906 -1925 1985 0
-906 -1926 1986 0
-906 -1927 1987 0
-906 -1928 1988 0
-906 -1929 1989 0
-906 -1930 1990 0
-906 -1931 1991 0
-906 -1932 1992 0
-906 -1933 1993 0
-906 -1934 1994 0
-906 -1935 1995 0
-906 -1936 1996 0
-906 -1937 1997 0
-906 -1938 0
-1939 1998 0
-1940 1999 0
-1941 2000 0
-1942 2001 0
-1943 2002 0
-1944 2003 0
-1945 2004 0
-1946 2005 0
-1947 2006 0
-1948 2007 0
-1949 2008 0
-1950 2009 0
-1951 2010 0
-1952 2011 0
-1953 2012 0
-1954 2013 0
-1955 2014 0
-1956 2015 0
-1957 2016 0
-1958 2017 0
-1959 2018 0
-1960 2019 0
-1961 2020 0
-1962 2021 0
-1963 2022 0
-1964 2023 0
-1965 2024 0
-1966 2025 0
-1967 2026 0
-1968 2027 0
-1969 2028 0
-1970 2029 0
-1971 2030 0
-1972 2031 0
-1973 2032 0
-1974 2033 0
-1975 2034 0
-1976 2035 0
-1977 2036 0
-1978 2037 0
-1979 2038 0
-1980 2039 0
-1981 2040 0
-1982 2041 0
-1983 2042 0
-1984 2043 0
-1985 2044 0
-1986 2045 0
-1987 2046 0
-1988 2047 0
-1989 2048 0
-1990 2049 0
-1991 2050 0
-1992 2051 0
-1993 2052 0
-1994 2053 0
-1995 2054 0
-1996 2055 0
-1997 2056 0
-908 -1939 1999 0
-908 -1940 2000 0
-908 -1941 2001 0
-908 -1942 2002 0
-908 -1943 2003 0
-908 -1944 2004 0
-908 -1945 2005 0
-908 -1946 2006 0
-908 -1947 2007 0
-908 -1948 2008 0
-908 -1949 2009 0
-908 -1950 2010 0
-908 -1951 2011 0
-908 -1952 2012 0
-908 -1953 2013 0
-908 -1954 2014 0
-908 -1955 2015 0
-908 -1956 2016 0
-908 -1957 2017 0
-908 -1958 2018 0
-908 -1959 2019 0
-908 -1960 2020 0
-908 -1961 2021 0
-908 -1962 2022 0
-908 -1963 2023 0
-908 -1964 2024 0
-908 -1965 2025 0
-908 -1966 2026 0
-908 -1967 2027 0
-908 -1968 2028 0
-908 -1969 2029 0
-908 -1970 2030 0
-908 -1971 2031 0
-908 -1972 2032 0
-908 -1973 2033 0
-908 -1974 2034 0
-908 -1975 2035 0
-908 -1976 2036 0
-908 -1977 2037 0
-908 -1978 2038 0
-908 -1979 2039 0
-908 -1980 2040 0
-908 -1981 2041 0
-908 -1982 2042 0
-908 -1983 2043 0
-908 -1984 2044 0
-908 -1985 2045 0
-908 -1986 2046 0
-908 -1987 2047 0
-908 -1988 2048 0
-908 -1989 2049 0
-908 -1990 2050 0
-908 -1991 2051 0
-908 -1992 2052 0
-908 -1993 2053 0
-908 -1994 2054 0
-908 -1995 2055 0
-908 -1996 2056 0
-908 -1997 0
-1998 2057 0
-1999 2058 0
-2000 2059 0
-2001 2060 0
-2002 2061 0
-2003 2062 0
-2004 2063 0
-2005 2064 0
-2006 2065 0
-2007 2066 0
-2008 2067 0
-2009 2068 0
-2010 2069 0
-2011 2070 0
-2012 2071 0
-2013 2072 0
-2014 2073 0
-2015 2074 0
-2016 2075 0
-2017 2076 0
-2018 2077 0
-2019 2078 0
-2020 2079 0
-2021 2080 0
-2022 2081 0
-2023 2082 0
-2024 2083 0
-2025 2084 0
-2026 2085 0
-2027 2086 0
-2028 2087 0
-2029 2088 0
-2030 2089 0
-2031 2090 0
-2032 2091 0
-2033 2092 0
-2034 2093 0
-2035 2094 0
-2036 2095 0
-2037 2096 0
-2038 2097 0
-2039 2098 0
-2040 2099 0
-2041 2100 0
-2042 2101 0
-2043 2102 0
-2044 2103 0
-2045 2104 0
-2046 2105 0
-2047 2106 0
-2048 2107 0
-2049 2108 0
-2050 2109 0
-2051 2110 0
-2052 2111 0
-2053 2112 0
-2054 2113 0
-2055 2114 0
-2056 2115 0
-910 -1998 2058 0
-910 -1999 2059 0
-910 -2000 2060 0
-910 -2001 2061 0
-910 -2002 2062 0
-910 -2003 2063 0
-910 -2004 2064 0
-910 -2005 2065 0
-910 -2006 2066 0
-910 -2007 2067 0
-910 -2008 2068 0
-910 -2009 2069 0
-910 -2010 2070 0
-910 -2011 2071 0
-910 -2012 2072 0
-910 -2013 2073 0
-910 -2014 2074 0
-910 -2015 2075 0
-910 -2016 2076 0
-910 -2017 2077 0
-910 -2018 2078 0
-910 -2019 2079 0
-910 -2020 2080 0
-910 -2021 2081 0
-910 -2022 2082 0
-910 -2023 2083 0
-910 -2024 2084 0
-910 -2025 2085 0
-910 -2026 2086 0
-910 -2027 2087 0
-910 -2028 2088 0
-910 -2029 2089 0
-910 -2030 2090 0
-910 -2031 2091 0
-910 -2032 2092 0
-910 -2033 2093 0
-910 -2034 2094 0
-910 -2035 2095 0
-910 -2036 2096 0
-910 -2037 2097 0
-910 -2038 2098 0
-910 -2039 2099 0
-910 -2040 2100 0
-910 -2041 2101 0
-910 -2042 2102 0
-910 -2043 2103 0
-910 -2044 2104 0
-910 -2045 2105 0
-910 -2046 2106 0
-910 -2047 2107 0
-910 -2048 2108 0
-910 -2049 2109 0
-910 -2050 2110 0
-910 -2051 2111 0
-910 -2052 2112 0
-910 -2053 2113 0
-910 -2054 2114 0
-910 -2055 2115 0
-910 -2056 0
-2057 2116 0
-2058 2117 0
-2059 2118 0
-2060 2119 0
-2061 2120 0
-2062 2121 0
-2063 2122 0
-2064 2123 0
-2065 2124 0
-2066 2125 0
-2067 2126 0
-2068 2127 0
-2069 2128 0
-2070 2129 0
-2071 2130 0
-2072 2131 0
-2073 2132 0
-2074 2133 0
-2075 2134 0
-2076 2135 0
-2077 2136 0
-2078 2137 0
-2079 2138 0
-2080 2139 0
-2081 2140 0
-2082 2141 0
-2083 2142 0
-2084 2143 0
-2085 2144 0
-2086 2145 0
-2087 2146 0
-2088 2147 0
-2089 2148 0
-2090 2149 0
-2091 2150 0
-2092 2151 0
-2093 2152 0
-2094 2153 0
-2095 2154 0
-2096 2155 0
-2097 2156 0
-2098 2157 0
-2099 2158 0
-2100 2159 0
-2101 2160 0
-2102 2161 0
-2103 2162 0
-2104 2163 0
-2105 2164 0
-2106 2165 0
-2107 2166 0
-2108 2167 0
-2109 2168 0
-2110 2169 0
-2111 2170 0
-2112 2171 0
-2113 2172 0
-2114 2173 0
-2115 2174 0
-912 -2057 2117 0
-912 -2058 2118 0
-912 -2059 2119 0
-912 -2060 2120 0
-912 -2061 2121 0
-912 -2062 2122 0
-912 -2063 2123 0
-912 -2064 2124 0
-912 -2065 2125 0
-912 -2066 2126 0
-912 -2067 2127 0
-912 -2068 2128 0
-912 -2069 2129 0
-912 -2070 2130 0
-912 -2071 2131 0
-912 -2072 2132 0
-912 -2073 2133 0
-912 -2074 2134 0
-912 -2075 2135 0
-912 -2076 2136 0
-912 -2077 2137 0
-912 -2078 2138 0
-912 -2079 2139 0
-912 -2080 2140 0
-912 -2081 2141 0
-912 -2082 2142 0
-912 -2083 2143 0
-912 -2084 2144 0
-912 -2085 2145 0
-912 -2086 2146 0
-912 -2087 2147 0
-912 -2088 2148 0
-912 -2089 2149 0
-912 -2090 2150 0
-912 -2091 2151 0
-912 -2092 2152 0
-912 -2093 2153 0
-912 -2094 2154 0
-912 -2095 2155 0
-912 -2096 2156 0
-912 -2097 2157 0
-912 -2098 2158 0
-912 -2099 2159 0
-912 -2100 2160 0
-912 -2101 2161 0
-912 -2102 2162 0
-912 -2103 2163 0
-912 -2104 2164 0
-912 -2105 2165 0
-912 -2106 2166 0
-912 -2107 2167 0
-912 -2108 2168 0
-912 -2109 2169 0
-912 -2110 2170 0
-912 -2111 2171 0
-912 -2112 2172 0
-912 -2113 2173 0
-912 -2114 2174 0
-912 -2115 0
-2116 2175 0
-2117 2176 0
-2118 2177 0
-2119 2178 0
-2120 2179 0
-2121 2180 0
-2122 2181 0
-2123 2182 0
-2124 2183 0
-2125 2184 0
-2126 2185 0
-2127 2186 0
-2128 2187 0
-2129 2188 0
-2130 2189 0
-2131 2190 0
-2132 2191 0
-2133 2192 0
-2134 2193 0
-2135 2194 0
-2136 2195 0
-2137 2196 0
-2138 2197 0
-2139 2198 0
-2140 2199 0
-2141 2200 0
-2142 2201 0
-2143 2202 0
-2144 2203 0
-2145 2204 0
-2146 2205 0
-2147 2206 0
-2148 2207 0
-2149 2208 0
-2150 2209 0
-2151 2210 0
-2152 2211 0
-2153 2212 0
-2154 2213 0
-2155 2214 0
-2156 2215 0
-2157 2216 0
-2158 2217 0
-2159 2218 0
-2160 2219 0
-2161 2220 0
-2162 2221 0
-2163 2222 0
-2164 2223 0
-2165 2224 0
-2166 2225 0
-2167 2226 0
-2168 2227 0
-2169 2228 0
-2170 2229 0
-2171 2230 0
-2172 2231 0
-2173 2232 0
-2174 2233 0
-914 -2116 2176 0
-914 -2117 2177 0
-914 -2118 2178 0
-914 -2119 2179 0
-914 -2120 2180 0
-914 -2121 2181 0
-914 -2122 2182 0
-914 -2123 2183 0
-914 -2124 2184 0
-914 -2125 2185 0
-914 -2126 2186 0
-914 -2127 2187 0
-914 -2128 2188 0
-914 -2129 2189 0
-914 -2130 2190 0
-914 -2131 2191 0
-914 -2132 2192 0
-914 -2133 2193 0
-914 -2134 2194 0
-914 -2135 2195 0
-914 -2136 2196 0
-914 -2137 2197 0
-914 -2138 2198 0
-914 -2139 2199 0
-914 -2140 2200 0
-914 -2141 2201 0
-914 -2142 2202 0
-914 -2143 2203 0
-914 -2144 2204 0
-914 -2145 2205 0
-914 -2146 2206 0
-914 -2147 2207 0
-914 -2148 2208 0
-914 -2149 2209 0
-914 -2150 2210 0
-914 -2151 2211 0
-914 -2152 2212 0
-914 -2153 2213 0
-914 -2154 2214 0
-914 -2155 2215 0
-914 -2156 2216 0
-914 -2157 2217 0
-914 -2158 2218 0
-914 -2159 2219 0
-914 -2160 2220 0
-914 -2161 2221 0
-914 -2162 2222 0
-914 -2163 2223 0
-914 -2164 2224 0
-914 -2165 2225 0
-914 -2166 2226 0
-914 -2167 2227 0
-914 -2168 2228 0
-914 -2169 2229 0
-914 -2170 2230 0
-914 -2171 2231 0
-914 -2172 2232 0
-914 -2173 2233 0
-914 -2174 0
-2175 2234 0
-2176 2235 0
-2177 2236 0
-2178 2237 0
-2179 2238 0
-2180 2239 0
-2181 2240 0
-2182 2241 0
-2183 2242 0
-2184 2243 0
-2185 2244 0
-2186 2245 0
-2187 2246 0
-2188 2247 0
-2189 2248 0
-2190 2249 0
-2191 2250 0
-2192 2251 0
-2193 2252 0
-2194 2253 0
-2195 2254 0
-2196 2255 0
-2197 2256 0
-2198 2257 0
-2199 2258 0
-2200 2259 0
-2201 2260 0
-2202 2261 0
-2203 2262 0
-2204 2263 0
-2205 2264 0
-2206 2265 0
-2207 2266 0
-2208 2267 0
-2209 2268 0
-2210 2269 0
-2211 2270 0
-2212 2271 0
-2213 2272 0
-2214 2273 0
-2215 2274 0
-2216 2275 0
-2217 2276 0
-2218 2277 0
-2219 2278 0
-2220 2279 0
-2221 2280 0
-2222 2281 0
-2223 2282 0
-2224 2283 0
-2225 2284 0
-2226 2285 0
-2227 2286 0
-2228 2287 0
-2229 2288 0
-2230 2289 0
-2231 2290 0
-2232 2291 0
-2233 2292 0
-916 -2175 2235 0
-916 -2176 2236 0
-916 -2177 2237 0
-916 -2178 2238 0
-916 -2179 2239 0
-916 -2180 2240 0
-916 -2181 2241 0
-916 -2182 2242 0
-916 -2183 2243 0
-916 -2184 2244 0
-916 -2185 2245 0
-916 -2186 2246 0
-916 -2187 2247 0
-916 -2188 2248 0
-916 -2189 2249 0
-916 -2190 2250 0
-916 -2191 2251 0
-916 -2192 2252 0
-916 -2193 2253 0
-916 -2194 2254 0
-916 -2195 2255 0
-916 -2196 2256 0
-916 -2197 2257 0
-916 -2198 2258 0
-916 -2199 2259 0
-916 -2200 2260 0
-916 -2201 2261 0
-916 -2202 2262 0
-916 -2203 2263 0
-916 -2204 2264 0
-916 -2205 2265 0
-916 -2206 2266 0
-916 -2207 2267 0
-916 -2208 2268 0
-916 -2209 2269 0
-916 -2210 2270 0
-916 -2211 2271 0
-916 -2212 2272 0
-916 -2213 2273 0
-916 -2214 2274 0
-916 -2215 2275 0
-916 -2216 2276 0
-916 -2217 2277 0
-916 -2218 2278 0
-916 -2219 2279 0
-916 -2220 2280 0
-916 -2221 2281 0
-916 -2222 2282 0
-916 -2223 2283 0
-916 -2224 2284 0
-916 -2225 2285 0
-916 -2226 2286 0
-916 -2227 2287 0
-916 -2228 2288 0
-916 -2229 2289 0
-916 -2230 2290 0
-916 -2231 2291 0
-916 -2232 2292 0
-916 -2233 0
-2234 2293 0
-2235 2294 0
-2236 2295 0
-2237 2296 0
-2238 2297 0
-2239 2298 0
-2240 2299 0
-2241 2300 0
-2242 2301 0
-2243 2302 0
-2244 2303 0
-2245 2304 0
-2246 2305 0
-2247 2306 0
-2248 2307 0
-2249 2308 0
-2250 2309 0
-2251 2310 0
-2252 2311 0
-2253 2312 0
-2254 2313 0
-2255 2314 0
-2256 2315 0
-2257 2316 0
-2258 2317 0
-2259 2318 0
-2260 2319 0
-2261 2320 0
-2262 2321 0
-2263 2322 0
-2264 2323 0
-2265 2324 0
-2266 2325 0
-2267 2326 0
-2268 2327 0
-2269 2328 0
-2270 2329 0
-2271 2330 0
-2272 2331 0
-2273 2332 0
-2274 2333 0
-2275 2334 0
-2276 2335 0
-2277 2336 0
-2278 2337 0
-2279 2338 0
-2280 2339 0
-2281 2340 0
-2282 2341 0
-2283 2342 0
-2284 2343 0
-2285 2344 0
-2286 2345 0
-2287 2346 0
-2288 2347 0
-2289 2348 0
-2290 2349 0
-2291 2350 0
-2292 2351 0
-918 -2234 2294 0
-918 -2235 2295 0
-918 -2236 2296 0
-918 -2237 2297 0
-918 -2238 2298 0
-918 -2239 2299 0
-918 -2240 2300 0
-918 -2241 2301 0
-918 -2242 2302 0
-918 -2243 2303 0
-918 -2244 2304 0
-918 -2245 2305 0
-918 -2246 2306 0
-918 -2247 2307 0
-918 -2248 2308 0
-918 -2249 2309 0
-918 -2250 2310 0
-918 -2251 2311 0
-918 -2252 2312 0
-918 -2253 2313 0
-918 -2254 2314 0
-918 -2255 2315 0
-918 -2256 2316 0
-918 -2257 2317 0
-918 -2258 2318 0
-918 -2259 2319 0
-918 -2260 2320 0
-918 -2261 2321 0
-918 -2262 2322 0
-918 -2263 2323 0
-918 -2264 2324 0
-918 -2265 2325 0
-918 -2266 2326 0
-918 -2267 2327 0
-918 -2268 2328 0
-918 -2269 2329 0
-918 -2270 2330 0
-918 -2271 2331 0
-918 -2272 2332 0
-918 -2273 2333 0
-918 -2274 2334 0
-918 -2275 2335 0
-918 -2276 2336 0
-918 -2277 2337 0
-918 -2278 2338 0
-918 -2279 2339 0
-918 -2280 2340 0
-918 -2281 2341 0
-918 -2282 2342 0
-918 -2283 2343 0
-918 -2284 2344 0
-918 -2285 2345 0
-918 -2286 2346 0
-918 -2287 2347 0
-918 -2288 2348 0
-918 -2289 2349 0
-918 -2290 2350 0
-918 -2291 2351 0
-918 -2292 0
-2293 2352 0
-2294 2353 0
-2295 2354 0
-2296 2355 0
-2297 2356 0
-2298 2357 0
-2299 2358 0
-2300 2359 0
-2301 2360 0
-2302 2361 0
-2303 2362 0
-2304 2363 0
-2305 2364 0
-2306 2365 0
-2307 2366 0
-2308 2367 0
-2309 2368 0
-2310 2369 0
-2311 2370 0
-2312 2371 0
-2313 2372 0
-2314 2373 0
-2315 2374 0
-2316 2375 0
-2317 2376 0
-2318 2377 0
-2319 2378 0
-2320 2379 0
-2321 2380 0
-2322 2381 0
-2323 2382 0
-2324 2383 0
-2325 2384 0
-2326 2385 0
-2327 2386 0
-2328 2387 0
-2329 2388 0
-2330 2389 0
-2331 2390 0
-2332 2391 0
-2333 2392 0
-2334 2393 0
-2335 2394 0
-2336 2395 0
-2337 2396 0
-2338 2397 0
-2339 2398 0
-2340 2399 0
-2341 2400 0
-2342 2401 0
-2343 2402 0
-2344 2403 0
-2345 2404 0
-2346 2405 0
-2347 2406 0
-2348 2407 0
-2349 2408 0
-2350 2409 0
-2351 2410 0
-920 -2293 2353 0
-920 -2294 2354 0
-920 -2295 2355 0
-920 -2296 2356 0
-920 -2297 2357 0
-920 -2298 2358 0
-920 -2299 2359 0
-920 -2300 2360 0
-920 -2301 2361 0
-920 -2302 2362 0
-920 -2303 2363 0
-920 -2304 2364 0
-920 -2305 2365 0
-920 -2306 2366 0
-920 -2307 2367 0
-920 -2308 2368 0
-920 -2309 2369 0
-920 -2310 2370 0
-920 -2311 2371 0
-920 -2312 2372 0
-920 -2313 2373 0
-920 -2314 2374 0
-920 -2315 2375 0
-920 -2316 2376 0
-920 -2317 2377 0
-920 -2318 2378 0
-920 -2319 2379 0
-920 -2320 2380 0
-920 -2321 2381 0
-920 -2322 2382 0
-920 -2323 2383 0
-920 -2324 2384 0
-920 -2325 2385 0
-920 -2326 2386 0
-920 -2327 2387 0
-920 -2328 2388 0
-920 -2329 2389 0
-920 -2330 2390 0
-920 -2331 2391 0
-920 -2332 2392 0
-920 -2333 2393 0
-920 -2334 2394 0
-920 -2335 2395 0
-920 -2336 2396 0
-920 -2337 2397 0
-920 -2338 2398 0
-920 -2339 2399 0
-920 -2340 2400 0
-920 -2341 2401 0
-920 -2342 2402 0
-920 -2343 2403 0
-920 -2344 2404 0
-920 -2345 2405 0
-920 -2346 2406 0
-920 -2347 2407 0
-920 -2348 2408 0
-920 -2349 2409 0
-920 -2350 2410 0
-920 -2351 0
-2352 2411 0
-2353 2412 0
-2354 2413 0
-2355 2414 0
-2356 2415 0
-2357 2416 0
-2358 2417 0
-2359 2418 0
-2360 2419 0
-2361 2420 0
-2362 2421 0
-2363 2422 0
-2364 2423 0
-2365 2424 0
-2366 2425 0
-2367 2426 0
-2368 2427 0
-2369 2428 0
-2370 2429 0
-2371 2430 0
-2372 2431 0
-2373 2432 0
-2374 2433 0
-2375 2434 0
-2376 2435 0
-2377 2436 0
-2378 2437 0
-2379 2438 0
-2380 2439 0
-2381 2440 0
-2382 2441 0
-2383 2442 0
-2384 2443 0
-2385 2444 0
-2386 2445 0
-2387 2446 0
-2388 2447 0
-2389 2448 0
-2390 2449 0
-2391 2450 0
-2392 2451 0
-2393 2452 0
-2394 2453 0
-2395 2454 0
-2396 2455 0
-2397 2456 0
-2398 2457 0
-2399 2458 0
-2400 2459 0
-2401 2460 0
-2402 2461 0
-2403 2462 0
-2404 2463 0
-2405 2464 0
-2406 2465 0
-2407 2466 0
-2408 2467 0
-2409 2468 0
-2410 2469 0
-922 -2352 2412 0
-922 -2353 2413 0
-922 -2354 2414 0
-922 -2355 2415 0
-922 -2356 2416 0
-922 -2357 2417 0
-922 -2358 2418 0
-922 -2359 2419 0
-922 -2360 2420 0
-922 -2361 2421 0
-922 -2362 2422 0
-922 -2363 2423 0
-922 -2364 2424 0
-922 -2365 2425 0
-922 -2366 2426 0
-922 -2367 2427 0
-922 -2368 2428 0
-922 -2369 2429 0
-922 -2370 2430 0
-922 -2371 2431 0
-922 -2372 2432 0
-922 -2373 2433 0
-922 -2374 2434 0
-922 -2375 2435 0
-922 -2376 2436 0
-922 -2377 2437 0
-922 -2378 2438 0
-922 -2379 2439 0
-922 -2380 2440 0
-922 -2381 2441 0
-922 -2382 2442 0
-922 -2383 2443 0
-922 -2384 2444 0
-922 -2385 2445 0
-922 -2386 2446 0
-922 -2387 2447 0
-922 -2388 2448 0
-922 -2389 2449 0
-922 -2390 2450 0
-922 -2391 2451 0
-922 -2392 2452 0
-922 -2393 2453 0
-922 -2394 2454 0
-922 -2395 2455 0
-922 -2396 2456 0
-922 -2397 2457 0
-922 -2398 2458 0
-922 -2399 2459 0
-922 -2400 2460 0
-922 -2401 2461 0
-922 -2402 2462 0
-922 -2403 2463 0
-922 -2404 2464 0
-922 -2405 2465 0
-922 -2406 2466 0
-922 -2407 2467 0
-922 -2408 2468 0
-922 -2409 2469 0
-922 -2410 0
-2411 2470 0
-2412 2471 0
-2413 2472 0
-2414 2473 0
-2415 2474 0
-2416 2475 0
-2417 2476 0
-2418 2477 0
-2419 2478 0
-2420 2479 0
-2421 2480 0
-2422 2481 0
-2423 2482 0
-2424 2483 0
-2425 2484 0
-2426 2485 0
-2427 2486 0
-2428 2487 0
-2429 2488 0
-2430 2489 0
-2431 2490 0
-2432 2491 0
-2433 2492 0
-2434 2493 0
-2435 2494 0
-2436 2495 0
-2437 2496 0
-2438 2497 0
-2439 2498 0
-2440 2499 0
-2441 2500 0
-2442 2501 0
-2443 2502 0
-2444 2503 0
-2445 2504 0
-2446 2505 0
-2447 2506 0
-2448 2507 0
-2449 2508 0
-2450 2509 0
-2451 2510 0
-2452 2511 0
-2453 2512 0
-2454 2513 0
-2455 2514 0
-2456 2515 0
-2457 2516 0
-2458 2517 0
-2459 2518 0
-2460 2519 0
-2461 2520 0
-2462 2521 0
-2463 2522 0
-2464 2523 0
-2465 2524 0
-2466 2525 0
-2467 2526 0
-2468 2527 0
-2469 2528 0
-924 -2411 2471 0
-924 -2412 2472 0
-924 -2413 2473 0
-924 -2414 2474 0
-924 -2415 2475 0
-924 -2416 2476 0
-924 -2417 2477 0
-924 -2418 2478 0
-924 -2419 2479 0
-924 -2420 2480 0
-924 -2421 2481 0
-924 -2422 2482 0
-924 -2423 2483 0
-924 -2424 2484 0
-924 -2425 2485 0
-924 -2426 2486 0
-924 -2427 2487 0
-924 -2428 2488 0
-924 -2429 2489 0
-924 -2430 2490 0
-924 -2431 2491 0
-924 -2432 2492 0
-924 -2433 2493 0
-924 -2434 2494 0
-924 -2435 2495 0
-924 -2436 2496 0
-924 -2437 2497 0
-924 -2438 2498 0
-924 -2439 2499 0
-924 -2440 2500 0
-924 -2441 2501 0
-924 -2442 2502 0
-924 -2443 2503 0
-924 -2444 2504 0
-924 -2445 2505 0
-924 -2446 2506 0
-924 -2447 2507 0
-924 -2448 2508 0
-924 -2449 2509 0
-924 -2450 2510 0
-924 -2451 2511 0
-924 -2452 2512 0
-924 -2453 2513 0
-924 -2454 2514 0
-924 -2455 2515 0
-924 -2456 2516 0
-924 -2457 2517 0
-924 -2458 2518 0
-924 -2459 2519 0
-924 -2460 2520 0
-924 -2461 2521 0
-924 -2462 2522 0
-924 -2463 2523 0
-924 -2464 2524 0
-924 -2465 2525 0
-924 -2466 2526 0
-924 -2467 2527 0
-924 -2468 2528 0
-924 -2469 0
-2470 2529 0
-2471 2530 0
-2472 2531 0
-2473 2532 0
-2474 2533 0
-2475 2534 0
-2476 2535 0
-2477 2536 0
-2478 2537 0
-2479 2538 0
-2480 2539 0
-2481 2540 0
-2482 2541 0
-2483 2542 0
-2484 2543 0
-2485 2544 0
-2486 2545 0
-2487 2546 0
-2488 2547 0
-2489 2548 0
-2490 2549 0
-2491 2550 0
-2492 2551 0
-2493 2552 0
-2494 2553 0
-2495 2554 0
-2496 2555 0
-2497 2556 0
-2498 2557 0
-2499 2558 0
-2500 2559 0
-2501 2560 0
-2502 2561 0
-2503 2562 0
-2504 2563 0
-2505 2564 0
-2506 2565 0
-2507 2566 0
-2508 2567 0
-2509 2568 0
-2510 2569 0
-2511 2570 0
-2512 2571 0
-2513 2572 0
-2514 2573 0
-2515 2574 0
-2516 2575 0
-2517 2576 0
-2518 2577 0
-2519 2578 0
-2520 2579 0
-2521 2580 0
-2522 2581 0
-2523 2582 0
-2524 2583 0
-2525 2584 0
-2526 2585 0
-2527 2586 0
-2528 2587 0
-926 -2470 2530 0
-926 -2471 2531 0
-926 -2472 2532 0
-926 -2473 2533 0
-926 -2474 2534 0
-926 -2475 2535 0
-926 -2476 2536 0
-926 -2477 2537 0
-926 -2478 2538 0
-926 -2479 2539 0
-926 -2480 2540 0
-926 -2481 2541 0
-926 -2482 2542 0
-926 -2483 2543 0
-926 -2484 2544 0
-926 -2485 2545 0
-926 -2486 2546 0
-926 -2487 2547 0
-926 -2488 2548 0
-926 -2489 2549 0
-926 -2490 2550 0
-926 -2491 2551 0
-926 -2492 2552 0
-926 -2493 2553 0
-926 -2494 2554 0
-926 -2495 2555 0
-926 -2496 2556 0
-926 -2497 2557 0
-926 -2498 2558 0
-926 -2499 2559 0
-926 -2500 2560 0
-926 -2501 2561 0
-926 -2502 2562 0
-926 -2503 2563 0
-926 -2504 2564 0
-926 -2505 2565 0
-926 -2506 2566 0
-926 -2507 2567 0
-926 -2508 2568 0
-926 -2509 2569 0
-926 -2510 2570 0
-926 -2511 2571 0
-926 -2512 2572 0
-926 -2513 2573 0
-926 -2514 2574 0
-926 -2515 2575 0
-926 -2516 2576 0
-926 -2517 2577 0
-926 -2518 2578 0
-926 -2519 2579 0
-926 -2520 2580 0
-926 -2521 2581 0
-926 -2522 2582 0
-926 -2523 2583 0
-926 -2524 2584 0
-926 -2525 2585 0
-926 -2526 2586 0
-926 -2527 2587 0
-926 -2528 0
-2529 2588 0
-2530 2589 0
-2531 2590 0
-2532 2591 0
-2533 2592 0
-2534 2593 0
-2535 2594 0
-2536 2595 0
-2537 2596 0
-2538 2597 0
-2539 2598 0
-2540 2599 0
-2541 2600 0
-2542 2601 0
-2543 2602 0
-2544 2603 0
-2545 2604 0
-2546 2605 0
-2547 2606 0
-2548 2607 0
-2549 2608 0
-2550 2609 0
-2551 2610 0
-2552 2611 0
-2553 2612 0
-2554 2613 0
-2555 2614 0
-2556 2615 0
-2557 2616 0
-2558 2617 0
-2559 2618 0
-2560 2619 0
-2561 2620 0
-2562 2621 0
-2563 2622 0
-2564 2623 0
-2565 2624 0
-2566 2625 0
-2567 2626 0
-2568 2627 0
-2569 2628 0
-2570 2629 0
-2571 2630 0
-2572 2631 0
-2573 2632 0
-2574 2633 0
-2575 2634 0
-2576 2635 0
-2577 2636 0
-2578 2637 0
-2579 2638 0
-2580 2639 0
-2581 2640 0
-2582 2641 0
-2583 2642 0
-2584 2643 0
-2585 2644 0
-2586 2645 0
-2587 2646 0
-928 -2529 2589 0
-928 -2530 2590 0
-928 -2531 2591 0
-928 -2532 2592 0
-928 -2533 2593 0
-928 -2534 2594 0
-928 -2535 2595 0
-928 -2536 2596 0
-928 -2537 2597 0
-928 -2538 2598 0
-928 -2539 2599 0
-928 -2540 2600 0
-928 -2541 2601 0
-928 -2542 2602 0
-928 -2543 2603 0
-928 -2544 2604 0
-928 -2545 2605 0
-928 -2546 2606 0
-928 -2547 2607 0
-928 -2548 2608 0
-928 -2549 2609 0
-928 -2550 2610 0
-928 -2551 2611 0
-928 -2552 2612 0
-928 -2553 2613 0
-928 -2554 2614 0
-928 -2555 2615 0
-928 -2556 2616 0
-928 -2557 2617 0
-928 -2558 2618 0
-928 -2559 2619 0
-928 -2560 2620 0
-928 -2561 2621 0
-928 -2562 2622 0
-928 -2563 2623 0
-928 -2564 2624 0
-928 -2565 2625 0
-928 -2566 2626 0
-928 -2567 2627 0
-928 -2568 2628 0
-928 -2569 2629 0
-928 -2570 2630 0
-928 -2571 2631 0
-928 -2572 2632 0
-928 -2573 2633 0
-928 -2574 2634 0
-928 -2575 2635 0
-928 -2576 2636 0
-928 -2577 2637 0
-928 -2578 2638 0
-928 -2579 2639 0
-928 -2580 2640 0
-928 -2581 2641 0
-928 -2582 2642 0
-928 -2583 2643 0
-928 -2584 2644 0
-928 -2585 2645 0
-928 -2586 2646 0
-928 -2587 0
-2588 2647 0
-2589 2648 0
-2590 2649 0
-2591 2650 0
-2592 2651 0
-2593 2652 0
-2594 2653 0
-2595 2654 0
-2596 2655 0
-2597 2656 0
-2598 2657 0
-2599 2658 0
-2600 2659 0
-2601 2660 0
-2602 2661 0
-2603 2662 0
-2604 2663 0
-2605 2664 0
-2606 2665 0
-2607 2666 0
-2608 2667 0
-2609 2668 0
-2610 2669 0
-2611 2670 0
-2612 2671 0
-2613 2672 0
-2614 2673 0
-2615 2674 0
-2616 2675 0
-2617 2676 0
-2618 2677 0
-2619 2678 0
-2620 2679 0
-2621 2680 0
-2622 2681 0
-2623 2682 0
-2624 2683 0
-2625 2684 0
-2626 2685 0
-2627 2686 0
-2628 2687 0
-2629 2688 0
-2630 2689 0
-2631 2690 0
-2632 2691 0
-2633 2692 0
-2634 2693 0
-2635 2694 0
-2636 2695 0
-2637 2696 0
-2638 2697 0
-2639 2698 0
-2640 2699 0
-2641 2700 0
-2642 2701 0
-2643 2702 0
-2644 2703 0
-2645 2704 0
-2646 2705 0
-930 -2588 2648 0
-930 -2589 2649 0
-930 -2590 2650 0
-930 -2591 2651 0
-930 -2592 2652 0
-930 -2593 2653 0
-930 -2594 2654 0
-930 -2595 2655 0
-930 -2596 2656 0
-930 -2597 2657 0
-930 -2598 2658 0
-930 -2599 2659 0
-930 -2600 2660 0
-930 -2601 2661 0
-930 -2602 2662 0
-930 -2603 2663 0
-930 -2604 2664 0
-930 -2605 2665 0
-930 -2606 2666 0
-930 -2607 2667 0
-930 -2608 2668 0
-930 -2609 2669 0
-930 -2610 2670 0
-930 -2611 2671 0
-930 -2612 2672 0
-930 -2613 2673 0
-930 -2614 2674 0
-930 -2615 2675 0
-930 -2616 2676 0
-930 -2617 2677 0
-930 -2618 2678 0
-930 -2619 2679 0
-930 -2620 2680 0
-930 -2621 2681 0
-930 -2622 2682 0
-930 -2623 2683 0
-930 -2624 2684 0
-930 -2625 2685 0
-930 -2626 2686 0
-930 -2627 2687 0
-930 -2628 2688 0
-930 -2629 2689 0
-930 -2630 2690 0
-930 -2631 2691 0
-930 -2632 2692 0
-930 -2633 2693 0
-930 -2634 2694 0
-930 -2635 2695 0
-930 -2636 2696 0
-930 -2637 2697 0
-930 -2638 2698 0
-930 -2639 2699 0
-930 -2640 2700 0
-930 -2641 2701 0
-930 -2642 2702 0
-930 -2643 2703 0
-930 -2644 2704 0
-930 -2645 2705 0
-930 -2646 0
-2647 2706 0
-2648 2707 0
-2649 2708 0
-2650 2709 0
-2651 2710 0
-2652 2711 0
-2653 2712 0
-2654 2713 0
-2655 2714 0
-2656 2715 0
-2657 2716 0
-2658 2717 0
-2659 2718 0
-2660 2719 0
-2661 2720 0
-2662 2721 0
-2663 2722 0
-2664 2723 0
-2665 2724 0
-2666 2725 0
-2667 2726 0
-2668 2727 0
-2669 2728 0
-2670 2729 0
-2671 2730 0
-2672 2731 0
-2673 2732 0
-2674 2733 0
-2675 2734 0
-2676 2735 0
-2677 2736 0
-2678 2737 0
-2679 2738 0
-2680 2739 0
-2681 2740 0
-2682 2741 0
-2683 2742 0
-2684 2743 0
-2685 2744 0
-2686 2745 0
-2687 2746 0
-2688 2747 0
-2689 2748 0
-2690 2749 0
-2691 2750 0
-2692 2751 0
-2693 2752 0
-2694 2753 0
-2695 2754 0
-2696 2755 0
-2697 2756 0
-2698 2757 0
-2699 2758 0
-2700 2759 0
-2701 2760 0
-2702 2761 0
-2703 2762 0
-2704 2763 0
-2705 2764 0
-932 -2647 2707 0
-932 -2648 2708 0
-932 -2649 2709 0
-932 -2650 2710 0
-932 -2651 2711 0
-932 -2652 2712 0
-932 -2653 2713 0
-932 -2654 2714 0
-932 -2655 2715 0
-932 -2656 2716 0
-932 -2657 2717 0
-932 -2658 2718 0
-932 -2659 2719 0
-932 -2660 2720 0
-932 -2661 2721 0
-932 -2662 2722 0
-932 -2663 2723 0
-932 -2664 2724 0
-932 -2665 2725 0
-932 -2666 2726 0
-932 -2667 2727 0
-932 -2668 2728 0
-932 -2669 2729 0
-932 -2670 2730 0
-932 -2671 2731 0
-932 -2672 2732 0
-932 -2673 2733 0
-932 -2674 2734 0
-932 -2675 2735 0
-932 -2676 2736 0
-932 -2677 2737 0
-932 -2678 2738 0
-932 -2679 2739 0
-932 -2680 2740 0
-932 -2681 2741 0
-932 -2682 2742 0
-932 -2683 2743 0
-932 -2684 2744 0
-932 -2685 2745 0
-932 -2686 2746 0
-932 -2687 2747 0
-932 -2688 2748 0
-932 -2689 2749 0
-932 -2690 2750 0
-932 -2691 2751 0
-932 -2692 2752 0
-932 -2693 2753 0
-932 -2694 2754 0
-932 -2695 2755 0
-932 -2696 2756 0
-932 -2697 2757 0
-932 -2698 2758 0
-932 -2699 2759 0
-932 -2700 2760 0
-932 -2701 2761 0
-932 -2702 2762 0
-932 -2703 2763 0
-932 -2704 2764 0
-932 -2705 0
-2706 2765 0
-2707 2766 0
-2708 2767 0
-2709 2768 0
-2710 2769 0
-2711 2770 0
-2712 2771 0
-2713 2772 0
-2714 2773 0
-2715 2774 0
-2716 2775 0
-2717 2776 0
-2718 2777 0
-2719 2778 0
-2720 2779 0
-2721 2780 0
-2722 2781 0
-2723 2782 0
-2724 2783 0
-2725 2784 0
-2726 2785 0
-2727 2786 0
-2728 2787 0
-2729 2788 0
-2730 2789 0
-2731 2790 0
-2732 2791 0
-2733 2792 0
-2734 2793 0
-2735 2794 0
-2736 2795 0
-2737 2796 0
-2738 2797 0
-2739 2798 0
-2740 2799 0
-2741 2800 0
-2742 2801 0
-2743 2802 0
-2744 2803 0
-2745 2804 0
-2746 2805 0
-2747 2806 0
-2748 2807 0
-2749 2808 0
-2750 2809 0
-2751 2810 0
-2752 2811 0
-2753 2812 0
-2754 2813 0
-2755 2814 0
-2756 2815 0
-2757 2816 0
-2758 2817 0
-2759 2818 0
-2760 2819 0
-2761 2820 0
-2762 2821 0
-2763 2822 0
-2764 2823 0
-934 -2706 2766 0
-934 -2707 2767 0
-934 -2708 2768 0
-934 -2709 2769 0
-934 -2710 2770 0
-934 -2711 2771 0
-934 -2712 2772 0
-934 -2713 2773 0
-934 -2714 2774 0
-934 -2715 2775 0
-934 -2716 2776 0
-934 -2717 2777 0
-934 -2718 2778 0
-934 -2719 2779 0
-934 -2720 2780 0
-934 -2721 2781 0
-934 -2722 2782 0
-934 -2723 2783 0
-934 -2724 2784 0
-934 -2725 2785 0
-934 -2726 2786 0
-934 -2727 2787 0
-934 -2728 2788 0
-934 -2729 2789 0
-934 -2730 2790 0
-934 -2731 2791 0
-934 -2732 2792 0
-934 -2733 2793 0
-934 -2734 2794 0
-934 -2735 2795 0
-934 -2736 2796 0
-934 -2737 2797 0
-934 -2738 2798 0
-934 -2739 2799 0
-934 -2740 2800 0
-934 -2741 2801 0
-934 -2742 2802 0
-934 -2743 2803 0
-934 -2744 2804 0
-934 -2745 2805 0
-934 -2746 2806 0
-934 -2747 2807 0
-934 -2748 2808 0
-934 -2749 2809 0
-934 -2750 2810 0
-934 -2751 2811 0
-934 -2752 2812 0
-934 -2753 2813 0
-934 -2754 2814 0
-934 -2755 2815 0
-934 -2756 2816 0
-934 -2757 2817 0
-934 -2758 2818 0
-934 -2759 2819 0
-934 -2760 2820 0
-934 -2761 2821 0
-934 -2762 2822 0
-934 -2763 2823 0
-934 -2764 0
-2765 2824 0
-2766 2825 0
-2767 2826 0
-2768 2827 0
-2769 2828 0
-2770 2829 0
-2771 2830 0
-2772 2831 0
-2773 2832 0
-2774 2833 0
-2775 2834 0
-2776 2835 0
-2777 2836 0
-2778 2837 0
-2779 2838 0
-2780 2839 0
-2781 2840 0
-2782 2841 0
-2783 2842 0
-2784 2843 0
-2785 2844 0
-2786 2845 0
-2787 2846 0
-2788 2847 0
-2789 2848 0
-2790 2849 0
-2791 2850 0
-2792 2851 0
-2793 2852 0
-2794 2853 0
-2795 2854 0
-2796 2855 0
-2797 2856 0
-2798 2857 0
-2799 2858 0
-2800 2859 0
-2801 2860 0
-2802 2861 0
-2803 2862 0
-2804 2863 0
-2805 2864 0
-2806 2865 0
-2807 2866 0
-2808 2867 0
-2809 2868 0
-2810 2869 0
-2811 2870 0
-2812 2871 0
-2813 2872 0
-2814 2873 0
-2815 2874 0
-2816 2875 0
-2817 2876 0
-2818 2877 0
-2819 2878 0
-2820 2879 0
-2821 2880 0
-2822 2881 0
-2823 2882 0
-936 -2765 2825 0
-936 -2766 2826 0
-936 -2767 2827 0
-936 -2768 2828 0
-936 -2769 2829 0
-936 -2770 2830 0
-936 -2771 2831 0
-936 -2772 2832 0
-936 -2773 2833 0
-936 -2774 2834 0
-936 -2775 2835 0
-936 -2776 2836 0
-936 -2777 2837 0
-936 -2778 2838 0
-936 -2779 2839 0
-936 -2780 2840 0
-936 -2781 2841 0
-936 -2782 2842 0
-936 -2783 2843 0
-936 -2784 2844 0
-936 -2785 2845 0
-936 -2786 2846 0
-936 -2787 2847 0
-936 -2788 2848 0
-936 -2789 2849 0
-936 -2790 2850 0
-936 -2791 2851 0
-936 -2792 2852 0
-936 -2793 2853 0
-936 -2794 2854 0
-936 -2795 2855 0
-936 -2796 2856 0
-936 -2797 2857 0
-936 -2798 2858 0
-936 -2799 2859 0
-936 -2800 2860 0
-936 -2801 2861 0
-936 -2802 2862 0
-936 -2803 2863 0
-936 -2804 2864 0
-936 -2805 2865 0
-936 -2806 2866 0
-936 -2807 2867 0
-936 -2808 2868 0
-936 -2809 2869 0
-936 -2810 2870 0
-936 -2811 2871 0
-936 -2812 2872 0
-936 -2813 2873 0
-936 -2814 2874 0
-936 -2815 2875 0
-936 -2816 2876 0
-936 -2817 2877 0
-936 -2818 2878 0
-936 -2819 2879 0
-936 -2820 2880 0
-936 -2821 2881 0
-936 -2822 2882 0
-936 -2823 0
-2824 2883 0
-2825 2884 0
-2826 2885 0
-2827 2886 0
-2828 2887 0
-2829 2888 0
-2830 2889 0
-2831 2890 0
-2832 2891 0
-2833 2892 0
-2834 2893 0
-2835 2894 0
-2836 2895 0
-2837 2896 0
-2838 2897 0
-2839 2898 0
-2840 2899 0
-2841 2900 0
-2842 2901 0
-2843 2902 0
-2844 2903 0
-2845 2904 0
-2846 2905 0
-2847 2906 0
-2848 2907 0
-2849 2908 0
-2850 2909 0
-2851 2910 0
-2852 2911 0
-2853 2912 0
-2854 2913 0
-2855 2914 0
-2856 2915 0
-2857 2916 0
-2858 2917 0
-2859 2918 0
-2860 2919 0
-2861 2920 0
-2862 2921 0
-2863 2922 0
-2864 2923 0
-2865 2924 0
-2866 2925 0
-2867 2926 0
-2868 2927 0
-2869 2928 0
-2870 2929 0
-2871 2930 0
-2872 2931 0
-2873 2932 0
-2874 2933 0
-2875 2934 0
-2876 2935 0
-2877 2936 0
-2878 2937 0
-2879 2938 0
-2880 2939 0
-2881 2940 0
-2882 2941 0
-938 -2824 2884 0
-938 -2825 2885 0
-938 -2826 2886 0
-938 -2827 2887 0
-938 -2828 2888 0
-938 -2829 2889 0
-938 -2830 2890 0
-938 -2831 2891 0
-938 -2832 2892 0
-938 -2833 2893 0
-938 -2834 2894 0
-938 -2835 2895 0
-938 -2836 2896 0
-938 -2837 2897 0
-938 -2838 2898 0
-938 -2839 2899 0
-938 -2840 2900 0
-938 -2841 2901 0
-938 -2842 2902 0
-938 -2843 2903 0
-938 -2844 2904 0
-938 -2845 2905 0
-938 -2846 2906 0
-938 -2847 2907 0
-938 -2848 2908 0
-938 -2849 2909 0
-938 -2850 2910 0
-938 -2851 2911 0
-938 -2852 2912 0
-938 -2853 2913 0
-938 -2854 2914 0
-938 -2855 2915 0
-938 -2856 2916 0
-938 -2857 2917 0
-938 -2858 2918 0
-938 -2859 2919 0
-938 -2860 2920 0
-938 -2861 2921 0
-938 -2862 2922 0
-938 -2863 2923 0
-938 -2864 2924 0
-938 -2865 2925 0
-938 -2866 2926 0
-938 -2867 2927 0
-938 -2868 2928 0
-938 -2869 2929 0
-938 -2870 2930 0
-938 -2871 2931 0
-938 -2872 2932 0
-938 -2873 2933 0
-938 -2874 2934 0
-938 -2875 2935 0
-938 -2876 2936 0
-938 -2877 2937 0
-938 -2878 2938 0
-938 -2879 2939 0
-938 -2880 2940 0
-938 -2881 2941 0
-938 -2882 0
-2883 2942 0
-2884 2943 0
-2885 2944 0
-2886 2945 0
-2887 2946 0
-2888 2947 0
-2889 2948 0
-2890 2949 0
-2891 2950 0
-2892 2951 0
-2893 2952 0
-2894 2953 0
-2895 2954 0
-2896 2955 0
-2897 2956 0
-2898 2957 0
-2899 2958 0
-2900 2959 0
-2901 2960 0
-2902 2961 0
-2903 2962 0
-2904 2963 0
-2905 2964 0
-2906 2965 0
-2907 2966 0
-2908 2967 0
-2909 2968 0
-2910 2969 0
-2911 2970 0
-2912 2971 0
-2913 2972 0
-2914 2973 0
-2915 2974 0
-2916 2975 0
-2917 2976 0
-2918 2977 0
-2919 2978 0
-2920 2979 0
-2921 2980 0
-2922 2981 0
-2923 2982 0
-2924 2983 0
-2925 2984 0
-2926 2985 0
-2927 2986 0
-2928 2987 0
-2929 2988 0
-2930 2989 0
-2931 2990 0
-2932 2991 0
-2933 2992 0
-2934 2993 0
-2935 2994 0
-2936 2995 0
-2937 2996 0
-2938 2997 0
-2939 2998 0
-2940 2999 0
-2941 3000 0
-940 -2883 2943 0
-940 -2884 2944 0
-940 -2885 2945 0
-940 -2886 2946 0
-940 -2887 2947 0
-940 -2888 2948 0
-940 -2889 2949 0
-940 -2890 2950 0
-940 -2891 2951 0
-940 -2892 2952 0
-940 -2893 2953 0
-940 -2894 2954 0
-940 -2895 2955 0
-940 -2896 2956 0
-940 -2897 2957 0
-940 -2898 2958 0
-940 -2899 2959 0
-940 -2900 2960 0
-940 -2901 2961 0
-940 -2902 2962 0
-940 -2903 2963 0
-940 -2904 2964 0
-940 -2905 2965 0
-940 -2906 2966 0
-940 -2907 2967 0
-940 -2908 2968 0
-940 -2909 2969 0
-940 -2910 2970 0
-940 -2911 2971 0
-940 -2912 2972 0
-940 -2913 2973 0
-940 -2914 2974 0
-940 -2915 2975 0
-940 -2916 2976 0
-940 -2917 2977 0
-940 -2918 2978 0
-940 -2919 2979 0
-940 -2920 2980 0
-940 -2921 2981 0
-940 -2922 2982 0
-940 -2923 2983 0
-940 -2924 2984 0
-940 -2925 2985 0
-940 -2926 2986 0
-940 -2927 2987 0
-940 -2928 2988 0
-940 -2929 2989 0
-940 -2930 2990 0
-940 -2931 2991 0
-940 -2932 2992 0
-940 -2933 2993 0
-940 -2934 2994 0
-940 -2935 2995 0
-940 -2936 2996 0
-940 -2937 2997 0
-940 -2938 2998 0
-940 -2939 2999 0
-940 -2940 3000 0
-940 -2941 0
-2942 3001 0
-2943 3002 0
-2944 3003 0
-2945 3004 0
-2946 3005 0
-2947 3006 0
-2948 3007 0
-2949 3008 0
-2950 3009 0
-2951 3010 0
-2952 3011 0
-2953 3012 0
-2954 3013 0
-2955 3014 0
-2956 3015 0
-2957 3016 0
-2958 3017 0
-2959 3018 0
-2960 3019 0
-2961 3020 0
-2962 3021 0
-2963 3022 0
-2964 3023 0
-2965 3024 0
-2966 3025 0
-2967 3026 0
-2968 3027 0
-2969 3028 0
-2970 3029 0
-2971 3030 0
-2972 3031 0
-2973 3032 0
-2974 3033 0
-2975 3034 0
-2976 3035 0
-2977 3036 0
-2978 3037 0
-2979 3038 0
-2980 3039 0
-2981 3040 0
-2982 3041 0
-2983 3042 0
-2984 3043 0
-2985 3044 0
-2986 3045 0
-2987 3046 0
-2988 3047 0
-2989 3048 0
-2990 3049 0
-2991 3050 0
-2992 3051 0
-2993 3052 0
-2994 3053 0
-2995 3054 0
-2996 3055 0
-2997 3056 0
-2998 3057 0
-2999 3058 0
-3000 3059 0
-942 -2942 3002 0
-942 -2943 3003 0
-942 -2944 3004 0
-942 -2945 3005 0
-942 -2946 3006 0
-942 -2947 3007 0
-942 -2948 3008 0
-942 -2949 3009 0
-942 -2950 3010 0
-942 -2951 3011 0
-942 -2952 3012 0
-942 -2953 3013 0
-942 -2954 3014 0
-942 -2955 3015 0
-942 -2956 3016 0
-942 -2957 3017 0
-942 -2958 3018 0
-942 -2959 3019 0
-942 -2960 3020 0
-942 -2961 3021 0
-942 -2962 3022 0
-942 -2963 3023 0
-942 -2964 3024 0
-942 -2965 3025 0
-942 -2966 3026 0
-942 -2967 3027 0
-942 -2968 3028 0
-942 -2969 3029 0
-942 -2970 3030 0
-942 -2971 3031 0
-942 -2972 3032 0
-942 -2973 3033 0
-942 -2974 3034 0
-942 -2975 3035 0
-942 -2976 3036 0
-942 -2977 3037 0
-942 -2978 3038 0
-942 -2979 3039 0
-942 -2980 3040 0
-942 -2981 3041 0
-942 -2982 3042 0
-942 -2983 3043 0
-942 -2984 3044 0
-942 -2985 3045 0
-942 -2986 3046 0
-942 -2987 3047 0
-942 -2988 3048 0
-942 -2989 3049 0
-942 -2990 3050 0
-942 -2991 3051 0
-942 -2992 3052 0
-942 -2993 3053 0
-942 -2994 3054 0
-942 -2995 3055 0
-942 -2996 3056 0
-942 -2997 3057 0
-942 -2998 3058 0
-942 -2999 3059 0
-942 -3000 0
-3001 3060 0
-3002 3061 0
-3003 3062 0
-3004 3063 0
-3005 3064 0
-3006 3065 0
-3007 3066 0
-3008 3067 0
-3009 3068 0
-3010 3069 0
-3011 3070 0
-3012 3071 0
-3013 3072 0
-3014 3073 0
-3015 3074 0
-3016 3075 0
-3017 3076 0
-3018 3077 0
-3019 3078 0
-3020 3079 0
-3021 3080 0
-3022 3081 0
-3023 3082 0
-3024 3083 0
-3025 3084 0
-3026 3085 0
-3027 3086 0
-3028 3087 0
-3029 3088 0
-3030 3089 0
-3031 3090 0
-3032 3091 0
-3033 3092 0
-3034 3093 0
-3035 3094 0
-3036 3095 0
-3037 3096 0
-3038 3097 0
-3039 3098 0
-3040 3099 0
-3041 3100 0
-3042 3101 0
-3043 3102 0
-3044 3103 0
-3045 3104 0
-3046 3105 0
-3047 3106 0
-3048 3107 0
-3049 3108 0
-3050 3109 0
-3051 3110 0
-3052 3111 0
-3053 3112 0
-3054 3113 0
-3055 3114 0
-3056 3115 0
-3057 3116 0
-3058 3117 0
-3059 3118 0
-944 -3001 3061 0
-944 -3002 3062 0
-944 -3003 3063 0
-944 -3004 3064 0
-944 -3005 3065 0
-944 -3006 3066 0
-944 -3007 3067 0
-944 -3008 3068 0
-944 -3009 3069 0
-944 -3010 3070 0
-944 -3011 3071 0
-944 -3012 3072 0
-944 -3013 3073 0
-944 -3014 3074 0
-944 -3015 3075 0
-944 -3016 3076 0
-944 -3017 3077 0
-944 -3018 3078 0
-944 -3019 3079 0
-944 -3020 3080 0
-944 -3021 3081 0
-944 -3022 3082 0
-944 -3023 3083 0
-944 -3024 3084 0
-944 -3025 3085 0
-944 -3026 3086 0
-944 -3027 3087 0
-944 -3028 3088 0
-944 -3029 3089 0
-944 -3030 3090 0
-944 -3031 3091 0
-944 -3032 3092 0
-944 -3033 3093 0
-944 -3034 3094 0
-944 -3035 3095 0
-944 -3036 3096 0
-944 -3037 3097 0
-944 -3038 3098 0
-944 -3039 3099 0
-944 -3040 3100 0
-944 -3041 3101 0
-944 -3042 3102 0
-944 -3043 3103 0
-944 -3044 3104 0
-944 -3045 3105 0
-944 -3046 3106 0
-944 -3047 3107 0
-944 -3048 3108 0
-944 -3049 3109 0
-944 -3050 3110 0
-944 -3051 3111 0
-944 -3052 3112 0
-944 -3053 3113 0
-944 -3054 3114 0
-944 -3055 3115 0
-944 -3056 3116 0
-944 -3057 3117 0
-944 -3058 3118 0
-944 -3059 0
-3060 3119 0
-3061 3120 0
-3062 3121 0
-3063 3122 0
-3064 3123 0
-3065 3124 0
-3066 3125 0
-3067 3126 0
-3068 3127 0
-3069 3128 0
-3070 3129 0
-3071 3130 0
-3072 3131 0
-3073 3132 0
-3074 3133 0
-3075 3134 0
-3076 3135 0
-3077 3136 0
-3078 3137 0
-3079 3138 0
-3080 3139 0
-3081 3140 0
-3082 3141 0
-3083 3142 0
-3084 3143 0
-3085 3144 0
-3086 3145 0
-3087 3146 0
-3088 3147 0
-3089 3148 0
-3090 3149 0
-3091 3150 0
-3092 3151 0
-3093 3152 0
-3094 3153 0
-3095 3154 0
-3096 3155 0
-3097 3156 0
-3098 3157 0
-3099 3158 0
-3100 3159 0
-3101 3160 0
-3102 3161 0
-3103 3162 0
-3104 3163 0
-3105 3164 0
-3106 3165 0
-3107 3166 0
-3108 3167 0
-3109 3168 0
-3110 3169 0
-3111 3170 0
-3112 3171 0
-3113 3172 0
-3114 3173 0
-3115 3174 0
-3116 3175 0
-3117 3176 0
-3118 3177 0
-946 -3060 3120 0
-946 -3061 3121 0
-946 -3062 3122 0
-946 -3063 3123 0
-946 -3064 3124 0
-946 -3065 3125 0
-946 -3066 3126 0
-946 -3067 3127 0
-946 -3068 3128 0
-946 -3069 3129 0
-946 -3070 3130 0
-946 -3071 3131 0
-946 -3072 3132 0
-946 -3073 3133 0
-946 -3074 3134 0
-946 -3075 3135 0
-946 -3076 3136 0
-946 -3077 3137 0
-946 -3078 3138 0
-946 -3079 3139 0
-946 -3080 3140 0
-946 -3081 3141 0
-946 -3082 3142 0
-946 -3083 3143 0
-946 -3084 3144 0
-946 -3085 3145 0
-946 -3086 3146 0
-946 -3087 3147 0
-946 -3088 3148 0
-946 -3089 3149 0
-946 -3090 3150 0
-946 -3091 3151 0
-946 -3092 3152 0
-946 -3093 3153 0
-946 -3094 3154 0
-946 -3095 3155 0
-946 -3096 3156 0
-946 -3097 3157 0
-946 -3098 3158 0
-946 -3099 3159 0
-946 -3100 3160 0
-946 -3101 3161 0
-946 -3102 3162 0
-946 -3103 3163 0
-946 -3104 3164 0
-946 -3105 3165 0
-946 -3106 3166 0
-946 -3107 3167 0
-946 -3108 3168 0
-946 -3109 3169 0
-946 -3110 3170 0
-946 -3111 3171 0
-946 -3112 3172 0
-946 -3113 3173 0
-946 -3114 3174 0
-946 -3115 3175 0
-946 -3116 3176 0
-946 -3117 3177 0
-946 -3118 0
-3119 3178 0
-3120 3179 0
-3121 3180 0
-3122 3181 0
-3123 3182 0
-3124 3183 0
-3125 3184 0
-3126 3185 0
-3127 3186 0
-3128 3187 0
-3129 3188 0
-3130 3189 0
-3131 3190 0
-3132 3191 0
-3133 3192 0
-3134 3193 0
-3135 3194 0
-3136 3195 0
-3137 3196 0
-3138 3197 0
-3139 3198 0
-3140 3199 0
-3141 3200 0
-3142 3201 0
-3143 3202 0
-3144 3203 0
-3145 3204 0
-3146 3205 0
-3147 3206 0
-3148 3207 0
-3149 3208 0
-3150 3209 0
-3151 3210 0
-3152 3211 0
-3153 3212 0
-3154 3213 0
-3155 3214 0
-3156 3215 0
-3157 3216 0
-3158 3217 0
-3159 3218 0
-3160 3219 0
-3161 3220 0
-3162 3221 0
-3163 3222 0
-3164 3223 0
-3165 3224 0
-3166 3225 0
-3167 3226 0
-3168 3227 0
-3169 3228 0
-3170 3229 0
-3171 3230 0
-3172 3231 0
-3173 3232 0
-3174 3233 0
-3175 3234 0
-3176 3235 0
-3177 3236 0
-948 -3119 3179 0
-948 -3120 3180 0
-948 -3121 3181 0
-948 -3122 3182 0
-948 -3123 3183 0
-948 -3124 3184 0
-948 -3125 3185 0
-948 -3126 3186 0
-948 -3127 3187 0
-948 -3128 3188 0
-948 -3129 3189 0
-948 -3130 3190 0
-948 -3131 3191 0
-948 -3132 3192 0
-948 -3133 3193 0
-948 -3134 3194 0
-948 -3135 3195 0
-948 -3136 3196 0
-948 -3137 3197 0
-948 -3138 3198 0
-948 -3139 3199 0
-948 -3140 3200 0
-948 -3141 3201 0
-948 -3142 3202 0
-948 -3143 3203 0
-948 -3144 3204 0
-948 -3145 3205 0
-948 -3146 3206 0
-948 -3147 3207 0
-948 -3148 3208 0
-948 -3149 3209 0
-948 -3150 3210 0
-948 -3151 3211 0
-948 -3152 3212 0
-948 -3153 3213 0
-948 -3154 3214 0
-948 -3155 3215 0
-948 -3156 3216 0
-948 -3157 3217 0
-948 -3158 3218 0
-948 -3159 3219 0
-948 -3160 3220 0
-948 -3161 3221 0
-948 -3162 3222 0
-948 -3163 3223 0
-948 -3164 3224 0
-948 -3165 3225 0
-948 -3166 3226 0
-948 -3167 3227 0
-948 -3168 3228 0
-948 -3169 3229 0
-948 -3170 3230 0
-948 -3171 3231 0
-948 -3172 3232 0
-948 -3173 3233 0
-948 -3174 3234 0
-948 -3175 3235 0
-948 -3176 3236 0
-948 -3177 0
-3178 3237 0
-3179 3238 0
-3180 3239 0
-3181 3240 0
-3182 3241 0
-3183 3242 0
-3184 3243 0
-3185 3244 0
-3186 3245 0
-3187 3246 0
-3188 3247 0
-3189 3248 0
-3190 3249 0
-3191 3250 0
-3192 3251 0
-3193 3252 0
-3194 3253 0
-3195 3254 0
-3196 3255 0
-3197 3256 0
-3198 3257 0
-3199 3258 0
-3200 3259 0
-3201 3260 0
-3202 3261 0
-3203 3262 0
-3204 3263 0
-3205 3264 0
-3206 3265 0
-3207 3266 0
-3208 3267 0
-3209 3268 0
-3210 3269 0
-3211 3270 0
-3212 3271 0
-3213 3272 0
-3214 3273 0
-3215 3274 0
-3216 3275 0
-3217 3276 0
-3218 3277 0
-3219 3278 0
-3220 3279 0
-3221 3280 0
-3222 3281 0
-3223 3282 0
-3224 3283 0
-3225 3284 0
-3226 3285 0
-3227 3286 0
-3228 3287 0
-3229 3288 0
-3230 3289 0
-3231 3290 0
-3232 3291 0
-3233 3292 0
-3234 3293 0
-3235 3294 0
-3236 3295 0
-950 -3178 3238 0
-950 -3179 3239 0
-950 -3180 3240 0
-950 -3181 3241 0
-950 -3182 3242 0
-950 -3183 3243 0
-950 -3184 3244 0
-950 -3185 3245 0
-950 -3186 3246 0
-950 -3187 3247 0
-950 -3188 3248 0
-950 -3189 3249 0
-950 -3190 3250 0
-950 -3191 3251 0
-950 -3192 3252 0
-950 -3193 3253 0
-950 -3194 3254 0
-950 -3195 3255 0
-950 -3196 3256 0
-950 -3197 3257 0
-950 -3198 3258 0
-950 -3199 3259 0
-950 -3200 3260 0
-950 -3201 3261 0
-950 -3202 3262 0
-950 -3203 3263 0
-950 -3204 3264 0
-950 -3205 3265 0
-950 -3206 3266 0
-950 -3207 3267 0
-950 -3208 3268 0
-950 -3209 3269 0
-950 -3210 3270 0
-950 -3211 3271 0
-950 -3212 3272 0
-950 -3213 3273 0
-950 -3214 3274 0
-950 -3215 3275 0
-950 -3216 3276 0
-950 -3217 3277 0
-950 -3218 3278 0
-950 -3219 3279 0
-950 -3220 3280 0
-950 -3221 3281 0
-950 -3222 3282 0
-950 -3223 3283 0
-950 -3224 3284 0
-950 -3225 3285 0
-950 -3226 3286 0
-950 -3227 3287 0
-950 -3228 3288 0
-950 -3229 3289 0
-950 -3230 3290 0
-950 -3231 3291 0
-950 -3232 3292 0
-950 -3233 3293 0
-950 -3234 3294 0
-950 -3235 3295 0
-950 -3236 0
-3237 3296 0
-3238 3297 0
-3239 3298 0
-3240 3299 0
-3241 3300 0
-3242 3301 0
-3243 3302 0
-3244 3303 0
-3245 3304 0
-3246 3305 0
-3247 3306 0
-3248 3307 0
-3249 3308 0
-3250 3309 0
-3251 3310 0
-3252 3311 0
-3253 3312 0
-3254 3313 0
-3255 3314 0
-3256 3315 0
-3257 3316 0
-3258 3317 0
-3259 3318 0
-3260 3319 0
-3261 3320 0
-3262 3321 0
-3263 3322 0
-3264 3323 0
-3265 3324 0
-3266 3325 0
-3267 3326 0
-3268 3327 0
-3269 3328 0
-3270 3329 0
-3271 3330 0
-3272 3331 0
-3273 3332 0
-3274 3333 0
-3275 3334 0
-3276 3335 0
-3277 3336 0
-3278 3337 0
-3279 3338 0
-3280 3339 0
-3281 3340 0
-3282 3341 0
-3283 3342 0
-3284 3343 0
-3285 3344 0
-3286 3345 0
-3287 3346 0
-3288 3347 0
-3289 3348 0
-3290 3349 0
-3291 3350 0
-3292 3351 0
-3293 3352 0
-3294 3353 0
-3295 3354 0
-952 -3237 3297 0
-952 -3238 3298 0
-952 -3239 3299 0
-952 -3240 3300 0
-952 -3241 3301 0
-952 -3242 3302 0
-952 -3243 3303 0
-952 -3244 3304 0
-952 -3245 3305 0
-952 -3246 3306 0
-952 -3247 3307 0
-952 -3248 3308 0
-952 -3249 3309 0
-952 -3250 3310 0
-952 -3251 3311 0
-952 -3252 3312 0
-952 -3253 3313 0
-952 -3254 3314 0
-952 -3255 3315 0
-952 -3256 3316 0
-952 -3257 3317 0
-952 -3258 3318 0
-952 -3259 3319 0
-952 -3260 3320 0
-952 -3261 3321 0
-952 -3262 3322 0
-952 -3263 3323 0
-952 -3264 3324 0
-952 -3265 3325 0
-952 -3266 3326 0
-952 -3267 3327 0
-952 -3268 3328 0
-952 -3269 3329 0
-952 -3270 3330 0
-952 -3271 3331 0
-952 -3272 3332 0
-952 -3273 3333 0
-952 -3274 3334 0
-952 -3275 3335 0
-952 -3276 3336 0
-952 -3277 3337 0
-952 -3278 3338 0
-952 -3279 3339 0
-952 -3280 3340 0
-952 -3281 3341 0
-952 -3282 3342 0
-952 -3283 3343 0
-952 -3284 3344 0
-952 -3285 3345 0
-952 -3286 3346 0
-952 -3287 3347 0
-952 -3288 3348 0
-952 -3289 3349 0
-952 -3290 3350 0
-952 -3291 3351 0
-952 -3292 3352 0
-952 -3293 3353 0
-952 -3294 3354 0
-952 -3295 0
-3296 3355 0
-3297 3356 0
-3298 3357 0
-3299 3358 0
-3300 3359 0
-3301 3360 0
-3302 3361 0
-3303 3362 0
-3304 3363 0
-3305 3364 0
-3306 3365 0
-3307 3366 0
-3308 3367 0
-3309 3368 0
-3310 3369 0
-3311 3370 0
-3312 3371 0
-3313 3372 0
-3314 3373 0
-3315 3374 0
-3316 3375 0
-3317 3376 0
-3318 3377 0
-3319 3378 0
-3320 3379 0
-3321 3380 0
-3322 3381 0
-3323 3382 0
-3324 3383 0
-3325 3384 0
-3326 3385 0
-3327 3386 0
-3328 3387 0
-3329 3388 0
-3330 3389 0
-3331 3390 0
-3332 3391 0
-3333 3392 0
-3334 3393 0
-3335 3394 0
-3336 3395 0
-3337 3396 0
-3338 3397 0
-3339 3398 0
-3340 3399 0
-3341 3400 0
-3342 3401 0
-3343 3402 0
-3344 3403 0
-3345 3404 0
-3346 3405 0
-3347 3406 0
-3348 3407 0
-3349 3408 0
-3350 3409 0
-3351 3410 0
-3352 3411 0
-3353 3412 0
-3354 3413 0
-954 -3296 3356 0
-954 -3297 3357 0
-954 -3298 3358 0
-954 -3299 3359 0
-954 -3300 3360 0
-954 -3301 3361 0
-954 -3302 3362 0
-954 -3303 3363 0
-954 -3304 3364 0
-954 -3305 3365 0
-954 -3306 3366 0
-954 -3307 3367 0
-954 -3308 3368 0
-954 -3309 3369 0
-954 -3310 3370 0
-954 -3311 3371 0
-954 -3312 3372 0
-954 -3313 3373 0
-954 -3314 3374 0
-954 -3315 3375 0
-954 -3316 3376 0
-954 -3317 3377 0
-954 -3318 3378 0
-954 -3319 3379 0
-954 -3320 3380 0
-954 -3321 3381 0
-954 -3322 3382 0
-954 -3323 3383 0
-954 -3324 3384 0
-954 -3325 3385 0
-954 -3326 3386 0
-954 -3327 3387 0
-954 -3328 3388 0
-954 -3329 3389 0
-954 -3330 3390 0
-954 -3331 3391 0
-954 -3332 3392 0
-954 -3333 3393 0
-954 -3334 3394 0
-954 -3335 3395 0
-954 -3336 3396 0
-954 -3337 3397 0
-954 -3338 3398 0
-954 -3339 3399 0
-954 -3340 3400 0
-954 -3341 3401 0
-954 -3342 3402 0
-954 -3343 3403 0
-954 -3344 3404 0
-954 -3345 3405 0
-954 -3346 3406 0
-954 -3347 3407 0
-954 -3348 3408 0
-954 -3349 3409 0
-954 -3350 3410 0
-954 -3351 3411 0
-954 -3352 3412 0
-954 -3353 3413 0
-954 -3354 0
-3355 3414 0
-3356 3415 0
-3357 3416 0
-3358 3417 0
-3359 3418 0
-3360 3419 0
-3361 3420 0
-3362 3421 0
-3363 3422 0
-3364 3423 0
-3365 3424 0
-3366 3425 0
-3367 3426 0
-3368 3427 0
-3369 3428 0
-3370 3429 0
-3371 3430 0
-3372 3431 0
-3373 3432 0
-3374 3433 0
-3375 3434 0
-3376 3435 0
-3377 3436 0
-3378 3437 0
-3379 3438 0
-3380 3439 0
-3381 3440 0
-3382 3441 0
-3383 3442 0
-3384 3443 0
-3385 3444 0
-3386 3445 0
-3387 3446 0
-3388 3447 0
-3389 3448 0
-3390 3449 0
-3391 3450 0
-3392 3451 0
-3393 3452 0
-3394 3453 0
-3395 3454 0
-3396 3455 0
-3397 3456 0
-3398 3457 0
-3399 3458 0
-3400 3459 0
-3401 3460 0
-3402 3461 0
-3403 3462 0
-3404 3463 0
-3405 3464 0
-3406 3465 0
-3407 3466 0
-3408 3467 0
-3409 3468 0
-3410 3469 0
-3411 3470 0
-3412 3471 0
-3413 3472 0
-956 -3355 3415 0
-956 -3356 3416 0
-956 -3357 3417 0
-956 -3358 3418 0
-956 -3359 3419 0
-956 -3360 3420 0
-956 -3361 3421 0
-956 -3362 3422 0
-956 -3363 3423 0
-956 -3364 3424 0
-956 -3365 3425 0
-956 -3366 3426 0
-956 -3367 3427 0
-956 -3368 3428 0
-956 -3369 3429 0
-956 -3370 3430 0
-956 -3371 3431 0
-956 -3372 3432 0
-956 -3373 3433 0
-956 -3374 3434 0
-956 -3375 3435 0
-956 -3376 3436 0
-956 -3377 3437 0
-956 -3378 3438 0
-956 -3379 3439 0
-956 -3380 3440 0
-956 -3381 3441 0
-956 -3382 3442 0
-956 -3383 3443 0
-956 -3384 3444 0
-956 -3385 3445 0
-956 -3386 3446 0
-956 -3387 3447 0
-956 -3388 3448 0
-956 -3389 3449 0
-956 -3390 3450 0
-956 -3391 3451 0
-956 -3392 3452 0
-956 -3393 3453 0
-956 -3394 3454 0
-956 -3395 3455 0
-956 -3396 3456 0
-956 -3397 3457 0
-956 -3398 3458 0
-956 -3399 3459 0
-956 -3400 3460 0
-956 -3401 3461 0
-956 -3402 3462 0
-956 -3403 3463 0
-956 -3404 3464 0
-956 -3405 3465 0
-956 -3406 3466 0
-956 -3407 3467 0
-956 -3408 3468 0
-956 -3409 3469 0
-956 -3410 3470 0
-956 -3411 3471 0
-956 -3412 3472 0
-956 -3413 0
-3414 3473 0
-3415 3474 0
-3416 3475 0
-3417 3476 0
-3418 3477 0
-3419 3478 0
-3420 3479 0
-3421 3480 0
-3422 3481 0
-3423 3482 0
-3424 3483 0
-3425 3484 0
-3426 3485 0
-3427 3486 0
-3428 3487 0
-3429 3488 0
-3430 3489 0
-3431 3490 0
-3432 3491 0
-3433 3492 0
-3434 3493 0
-3435 3494 0
-3436 3495 0
-3437 3496 0
-3438 3497 0
-3439 3498 0
-3440 3499 0
-3441 3500 0
-3442 3501 0
-3443 3502 0
-3444 3503 0
-3445 3504 0
-3446 3505 0
-3447 3506 0
-3448 3507 0
-3449 3508 0
-3450 3509 0
-3451 3510 0
-3452 3511 0
-3453 3512 0
-3454 3513 0
-3455 3514 0
-3456 3515 0
-3457 3516 0
-3458 3517 0
-3459 3518 0
-3460 3519 0
-3461 3520 0
-3462 3521 0
-3463 3522 0
-3464 3523 0
-3465 3524 0
-3466 3525 0
-3467 3526 0
-3468 3527 0
-3469 3528 0
-3470 3529 0
-3471 3530 0
-3472 3531 0
-958 -3414 3474 0
-958 -3415 3475 0
-958 -3416 3476 0
-958 -3417 3477 0
-958 -3418 3478 0
-958 -3419 3479 0
-958 -3420 3480 0
-958 -3421 3481 0
-958 -3422 3482 0
-958 -3423 3483 0
-958 -3424 3484 0
-958 -3425 3485 0
-958 -3426 3486 0
-958 -3427 3487 0
-958 -3428 3488 0
-958 -3429 3489 0
-958 -3430 3490 0
-958 -3431 3491 0
-958 -3432 3492 0
-958 -3433 3493 0
-958 -3434 3494 0
-958 -3435 3495 0
-958 -3436 3496 0
-958 -3437 3497 0
-958 -3438 3498 0
-958 -3439 3499 0
-958 -3440 3500 0
-958 -3441 3501 0
-958 -3442 3502 0
-958 -3443 3503 0
-958 -3444 3504 0
-958 -3445 3505 0
-958 -3446 3506 0
-958 -3447 3507 0
-958 -3448 3508 0
-958 -3449 3509 0
-958 -3450 3510 0
-958 -3451 3511 0
-958 -3452 3512 0
-958 -3453 3513 0
-958 -3454 3514 0
-958 -3455 3515 0
-958 -3456 3516 0
-958 -3457 3517 0
-958 -3458 3518 0
-958 -3459 3519 0
-958 -3460 3520 0
-958 -3461 3521 0
-958 -3462 3522 0
-958 -3463 3523 0
-958 -3464 3524 0
-958 -3465 3525 0
-958 -3466 3526 0
-958 -3467 3527 0
-958 -3468 3528 0
-958 -3469 3529 0
-958 -3470 3530 0
-958 -3471 3531 0
-958 -3472 0
-3473 3532 0
-3474 3533 0
-3475 3534 0
-3476 3535 0
-3477 3536 0
-3478 3537 0
-3479 3538 0
-3480 3539 0
-3481 3540 0
-3482 3541 0
-3483 3542 0
-3484 3543 0
-3485 3544 0
-3486 3545 0
-3487 3546 0
-3488 3547 0
-3489 3548 0
-3490 3549 0
-3491 3550 0
-3492 3551 0
-3493 3552 0
-3494 3553 0
-3495 3554 0
-3496 3555 0
-3497 3556 0
-3498 3557 0
-3499 3558 0
-3500 3559 0
-3501 3560 0
-3502 3561 0
-3503 3562 0
-3504 3563 0
-3505 3564 0
-3506 3565 0
-3507 3566 0
-3508 3567 0
-3509 3568 0
-3510 3569 0
-3511 3570 0
-3512 3571 0
-3513 3572 0
-3514 3573 0
-3515 3574 0
-3516 3575 0
-3517 3576 0
-3518 3577 0
-3519 3578 0
-3520 3579 0
-3521 3580 0
-3522 3581 0
-3523 3582 0
-3524 3583 0
-3525 3584 0
-3526 3585 0
-3527 3586 0
-3528 3587 0
-3529 3588 0
-3530 3589 0
-3531 3590 0
-960 -3473 3533 0
-960 -3474 3534 0
-960 -3475 3535 0
-960 -3476 3536 0
-960 -3477 3537 0
-960 -3478 3538 0
-960 -3479 3539 0
-960 -3480 3540 0
-960 -3481 3541 0
-960 -3482 3542 0
-960 -3483 3543 0
-960 -3484 3544 0
-960 -3485 3545 0
-960 -3486 3546 0
-960 -3487 3547 0
-960 -3488 3548 0
-960 -3489 3549 0
-960 -3490 3550 0
-960 -3491 3551 0
-960 -3492 3552 0
-960 -3493 3553 0
-960 -3494 3554 0
-960 -3495 3555 0
-960 -3496 3556 0
-960 -3497 3557 0
-960 -3498 3558 0
-960 -3499 3559 0
-960 -3500 3560 0
-960 -3501 3561 0
-960 -3502 3562 0
-960 -3503 3563 0
-960 -3504 3564 0
-960 -3505 3565 0
-960 -3506 3566 0
-960 -3507 3567 0
-960 -3508 3568 0
-960 -3509 3569 0
-960 -3510 3570 0
-960 -3511 3571 0
-960 -3512 3572 0
-960 -3513 3573 0
-960 -3514 3574 0
-960 -3515 3575 0
-960 -3516 3576 0
-960 -3517 3577 0
-960 -3518 3578 0
-960 -3519 3579 0
-960 -3520 3580 0
-960 -3521 3581 0
-960 -3522 3582 0
-960 -3523 3583 0
-960 -3524 3584 0
-960 -3525 3585 0
-960 -3526 3586 0
-960 -3527 3587 0
-960 -3528 3588 0
-960 -3529 3589 0
-960 -3530 3590 0
-960 -3531 0
-3532 3591 0
-3533 3592 0
-3534 3593 0
-3535 3594 0
-3536 3595 0
-3537 3596 0
-3538 3597 0
-3539 3598 0
-3540 3599 0
-3541 3600 0
-3542 3601 0
-3543 3602 0
-3544 3603 0
-3545 3604 0
-3546 3605 0
-3547 3606 0
-3548 3607 0
-3549 3608 0
-3550 3609 0
-3551 3610 0
-3552 3611 0
-3553 3612 0
-3554 3613 0
-3555 3614 0
-3556 3615 0
-3557 3616 0
-3558 3617 0
-3559 3618 0
-3560 3619 0
-3561 3620 0
-3562 3621 0
-3563 3622 0
-3564 3623 0
-3565 3624 0
-3566 3625 0
-3567 3626 0
-3568 3627 0
-3569 3628 0
-3570 3629 0
-3571 3630 0
-3572 3631 0
-3573 3632 0
-3574 3633 0
-3575 3634 0
-3576 3635 0
-3577 3636 0
-3578 3637 0
-3579 3638 0
-3580 3639 0
-3581 3640 0
-3582 3641 0
-3583 3642 0
-3584 3643 0
-3585 3644 0
-3586 3645 0
-3587 3646 0
-3588 3647 0
-3589 3648 0
-3590 3649 0
-962 -3532 3592 0
-962 -3533 3593 0
-962 -3534 3594 0
-962 -3535 3595 0
-962 -3536 3596 0
-962 -3537 3597 0
-962 -3538 3598 0
-962 -3539 3599 0
-962 -3540 3600 0
-962 -3541 3601 0
-962 -3542 3602 0
-962 -3543 3603 0
-962 -3544 3604 0
-962 -3545 3605 0
-962 -3546 3606 0
-962 -3547 3607 0
-962 -3548 3608 0
-962 -3549 3609 0
-962 -3550 3610 0
-962 -3551 3611 0
-962 -3552 3612 0
-962 -3553 3613 0
-962 -3554 3614 0
-962 -3555 3615 0
-962 -3556 3616 0
-962 -3557 3617 0
-962 -3558 3618 0
-962 -3559 3619 0
-962 -3560 3620 0
-962 -3561 3621 0
-962 -3562 3622 0
-962 -3563 3623 0
-962 -3564 3624 0
-962 -3565 3625 0
-962 -3566 3626 0
-962 -3567 3627 0
-962 -3568 3628 0
-962 -3569 3629 0
-962 -3570 3630 0
-962 -3571 3631 0
-962 -3572 3632 0
-962 -3573 3633 0
-962 -3574 3634 0
-962 -3575 3635 0
-962 -3576 3636 0
-962 -3577 3637 0
-962 -3578 3638 0
-962 -3579 3639 0
-962 -3580 3640 0
-962 -3581 3641 0
-962 -3582 3642 0
-962 -3583 3643 0
-962 -3584 3644 0
-962 -3585 3645 0
-962 -3586 3646 0
-962 -3587 3647 0
-962 -3588 3648 0
-962 -3589 3649 0
-962 -3590 0
-3591 3650 0
-3592 3651 0
-3593 3652 0
-3594 3653 0
-3595 3654 0
-3596 3655 0
-3597 3656 0
-3598 3657 0
-3599 3658 0
-3600 3659 0
-3601 3660 0
-3602 3661 0
-3603 3662 0
-3604 3663 0
-3605 3664 0
-3606 3665 0
-3607 3666 0
-3608 3667 0
-3609 3668 0
-3610 3669 0
-3611 3670 0
-3612 3671 0
-3613 3672 0
-3614 3673 0
-3615 3674 0
-3616 3675 0
-3617 3676 0
-3618 3677 0
-3619 3678 0
-3620 3679 0
-3621 3680 0
-3622 3681 0
-3623 3682 0
-3624 3683 0
-3625 3684 0
-3626 3685 0
-3627 3686 0
-3628 3687 0
-3629 3688 0
-3630 3689 0
-3631 3690 0
-3632 3691 0
-3633 3692 0
-3634 3693 0
-3635 3694 0
-3636 3695 0
-3637 3696 0
-3638 3697 0
-3639 3698 0
-3640 3699 0
-3641 3700 0
-3642 3701 0
-3643 3702 0
-3644 3703 0
-3645 3704 0
-3646 3705 0
-3647 3706 0
-3648 3707 0
-3649 3708 0
-964 -3591 3651 0
-964 -3592 3652 0
-964 -3593 3653 0
-964 -3594 3654 0
-964 -3595 3655 0
-964 -3596 3656 0
-964 -3597 3657 0
-964 -3598 3658 0
-964 -3599 3659 0
-964 -3600 3660 0
-964 -3601 3661 0
-964 -3602 3662 0
-964 -3603 3663 0
-964 -3604 3664 0
-964 -3605 3665 0
-964 -3606 3666 0
-964 -3607 3667 0
-964 -3608 3668 0
-964 -3609 3669 0
-964 -3610 3670 0
-964 -3611 3671 0
-964 -3612 3672 0
-964 -3613 3673 0
-964 -3614 3674 0
-964 -3615 3675 0
-964 -3616 3676 0
-964 -3617 3677 0
-964 -3618 3678 0
-964 -3619 3679 0
-964 -3620 3680 0
-964 -3621 3681 0
-964 -3622 3682 0
-964 -3623 3683 0
-964 -3624 3684 0
-964 -3625 3685 0
-964 -3626 3686 0
-964 -3627 3687 0
-964 -3628 3688 0
-964 -3629 3689 0
-964 -3630 3690 0
-964 -3631 3691 0
-964 -3632 3692 0
-964 -3633 3693 0
-964 -3634 3694 0
-964 -3635 3695 0
-964 -3636 3696 0
-964 -3637 3697 0
-964 -3638 3698 0
-964 -3639 3699 0
-964 -3640 3700 0
-964 -3641 3701 0
-964 -3642 3702 0
-964 -3643 3703 0
-964 -3644 3704 0
-964 -3645 3705 0
-964 -3646 3706 0
-964 -3647 3707 0
-964 -3648 3708 0
-964 -3649 0
-3650 3709 0
-3651 3710 0
-3652 3711 0
-3653 3712 0
-3654 3713 0
-3655 3714 0
-3656 3715 0
-3657 3716 0
-3658 3717 0
-3659 3718 0
-3660 3719 0
-3661 3720 0
-3662 3721 0
-3663 3722 0
-3664 3723 0
-3665 3724 0
-3666 3725 0
-3667 3726 0
-3668 3727 0
-3669 3728 0
-3670 3729 0
-3671 3730 0
-3672 3731 0
-3673 3732 0
-3674 3733 0
-3675 3734 0
-3676 3735 0
-3677 3736 0
-3678 3737 0
-3679 3738 0
-3680 3739 0
-3681 3740 0
-3682 3741 0
-3683 3742 0
-3684 3743 0
-3685 3744 0
-3686 3745 0
-3687 3746 0
-3688 3747 0
-3689 3748 0
-3690 3749 0
-3691 3750 0
-3692 3751 0
-3693 3752 0
-3694 3753 0
-3695 3754 0
-3696 3755 0
-3697 3756 0
-3698 3757 0
-3699 3758 0
-3700 3759 0
-3701 3760 0
-3702 3761 0
-3703 3762 0
-3704 3763 0
-3705 3764 0
-3706 3765 0
-3707 3766 0
-3708 3767 0
-966 -3650 3710 0
-966 -3651 3711 0
-966 -3652 3712 0
-966 -3653 3713 0
-966 -3654 3714 0
-966 -3655 3715 0
-966 -3656 3716 0
-966 -3657 3717 0
-966 -3658 3718 0
-966 -3659 3719 0
-966 -3660 3720 0
-966 -3661 3721 0
-966 -3662 3722 0
-966 -3663 3723 0
-966 -3664 3724 0
-966 -3665 3725 0
-966 -3666 3726 0
-966 -3667 3727 0
-966 -3668 3728 0
-966 -3669 3729 0
-966 -3670 3730 0
-966 -3671 3731 0
-966 -3672 3732 0
-966 -3673 3733 0
-966 -3674 3734 0
-966 -3675 3735 0
-966 -3676 3736 0
-966 -3677 3737 0
-966 -3678 3738 0
-966 -3679 3739 0
-966 -3680 3740 0
-966 -3681 3741 0
-966 -3682 3742 0
-966 -3683 3743 0
-966 -3684 3744 0
-966 -3685 3745 0
-966 -3686 3746 0
-966 -3687 3747 0
-966 -3688 3748 0
-966 -3689 3749 0
-966 -3690 3750 0
-966 -3691 3751 0
-966 -3692 3752 0
-966 -3693 3753 0
-966 -3694 3754 0
-966 -3695 3755 0
-966 -3696 3756 0
-966 -3697 3757 0
-966 -3698 3758 0
-966 -3699 3759 0
-966 -3700 3760 0
-966 -3701 3761 0
-966 -3702 3762 0
-966 -3703 3763 0
-966 -3704 3764 0
-966 -3705 3765 0
-966 -3706 3766 0
-966 -3707 3767 0
-966 -3708 0
-3709 3768 0
-3710 3769 0
-3711 3770 0
-3712 3771 0
-3713 3772 0
-3714 3773 0
-3715 3774 0
-3716 3775 0
-3717 3776 0
-3718 3777 0
-3719 3778 0
-3720 3779 0
-3721 3780 0
-3722 3781 0
-3723 3782 0
-3724 3783 0
-3725 3784 0
-3726 3785 0
-3727 3786 0
-3728 3787 0
-3729 3788 0
-3730 3789 0
-3731 3790 0
-3732 3791 0
-3733 3792 0
-3734 3793 0
-3735 3794 0
-3736 3795 0
-3737 3796 0
-3738 3797 0
-3739 3798 0
-3740 3799 0
-3741 3800 0
-3742 3801 0
-3743 3802 0
-3744 3803 0
-3745 3804 0
-3746 3805 0
-3747 3806 0
-3748 3807 0
-3749 3808 0
-3750 3809 0
-3751 3810 0
-3752 3811 0
-3753 3812 0
-3754 3813 0
-3755 3814 0
-3756 3815 0
-3757 3816 0
-3758 3817 0
-3759 3818 0
-3760 3819 0
-3761 3820 0
-3762 3821 0
-3763 3822 0
-3764 3823 0
-3765 3824 0
-3766 3825 0
-3767 3826 0
-968 -3709 3769 0
-968 -3710 3770 0
-968 -3711 3771 0
-968 -3712 3772 0
-968 -3713 3773 0
-968 -3714 3774 0
-968 -3715 3775 0
-968 -3716 3776 0
-968 -3717 3777 0
-968 -3718 3778 0
-968 -3719 3779 0
-968 -3720 3780 0
-968 -3721 3781 0
-968 -3722 3782 0
-968 -3723 3783 0
-968 -3724 3784 0
-968 -3725 3785 0
-968 -3726 3786 0
-968 -3727 3787 0
-968 -3728 3788 0
-968 -3729 3789 0
-968 -3730 3790 0
-968 -3731 3791 0
-968 -3732 3792 0
-968 -3733 3793 0
-968 -3734 3794 0
-968 -3735 3795 0
-968 -3736 3796 0
-968 -3737 3797 0
-968 -3738 3798 0
-968 -3739 3799 0
-968 -3740 3800 0
-968 -3741 3801 0
-968 -3742 3802 0
-968 -3743 3803 0
-968 -3744 3804 0
-968 -3745 3805 0
-968 -3746 3806 0
-968 -3747 3807 0
-968 -3748 3808 0
-968 -3749 3809 0
-968 -3750 3810 0
-968 -3751 3811 0
-968 -3752 3812 0
-968 -3753 3813 0
-968 -3754 3814 0
-968 -3755 3815 0
-968 -3756 3816 0
-968 -3757 3817 0
-968 -3758 3818 0
-968 -3759 3819 0
-968 -3760 3820 0
-968 -3761 3821 0
-968 -3762 3822 0
-968 -3763 3823 0
-968 -3764 3824 0
-968 -3765 3825 0
-968 -3766 3826 0
-968 -3767 0
-3768 3827 0
-3769 3828 0
-3770 3829 0
-3771 3830 0
-3772 3831 0
-3773 3832 0
-3774 3833 0
-3775 3834 0
-3776 3835 0
-3777 3836 0
-3778 3837 0
-3779 3838 0
-3780 3839 0
-3781 3840 0
-3782 3841 0
-3783 3842 0
-3784 3843 0
-3785 3844 0
-3786 3845 0
-3787 3846 0
-3788 3847 0
-3789 3848 0
-3790 3849 0
-3791 3850 0
-3792 3851 0
-3793 3852 0
-3794 3853 0
-3795 3854 0
-3796 3855 0
-3797 3856 0
-3798 3857 0
-3799 3858 0
-3800 3859 0
-3801 3860 0
-3802 3861 0
-3803 3862 0
-3804 3863 0
-3805 3864 0
-3806 3865 0
-3807 3866 0
-3808 3867 0
-3809 3868 0
-3810 3869 0
-3811 3870 0
-3812 3871 0
-3813 3872 0
-3814 3873 0
-3815 3874 0
-3816 3875 0
-3817 3876 0
-3818 3877 0
-3819 3878 0
-3820 3879 0
-3821 3880 0
-3822 3881 0
-3823 3882 0
-3824 3883 0
-3825 3884 0
-3826 3885 0
-970 -3768 3828 0
-970 -3769 3829 0
-970 -3770 3830 0
-970 -3771 3831 0
-970 -3772 3832 0
-970 -3773 3833 0
-970 -3774 3834 0
-970 -3775 3835 0
-970 -3776 3836 0
-970 -3777 3837 0
-970 -3778 3838 0
-970 -3779 3839 0
-970 -3780 3840 0
-970 -3781 3841 0
-970 -3782 3842 0
-970 -3783 3843 0
-970 -3784 3844 0
-970 -3785 3845 0
-970 -3786 3846 0
-970 -3787 3847 0
-970 -3788 3848 0
-970 -3789 3849 0
-970 -3790 3850 0
-970 -3791 3851 0
-970 -3792 3852 0
-970 -3793 3853 0
-970 -3794 3854 0
-970 -3795 3855 0
-970 -3796 3856 0
-970 -3797 3857 0
-970 -3798 3858 0
-970 -3799 3859 0
-970 -3800 3860 0
-970 -3801 3861 0
-970 -3802 3862 0
-970 -3803 3863 0
-970 -3804 3864 0
-970 -3805 3865 0
-970 -3806 3866 0
-970 -3807 3867 0
-970 -3808 3868 0
-970 -3809 3869 0
-970 -3810 3870 0
-970 -3811 3871 0
-970 -3812 3872 0
-970 -3813 3873 0
-970 -3814 3874 0
-970 -3815 3875 0
-970 -3816 3876 0
-970 -3817 3877 0
-970 -3818 3878 0
-970 -3819 3879 0
-970 -3820 3880 0
-970 -3821 3881 0
-970 -3822 3882 0
-970 -3823 3883 0
-970 -3824 3884 0
-970 -3825 3885 0
-970 -3826 0
-3827 3886 0
-3828 3887 0
-3829 3888 0
-3830 3889 0
-3831 3890 0
-3832 3891 0
-3833 3892 0
-3834 3893 0
-3835 3894 0
-3836 3895 0
-3837 3896 0
-3838 3897 0
-3839 3898 0
-3840 3899 0
-3841 3900 0
-3842 3901 0
-3843 3902 0
-3844 3903 0
-3845 3904 0
-3846 3905 0
-3847 3906 0
-3848 3907 0
-3849 3908 0
-3850 3909 0
-3851 3910 0
-3852 3911 0
-3853 3912 0
-3854 3913 0
-3855 3914 0
-3856 3915 0
-3857 3916 0
-3858 3917 0
-3859 3918 0
-3860 3919 0
-3861 3920 0
-3862 3921 0
-3863 3922 0
-3864 3923 0
-3865 3924 0
-3866 3925 0
-3867 3926 0
-3868 3927 0
-3869 3928 0
-3870 3929 0
-3871 3930 0
-3872 3931 0
-3873 3932 0
-3874 3933 0
-3875 3934 0
-3876 3935 0
-3877 3936 0
-3878 3937 0
-3879 3938 0
-3880 3939 0
-3881 3940 0
-3882 3941 0
-3883 3942 0
-3884 3943 0
-3885 3944 0
-972 -3827 3887 0
-972 -3828 3888 0
-972 -3829 3889 0
-972 -3830 3890 0
-972 -3831 3891 0
-972 -3832 3892 0
-972 -3833 3893 0
-972 -3834 3894 0
-972 -3835 3895 0
-972 -3836 3896 0
-972 -3837 3897 0
-972 -3838 3898 0
-972 -3839 3899 0
-972 -3840 3900 0
-972 -3841 3901 0
-972 -3842 3902 0
-972 -3843 3903 0
-972 -3844 3904 0
-972 -3845 3905 0
-972 -3846 3906 0
-972 -3847 3907 0
-972 -3848 3908 0
-972 -3849 3909 0
-972 -3850 3910 0
-972 -3851 3911 0
-972 -3852 3912 0
-972 -3853 3913 0
-972 -3854 3914 0
-972 -3855 3915 0
-972 -3856 3916 0
-972 -3857 3917 0
-972 -3858 3918 0
-972 -3859 3919 0
-972 -3860 3920 0
-972 -3861 3921 0
-972 -3862 3922 0
-972 -3863 3923 0
-972 -3864 3924 0
-972 -3865 3925 0
-972 -3866 3926 0
-972 -3867 3927 0
-972 -3868 3928 0
-972 -3869 3929 0
-972 -3870 3930 0
-972 -3871 3931 0
-972 -3872 3932 0
-972 -3873 3933 0
-972 -3874 3934 0
-972 -3875 3935 0
-972 -3876 3936 0
-972 -3877 3937 0
-972 -3878 3938 0
-972 -3879 3939 0
-972 -3880 3940 0
-972 -3881 3941 0
-972 -3882 3942 0
-972 -3883 3943 0
-972 -3884 3944 0
-972 -3885 0
-3886 3945 0
-3887 3946 0
-3888 3947 0
-3889 3948 0
-3890 3949 0
-3891 3950 0
-3892 3951 0
-3893 3952 0
-3894 3953 0
-3895 3954 0
-3896 3955 0
-3897 3956 0
-3898 3957 0
-3899 3958 0
-3900 3959 0
-3901 3960 0
-3902 3961 0
-3903 3962 0
-3904 3963 0
-3905 3964 0
-3906 3965 0
-3907 3966 0
-3908 3967 0
-3909 3968 0
-3910 3969 0
-3911 3970 0
-3912 3971 0
-3913 3972 0
-3914 3973 0
-3915 3974 0
-3916 3975 0
-3917 3976 0
-3918 3977 0
-3919 3978 0
-3920 3979 0
-3921 3980 0
-3922 3981 0
-3923 3982 0
-3924 3983 0
-3925 3984 0
-3926 3985 0
-3927 3986 0
-3928 3987 0
-3929 3988 0
-3930 3989 0
-3931 3990 0
-3932 3991 0
-3933 3992 0
-3934 3993 0
-3935 3994 0
-3936 3995 0
-3937 3996 0
-3938 3997 0
-3939 3998 0
-3940 3999 0
-3941 4000 0
-3942 4001 0
-3943 4002 0
-3944 4003 0
-974 -3886 3946 0
-974 -3887 3947 0
-974 -3888 3948 0
-974 -3889 3949 0
-974 -3890 3950 0
-974 -3891 3951 0
-974 -3892 3952 0
-974 -3893 3953 0
-974 -3894 3954 0
-974 -3895 3955 0
-974 -3896 3956 0
-974 -3897 3957 0
-974 -3898 3958 0
-974 -3899 3959 0
-974 -3900 3960 0
-974 -3901 3961 0
-974 -3902 3962 0
-974 -3903 3963 0
-974 -3904 3964 0
-974 -3905 3965 0
-974 -3906 3966 0
-974 -3907 3967 0
-974 -3908 3968 0
-974 -3909 3969 0
-974 -3910 3970 0
-974 -3911 3971 0
-974 -3912 3972 0
-974 -3913 3973 0
-974 -3914 3974 0
-974 -3915 3975 0
-974 -3916 3976 0
-974 -3917 3977 0
-974 -3918 3978 0
-974 -3919 3979 0
-974 -3920 3980 0
-974 -3921 3981 0
-974 -3922 3982 0
-974 -3923 3983 0
-974 -3924 3984 0
-974 -3925 3985 0
-974 -3926 3986 0
-974 -3927 3987 0
-974 -3928 3988 0
-974 -3929 3989 0
-974 -3930 3990 0
-974 -3931 3991 0
-974 -3932 3992 0
-974 -3933 3993 0
-974 -3934 3994 0
-974 -3935 3995 0
-974 -3936 3996 0
-974 -3937 3997 0
-974 -3938 3998 0
-974 -3939 3999 0
-974 -3940 4000 0
-974 -3941 4001 0
-974 -3942 4002 0
-974 -3943 4003 0
-974 -3944 0
-3945 4004 0
-3946 4005 0
-3947 4006 0
-3948 4007 0
-3949 4008 0
-3950 4009 0
-3951 4010 0
-3952 4011 0
-3953 4012 0
-3954 4013 0
-3955 4014 0
-3956 4015 0
-3957 4016 0
-3958 4017 0
-3959 4018 0
-3960 4019 0
-3961 4020 0
-3962 4021 0
-3963 4022 0
-3964 4023 0
-3965 4024 0
-3966 4025 0
-3967 4026 0
-3968 4027 0
-3969 4028 0
-3970 4029 0
-3971 4030 0
-3972 4031 0
-3973 4032 0
-3974 4033 0
-3975 4034 0
-3976 4035 0
-3977 4036 0
-3978 4037 0
-3979 4038 0
-3980 4039 0
-3981 4040 0
-3982 4041 0
-3983 4042 0
-3984 4043 0
-3985 4044 0
-3986 4045 0
-3987 4046 0
-3988 4047 0
-3989 4048 0
-3990 4049 0
-3991 4050 0
-3992 4051 0
-3993 4052 0
-3994 4053 0
-3995 4054 0
-3996 4055 0
-3997 4056 0
-3998 4057 0
-3999 4058 0
-4000 4059 0
-4001 4060 0
-4002 4061 0
-4003 4062 0
-976 -3945 4005 0
-976 -3946 4006 0
-976 -3947 4007 0
-976 -3948 4008 0
-976 -3949 4009 0
-976 -3950 4010 0
-976 -3951 4011 0
-976 -3952 4012 0
-976 -3953 4013 0
-976 -3954 4014 0
-976 -3955 4015 0
-976 -3956 4016 0
-976 -3957 4017 0
-976 -3958 4018 0
-976 -3959 4019 0
-976 -3960 4020 0
-976 -3961 4021 0
-976 -3962 4022 0
-976 -3963 4023 0
-976 -3964 4024 0
-976 -3965 4025 0
-976 -3966 4026 0
-976 -3967 4027 0
-976 -3968 4028 0
-976 -3969 4029 0
-976 -3970 4030 0
-976 -3971 4031 0
-976 -3972 4032 0
-976 -3973 4033 0
-976 -3974 4034 0
-976 -3975 4035 0
-976 -3976 4036 0
-976 -3977 4037 0
-976 -3978 4038 0
-976 -3979 4039 0
-976 -3980 4040 0
-976 -3981 4041 0
-976 -3982 4042 0
-976 -3983 4043 0
-976 -3984 4044 0
-976 -3985 4045 0
-976 -3986 4046 0
-976 -3987 4047 0
-976 -3988 4048 0
-976 -3989 4049 0
-976 -3990 4050 0
-976 -3991 4051 0
-976 -3992 4052 0
-976 -3993 4053 0
-976 -3994 4054 0
-976 -3995 4055 0
-976 -3996 4056 0
-976 -3997 4057 0
-976 -3998 4058 0
-976 -3999 4059 0
-976 -4000 4060 0
-976 -4001 4061 0
-976 -4002 4062 0
-976 -4003 0
-4004 4063 0
-4005 4064 0
-4006 4065 0
-4007 4066 0
-4008 4067 0
-4009 4068 0
-4010 4069 0
-4011 4070 0
-4012 4071 0
-4013 4072 0
-4014 4073 0
-4015 4074 0
-4016 4075 0
-4017 4076 0
-4018 4077 0
-4019 4078 0
-4020 4079 0
-4021 4080 0
-4022 4081 0
-4023 4082 0
-4024 4083 0
-4025 4084 0
-4026 4085 0
-4027 4086 0
-4028 4087 0
-4029 4088 0
-4030 4089 0
-4031 4090 0
-4032 4091 0
-4033 4092 0
-4034 4093 0
-4035 4094 0
-4036 4095 0
-4037 4096 0
-4038 4097 0
-4039 4098 0
-4040 4099 0
-4041 4100 0
-4042 4101 0
-4043 4102 0
-4044 4103 0
-4045 4104 0
-4046 4105 0
-4047 4106 0
-4048 4107 0
-4049 4108 0
-4050 4109 0
-4051 4110 0
-4052 4111 0
-4053 4112 0
-4054 4113 0
-4055 4114 0
-4056 4115 0
-4057 4116 0
-4058 4117 0
-4059 4118 0
-4060 4119 0
-4061 4120 0
-4062 4121 0
-978 -4004 4064 0
-978 -4005 4065 0
-978 -4006 4066 0
-978 -4007 4067 0
-978 -4008 4068 0
-978 -4009 4069 0
-978 -4010 4070 0
-978 -4011 4071 0
-978 -4012 4072 0
-978 -4013 4073 0
-978 -4014 4074 0
-978 -4015 4075 0
-978 -4016 4076 0
-978 -4017 4077 0
-978 -4018 4078 0
-978 -4019 4079 0
-978 -4020 4080 0
-978 -4021 4081 0
-978 -4022 4082 0
-978 -4023 4083 0
-978 -4024 4084 0
-978 -4025 4085 0
-978 -4026 4086 0
-978 -4027 4087 0
-978 -4028 4088 0
-978 -4029 4089 0
-978 -4030 4090 0
-978 -4031 4091 0
-978 -4032 4092 0
-978 -4033 4093 0
-978 -4034 4094 0
-978 -4035 4095 0
-978 -4036 4096 0
-978 -4037 4097 0
-978 -4038 4098 0
-978 -4039 4099 0
-978 -4040 4100 0
-978 -4041 4101 0
-978 -4042 4102 0
-978 -4043 4103 0
-978 -4044 4104 0
-978 -4045 4105 0
-978 -4046 4106 0
-978 -4047 4107 0
-978 -4048 4108 0
-978 -4049 4109 0
-978 -4050 4110 0
-978 -4051 4111 0
-978 -4052 4112 0
-978 -4053 4113 0
-978 -4054 4114 0
-978 -4055 4115 0
-978 -4056 4116 0
-978 -4057 4117 0
-978 -4058 4118 0
-978 -4059 4119 0
-978 -4060 4120 0
-978 -4061 4121 0
-978 -4062 0
-4063 4122 0
-4064 4123 0
-4065 4124 0
-4066 4125 0
-4067 4126 0
-4068 4127 0
-4069 4128 0
-4070 4129 0
-4071 4130 0
-4072 4131 0
-4073 4132 0
-4074 4133 0
-4075 4134 0
-4076 4135 0
-4077 4136 0
-4078 4137 0
-4079 4138 0
-4080 4139 0
-4081 4140 0
-4082 4141 0
-4083 4142 0
-4084 4143 0
-4085 4144 0
-4086 4145 0
-4087 4146 0
-4088 4147 0
-4089 4148 0
-4090 4149 0
-4091 4150 0
-4092 4151 0
-4093 4152 0
-4094 4153 0
-4095 4154 0
-4096 4155 0
-4097 4156 0
-4098 4157 0
-4099 4158 0
-4100 4159 0
-4101 4160 0
-4102 4161 0
-4103 4162 0
-4104 4163 0
-4105 4164 0
-4106 4165 0
-4107 4166 0
-4108 4167 0
-4109 4168 0
-4110 4169 0
-4111 4170 0
-4112 4171 0
-4113 4172 0
-4114 4173 0
-4115 4174 0
-4116 4175 0
-4117 4176 0
-4118 4177 0
-4119 4178 0
-4120 4179 0
-4121 4180 0
-980 -4063 4123 0
-980 -4064 4124 0
-980 -4065 4125 0
-980 -4066 4126 0
-980 -4067 4127 0
-980 -4068 4128 0
-980 -4069 4129 0
-980 -4070 4130 0
-980 -4071 4131 0
-980 -4072 4132 0
-980 -4073 4133 0
-980 -4074 4134 0
-980 -4075 4135 0
-980 -4076 4136 0
-980 -4077 4137 0
-980 -4078 4138 0
-980 -4079 4139 0
-980 -4080 4140 0
-980 -4081 4141 0
-980 -4082 4142 0
-980 -4083 4143 0
-980 -4084 4144 0
-980 -4085 4145 0
-980 -4086 4146 0
-980 -4087 4147 0
-980 -4088 4148 0
-980 -4089 4149 0
-980 -4090 4150 0
-980 -4091 4151 0
-980 -4092 4152 0
-980 -4093 4153 0
-980 -4094 4154 0
-980 -4095 4155 0
-980 -4096 4156 0
-980 -4097 4157 0
-980 -4098 4158 0
-980 -4099 4159 0
-980 -4100 4160 0
-980 -4101 4161 0
-980 -4102 4162 0
-980 -4103 4163 0
-980 -4104 4164 0
-980 -4105 4165 0
-980 -4106 4166 0
-980 -4107 4167 0
-980 -4108 4168 0
-980 -4109 4169 0
-980 -4110 4170 0
-980 -4111 4171 0
-980 -4112 4172 0
-980 -4113 4173 0
-980 -4114 4174 0
-980 -4115 4175 0
-980 -4116 4176 0
-980 -4117 4177 0
-980 -4118 4178 0
-980 -4119 4179 0
-980 -4120 4180 0
-980 -4121 0
-4122 4181 0
-4123 4182 0
-4124 4183 0
-4125 4184 0
-4126 4185 0
-4127 4186 0
-4128 4187 0
-4129 4188 0
-4130 4189 0
-4131 4190 0
-4132 4191 0
-4133 4192 0
-4134 4193 0
-4135 4194 0
-4136 4195 0
-4137 4196 0
-4138 4197 0
-4139 4198 0
-4140 4199 0
-4141 4200 0
-4142 4201 0
-4143 4202 0
-4144 4203 0
-4145 4204 0
-4146 4205 0
-4147 4206 0
-4148 4207 0
-4149 4208 0
-4150 4209 0
-4151 4210 0
-4152 4211 0
-4153 4212 0
-4154 4213 0
-4155 4214 0
-4156 4215 0
-4157 4216 0
-4158 4217 0
-4159 4218 0
-4160 4219 0
-4161 4220 0
-4162 4221 0
-4163 4222 0
-4164 4223 0
-4165 4224 0
-4166 4225 0
-4167 4226 0
-4168 4227 0
-4169 4228 0
-4170 4229 0
-4171 4230 0
-4172 4231 0
-4173 4232 0
-4174 4233 0
-4175 4234 0
-4176 4235 0
-4177 4236 0
-4178 4237 0
-4179 4238 0
-4180 4239 0
-982 -4122 4182 0
-982 -4123 4183 0
-982 -4124 4184 0
-982 -4125 4185 0
-982 -4126 4186 0
-982 -4127 4187 0
-982 -4128 4188 0
-982 -4129 4189 0
-982 -4130 4190 0
-982 -4131 4191 0
-982 -4132 4192 0
-982 -4133 4193 0
-982 -4134 4194 0
-982 -4135 4195 0
-982 -4136 4196 0
-982 -4137 4197 0
-982 -4138 4198 0
-982 -4139 4199 0
-982 -4140 4200 0
-982 -4141 4201 0
-982 -4142 4202 0
-982 -4143 4203 0
-982 -4144 4204 0
-982 -4145 4205 0
-982 -4146 4206 0
-982 -4147 4207 0
-982 -4148 4208 0
-982 -4149 4209 0
-982 -4150 4210 0
-982 -4151 4211 0
-982 -4152 4212 0
-982 -4153 4213 0
-982 -4154 4214 0
-982 -4155 4215 0
-982 -4156 4216 0
-982 -4157 4217 0
-982 -4158 4218 0
-982 -4159 4219 0
-982 -4160 4220 0
-982 -4161 4221 0
-982 -4162 4222 0
-982 -4163 4223 0
-982 -4164 4224 0
-982 -4165 4225 0
-982 -4166 4226 0
-982 -4167 4227 0
-982 -4168 4228 0
-982 -4169 4229 0
-982 -4170 4230 0
-982 -4171 4231 0
-982 -4172 4232 0
-982 -4173 4233 0
-982 -4174 4234 0
-982 -4175 4235 0
-982 -4176 4236 0
-982 -4177 4237 0
-982 -4178 4238 0
-982 -4179 4239 0
-982 -4180 0
-4181 4240 0
-4182 4241 0
-4183 4242 0
-4184 4243 0
-4185 4244 0
-4186 4245 0
-4187 4246 0
-4188 4247 0
-4189 4248 0
-4190 4249 0
-4191 4250 0
-4192 4251 0
-4193 4252 0
-4194 4253 0
-4195 4254 0
-4196 4255 0
-4197 4256 0
-4198 4257 0
-4199 4258 0
-4200 4259 0
-4201 4260 0
-4202 4261 0
-4203 4262 0
-4204 4263 0
-4205 4264 0
-4206 4265 0
-4207 4266 0
-4208 4267 0
-4209 4268 0
-4210 4269 0
-4211 4270 0
-4212 4271 0
-4213 4272 0
-4214 4273 0
-4215 4274 0
-4216 4275 0
-4217 4276 0
-4218 4277 0
-4219 4278 0
-4220 4279 0
-4221 4280 0
-4222 4281 0
-4223 4282 0
-4224 4283 0
-4225 4284 0
-4226 4285 0
-4227 4286 0
-4228 4287 0
-4229 4288 0
-4230 4289 0
-4231 4290 0
-4232 4291 0
-4233 4292 0
-4234 4293 0
-4235 4294 0
-4236 4295 0
-4237 4296 0
-4238 4297 0
-4239 4298 0
-984 -4181 4241 0
-984 -4182 4242 0
-984 -4183 4243 0
-984 -4184 4244 0
-984 -4185 4245 0
-984 -4186 4246 0
-984 -4187 4247 0
-984 -4188 4248 0
-984 -4189 4249 0
-984 -4190 4250 0
-984 -4191 4251 0
-984 -4192 4252 0
-984 -4193 4253 0
-984 -4194 4254 0
-984 -4195 4255 0
-984 -4196 4256 0
-984 -4197 4257 0
-984 -4198 4258 0
-984 -4199 4259 0
-984 -4200 4260 0
-984 -4201 4261 0
-984 -4202 4262 0
-984 -4203 4263 0
-984 -4204 4264 0
-984 -4205 4265 0
-984 -4206 4266 0
-984 -4207 4267 0
-984 -4208 4268 0
-984 -4209 4269 0
-984 -4210 4270 0
-984 -4211 4271 0
-984 -4212 4272 0
-984 -4213 4273 0
-984 -4214 4274 0
-984 -4215 4275 0
-984 -4216 4276 0
-984 -4217 4277 0
-984 -4218 4278 0
-984 -4219 4279 0
-984 -4220 4280 0
-984 -4221 4281 0
-984 -4222 4282 0
-984 -4223 4283 0
-984 -4224 4284 0
-984 -4225 4285 0
-984 -4226 4286 0
-984 -4227 4287 0
-984 -4228 4288 0
-984 -4229 4289 0
-984 -4230 4290 0
-984 -4231 4291 0
-984 -4232 4292 0
-984 -4233 4293 0
-984 -4234 4294 0
-984 -4235 4295 0
-984 -4236 4296 0
-984 -4237 4297 0
-984 -4238 4298 0
-984 -4239 0
-4240 4299 0
-4241 4300 0
-4242 4301 0
-4243 4302 0
-4244 4303 0
-4245 4304 0
-4246 4305 0
-4247 4306 0
-4248 4307 0
-4249 4308 0
-4250 4309 0
-4251 4310 0
-4252 4311 0
-4253 4312 0
-4254 4313 0
-4255 4314 0
-4256 4315 0
-4257 4316 0
-4258 4317 0
-4259 4318 0
-4260 4319 0
-4261 4320 0
-4262 4321 0
-4263 4322 0
-4264 4323 0
-4265 4324 0
-4266 4325 0
-4267 4326 0
-4268 4327 0
-4269 4328 0
-4270 4329 0
-4271 4330 0
-4272 4331 0
-4273 4332 0
-4274 4333 0
-4275 4334 0
-4276 4335 0
-4277 4336 0
-4278 4337 0
-4279 4338 0
-4280 4339 0
-4281 4340 0
-4282 4341 0
-4283 4342 0
-4284 4343 0
-4285 4344 0
-4286 4345 0
-4287 4346 0
-4288 4347 0
-4289 4348 0
-4290 4349 0
-4291 4350 0
-4292 4351 0
-4293 4352 0
-4294 4353 0
-4295 4354 0
-4296 4355 0
-4297 4356 0
-4298 4357 0
-986 -4240 4300 0
-986 -4241 4301 0
-986 -4242 4302 0
-986 -4243 4303 0
-986 -4244 4304 0
-986 -4245 4305 0
-986 -4246 4306 0
-986 -4247 4307 0
-986 -4248 4308 0
-986 -4249 4309 0
-986 -4250 4310 0
-986 -4251 4311 0
-986 -4252 4312 0
-986 -4253 4313 0
-986 -4254 4314 0
-986 -4255 4315 0
-986 -4256 4316 0
-986 -4257 4317 0
-986 -4258 4318 0
-986 -4259 4319 0
-986 -4260 4320 0
-986 -4261 4321 0
-986 -4262 4322 0
-986 -4263 4323 0
-986 -4264 4324 0
-986 -4265 4325 0
-986 -4266 4326 0
-986 -4267 4327 0
-986 -4268 4328 0
-986 -4269 4329 0
-986 -4270 4330 0
-986 -4271 4331 0
-986 -4272 4332 0
-986 -4273 4333 0
-986 -4274 4334 0
-986 -4275 4335 0
-986 -4276 4336 0
-986 -4277 4337 0
-986 -4278 4338 0
-986 -4279 4339 0
-986 -4280 4340 0
-986 -4281 4341 0
-986 -4282 4342 0
-986 -4283 4343 0
-986 -4284 4344 0
-986 -4285 4345 0
-986 -4286 4346 0
-986 -4287 4347 0
-986 -4288 4348 0
-986 -4289 4349 0
-986 -4290 4350 0
-986 -4291 4351 0
-986 -4292 4352 0
-986 -4293 4353 0
-986 -4294 4354 0
-986 -4295 4355 0
-986 -4296 4356 0
-986 -4297 4357 0
-986 -4298 0
-4299 4358 0
-4300 4359 0
-4301 4360 0
-4302 4361 0
-4303 4362 0
-4304 4363 0
-4305 4364 0
-4306 4365 0
-4307 4366 0
-4308 4367 0
-4309 4368 0
-4310 4369 0
-4311 4370 0
-4312 4371 0
-4313 4372 0
-4314 4373 0
-4315 4374 0
-4316 4375 0
-4317 4376 0
-4318 4377 0
-4319 4378 0
-4320 4379 0
-4321 4380 0
-4322 4381 0
-4323 4382 0
-4324 4383 0
-4325 4384 0
-4326 4385 0
-4327 4386 0
-4328 4387 0
-4329 4388 0
-4330 4389 0
-4331 4390 0
-4332 4391 0
-4333 4392 0
-4334 4393 0
-4335 4394 0
-4336 4395 0
-4337 4396 0
-4338 4397 0
-4339 4398 0
-4340 4399 0
-4341 4400 0
-4342 4401 0
-4343 4402 0
-4344 4403 0
-4345 4404 0
-4346 4405 0
-4347 4406 0
-4348 4407 0
-4349 4408 0
-4350 4409 0
-4351 4410 0
-4352 4411 0
-4353 4412 0
-4354 4413 0
-4355 4414 0
-4356 4415 0
-4357 4416 0
-988 -4299 4359 0
-988 -4300 4360 0
-988 -4301 4361 0
-988 -4302 4362 0
-988 -4303 4363 0
-988 -4304 4364 0
-988 -4305 4365 0
-988 -4306 4366 0
-988 -4307 4367 0
-988 -4308 4368 0
-988 -4309 4369 0
-988 -4310 4370 0
-988 -4311 4371 0
-988 -4312 4372 0
-988 -4313 4373 0
-988 -4314 4374 0
-988 -4315 4375 0
-988 -4316 4376 0
-988 -4317 4377 0
-988 -4318 4378 0
-988 -4319 4379 0
-988 -4320 4380 0
-988 -4321 4381 0
-988 -4322 4382 0
-988 -4323 4383 0
-988 -4324 4384 0
-988 -4325 4385 0
-988 -4326 4386 0
-988 -4327 4387 0
-988 -4328 4388 0
-988 -4329 4389 0
-988 -4330 4390 0
-988 -4331 4391 0
-988 -4332 4392 0
-988 -4333 4393 0
-988 -4334 4394 0
-988 -4335 4395 0
-988 -4336 4396 0
-988 -4337 4397 0
-988 -4338 4398 0
-988 -4339 4399 0
-988 -4340 4400 0
-988 -4341 4401 0
-988 -4342 4402 0
-988 -4343 4403 0
-988 -4344 4404 0
-988 -4345 4405 0
-988 -4346 4406 0
-988 -4347 4407 0
-988 -4348 4408 0
-988 -4349 4409 0
-988 -4350 4410 0
-988 -4351 4411 0
-988 -4352 4412 0
-988 -4353 4413 0
-988 -4354 4414 0
-988 -4355 4415 0
-988 -4356 4416 0
-988 -4357 0
-4358 4417 0
-4359 4418 0
-4360 4419 0
-4361 4420 0
-4362 4421 0
-4363 4422 0
-4364 4423 0
-4365 4424 0
-4366 4425 0
-4367 4426 0
-4368 4427 0
-4369 4428 0
-4370 4429 0
-4371 4430 0
-4372 4431 0
-4373 4432 0
-4374 4433 0
-4375 4434 0
-4376 4435 0
-4377 4436 0
-4378 4437 0
-4379 4438 0
-4380 4439 0
-4381 4440 0
-4382 4441 0
-4383 4442 0
-4384 4443 0
-4385 4444 0
-4386 4445 0
-4387 4446 0
-4388 4447 0
-4389 4448 0
-4390 4449 0
-4391 4450 0
-4392 4451 0
-4393 4452 0
-4394 4453 0
-4395 4454 0
-4396 4455 0
-4397 4456 0
-4398 4457 0
-4399 4458 0
-4400 4459 0
-4401 4460 0
-4402 4461 0
-4403 4462 0
-4404 4463 0
-4405 4464 0
-4406 4465 0
-4407 4466 0
-4408 4467 0
-4409 4468 0
-4410 4469 0
-4411 4470 0
-4412 4471 0
-4413 4472 0
-4414 4473 0
-4415 4474 0
-4416 4475 0
-990 -4358 4418 0
-990 -4359 4419 0
-990 -4360 4420 0
-990 -4361 4421 0
-990 -4362 4422 0
-990 -4363 4423 0
-990 -4364 4424 0
-990 -4365 4425 0
-990 -4366 4426 0
-990 -4367 4427 0
-990 -4368 4428 0
-990 -4369 4429 0
-990 -4370 4430 0
-990 -4371 4431 0
-990 -4372 4432 0
-990 -4373 4433 0
-990 -4374 4434 0
-990 -4375 4435 0
-990 -4376 4436 0
-990 -4377 4437 0
-990 -4378 4438 0
-990 -4379 4439 0
-990 -4380 4440 0
-990 -4381 4441 0
-990 -4382 4442 0
-990 -4383 4443 0
-990 -4384 4444 0
-990 -4385 4445 0
-990 -4386 4446 0
-990 -4387 4447 0
-990 -4388 4448 0
-990 -4389 4449 0
-990 -4390 4450 0
-990 -4391 4451 0
-990 -4392 4452 0
-990 -4393 4453 0
-990 -4394 4454 0
-990 -4395 4455 0
-990 -4396 4456 0
-990 -4397 4457 0
-990 -4398 4458 0
-990 -4399 4459 0
-990 -4400 4460 0
-990 -4401 4461 0
-990 -4402 4462 0
-990 -4403 4463 0
-990 -4404 4464 0
-990 -4405 4465 0
-990 -4406 4466 0
-990 -4407 4467 0
-990 -4408 4468 0
-990 -4409 4469 0
-990 -4410 4470 0
-990 -4411 4471 0
-990 -4412 4472 0
-990 -4413 4473 0
-990 -4414 4474 0
-990 -4415 4475 0
-990 -4416 0
-4417 4476 0
-4418 4477 0
-4419 4478 0
-4420 4479 0
-4421 4480 0
-4422 4481 0
-4423 4482 0
-4424 4483 0
-4425 4484 0
-4426 4485 0
-4427 4486 0
-4428 4487 0
-4429 4488 0
-4430 4489 0
-4431 4490 0
-4432 4491 0
-4433 4492 0
-4434 4493 0
-4435 4494 0
-4436 4495 0
-4437 4496 0
-4438 4497 0
-4439 4498 0
-4440 4499 0
-4441 4500 0
-4442 4501 0
-4443 4502 0
-4444 4503 0
-4445 4504 0
-4446 4505 0
-4447 4506 0
-4448 4507 0
-4449 4508 0
-4450 4509 0
-4451 4510 0
-4452 4511 0
-4453 4512 0
-4454 4513 0
-4455 4514 0
-4456 4515 0
-4457 4516 0
-4458 4517 0
-4459 4518 0
-4460 4519 0
-4461 4520 0
-4462 4521 0
-4463 4522 0
-4464 4523 0
-4465 4524 0
-4466 4525 0
-4467 4526 0
-4468 4527 0
-4469 4528 0
-4470 4529 0
-4471 4530 0
-4472 4531 0
-4473 4532 0
-4474 4533 0
-4475 4534 0
-992 -4417 4477 0
-992 -4418 4478 0
-992 -4419 4479 0
-992 -4420 4480 0
-992 -4421 4481 0
-992 -4422 4482 0
-992 -4423 4483 0
-992 -4424 4484 0
-992 -4425 4485 0
-992 -4426 4486 0
-992 -4427 4487 0
-992 -4428 4488 0
-992 -4429 4489 0
-992 -4430 4490 0
-992 -4431 4491 0
-992 -4432 4492 0
-992 -4433 4493 0
-992 -4434 4494 0
-992 -4435 4495 0
-992 -4436 4496 0
-992 -4437 4497 0
-992 -4438 4498 0
-992 -4439 4499 0
-992 -4440 4500 0
-992 -4441 4501 0
-992 -4442 4502 0
-992 -4443 4503 0
-992 -4444 4504 0
-992 -4445 4505 0
-992 -4446 4506 0
-992 -4447 4507 0
-992 -4448 4508 0
-992 -4449 4509 0
-992 -4450 4510 0
-992 -4451 4511 0
-992 -4452 4512 0
-992 -4453 4513 0
-992 -4454 4514 0
-992 -4455 4515 0
-992 -4456 4516 0
-992 -4457 4517 0
-992 -4458 4518 0
-992 -4459 4519 0
-992 -4460 4520 0
-992 -4461 4521 0
-992 -4462 4522 0
-992 -4463 4523 0
-992 -4464 4524 0
-992 -4465 4525 0
-992 -4466 4526 0
-992 -4467 4527 0
-992 -4468 4528 0
-992 -4469 4529 0
-992 -4470 4530 0
-992 -4471 4531 0
-992 -4472 4532 0
-992 -4473 4533 0
-992 -4474 4534 0
-992 -4475 0
-4476 4535 0
-4477 4536 0
-4478 4537 0
-4479 4538 0
-4480 4539 0
-4481 4540 0
-4482 4541 0
-4483 4542 0
-4484 4543 0
-4485 4544 0
-4486 4545 0
-4487 4546 0
-4488 4547 0
-4489 4548 0
-4490 4549 0
-4491 4550 0
-4492 4551 0
-4493 4552 0
-4494 4553 0
-4495 4554 0
-4496 4555 0
-4497 4556 0
-4498 4557 0
-4499 4558 0
-4500 4559 0
-4501 4560 0
-4502 4561 0
-4503 4562 0
-4504 4563 0
-4505 4564 0
-4506 4565 0
-4507 4566 0
-4508 4567 0
-4509 4568 0
-4510 4569 0
-4511 4570 0
-4512 4571 0
-4513 4572 0
-4514 4573 0
-4515 4574 0
-4516 4575 0
-4517 4576 0
-4518 4577 0
-4519 4578 0
-4520 4579 0
-4521 4580 0
-4522 4581 0
-4523 4582 0
-4524 4583 0
-4525 4584 0
-4526 4585 0
-4527 4586 0
-4528 4587 0
-4529 4588 0
-4530 4589 0
-4531 4590 0
-4532 4591 0
-4533 4592 0
-4534 4593 0
-994 -4476 4536 0
-994 -4477 4537 0
-994 -4478 4538 0
-994 -4479 4539 0
-994 -4480 4540 0
-994 -4481 4541 0
-994 -4482 4542 0
-994 -4483 4543 0
-994 -4484 4544 0
-994 -4485 4545 0
-994 -4486 4546 0
-994 -4487 4547 0
-994 -4488 4548 0
-994 -4489 4549 0
-994 -4490 4550 0
-994 -4491 4551 0
-994 -4492 4552 0
-994 -4493 4553 0
-994 -4494 4554 0
-994 -4495 4555 0
-994 -4496 4556 0
-994 -4497 4557 0
-994 -4498 4558 0
-994 -4499 4559 0
-994 -4500 4560 0
-994 -4501 4561 0
-994 -4502 4562 0
-994 -4503 4563 0
-994 -4504 4564 0
-994 -4505 4565 0
-994 -4506 4566 0
-994 -4507 4567 0
-994 -4508 4568 0
-994 -4509 4569 0
-994 -4510 4570 0
-994 -4511 4571 0
-994 -4512 4572 0
-994 -4513 4573 0
-994 -4514 4574 0
-994 -4515 4575 0
-994 -4516 4576 0
-994 -4517 4577 0
-994 -4518 4578 0
-994 -4519 4579 0
-994 -4520 4580 0
-994 -4521 4581 0
-994 -4522 4582 0
-994 -4523 4583 0
-994 -4524 4584 0
-994 -4525 4585 0
-994 -4526 4586 0
-994 -4527 4587 0
-994 -4528 4588 0
-994 -4529 4589 0
-994 -4530 4590 0
-994 -4531 4591 0
-994 -4532 4592 0
-994 -4533 4593 0
-994 -4534 0
-4535 4594 0
-4536 4595 0
-4537 4596 0
-4538 4597 0
-4539 4598 0
-4540 4599 0
-4541 4600 0
-4542 4601 0
-4543 4602 0
-4544 4603 0
-4545 4604 0
-4546 4605 0
-4547 4606 0
-4548 4607 0
-4549 4608 0
-4550 4609 0
-4551 4610 0
-4552 4611 0
-4553 4612 0
-4554 4613 0
-4555 4614 0
-4556 4615 0
-4557 4616 0
-4558 4617 0
-4559 4618 0
-4560 4619 0
-4561 4620 0
-4562 4621 0
-4563 4622 0
-4564 4623 0
-4565 4624 0
-4566 4625 0
-4567 4626 0
-4568 4627 0
-4569 4628 0
-4570 4629 0
-4571 4630 0
-4572 4631 0
-4573 4632 0
-4574 4633 0
-4575 4634 0
-4576 4635 0
-4577 4636 0
-4578 4637 0
-4579 4638 0
-4580 4639 0
-4581 4640 0
-4582 4641 0
-4583 4642 0
-4584 4643 0
-4585 4644 0
-4586 4645 0
-4587 4646 0
-4588 4647 0
-4589 4648 0
-4590 4649 0
-4591 4650 0
-4592 4651 0
-4593 4652 0
-996 -4535 4595 0
-996 -4536 4596 0
-996 -4537 4597 0
-996 -4538 4598 0
-996 -4539 4599 0
-996 -4540 4600 0
-996 -4541 4601 0
-996 -4542 4602 0
-996 -4543 4603 0
-996 -4544 4604 0
-996 -4545 4605 0
-996 -4546 4606 0
-996 -4547 4607 0
-996 -4548 4608 0
-996 -4549 4609 0
-996 -4550 4610 0
-996 -4551 4611 0
-996 -4552 4612 0
-996 -4553 4613 0
-996 -4554 4614 0
-996 -4555 4615 0
-996 -4556 4616 0
-996 -4557 4617 0
-996 -4558 4618 0
-996 -4559 4619 0
-996 -4560 4620 0
-996 -4561 4621 0
-996 -4562 4622 0
-996 -4563 4623 0
-996 -4564 4624 0
-996 -4565 4625 0
-996 -4566 4626 0
-996 -4567 4627 0
-996 -4568 4628 0
-996 -4569 4629 0
-996 -4570 4630 0
-996 -4571 4631 0
-996 -4572 4632 0
-996 -4573 4633 0
-996 -4574 4634 0
-996 -4575 4635 0
-996 -4576 4636 0
-996 -4577 4637 0
-996 -4578 4638 0
-996 -4579 4639 0
-996 -4580 4640 0
-996 -4581 4641 0
-996 -4582 4642 0
-996 -4583 4643 0
-996 -4584 4644 0
-996 -4585 4645 0
-996 -4586 4646 0
-996 -4587 4647 0
-996 -4588 4648 0
-996 -4589 4649 0
-996 -4590 4650 0
-996 -4591 4651 0
-996 -4592 4652 0
-996 -4593 0
-4594 4653 0
-4595 4654 0
-4596 4655 0
-4597 4656 0
-4598 4657 0
-4599 4658 0
-4600 4659 0
-4601 4660 0
-4602 4661 0
-4603 4662 0
-4604 4663 0
-4605 4664 0
-4606 4665 0
-4607 4666 0
-4608 4667 0
-4609 4668 0
-4610 4669 0
-4611 4670 0
-4612 4671 0
-4613 4672 0
-4614 4673 0
-4615 4674 0
-4616 4675 0
-4617 4676 0
-4618 4677 0
-4619 4678 0
-4620 4679 0
-4621 4680 0
-4622 4681 0
-4623 4682 0
-4624 4683 0
-4625 4684 0
-4626 4685 0
-4627 4686 0
-4628 4687 0
-4629 4688 0
-4630 4689 0
-4631 4690 0
-4632 4691 0
-4633 4692 0
-4634 4693 0
-4635 4694 0
-4636 4695 0
-4637 4696 0
-4638 4697 0
-4639 4698 0
-4640 4699 0
-4641 4700 0
-4642 4701 0
-4643 4702 0
-4644 4703 0
-4645 4704 0
-4646 4705 0
-4647 4706 0
-4648 4707 0
-4649 4708 0
-4650 4709 0
-4651 4710 0
-4652 4711 0
-998 -4594 4654 0
-998 -4595 4655 0
-998 -4596 4656 0
-998 -4597 4657 0
-998 -4598 4658 0
-998 -4599 4659 0
-998 -4600 4660 0
-998 -4601 4661 0
-998 -4602 4662 0
-998 -4603 4663 0
-998 -4604 4664 0
-998 -4605 4665 0
-998 -4606 4666 0
-998 -4607 4667 0
-998 -4608 4668 0
-998 -4609 4669 0
-998 -4610 4670 0
-998 -4611 4671 0
-998 -4612 4672 0
-998 -4613 4673 0
-998 -4614 4674 0
-998 -4615 4675 0
-998 -4616 4676 0
-998 -4617 4677 0
-998 -4618 4678 0
-998 -4619 4679 0
-998 -4620 4680 0
-998 -4621 4681 0
-998 -4622 4682 0
-998 -4623 4683 0
-998 -4624 4684 0
-998 -4625 4685 0
-998 -4626 4686 0
-998 -4627 4687 0
-998 -4628 4688 0
-998 -4629 4689 0
-998 -4630 4690 0
-998 -4631 4691 0
-998 -4632 4692 0
-998 -4633 4693 0
-998 -4634 4694 0
-998 -4635 4695 0
-998 -4636 4696 0
-998 -4637 4697 0
-998 -4638 4698 0
-998 -4639 4699 0
-998 -4640 4700 0
-998 -4641 4701 0
-998 -4642 4702 0
-998 -4643 4703 0
-998 -4644 4704 0
-998 -4645 4705 0
-998 -4646 4706 0
-998 -4647 4707 0
-998 -4648 4708 0
-998 -4649 4709 0
-998 -4650 4710 0
-998 -4651 4711 0
-998 -4652 0
-4653 4712 0
-4654 4713 0
-4655 4714 0
-4656 4715 0
-4657 4716 0
-4658 4717 0
-4659 4718 0
-4660 4719 0
-4661 4720 0
-4662 4721 0
-4663 4722 0
-4664 4723 0
-4665 4724 0
-4666 4725 0
-4667 4726 0
-4668 4727 0
-4669 4728 0
-4670 4729 0
-4671 4730 0
-4672 4731 0
-4673 4732 0
-4674 4733 0
-4675 4734 0
-4676 4735 0
-4677 4736 0
-4678 4737 0
-4679 4738 0
-4680 4739 0
-4681 4740 0
-4682 4741 0
-4683 4742 0
-4684 4743 0
-4685 4744 0
-4686 4745 0
-4687 4746 0
-4688 4747 0
-4689 4748 0
-4690 4749 0
-4691 4750 0
-4692 4751 0
-4693 4752 0
-4694 4753 0
-4695 4754 0
-4696 4755 0
-4697 4756 0
-4698 4757 0
-4699 4758 0
-4700 4759 0
-4701 4760 0
-4702 4761 0
-4703 4762 0
-4704 4763 0
-4705 4764 0
-4706 4765 0
-4707 4766 0
-4708 4767 0
-4709 4768 0
-4710 4769 0
-4711 4770 0
-1000 -4653 4713 0
-1000 -4654 4714 0
-1000 -4655 4715 0
-1000 -4656 4716 0
-1000 -4657 4717 0
-1000 -4658 4718 0
-1000 -4659 4719 0
-1000 -4660 4720 0
-1000 -4661 4721 0
-1000 -4662 4722 0
-1000 -4663 4723 0
-1000 -4664 4724 0
-1000 -4665 4725 0
-1000 -4666 4726 0
-1000 -4667 4727 0
-1000 -4668 4728 0
-1000 -4669 4729 0
-1000 -4670 4730 0
-1000 -4671 4731 0
-1000 -4672 4732 0
-1000 -4673 4733 0
-1000 -4674 4734 0
-1000 -4675 4735 0
-1000 -4676 4736 0
-1000 -4677 4737 0
-1000 -4678 4738 0
-1000 -4679 4739 0
-1000 -4680 4740 0
-1000 -4681 4741 0
-1000 -4682 4742 0
-1000 -4683 4743 0
-1000 -4684 4744 0
-1000 -4685 4745 0
-1000 -4686 4746 0
-1000 -4687 4747 0
-1000 -4688 4748 0
-1000 -4689 4749 0
-1000 -4690 4750 0
-1000 -4691 4751 0
-1000 -4692 4752 0
-1000 -4693 4753 0
-1000 -4694 4754 0
-1000 -4695 4755 0
-1000 -4696 4756 0
-1000 -4697 4757 0
-1000 -4698 4758 0
-1000 -4699 4759 0
-1000 -4700 4760 0
-1000 -4701 4761 0
-1000 -4702 4762 0
-1000 -4703 4763 0
-1000 -4704 4764 0
-1000 -4705 4765 0
-1000 -4706 4766 0
-1000 -4707 4767 0
-1000 -4708 4768 0
-1000 -4709 4769 0
-1000 -4710 4770 0
-1000 -4711 0
-4712 4771 0
-4713 4772 0
-4714 4773 0
-4715 4774 0
-4716 4775 0
-4717 4776 0
-4718 4777 0
-4719 4778 0
-4720 4779 0
-4721 4780 0
-4722 4781 0
-4723 4782 0
-4724 4783 0
-4725 4784 0
-4726 4785 0
-4727 4786 0
-4728 4787 0
-4729 4788 0
-4730 4789 0
-4731 4790 0
-4732 4791 0
-4733 4792 0
-4734 4793 0
-4735 4794 0
-4736 4795 0
-4737 4796 0
-4738 4797 0
-4739 4798 0
-4740 4799 0
-4741 4800 0
-4742 4801 0
-4743 4802 0
-4744 4803 0
-4745 4804 0
-4746 4805 0
-4747 4806 0
-4748 4807 0
-4749 4808 0
-4750 4809 0
-4751 4810 0
-4752 4811 0
-4753 4812 0
-4754 4813 0
-4755 4814 0
-4756 4815 0
-4757 4816 0
-4758 4817 0
-4759 4818 0
-4760 4819 0
-4761 4820 0
-4762 4821 0
-4763 4822 0
-4764 4823 0
-4765 4824 0
-4766 4825 0
-4767 4826 0
-4768 4827 0
-4769 4828 0
-4770 4829 0
-1002 -4712 4772 0
-1002 -4713 4773 0
-1002 -4714 4774 0
-1002 -4715 4775 0
-1002 -4716 4776 0
-1002 -4717 4777 0
-1002 -4718 4778 0
-1002 -4719 4779 0
-1002 -4720 4780 0
-1002 -4721 4781 0
-1002 -4722 4782 0
-1002 -4723 4783 0
-1002 -4724 4784 0
-1002 -4725 4785 0
-1002 -4726 4786 0
-1002 -4727 4787 0
-1002 -4728 4788 0
-1002 -4729 4789 0
-1002 -4730 4790 0
-1002 -4731 4791 0
-1002 -4732 4792 0
-1002 -4733 4793 0
-1002 -4734 4794 0
-1002 -4735 4795 0
-1002 -4736 4796 0
-1002 -4737 4797 0
-1002 -4738 4798 0
-1002 -4739 4799 0
-1002 -4740 4800 0
-1002 -4741 4801 0
-1002 -4742 4802 0
-1002 -4743 4803 0
-1002 -4744 4804 0
-1002 -4745 4805 0
-1002 -4746 4806 0
-1002 -4747 4807 0
-1002 -4748 4808 0
-1002 -4749 4809 0
-1002 -4750 4810 0
-1002 -4751 4811 0
-1002 -4752 4812 0
-1002 -4753 4813 0
-1002 -4754 4814 0
-1002 -4755 4815 0
-1002 -4756 4816 0
-1002 -4757 4817 0
-1002 -4758 4818 0
-1002 -4759 4819 0
-1002 -4760 4820 0
-1002 -4761 4821 0
-1002 -4762 4822 0
-1002 -4763 4823 0
-1002 -4764 4824 0
-1002 -4765 4825 0
-1002 -4766 4826 0
-1002 -4767 4827 0
-1002 -4768 4828 0
-1002 -4769 4829 0
-1002 -4770 0
-4771 4830 0
-4772 4831 0
-4773 4832 0
-4774 4833 0
-4775 4834 0
-4776 4835 0
-4777 4836 0
-4778 4837 0
-4779 4838 0
-4780 4839 0
-4781 4840 0
-4782 4841 0
-4783 4842 0
-4784 4843 0
-4785 4844 0
-4786 4845 0
-4787 4846 0
-4788 4847 0
-4789 4848 0
-4790 4849 0
-4791 4850 0
-4792 4851 0
-4793 4852 0
-4794 4853 0
-4795 4854 0
-4796 4855 0
-4797 4856 0
-4798 4857 0
-4799 4858 0
-4800 4859 0
-4801 4860 0
-4802 4861 0
-4803 4862 0
-4804 4863 0
-4805 4864 0
-4806 4865 0
-4807 4866 0
-4808 4867 0
-4809 4868 0
-4810 4869 0
-4811 4870 0
-4812 4871 0
-4813 4872 0
-4814 4873 0
-4815 4874 0
-4816 4875 0
-4817 4876 0
-4818 4877 0
-4819 4878 0
-4820 4879 0
-4821 4880 0
-4822 4881 0
-4823 4882 0
-4824 4883 0
-4825 4884 0
-4826 4885 0
-4827 4886 0
-4828 4887 0
-4829 4888 0
-1004 -4771 4831 0
-1004 -4772 4832 0
-1004 -4773 4833 0
-1004 -4774 4834 0
-1004 -4775 4835 0
-1004 -4776 4836 0
-1004 -4777 4837 0
-1004 -4778 4838 0
-1004 -4779 4839 0
-1004 -4780 4840 0
-1004 -4781 4841 0
-1004 -4782 4842 0
-1004 -4783 4843 0
-1004 -4784 4844 0
-1004 -4785 4845 0
-1004 -4786 4846 0
-1004 -4787 4847 0
-1004 -4788 4848 0
-1004 -4789 4849 0
-1004 -4790 4850 0
-1004 -4791 4851 0
-1004 -4792 4852 0
-1004 -4793 4853 0
-1004 -4794 4854 0
-1004 -4795 4855 0
-1004 -4796 4856 0
-1004 -4797 4857 0
-1004 -4798 4858 0
-1004 -4799 4859 0
-1004 -4800 4860 0
-1004 -4801 4861 0
-1004 -4802 4862 0
-1004 -4803 4863 0
-1004 -4804 4864 0
-1004 -4805 4865 0
-1004 -4806 4866 0
-1004 -4807 4867 0
-1004 -4808 4868 0
-1004 -4809 4869 0
-1004 -4810 4870 0
-1004 -4811 4871 0
-1004 -4812 4872 0
-1004 -4813 4873 0
-1004 -4814 4874 0
-1004 -4815 4875 0
-1004 -4816 4876 0
-1004 -4817 4877 0
-1004 -4818 4878 0
-1004 -4819 4879 0
-1004 -4820 4880 0
-1004 -4821 4881 0
-1004 -4822 4882 0
-1004 -4823 4883 0
-1004 -4824 4884 0
-1004 -4825 4885 0
-1004 -4826 4886 0
-1004 -4827 4887 0
-1004 -4828 4888 0
-1004 -4829 0
-4830 4889 0
-4831 4890 0
-4832 4891 0
-4833 4892 0
-4834 4893 0
-4835 4894 0
-4836 4895 0
-4837 4896 0
-4838 4897 0
-4839 4898 0
-4840 4899 0
-4841 4900 0
-4842 4901 0
-4843 4902 0
-4844 4903 0
-4845 4904 0
-4846 4905 0
-4847 4906 0
-4848 4907 0
-4849 4908 0
-4850 4909 0
-4851 4910 0
-4852 4911 0
-4853 4912 0
-4854 4913 0
-4855 4914 0
-4856 4915 0
-4857 4916 0
-4858 4917 0
-4859 4918 0
-4860 4919 0
-4861 4920 0
-4862 4921 0
-4863 4922 0
-4864 4923 0
-4865 4924 0
-4866 4925 0
-4867 4926 0
-4868 4927 0
-4869 4928 0
-4870 4929 0
-4871 4930 0
-4872 4931 0
-4873 4932 0
-4874 4933 0
-4875 4934 0
-4876 4935 0
-4877 4936 0
-4878 4937 0
-4879 4938 0
-4880 4939 0
-4881 4940 0
-4882 4941 0
-4883 4942 0
-4884 4943 0
-4885 4944 0
-4886 4945 0
-4887 4946 0
-4888 4947 0
-1006 -4830 4890 0
-1006 -4831 4891 0
-1006 -4832 4892 0
-1006 -4833 4893 0
-1006 -4834 4894 0
-1006 -4835 4895 0
-1006 -4836 4896 0
-1006 -4837 4897 0
-1006 -4838 4898 0
-1006 -4839 4899 0
-1006 -4840 4900 0
-1006 -4841 4901 0
-1006 -4842 4902 0
-1006 -4843 4903 0
-1006 -4844 4904 0
-1006 -4845 4905 0
-1006 -4846 4906 0
-1006 -4847 4907 0
-1006 -4848 4908 0
-1006 -4849 4909 0
-1006 -4850 4910 0
-1006 -4851 4911 0
-1006 -4852 4912 0
-1006 -4853 4913 0
-1006 -4854 4914 0
-1006 -4855 4915 0
-1006 -4856 4916 0
-1006 -4857 4917 0
-1006 -4858 4918 0
-1006 -4859 4919 0
-1006 -4860 4920 0
-1006 -4861 4921 0
-1006 -4862 4922 0
-1006 -4863 4923 0
-1006 -4864 4924 0
-1006 -4865 4925 0
-1006 -4866 4926 0
-1006 -4867 4927 0
-1006 -4868 4928 0
-1006 -4869 4929 0
-1006 -4870 4930 0
-1006 -4871 4931 0
-1006 -4872 4932 0
-1006 -4873 4933 0
-1006 -4874 4934 0
-1006 -4875 4935 0
-1006 -4876 4936 0
-1006 -4877 4937 0
-1006 -4878 4938 0
-1006 -4879 4939 0
-1006 -4880 4940 0
-1006 -4881 4941 0
-1006 -4882 4942 0
-1006 -4883 4943 0
-1006 -4884 4944 0
-1006 -4885 4945 0
-1006 -4886 4946 0
-1006 -4887 4947 0
-1006 -4888 0
-4889 4948 0
-4890 4949 0
-4891 4950 0
-4892 4951 0
-4893 4952 0
-4894 4953 0
-4895 4954 0
-4896 4955 0
-4897 4956 0
-4898 4957 0
-4899 4958 0
-4900 4959 0
-4901 4960 0
-4902 4961 0
-4903 4962 0
-4904 4963 0
-4905 4964 0
-4906 4965 0
-4907 4966 0
-4908 4967 0
-4909 4968 0
-4910 4969 0
-4911 4970 0
-4912 4971 0
-4913 4972 0
-4914 4973 0
-4915 4974 0
-4916 4975 0
-4917 4976 0
-4918 4977 0
-4919 4978 0
-4920 4979 0
-4921 4980 0
-4922 4981 0
-4923 4982 0
-4924 4983 0
-4925 4984 0
-4926 4985 0
-4927 4986 0
-4928 4987 0
-4929 4988 0
-4930 4989 0
-4931 4990 0
-4932 4991 0
-4933 4992 0
-4934 4993 0
-4935 4994 0
-4936 4995 0
-4937 4996 0
-4938 4997 0
-4939 4998 0
-4940 4999 0
-4941 5000 0
-4942 5001 0
-4943 5002 0
-4944 5003 0
-4945 5004 0
-4946 5005 0
-4947 5006 0
-1008 -4889 4949 0
-1008 -4890 4950 0
-1008 -4891 4951 0
-1008 -4892 4952 0
-1008 -4893 4953 0
-1008 -4894 4954 0
-1008 -4895 4955 0
-1008 -4896 4956 0
-1008 -4897 4957 0
-1008 -4898 4958 0
-1008 -4899 4959 0
-1008 -4900 4960 0
-1008 -4901 4961 0
-1008 -4902 4962 0
-1008 -4903 4963 0
-1008 -4904 4964 0
-1008 -4905 4965 0
-1008 -4906 4966 0
-1008 -4907 4967 0
-1008 -4908 4968 0
-1008 -4909 4969 0
-1008 -4910 4970 0
-1008 -4911 4971 0
-1008 -4912 4972 0
-1008 -4913 4973 0
-1008 -4914 4974 0
-1008 -4915 4975 0
-1008 -4916 4976 0
-1008 -4917 4977 0
-1008 -4918 4978 0
-1008 -4919 4979 0
-1008 -4920 4980 0
-1008 -4921 4981 0
-1008 -4922 4982 0
-1008 -4923 4983 0
-1008 -4924 4984 0
-1008 -4925 4985 0
-1008 -4926 4986 0
-1008 -4927 4987 0
-1008 -4928 4988 0
-1008 -4929 4989 0
-1008 -4930 4990 0
-1008 -4931 4991 0
-1008 -4932 4992 0
-1008 -4933 4993 0
-1008 -4934 4994 0
-1008 -4935 4995 0
-1008 -4936 4996 0
-1008 -4937 4997 0
-1008 -4938 4998 0
-1008 -4939 4999 0
-1008 -4940 5000 0
-1008 -4941 5001 0
-1008 -4942 5002 0
-1008 -4943 5003 0
-1008 -4944 5004 0
-1008 -4945 5005 0
-1008 -4946 5006 0
-1008 -4947 0
-4948 5007 0
-4949 5008 0
-4950 5009 0
-4951 5010 0
-4952 5011 0
-4953 5012 0
-4954 5013 0
-4955 5014 0
-4956 5015 0
-4957 5016 0
-4958 5017 0
-4959 5018 0
-4960 5019 0
-4961 5020 0
-4962 5021 0
-4963 5022 0
-4964 5023 0
-4965 5024 0
-4966 5025 0
-4967 5026 0
-4968 5027 0
-4969 5028 0
-4970 5029 0
-4971 5030 0
-4972 5031 0
-4973 5032 0
-4974 5033 0
-4975 5034 0
-4976 5035 0
-4977 5036 0
-4978 5037 0
-4979 5038 0
-4980 5039 0
-4981 5040 0
-4982 5041 0
-4983 5042 0
-4984 5043 0
-4985 5044 0
-4986 5045 0
-4987 5046 0
-4988 5047 0
-4989 5048 0
-4990 5049 0
-4991 5050 0
-4992 5051 0
-4993 5052 0
-4994 5053 0
-4995 5054 0
-4996 5055 0
-4997 5056 0
-4998 5057 0
-4999 5058 0
-5000 5059 0
-5001 5060 0
-5002 5061 0
-5003 5062 0
-5004 5063 0
-5005 5064 0
-5006 5065 0
-1010 -4948 5008 0
-1010 -4949 5009 0
-1010 -4950 5010 0
-1010 -4951 5011 0
-1010 -4952 5012 0
-1010 -4953 5013 0
-1010 -4954 5014 0
-1010 -4955 5015 0
-1010 -4956 5016 0
-1010 -4957 5017 0
-1010 -4958 5018 0
-1010 -4959 5019 0
-1010 -4960 5020 0
-1010 -4961 5021 0
-1010 -4962 5022 0
-1010 -4963 5023 0
-1010 -4964 5024 0
-1010 -4965 5025 0
-1010 -4966 5026 0
-1010 -4967 5027 0
-1010 -4968 5028 0
-1010 -4969 5029 0
-1010 -4970 5030 0
-1010 -4971 5031 0
-1010 -4972 5032 0
-1010 -4973 5033 0
-1010 -4974 5034 0
-1010 -4975 5035 0
-1010 -4976 5036 0
-1010 -4977 5037 0
-1010 -4978 5038 0
-1010 -4979 5039 0
-1010 -4980 5040 0
-1010 -4981 5041 0
-1010 -4982 5042 0
-1010 -4983 5043 0
-1010 -4984 5044 0
-1010 -4985 5045 0
-1010 -4986 5046 0
-1010 -4987 5047 0
-1010 -4988 5048 0
-1010 -4989 5049 0
-1010 -4990 5050 0
-1010 -4991 5051 0
-1010 -4992 5052 0
-1010 -4993 5053 0
-1010 -4994 5054 0
-1010 -4995 5055 0
-1010 -4996 5056 0
-1010 -4997 5057 0
-1010 -4998 5058 0
-1010 -4999 5059 0
-1010 -5000 5060 0
-1010 -5001 5061 0
-1010 -5002 5062 0
-1010 -5003 5063 0
-1010 -5004 5064 0
-1010 -5005 5065 0
-1010 -5006 0
-5007 5066 0
-5008 5067 0
-5009 5068 0
-5010 5069 0
-5011 5070 0
-5012 5071 0
-5013 5072 0
-5014 5073 0
-5015 5074 0
-5016 5075 0
-5017 5076 0
-5018 5077 0
-5019 5078 0
-5020 5079 0
-5021 5080 0
-5022 5081 0
-5023 5082 0
-5024 5083 0
-5025 5084 0
-5026 5085 0
-5027 5086 0
-5028 5087 0
-5029 5088 0
-5030 5089 0
-5031 5090 0
-5032 5091 0
-5033 5092 0
-5034 5093 0
-5035 5094 0
-5036 5095 0
-5037 5096 0
-5038 5097 0
-5039 5098 0
-5040 5099 0
-5041 5100 0
-5042 5101 0
-5043 5102 0
-5044 5103 0
-5045 5104 0
-5046 5105 0
-5047 5106 0
-5048 5107 0
-5049 5108 0
-5050 5109 0
-5051 5110 0
-5052 5111 0
-5053 5112 0
-5054 5113 0
-5055 5114 0
-5056 5115 0
-5057 5116 0
-5058 5117 0
-5059 5118 0
-5060 5119 0
-5061 5120 0
-5062 5121 0
-5063 5122 0
-5064 5123 0
-5065 5124 0
-1012 -5007 5067 0
-1012 -5008 5068 0
-1012 -5009 5069 0
-1012 -5010 5070 0
-1012 -5011 5071 0
-1012 -5012 5072 0
-1012 -5013 5073 0
-1012 -5014 5074 0
-1012 -5015 5075 0
-1012 -5016 5076 0
-1012 -5017 5077 0
-1012 -5018 5078 0
-1012 -5019 5079 0
-1012 -5020 5080 0
-1012 -5021 5081 0
-1012 -5022 5082 0
-1012 -5023 5083 0
-1012 -5024 5084 0
-1012 -5025 5085 0
-1012 -5026 5086 0
-1012 -5027 5087 0
-1012 -5028 5088 0
-1012 -5029 5089 0
-1012 -5030 5090 0
-1012 -5031 5091 0
-1012 -5032 5092 0
-1012 -5033 5093 0
-1012 -5034 5094 0
-1012 -5035 5095 0
-1012 -5036 5096 0
-1012 -5037 5097 0
-1012 -5038 5098 0
-1012 -5039 5099 0
-1012 -5040 5100 0
-1012 -5041 5101 0
-1012 -5042 5102 0
-1012 -5043 5103 0
-1012 -5044 5104 0
-1012 -5045 5105 0
-1012 -5046 5106 0
-1012 -5047 5107 0
-1012 -5048 5108 0
-1012 -5049 5109 0
-1012 -5050 5110 0
-1012 -5051 5111 0
-1012 -5052 5112 0
-1012 -5053 5113 0
-1012 -5054 5114 0
-1012 -5055 5115 0
-1012 -5056 5116 0
-1012 -5057 5117 0
-1012 -5058 5118 0
-1012 -5059 5119 0
-1012 -5060 5120 0
-1012 -5061 5121 0
-1012 -5062 5122 0
-1012 -5063 5123 0
-1012 -5064 5124 0
-1012 -5065 0
-5066 5125 0
-5067 5126 0
-5068 5127 0
-5069 5128 0
-5070 5129 0
-5071 5130 0
-5072 5131 0
-5073 5132 0
-5074 5133 0
-5075 5134 0
-5076 5135 0
-5077 5136 0
-5078 5137 0
-5079 5138 0
-5080 5139 0
-5081 5140 0
-5082 5141 0
-5083 5142 0
-5084 5143 0
-5085 5144 0
-5086 5145 0
-5087 5146 0
-5088 5147 0
-5089 5148 0
-5090 5149 0
-5091 5150 0
-5092 5151 0
-5093 5152 0
-5094 5153 0
-5095 5154 0
-5096 5155 0
-5097 5156 0
-5098 5157 0
-5099 5158 0
-5100 5159 0
-5101 5160 0
-5102 5161 0
-5103 5162 0
-5104 5163 0
-5105 5164 0
-5106 5165 0
-5107 5166 0
-5108 5167 0
-5109 5168 0
-5110 5169 0
-5111 5170 0
-5112 5171 0
-5113 5172 0
-5114 5173 0
-5115 5174 0
-5116 5175 0
-5117 5176 0
-5118 5177 0
-5119 5178 0
-5120 5179 0
-5121 5180 0
-5122 5181 0
-5123 5182 0
-5124 5183 0
-1014 -5066 5126 0
-1014 -5067 5127 0
-1014 -5068 5128 0
-1014 -5069 5129 0
-1014 -5070 5130 0
-1014 -5071 5131 0
-1014 -5072 5132 0
-1014 -5073 5133 0
-1014 -5074 5134 0
-1014 -5075 5135 0
-1014 -5076 5136 0
-1014 -5077 5137 0
-1014 -5078 5138 0
-1014 -5079 5139 0
-1014 -5080 5140 0
-1014 -5081 5141 0
-1014 -5082 5142 0
-1014 -5083 5143 0
-1014 -5084 5144 0
-1014 -5085 5145 0
-1014 -5086 5146 0
-1014 -5087 5147 0
-1014 -5088 5148 0
-1014 -5089 5149 0
-1014 -5090 5150 0
-1014 -5091 5151 0
-1014 -5092 5152 0
-1014 -5093 5153 0
-1014 -5094 5154 0
-1014 -5095 5155 0
-1014 -5096 5156 0
-1014 -5097 5157 0
-1014 -5098 5158 0
-1014 -5099 5159 0
-1014 -5100 5160 0
-1014 -5101 5161 0
-1014 -5102 5162 0
-1014 -5103 5163 0
-1014 -5104 5164 0
-1014 -5105 5165 0
-1014 -5106 5166 0
-1014 -5107 5167 0
-1014 -5108 5168 0
-1014 -5109 5169 0
-1014 -5110 5170 0
-1014 -5111 5171 0
-1014 -5112 5172 0
-1014 -5113 5173 0
-1014 -5114 5174 0
-1014 -5115 5175 0
-1014 -5116 5176 0
-1014 -5117 5177 0
-1014 -5118 5178 0
-1014 -5119 5179 0
-1014 -5120 5180 0
-1014 -5121 5181 0
-1014 -5122 5182 0
-1014 -5123 5183 0
-1014 -5124 0
-5125 5184 0
-5126 5185 0
-5127 5186 0
-5128 5187 0
-5129 5188 0
-5130 5189 0
-5131 5190 0
-5132 5191 0
-5133 5192 0
-5134 5193 0
-5135 5194 0
-5136 5195 0
-5137 5196 0
-5138 5197 0
-5139 5198 0
-5140 5199 0
-5141 5200 0
-5142 5201 0
-5143 5202 0
-5144 5203 0
-5145 5204 0
-5146 5205 0
-5147 5206 0
-5148 5207 0
-5149 5208 0
-5150 5209 0
-5151 5210 0
-5152 5211 0
-5153 5212 0
-5154 5213 0
-5155 5214 0
-5156 5215 0
-5157 5216 0
-5158 5217 0
-5159 5218 0
-5160 5219 0
-5161 5220 0
-5162 5221 0
-5163 5222 0
-5164 5223 0
-5165 5224 0
-5166 5225 0
-5167 5226 0
-5168 5227 0
-5169 5228 0
-5170 5229 0
-5171 5230 0
-5172 5231 0
-5173 5232 0
-5174 5233 0
-5175 5234 0
-5176 5235 0
-5177 5236 0
-5178 5237 0
-5179 5238 0
-5180 5239 0
-5181 5240 0
-5182 5241 0
-5183 5242 0
-1016 -5125 5185 0
-1016 -5126 5186 0
-1016 -5127 5187 0
-1016 -5128 5188 0
-1016 -5129 5189 0
-1016 -5130 5190 0
-1016 -5131 5191 0
-1016 -5132 5192 0
-1016 -5133 5193 0
-1016 -5134 5194 0
-1016 -5135 5195 0
-1016 -5136 5196 0
-1016 -5137 5197 0
-1016 -5138 5198 0
-1016 -5139 5199 0
-1016 -5140 5200 0
-1016 -5141 5201 0
-1016 -5142 5202 0
-1016 -5143 5203 0
-1016 -5144 5204 0
-1016 -5145 5205 0
-1016 -5146 5206 0
-1016 -5147 5207 0
-1016 -5148 5208 0
-1016 -5149 5209 0
-1016 -5150 5210 0
-1016 -5151 5211 0
-1016 -5152 5212 0
-1016 -5153 5213 0
-1016 -5154 5214 0
-1016 -5155 5215 0
-1016 -5156 5216 0
-1016 -5157 5217 0
-1016 -5158 5218 0
-1016 -5159 5219 0
-1016 -5160 5220 0
-1016 -5161 5221 0
-1016 -5162 5222 0
-1016 -5163 5223 0
-1016 -5164 5224 0
-1016 -5165 5225 0
-1016 -5166 5226 0
-1016 -5167 5227 0
-1016 -5168 5228 0
-1016 -5169 5229 0
-1016 -5170 5230 0
-1016 -5171 5231 0
-1016 -5172 5232 0
-1016 -5173 5233 0
-1016 -5174 5234 0
-1016 -5175 5235 0
-1016 -5176 5236 0
-1016 -5177 5237 0
-1016 -5178 5238 0
-1016 -5179 5239 0
-1016 -5180 5240 0
-1016 -5181 5241 0
-1016 -5182 5242 0
-1016 -5183 0
-5184 5243 0
-5185 5244 0
-5186 5245 0
-5187 5246 0
-5188 5247 0
-5189 5248 0
-5190 5249 0
-5191 5250 0
-5192 5251 0
-5193 5252 0
-5194 5253 0
-5195 5254 0
-5196 5255 0
-5197 5256 0
-5198 5257 0
-5199 5258 0
-5200 5259 0
-5201 5260 0
-5202 5261 0
-5203 5262 0
-5204 5263 0
-5205 5264 0
-5206 5265 0
-5207 5266 0
-5208 5267 0
-5209 5268 0
-5210 5269 0
-5211 5270 0
-5212 5271 0
-5213 5272 0
-5214 5273 0
-5215 5274 0
-5216 5275 0
-5217 5276 0
-5218 5277 0
-5219 5278 0
-5220 5279 0
-5221 5280 0
-5222 5281 0
-5223 5282 0
-5224 5283 0
-5225 5284 0
-5226 5285 0
-5227 5286 0
-5228 5287 0
-5229 5288 0
-5230 5289 0
-5231 5290 0
-5232 5291 0
-5233 5292 0
-5234 5293 0
-5235 5294 0
-5236 5295 0
-5237 5296 0
-5238 5297 0
-5239 5298 0
-5240 5299 0
-5241 5300 0
-5242 5301 0
-1018 -5184 5244 0
-1018 -5185 5245 0
-1018 -5186 5246 0
-1018 -5187 5247 0
-1018 -5188 5248 0
-1018 -5189 5249 0
-1018 -5190 5250 0
-1018 -5191 5251 0
-1018 -5192 5252 0
-1018 -5193 5253 0
-1018 -5194 5254 0
-1018 -5195 5255 0
-1018 -5196 5256 0
-1018 -5197 5257 0
-1018 -5198 5258 0
-1018 -5199 5259 0
-1018 -5200 5260 0
-1018 -5201 5261 0
-1018 -5202 5262 0
-1018 -5203 5263 0
-1018 -5204 5264 0
-1018 -5205 5265 0
-1018 -5206 5266 0
-1018 -5207 5267 0
-1018 -5208 5268 0
-1018 -5209 5269 0
-1018 -5210 5270 0
-1018 -5211 5271 0
-1018 -5212 5272 0
-1018 -5213 5273 0
-1018 -5214 5274 0
-1018 -5215 5275 0
-1018 -5216 5276 0
-1018 -5217 5277 0
-1018 -5218 5278 0
-1018 -5219 5279 0
-1018 -5220 5280 0
-1018 -5221 5281 0
-1018 -5222 5282 0
-1018 -5223 5283 0
-1018 -5224 5284 0
-1018 -5225 5285 0
-1018 -5226 5286 0
-1018 -5227 5287 0
-1018 -5228 5288 0
-1018 -5229 5289 0
-1018 -5230 5290 0
-1018 -5231 5291 0
-1018 -5232 5292 0
-1018 -5233 5293 0
-1018 -5234 5294 0
-1018 -5235 5295 0
-1018 -5236 5296 0
-1018 -5237 5297 0
-1018 -5238 5298 0
-1018 -5239 5299 0
-1018 -5240 5300 0
-1018 -5241 5301 0
-1018 -5242 0
-5243 5302 0
-5244 5303 0
-5245 5304 0
-5246 5305 0
-5247 5306 0
-5248 5307 0
-5249 5308 0
-5250 5309 0
-5251 5310 0
-5252 5311 0
-5253 5312 0
-5254 5313 0
-5255 5314 0
-5256 5315 0
-5257 5316 0
-5258 5317 0
-5259 5318 0
-5260 5319 0
-5261 5320 0
-5262 5321 0
-5263 5322 0
-5264 5323 0
-5265 5324 0
-5266 5325 0
-5267 5326 0
-5268 5327 0
-5269 5328 0
-5270 5329 0
-5271 5330 0
-5272 5331 0
-5273 5332 0
-5274 5333 0
-5275 5334 0
-5276 5335 0
-5277 5336 0
-5278 5337 0
-5279 5338 0
-5280 5339 0
-5281 5340 0
-5282 5341 0
-5283 5342 0
-5284 5343 0
-5285 5344 0
-5286 5345 0
-5287 5346 0
-5288 5347 0
-5289 5348 0
-5290 5349 0
-5291 5350 0
-5292 5351 0
-5293 5352 0
-5294 5353 0
-5295 5354 0
-5296 5355 0
-5297 5356 0
-5298 5357 0
-5299 5358 0
-5300 5359 0
-5301 5360 0
-1020 -5243 5303 0
-1020 -5244 5304 0
-1020 -5245 5305 0
-1020 -5246 5306 0
-1020 -5247 5307 0
-1020 -5248 5308 0
-1020 -5249 5309 0
-1020 -5250 5310 0
-1020 -5251 5311 0
-1020 -5252 5312 0
-1020 -5253 5313 0
-1020 -5254 5314 0
-1020 -5255 5315 0
-1020 -5256 5316 0
-1020 -5257 5317 0
-1020 -5258 5318 0
-1020 -5259 5319 0
-1020 -5260 5320 0
-1020 -5261 5321 0
-1020 -5262 5322 0
-1020 -5263 5323 0
-1020 -5264 5324 0
-1020 -5265 5325 0
-1020 -5266 5326 0
-1020 -5267 5327 0
-1020 -5268 5328 0
-1020 -5269 5329 0
-1020 -5270 5330 0
-1020 -5271 5331 0
-1020 -5272 5332 0
-1020 -5273 5333 0
-1020 -5274 5334 0
-1020 -5275 5335 0
-1020 -5276 5336 0
-1020 -5277 5337 0
-1020 -5278 5338 0
-1020 -5279 5339 0
-1020 -5280 5340 0
-1020 -5281 5341 0
-1020 -5282 5342 0
-1020 -5283 5343 0
-1020 -5284 5344 0
-1020 -5285 5345 0
-1020 -5286 5346 0
-1020 -5287 5347 0
-1020 -5288 5348 0
-1020 -5289 5349 0
-1020 -5290 5350 0
-1020 -5291 5351 0
-1020 -5292 5352 0
-1020 -5293 5353 0
-1020 -5294 5354 0
-1020 -5295 5355 0
-1020 -5296 5356 0
-1020 -5297 5357 0
-1020 -5298 5358 0
-1020 -5299 5359 0
-1020 -5300 5360 0
-1020 -5301 0
-5302 5361 0
-5303 5362 0
-5304 5363 0
-5305 5364 0
-5306 5365 0
-5307 5366 0
-5308 5367 0
-5309 5368 0
-5310 5369 0
-5311 5370 0
-5312 5371 0
-5313 5372 0
-5314 5373 0
-5315 5374 0
-5316 5375 0
-5317 5376 0
-5318 5377 0
-5319 5378 0
-5320 5379 0
-5321 5380 0
-5322 5381 0
-5323 5382 0
-5324 5383 0
-5325 5384 0
-5326 5385 0
-5327 5386 0
-5328 5387 0
-5329 5388 0
-5330 5389 0
-5331 5390 0
-5332 5391 0
-5333 5392 0
-5334 5393 0
-5335 5394 0
-5336 5395 0
-5337 5396 0
-5338 5397 0
-5339 5398 0
-5340 5399 0
-5341 5400 0
-5342 5401 0
-5343 5402 0
-5344 5403 0
-5345 5404 0
-5346 5405 0
-5347 5406 0
-5348 5407 0
-5349 5408 0
-5350 5409 0
-5351 5410 0
-5352 5411 0
-5353 5412 0
-5354 5413 0
-5355 5414 0
-5356 5415 0
-5357 5416 0
-5358 5417 0
-5359 5418 0
-5360 5419 0
-1022 -5302 5362 0
-1022 -5303 5363 0
-1022 -5304 5364 0
-1022 -5305 5365 0
-1022 -5306 5366 0
-1022 -5307 5367 0
-1022 -5308 5368 0
-1022 -5309 5369 0
-1022 -5310 5370 0
-1022 -5311 5371 0
-1022 -5312 5372 0
-1022 -5313 5373 0
-1022 -5314 5374 0
-1022 -5315 5375 0
-1022 -5316 5376 0
-1022 -5317 5377 0
-1022 -5318 5378 0
-1022 -5319 5379 0
-1022 -5320 5380 0
-1022 -5321 5381 0
-1022 -5322 5382 0
-1022 -5323 5383 0
-1022 -5324 5384 0
-1022 -5325 5385 0
-1022 -5326 5386 0
-1022 -5327 5387 0
-1022 -5328 5388 0
-1022 -5329 5389 0
-1022 -5330 5390 0
-1022 -5331 5391 0
-1022 -5332 5392 0
-1022 -5333 5393 0
-1022 -5334 5394 0
-1022 -5335 5395 0
-1022 -5336 5396 0
-1022 -5337 5397 0
-1022 -5338 5398 0
-1022 -5339 5399 0
-1022 -5340 5400 0
-1022 -5341 5401 0
-1022 -5342 5402 0
-1022 -5343 5403 0
-1022 -5344 5404 0
-1022 -5345 5405 0
-1022 -5346 5406 0
-1022 -5347 5407 0
-1022 -5348 5408 0
-1022 -5349 5409 0
-1022 -5350 5410 0
-1022 -5351 5411 0
-1022 -5352 5412 0
-1022 -5353 5413 0
-1022 -5354 5414 0
-1022 -5355 5415 0
-1022 -5356 5416 0
-1022 -5357 5417 0
-1022 -5358 5418 0
-1022 -5359 5419 0
-1022 -5360 0
-5361 5420 0
-5362 5421 0
-5363 5422 0
-5364 5423 0
-5365 5424 0
-5366 5425 0
-5367 5426 0
-5368 5427 0
-5369 5428 0
-5370 5429 0
-5371 5430 0
-5372 5431 0
-5373 5432 0
-5374 5433 0
-5375 5434 0
-5376 5435 0
-5377 5436 0
-5378 5437 0
-5379 5438 0
-5380 5439 0
-5381 5440 0
-5382 5441 0
-5383 5442 0
-5384 5443 0
-5385 5444 0
-5386 5445 0
-5387 5446 0
-5388 5447 0
-5389 5448 0
-5390 5449 0
-5391 5450 0
-5392 5451 0
-5393 5452 0
-5394 5453 0
-5395 5454 0
-5396 5455 0
-5397 5456 0
-5398 5457 0
-5399 5458 0
-5400 5459 0
-5401 5460 0
-5402 5461 0
-5403 5462 0
-5404 5463 0
-5405 5464 0
-5406 5465 0
-5407 5466 0
-5408 5467 0
-5409 5468 0
-5410 5469 0
-5411 5470 0
-5412 5471 0
-5413 5472 0
-5414 5473 0
-5415 5474 0
-5416 5475 0
-5417 5476 0
-5418 5477 0
-5419 5478 0
-1024 -5361 5421 0
-1024 -5362 5422 0
-1024 -5363 5423 0
-1024 -5364 5424 0
-1024 -5365 5425 0
-1024 -5366 5426 0
-1024 -5367 5427 0
-1024 -5368 5428 0
-1024 -5369 5429 0
-1024 -5370 5430 0
-1024 -5371 5431 0
-1024 -5372 5432 0
-1024 -5373 5433 0
-1024 -5374 5434 0
-1024 -5375 5435 0
-1024 -5376 5436 0
-1024 -5377 5437 0
-1024 -5378 5438 0
-1024 -5379 5439 0
-1024 -5380 5440 0
-1024 -5381 5441 0
-1024 -5382 5442 0
-1024 -5383 5443 0
-1024 -5384 5444 0
-1024 -5385 5445 0
-1024 -5386 5446 0
-1024 -5387 5447 0
-1024 -5388 5448 0
-1024 -5389 5449 0
-1024 -5390 5450 0
-1024 -5391 5451 0
-1024 -5392 5452 0
-1024 -5393 5453 0
-1024 -5394 5454 0
-1024 -5395 5455 0
-1024 -5396 5456 0
-1024 -5397 5457 0
-1024 -5398 5458 0
-1024 -5399 5459 0
-1024 -5400 5460 0
-1024 -5401 5461 0
-1024 -5402 5462 0
-1024 -5403 5463 0
-1024 -5404 5464 0
-1024 -5405 5465 0
-1024 -5406 5466 0
-1024 -5407 5467 0
-1024 -5408 5468 0
-1024 -5409 5469 0
-1024 -5410 5470 0
-1024 -5411 5471 0
-1024 -5412 5472 0
-1024 -5413 5473 0
-1024 -5414 5474 0
-1024 -5415 5475 0
-1024 -5416 5476 0
-1024 -5417 5477 0
-1024 -5418 5478 0
-1024 -5419 0
-5420 5479 0
-5421 5480 0
-5422 5481 0
-5423 5482 0
-5424 5483 0
-5425 5484 0
-5426 5485 0
-5427 5486 0
-5428 5487 0
-5429 5488 0
-5430 5489 0
-5431 5490 0
-5432 5491 0
-5433 5492 0
-5434 5493 0
-5435 5494 0
-5436 5495 0
-5437 5496 0
-5438 5497 0
-5439 5498 0
-5440 5499 0
-5441 5500 0
-5442 5501 0
-5443 5502 0
-5444 5503 0
-5445 5504 0
-5446 5505 0
-5447 5506 0
-5448 5507 0
-5449 5508 0
-5450 5509 0
-5451 5510 0
-5452 5511 0
-5453 5512 0
-5454 5513 0
-5455 5514 0
-5456 5515 0
-5457 5516 0
-5458 5517 0
-5459 5518 0
-5460 5519 0
-5461 5520 0
-5462 5521 0
-5463 5522 0
-5464 5523 0
-5465 5524 0
-5466 5525 0
-5467 5526 0
-5468 5527 0
-5469 5528 0
-5470 5529 0
-5471 5530 0
-5472 5531 0
-5473 5532 0
-5474 5533 0
-5475 5534 0
-5476 5535 0
-5477 5536 0
-5478 5537 0
-1026 -5420 5480 0
-1026 -5421 5481 0
-1026 -5422 5482 0
-1026 -5423 5483 0
-1026 -5424 5484 0
-1026 -5425 5485 0
-1026 -5426 5486 0
-1026 -5427 5487 0
-1026 -5428 5488 0
-1026 -5429 5489 0
-1026 -5430 5490 0
-1026 -5431 5491 0
-1026 -5432 5492 0
-1026 -5433 5493 0
-1026 -5434 5494 0
-1026 -5435 5495 0
-1026 -5436 5496 0
-1026 -5437 5497 0
-1026 -5438 5498 0
-1026 -5439 5499 0
-1026 -5440 5500 0
-1026 -5441 5501 0
-1026 -5442 5502 0
-1026 -5443 5503 0
-1026 -5444 5504 0
-1026 -5445 5505 0
-1026 -5446 5506 0
-1026 -5447 5507 0
-1026 -5448 5508 0
-1026 -5449 5509 0
-1026 -5450 5510 0
-1026 -5451 5511 0
-1026 -5452 5512 0
-1026 -5453 5513 0
-1026 -5454 5514 0
-1026 -5455 5515 0
-1026 -5456 5516 0
-1026 -5457 5517 0
-1026 -5458 5518 0
-1026 -5459 5519 0
-1026 -5460 5520 0
-1026 -5461 5521 0
-1026 -5462 5522 0
-1026 -5463 5523 0
-1026 -5464 5524 0
-1026 -5465 5525 0
-1026 -5466 5526 0
-1026 -5467 5527 0
-1026 -5468 5528 0
-1026 -5469 5529 0
-1026 -5470 5530 0
-1026 -5471 5531 0
-1026 -5472 5532 0
-1026 -5473 5533 0
-1026 -5474 5534 0
-1026 -5475 5535 0
-1026 -5476 5536 0
-1026 -5477 5537 0
-1026 -5478 0
-5479 5538 0
-5480 5539 0
-5481 5540 0
-5482 5541 0
-5483 5542 0
-5484 5543 0
-5485 5544 0
-5486 5545 0
-5487 5546 0
-5488 5547 0
-5489 5548 0
-5490 5549 0
-5491 5550 0
-5492 5551 0
-5493 5552 0
-5494 5553 0
-5495 5554 0
-5496 5555 0
-5497 5556 0
-5498 5557 0
-5499 5558 0
-5500 5559 0
-5501 5560 0
-5502 5561 0
-5503 5562 0
-5504 5563 0
-5505 5564 0
-5506 5565 0
-5507 5566 0
-5508 5567 0
-5509 5568 0
-5510 5569 0
-5511 5570 0
-5512 5571 0
-5513 5572 0
-5514 5573 0
-5515 5574 0
-5516 5575 0
-5517 5576 0
-5518 5577 0
-5519 5578 0
-5520 5579 0
-5521 5580 0
-5522 5581 0
-5523 5582 0
-5524 5583 0
-5525 5584 0
-5526 5585 0
-5527 5586 0
-5528 5587 0
-5529 5588 0
-5530 5589 0
-5531 5590 0
-5532 5591 0
-5533 5592 0
-5534 5593 0
-5535 5594 0
-5536 5595 0
-5537 5596 0
-1028 -5479 5539 0
-1028 -5480 5540 0
-1028 -5481 5541 0
-1028 -5482 5542 0
-1028 -5483 5543 0
-1028 -5484 5544 0
-1028 -5485 5545 0
-1028 -5486 5546 0
-1028 -5487 5547 0
-1028 -5488 5548 0
-1028 -5489 5549 0
-1028 -5490 5550 0
-1028 -5491 5551 0
-1028 -5492 5552 0
-1028 -5493 5553 0
-1028 -5494 5554 0
-1028 -5495 5555 0
-1028 -5496 5556 0
-1028 -5497 5557 0
-1028 -5498 5558 0
-1028 -5499 5559 0
-1028 -5500 5560 0
-1028 -5501 5561 0
-1028 -5502 5562 0
-1028 -5503 5563 0
-1028 -5504 5564 0
-1028 -5505 5565 0
-1028 -5506 5566 0
-1028 -5507 5567 0
-1028 -5508 5568 0
-1028 -5509 5569 0
-1028 -5510 5570 0
-1028 -5511 5571 0
-1028 -5512 5572 0
-1028 -5513 5573 0
-1028 -5514 5574 0
-1028 -5515 5575 0
-1028 -5516 5576 0
-1028 -5517 5577 0
-1028 -5518 5578 0
-1028 -5519 5579 0
-1028 -5520 5580 0
-1028 -5521 5581 0
-1028 -5522 5582 0
-1028 -5523 5583 0
-1028 -5524 5584 0
-1028 -5525 5585 0
-1028 -5526 5586 0
-1028 -5527 5587 0
-1028 -5528 5588 0
-1028 -5529 5589 0
-1028 -5530 5590 0
-1028 -5531 5591 0
-1028 -5532 5592 0
-1028 -5533 5593 0
-1028 -5534 5594 0
-1028 -5535 5595 0
-1028 -5536 5596 0
-1028 -5537 0
-5538 5597 0
-5539 5598 0
-5540 5599 0
-5541 5600 0
-5542 5601 0
-5543 5602 0
-5544 5603 0
-5545 5604 0
-5546 5605 0
-5547 5606 0
-5548 5607 0
-5549 5608 0
-5550 5609 0
-5551 5610 0
-5552 5611 0
-5553 5612 0
-5554 5613 0
-5555 5614 0
-5556 5615 0
-5557 5616 0
-5558 5617 0
-5559 5618 0
-5560 5619 0
-5561 5620 0
-5562 5621 0
-5563 5622 0
-5564 5623 0
-5565 5624 0
-5566 5625 0
-5567 5626 0
-5568 5627 0
-5569 5628 0
-5570 5629 0
-5571 5630 0
-5572 5631 0
-5573 5632 0
-5574 5633 0
-5575 5634 0
-5576 5635 0
-5577 5636 0
-5578 5637 0
-5579 5638 0
-5580 5639 0
-5581 5640 0
-5582 5641 0
-5583 5642 0
-5584 5643 0
-5585 5644 0
-5586 5645 0
-5587 5646 0
-5588 5647 0
-5589 5648 0
-5590 5649 0
-5591 5650 0
-5592 5651 0
-5593 5652 0
-5594 5653 0
-5595 5654 0
-5596 5655 0
-1030 -5538 5598 0
-1030 -5539 5599 0
-1030 -5540 5600 0
-1030 -5541 5601 0
-1030 -5542 5602 0
-1030 -5543 5603 0
-1030 -5544 5604 0
-1030 -5545 5605 0
-1030 -5546 5606 0
-1030 -5547 5607 0
-1030 -5548 5608 0
-1030 -5549 5609 0
-1030 -5550 5610 0
-1030 -5551 5611 0
-1030 -5552 5612 0
-1030 -5553 5613 0
-1030 -5554 5614 0
-1030 -5555 5615 0
-1030 -5556 5616 0
-1030 -5557 5617 0
-1030 -5558 5618 0
-1030 -5559 5619 0
-1030 -5560 5620 0
-1030 -5561 5621 0
-1030 -5562 5622 0
-1030 -5563 5623 0
-1030 -5564 5624 0
-1030 -5565 5625 0
-1030 -5566 5626 0
-1030 -5567 5627 0
-1030 -5568 5628 0
-1030 -5569 5629 0
-1030 -5570 5630 0
-1030 -5571 5631 0
-1030 -5572 5632 0
-1030 -5573 5633 0
-1030 -5574 5634 0
-1030 -5575 5635 0
-1030 -5576 5636 0
-1030 -5577 5637 0
-1030 -5578 5638 0
-1030 -5579 5639 0
-1030 -5580 5640 0
-1030 -5581 5641 0
-1030 -5582 5642 0
-1030 -5583 5643 0
-1030 -5584 5644 0
-1030 -5585 5645 0
-1030 -5586 5646 0
-1030 -5587 5647 0
-1030 -5588 5648 0
-1030 -5589 5649 0
-1030 -5590 5650 0
-1030 -5591 5651 0
-1030 -5592 5652 0
-1030 -5593 5653 0
-1030 -5594 5654 0
-1030 -5595 5655 0
-1030 -5596 0
-5597 5656 0
-5598 5657 0
-5599 5658 0
-5600 5659 0
-5601 5660 0
-5602 5661 0
-5603 5662 0
-5604 5663 0
-5605 5664 0
-5606 5665 0
-5607 5666 0
-5608 5667 0
-5609 5668 0
-5610 5669 0
-5611 5670 0
-5612 5671 0
-5613 5672 0
-5614 5673 0
-5615 5674 0
-5616 5675 0
-5617 5676 0
-5618 5677 0
-5619 5678 0
-5620 5679 0
-5621 5680 0
-5622 5681 0
-5623 5682 0
-5624 5683 0
-5625 5684 0
-5626 5685 0
-5627 5686 0
-5628 5687 0
-5629 5688 0
-5630 5689 0
-5631 5690 0
-5632 5691 0
-5633 5692 0
-5634 5693 0
-5635 5694 0
-5636 5695 0
-5637 5696 0
-5638 5697 0
-5639 5698 0
-5640 5699 0
-5641 5700 0
-5642 5701 0
-5643 5702 0
-5644 5703 0
-5645 5704 0
-5646 5705 0
-5647 5706 0
-5648 5707 0
-5649 5708 0
-5650 5709 0
-5651 5710 0
-5652 5711 0
-5653 5712 0
-5654 5713 0
-5655 5714 0
-1032 -5597 5657 0
-1032 -5598 5658 0
-1032 -5599 5659 0
-1032 -5600 5660 0
-1032 -5601 5661 0
-1032 -5602 5662 0
-1032 -5603 5663 0
-1032 -5604 5664 0
-1032 -5605 5665 0
-1032 -5606 5666 0
-1032 -5607 5667 0
-1032 -5608 5668 0
-1032 -5609 5669 0
-1032 -5610 5670 0
-1032 -5611 5671 0
-1032 -5612 5672 0
-1032 -5613 5673 0
-1032 -5614 5674 0
-1032 -5615 5675 0
-1032 -5616 5676 0
-1032 -5617 5677 0
-1032 -5618 5678 0
-1032 -5619 5679 0
-1032 -5620 5680 0
-1032 -5621 5681 0
-1032 -5622 5682 0
-1032 -5623 5683 0
-1032 -5624 5684 0
-1032 -5625 5685 0
-1032 -5626 5686 0
-1032 -5627 5687 0
-1032 -5628 5688 0
-1032 -5629 5689 0
-1032 -5630 5690 0
-1032 -5631 5691 0
-1032 -5632 5692 0
-1032 -5633 5693 0
-1032 -5634 5694 0
-1032 -5635 5695 0
-1032 -5636 5696 0
-1032 -5637 5697 0
-1032 -5638 5698 0
-1032 -5639 5699 0
-1032 -5640 5700 0
-1032 -5641 5701 0
-1032 -5642 5702 0
-1032 -5643 5703 0
-1032 -5644 5704 0
-1032 -5645 5705 0
-1032 -5646 5706 0
-1032 -5647 5707 0
-1032 -5648 5708 0
-1032 -5649 5709 0
-1032 -5650 5710 0
-1032 -5651 5711 0
-1032 -5652 5712 0
-1032 -5653 5713 0
-1032 -5654 5714 0
-1032 -5655 0
-5656 5715 0
-5657 5716 0
-5658 5717 0
-5659 5718 0
-5660 5719 0
-5661 5720 0
-5662 5721 0
-5663 5722 0
-5664 5723 0
-5665 5724 0
-5666 5725 0
-5667 5726 0
-5668 5727 0
-5669 5728 0
-5670 5729 0
-5671 5730 0
-5672 5731 0
-5673 5732 0
-5674 5733 0
-5675 5734 0
-5676 5735 0
-5677 5736 0
-5678 5737 0
-5679 5738 0
-5680 5739 0
-5681 5740 0
-5682 5741 0
-5683 5742 0
-5684 5743 0
-5685 5744 0
-5686 5745 0
-5687 5746 0
-5688 5747 0
-5689 5748 0
-5690 5749 0
-5691 5750 0
-5692 5751 0
-5693 5752 0
-5694 5753 0
-5695 5754 0
-5696 5755 0
-5697 5756 0
-5698 5757 0
-5699 5758 0
-5700 5759 0
-5701 5760 0
-5702 5761 0
-5703 5762 0
-5704 5763 0
-5705 5764 0
-5706 5765 0
-5707 5766 0
-5708 5767 0
-5709 5768 0
-5710 5769 0
-5711 5770 0
-5712 5771 0
-5713 5772 0
-5714 5773 0
-1034 -5656 5716 0
-1034 -5657 5717 0
-1034 -5658 5718 0
-1034 -5659 5719 0
-1034 -5660 5720 0
-1034 -5661 5721 0
-1034 -5662 5722 0
-1034 -5663 5723 0
-1034 -5664 5724 0
-1034 -5665 5725 0
-1034 -5666 5726 0
-1034 -5667 5727 0
-1034 -5668 5728 0
-1034 -5669 5729 0
-1034 -5670 5730 0
-1034 -5671 5731 0
-1034 -5672 5732 0
-1034 -5673 5733 0
-1034 -5674 5734 0
-1034 -5675 5735 0
-1034 -5676 5736 0
-1034 -5677 5737 0
-1034 -5678 5738 0
-1034 -5679 5739 0
-1034 -5680 5740 0
-1034 -5681 5741 0
-1034 -5682 5742 0
-1034 -5683 5743 0
-1034 -5684 5744 0
-1034 -5685 5745 0
-1034 -5686 5746 0
-1034 -5687 5747 0
-1034 -5688 5748 0
-1034 -5689 5749 0
-1034 -5690 5750 0
-1034 -5691 5751 0
-1034 -5692 5752 0
-1034 -5693 5753 0
-1034 -5694 5754 0
-1034 -5695 5755 0
-1034 -5696 5756 0
-1034 -5697 5757 0
-1034 -5698 5758 0
-1034 -5699 5759 0
-1034 -5700 5760 0
-1034 -5701 5761 0
-1034 -5702 5762 0
-1034 -5703 5763 0
-1034 -5704 5764 0
-1034 -5705 5765 0
-1034 -5706 5766 0
-1034 -5707 5767 0
-1034 -5708 5768 0
-1034 -5709 5769 0
-1034 -5710 5770 0
-1034 -5711 5771 0
-1034 -5712 5772 0
-1034 -5713 5773 0
-1034 -5714 0
-5715 5774 0
-5716 5775 0
-5717 5776 0
-5718 5777 0
-5719 5778 0
-5720 5779 0
-5721 5780 0
-5722 5781 0
-5723 5782 0
-5724 5783 0
-5725 5784 0
-5726 5785 0
-5727 5786 0
-5728 5787 0
-5729 5788 0
-5730 5789 0
-5731 5790 0
-5732 5791 0
-5733 5792 0
-5734 5793 0
-5735 5794 0
-5736 5795 0
-5737 5796 0
-5738 5797 0
-5739 5798 0
-5740 5799 0
-5741 5800 0
-5742 5801 0
-5743 5802 0
-5744 5803 0
-5745 5804 0
-5746 5805 0
-5747 5806 0
-5748 5807 0
-5749 5808 0
-5750 5809 0
-5751 5810 0
-5752 5811 0
-5753 5812 0
-5754 5813 0
-5755 5814 0
-5756 5815 0
-5757 5816 0
-5758 5817 0
-5759 5818 0
-5760 5819 0
-5761 5820 0
-5762 5821 0
-5763 5822 0
-5764 5823 0
-5765 5824 0
-5766 5825 0
-5767 5826 0
-5768 5827 0
-5769 5828 0
-5770 5829 0
-5771 5830 0
-5772 5831 0
-5773 5832 0
-1036 -5715 5775 0
-1036 -5716 5776 0
-1036 -5717 5777 0
-1036 -5718 5778 0
-1036 -5719 5779 0
-1036 -5720 5780 0
-1036 -5721 5781 0
-1036 -5722 5782 0
-1036 -5723 5783 0
-1036 -5724 5784 0
-1036 -5725 5785 0
-1036 -5726 5786 0
-1036 -5727 5787 0
-1036 -5728 5788 0
-1036 -5729 5789 0
-1036 -5730 5790 0
-1036 -5731 5791 0
-1036 -5732 5792 0
-1036 -5733 5793 0
-1036 -5734 5794 0
-1036 -5735 5795 0
-1036 -5736 5796 0
-1036 -5737 5797 0
-1036 -5738 5798 0
-1036 -5739 5799 0
-1036 -5740 5800 0
-1036 -5741 5801 0
-1036 -5742 5802 0
-1036 -5743 5803 0
-1036 -5744 5804 0
-1036 -5745 5805 0
-1036 -5746 5806 0
-1036 -5747 5807 0
-1036 -5748 5808 0
-1036 -5749 5809 0
-1036 -5750 5810 0
-1036 -5751 5811 0
-1036 -5752 5812 0
-1036 -5753 5813 0
-1036 -5754 5814 0
-1036 -5755 5815 0
-1036 -5756 5816 0
-1036 -5757 5817 0
-1036 -5758 5818 0
-1036 -5759 5819 0
-1036 -5760 5820 0
-1036 -5761 5821 0
-1036 -5762 5822 0
-1036 -5763 5823 0
-1036 -5764 5824 0
-1036 -5765 5825 0
-1036 -5766 5826 0
-1036 -5767 5827 0
-1036 -5768 5828 0
-1036 -5769 5829 0
-1036 -5770 5830 0
-1036 -5771 5831 0
-1036 -5772 5832 0
-1036 -5773 0
-5774 5833 0
-5775 5834 0
-5776 5835 0
-5777 5836 0
-5778 5837 0
-5779 5838 0
-5780 5839 0
-5781 5840 0
-5782 5841 0
-5783 5842 0
-5784 5843 0
-5785 5844 0
-5786 5845 0
-5787 5846 0
-5788 5847 0
-5789 5848 0
-5790 5849 0
-5791 5850 0
-5792 5851 0
-5793 5852 0
-5794 5853 0
-5795 5854 0
-5796 5855 0
-5797 5856 0
-5798 5857 0
-5799 5858 0
-5800 5859 0
-5801 5860 0
-5802 5861 0
-5803 5862 0
-5804 5863 0
-5805 5864 0
-5806 5865 0
-5807 5866 0
-5808 5867 0
-5809 5868 0
-5810 5869 0
-5811 5870 0
-5812 5871 0
-5813 5872 0
-5814 5873 0
-5815 5874 0
-5816 5875 0
-5817 5876 0
-5818 5877 0
-5819 5878 0
-5820 5879 0
-5821 5880 0
-5822 5881 0
-5823 5882 0
-5824 5883 0
-5825 5884 0
-5826 5885 0
-5827 5886 0
-5828 5887 0
-5829 5888 0
-5830 5889 0
-5831 5890 0
-5832 5891 0
-1038 -5774 5834 0
-1038 -5775 5835 0
-1038 -5776 5836 0
-1038 -5777 5837 0
-1038 -5778 5838 0
-1038 -5779 5839 0
-1038 -5780 5840 0
-1038 -5781 5841 0
-1038 -5782 5842 0
-1038 -5783 5843 0
-1038 -5784 5844 0
-1038 -5785 5845 0
-1038 -5786 5846 0
-1038 -5787 5847 0
-1038 -5788 5848 0
-1038 -5789 5849 0
-1038 -5790 5850 0
-1038 -5791 5851 0
-1038 -5792 5852 0
-1038 -5793 5853 0
-1038 -5794 5854 0
-1038 -5795 5855 0
-1038 -5796 5856 0
-1038 -5797 5857 0
-1038 -5798 5858 0
-1038 -5799 5859 0
-1038 -5800 5860 0
-1038 -5801 5861 0
-1038 -5802 5862 0
-1038 -5803 5863 0
-1038 -5804 5864 0
-1038 -5805 5865 0
-1038 -5806 5866 0
-1038 -5807 5867 0
-1038 -5808 5868 0
-1038 -5809 5869 0
-1038 -5810 5870 0
-1038 -5811 5871 0
-1038 -5812 5872 0
-1038 -5813 5873 0
-1038 -5814 5874 0
-1038 -5815 5875 0
-1038 -5816 5876 0
-1038 -5817 5877 0
-1038 -5818 5878 0
-1038 -5819 5879 0
-1038 -5820 5880 0
-1038 -5821 5881 0
-1038 -5822 5882 0
-1038 -5823 5883 0
-1038 -5824 5884 0
-1038 -5825 5885 0
-1038 -5826 5886 0
-1038 -5827 5887 0
-1038 -5828 5888 0
-1038 -5829 5889 0
-1038 -5830 5890 0
-1038 -5831 5891 0
-1038 -5832 0
-5833 5892 0
-5834 5893 0
-5835 5894 0
-5836 5895 0
-5837 5896 0
-5838 5897 0
-5839 5898 0
-5840 5899 0
-5841 5900 0
-5842 5901 0
-5843 5902 0
-5844 5903 0
-5845 5904 0
-5846 5905 0
-5847 5906 0
-5848 5907 0
-5849 5908 0
-5850 5909 0
-5851 5910 0
-5852 5911 0
-5853 5912 0
-5854 5913 0
-5855 5914 0
-5856 5915 0
-5857 5916 0
-5858 5917 0
-5859 5918 0
-5860 5919 0
-5861 5920 0
-5862 5921 0
-5863 5922 0
-5864 5923 0
-5865 5924 0
-5866 5925 0
-5867 5926 0
-5868 5927 0
-5869 5928 0
-5870 5929 0
-5871 5930 0
-5872 5931 0
-5873 5932 0
-5874 5933 0
-5875 5934 0
-5876 5935 0
-5877 5936 0
-5878 5937 0
-5879 5938 0
-5880 5939 0
-5881 5940 0
-5882 5941 0
-5883 5942 0
-5884 5943 0
-5885 5944 0
-5886 5945 0
-5887 5946 0
-5888 5947 0
-5889 5948 0
-5890 5949 0
-5891 5950 0
-1040 -5833 5893 0
-1040 -5834 5894 0
-1040 -5835 5895 0
-1040 -5836 5896 0
-1040 -5837 5897 0
-1040 -5838 5898 0
-1040 -5839 5899 0
-1040 -5840 5900 0
-1040 -5841 5901 0
-1040 -5842 5902 0
-1040 -5843 5903 0
-1040 -5844 5904 0
-1040 -5845 5905 0
-1040 -5846 5906 0
-1040 -5847 5907 0
-1040 -5848 5908 0
-1040 -5849 5909 0
-1040 -5850 5910 0
-1040 -5851 5911 0
-1040 -5852 5912 0
-1040 -5853 5913 0
-1040 -5854 5914 0
-1040 -5855 5915 0
-1040 -5856 5916 0
-1040 -5857 5917 0
-1040 -5858 5918 0
-1040 -5859 5919 0
-1040 -5860 5920 0
-1040 -5861 5921 0
-1040 -5862 5922 0
-1040 -5863 5923 0
-1040 -5864 5924 0
-1040 -5865 5925 0
-1040 -5866 5926 0
-1040 -5867 5927 0
-1040 -5868 5928 0
-1040 -5869 5929 0
-1040 -5870 5930 0
-1040 -5871 5931 0
-1040 -5872 5932 0
-1040 -5873 5933 0
-1040 -5874 5934 0
-1040 -5875 5935 0
-1040 -5876 5936 0
-1040 -5877 5937 0
-1040 -5878 5938 0
-1040 -5879 5939 0
-1040 -5880 5940 0
-1040 -5881 5941 0
-1040 -5882 5942 0
-1040 -5883 5943 0
-1040 -5884 5944 0
-1040 -5885 5945 0
-1040 -5886 5946 0
-1040 -5887 5947 0
-1040 -5888 5948 0
-1040 -5889 5949 0
-1040 -5890 5950 0
-1040 -5891 0
-5892 5951 0
-5893 5952 0
-5894 5953 0
-5895 5954 0
-5896 5955 0
-5897 5956 0
-5898 5957 0
-5899 5958 0
-5900 5959 0
-5901 5960 0
-5902 5961 0
-5903 5962 0
-5904 5963 0
-5905 5964 0
-5906 5965 0
-5907 5966 0
-5908 5967 0
-5909 5968 0
-5910 5969 0
-5911 5970 0
-5912 5971 0
-5913 5972 0
-5914 5973 0
-5915 5974 0
-5916 5975 0
-5917 5976 0
-5918 5977 0
-5919 5978 0
-5920 5979 0
-5921 5980 0
-5922 5981 0
-5923 5982 0
-5924 5983 0
-5925 5984 0
-5926 5985 0
-5927 5986 0
-5928 5987 0
-5929 5988 0
-5930 5989 0
-5931 5990 0
-5932 5991 0
-5933 5992 0
-5934 5993 0
-5935 5994 0
-5936 5995 0
-5937 5996 0
-5938 5997 0
-5939 5998 0
-5940 5999 0
-5941 6000 0
-5942 6001 0
-5943 6002 0
-5944 6003 0
-5945 6004 0
-5946 6005 0
-5947 6006 0
-5948 6007 0
-5949 6008 0
-5950 6009 0
-1042 -5892 5952 0
-1042 -5893 5953 0
-1042 -5894 5954 0
-1042 -5895 5955 0
-1042 -5896 5956 0
-1042 -5897 5957 0
-1042 -5898 5958 0
-1042 -5899 5959 0
-1042 -5900 5960 0
-1042 -5901 5961 0
-1042 -5902 5962 0
-1042 -5903 5963 0
-1042 -5904 5964 0
-1042 -5905 5965 0
-1042 -5906 5966 0
-1042 -5907 5967 0
-1042 -5908 5968 0
-1042 -5909 5969 0
-1042 -5910 5970 0
-1042 -5911 5971 0
-1042 -5912 5972 0
-1042 -5913 5973 0
-1042 -5914 5974 0
-1042 -5915 5975 0
-1042 -5916 5976 0
-1042 -5917 5977 0
-1042 -5918 5978 0
-1042 -5919 5979 0
-1042 -5920 5980 0
-1042 -5921 5981 0
-1042 -5922 5982 0
-1042 -5923 5983 0
-1042 -5924 5984 0
-1042 -5925 5985 0
-1042 -5926 5986 0
-1042 -5927 5987 0
-1042 -5928 5988 0
-1042 -5929 5989 0
-1042 -5930 5990 0
-1042 -5931 5991 0
-1042 -5932 5992 0
-1042 -5933 5993 0
-1042 -5934 5994 0
-1042 -5935 5995 0
-1042 -5936 5996 0
-1042 -5937 5997 0
-1042 -5938 5998 0
-1042 -5939 5999 0
-1042 -5940 6000 0
-1042 -5941 6001 0
-1042 -5942 6002 0
-1042 -5943 6003 0
-1042 -5944 6004 0
-1042 -5945 6005 0
-1042 -5946 6006 0
-1042 -5947 6007 0
-1042 -5948 6008 0
-1042 -5949 6009 0
-1042 -5950 0
-5951 6010 0
-5952 6011 0
-5953 6012 0
-5954 6013 0
-5955 6014 0
-5956 6015 0
-5957 6016 0
-5958 6017 0
-5959 6018 0
-5960 6019 0
-5961 6020 0
-5962 6021 0
-5963 6022 0
-5964 6023 0
-5965 6024 0
-5966 6025 0
-5967 6026 0
-5968 6027 0
-5969 6028 0
-5970 6029 0
-5971 6030 0
-5972 6031 0
-5973 6032 0
-5974 6033 0
-5975 6034 0
-5976 6035 0
-5977 6036 0
-5978 6037 0
-5979 6038 0
-5980 6039 0
-5981 6040 0
-5982 6041 0
-5983 6042 0
-5984 6043 0
-5985 6044 0
-5986 6045 0
-5987 6046 0
-5988 6047 0
-5989 6048 0
-5990 6049 0
-5991 6050 0
-5992 6051 0
-5993 6052 0
-5994 6053 0
-5995 6054 0
-5996 6055 0
-5997 6056 0
-5998 6057 0
-5999 6058 0
-6000 6059 0
-6001 6060 0
-6002 6061 0
-6003 6062 0
-6004 6063 0
-6005 6064 0
-6006 6065 0
-6007 6066 0
-6008 6067 0
-6009 6068 0
-1044 -5951 6011 0
-1044 -5952 6012 0
-1044 -5953 6013 0
-1044 -5954 6014 0
-1044 -5955 6015 0
-1044 -5956 6016 0
-1044 -5957 6017 0
-1044 -5958 6018 0
-1044 -5959 6019 0
-1044 -5960 6020 0
-1044 -5961 6021 0
-1044 -5962 6022 0
-1044 -5963 6023 0
-1044 -5964 6024 0
-1044 -5965 6025 0
-1044 -5966 6026 0
-1044 -5967 6027 0
-1044 -5968 6028 0
-1044 -5969 6029 0
-1044 -5970 6030 0
-1044 -5971 6031 0
-1044 -5972 6032 0
-1044 -5973 6033 0
-1044 -5974 6034 0
-1044 -5975 6035 0
-1044 -5976 6036 0
-1044 -5977 6037 0
-1044 -5978 6038 0
-1044 -5979 6039 0
-1044 -5980 6040 0
-1044 -5981 6041 0
-1044 -5982 6042 0
-1044 -5983 6043 0
-1044 -5984 6044 0
-1044 -5985 6045 0
-1044 -5986 6046 0
-1044 -5987 6047 0
-1044 -5988 6048 0
-1044 -5989 6049 0
-1044 -5990 6050 0
-1044 -5991 6051 0
-1044 -5992 6052 0
-1044 -5993 6053 0
-1044 -5994 6054 0
-1044 -5995 6055 0
-1044 -5996 6056 0
-1044 -5997 6057 0
-1044 -5998 6058 0
-1044 -5999 6059 0
-1044 -6000 6060 0
-1044 -6001 6061 0
-1044 -6002 6062 0
-1044 -6003 6063 0
-1044 -6004 6064 0
-1044 -6005 6065 0
-1044 -6006 6066 0
-1044 -6007 6067 0
-1044 -6008 6068 0
-1044 -6009 0
-6010 6069 0
-6011 6070 0
-6012 6071 0
-6013 6072 0
-6014 6073 0
-6015 6074 0
-6016 6075 0
-6017 6076 0
-6018 6077 0
-6019 6078 0
-6020 6079 0
-6021 6080 0
-6022 6081 0
-6023 6082 0
-6024 6083 0
-6025 6084 0
-6026 6085 0
-6027 6086 0
-6028 6087 0
-6029 6088 0
-6030 6089 0
-6031 6090 0
-6032 6091 0
-6033 6092 0
-6034 6093 0
-6035 6094 0
-6036 6095 0
-6037 6096 0
-6038 6097 0
-6039 6098 0
-6040 6099 0
-6041 6100 0
-6042 6101 0
-6043 6102 0
-6044 6103 0
-6045 6104 0
-6046 6105 0
-6047 6106 0
-6048 6107 0
-6049 6108 0
-6050 6109 0
-6051 6110 0
-6052 6111 0
-6053 6112 0
-6054 6113 0
-6055 6114 0
-6056 6115 0
-6057 6116 0
-6058 6117 0
-6059 6118 0
-6060 6119 0
-6061 6120 0
-6062 6121 0
-6063 6122 0
-6064 6123 0
-6065 6124 0
-6066 6125 0
-6067 6126 0
-6068 6127 0
-1046 -6010 6070 0
-1046 -6011 6071 0
-1046 -6012 6072 0
-1046 -6013 6073 0
-1046 -6014 6074 0
-1046 -6015 6075 0
-1046 -6016 6076 0
-1046 -6017 6077 0
-1046 -6018 6078 0
-1046 -6019 6079 0
-1046 -6020 6080 0
-1046 -6021 6081 0
-1046 -6022 6082 0
-1046 -6023 6083 0
-1046 -6024 6084 0
-1046 -6025 6085 0
-1046 -6026 6086 0
-1046 -6027 6087 0
-1046 -6028 6088 0
-1046 -6029 6089 0
-1046 -6030 6090 0
-1046 -6031 6091 0
-1046 -6032 6092 0
-1046 -6033 6093 0
-1046 -6034 6094 0
-1046 -6035 6095 0
-1046 -6036 6096 0
-1046 -6037 6097 0
-1046 -6038 6098 0
-1046 -6039 6099 0
-1046 -6040 6100 0
-1046 -6041 6101 0
-1046 -6042 6102 0
-1046 -6043 6103 0
-1046 -6044 6104 0
-1046 -6045 6105 0
-1046 -6046 6106 0
-1046 -6047 6107 0
-1046 -6048 6108 0
-1046 -6049 6109 0
-1046 -6050 6110 0
-1046 -6051 6111 0
-1046 -6052 6112 0
-1046 -6053 6113 0
-1046 -6054 6114 0
-1046 -6055 6115 0
-1046 -6056 6116 0
-1046 -6057 6117 0
-1046 -6058 6118 0
-1046 -6059 6119 0
-1046 -6060 6120 0
-1046 -6061 6121 0
-1046 -6062 6122 0
-1046 -6063 6123 0
-1046 -6064 6124 0
-1046 -6065 6125 0
-1046 -6066 6126 0
-1046 -6067 6127 0
-1046 -6068 0
-6069 6128 0
-6070 6129 0
-6071 6130 0
-6072 6131 0
-6073 6132 0
-6074 6133 0
-6075 6134 0
-6076 6135 0
-6077 6136 0
-6078 6137 0
-6079 6138 0
-6080 6139 0
-6081 6140 0
-6082 6141 0
-6083 6142 0
-6084 6143 0
-6085 6144 0
-6086 6145 0
-6087 6146 0
-6088 6147 0
-6089 6148 0
-6090 6149 0
-6091 6150 0
-6092 6151 0
-6093 6152 0
-6094 6153 0
-6095 6154 0
-6096 6155 0
-6097 6156 0
-6098 6157 0
-6099 6158 0
-6100 6159 0
-6101 6160 0
-6102 6161 0
-6103 6162 0
-6104 6163 0
-6105 6164 0
-6106 6165 0
-6107 6166 0
-6108 6167 0
-6109 6168 0
-6110 6169 0
-6111 6170 0
-6112 6171 0
-6113 6172 0
-6114 6173 0
-6115 6174 0
-6116 6175 0
-6117 6176 0
-6118 6177 0
-6119 6178 0
-6120 6179 0
-6121 6180 0
-6122 6181 0
-6123 6182 0
-6124 6183 0
-6125 6184 0
-6126 6185 0
-6127 6186 0
-1048 -6069 6129 0
-1048 -6070 6130 0
-1048 -6071 6131 0
-1048 -6072 6132 0
-1048 -6073 6133 0
-1048 -6074 6134 0
-1048 -6075 6135 0
-1048 -6076 6136 0
-1048 -6077 6137 0
-1048 -6078 6138 0
-1048 -6079 6139 0
-1048 -6080 6140 0
-1048 -6081 6141 0
-1048 -6082 6142 0
-1048 -6083 6143 0
-1048 -6084 6144 0
-1048 -6085 6145 0
-1048 -6086 6146 0
-1048 -6087 6147 0
-1048 -6088 6148 0
-1048 -6089 6149 0
-1048 -6090 6150 0
-1048 -6091 6151 0
-1048 -6092 6152 0
-1048 -6093 6153 0
-1048 -6094 6154 0
-1048 -6095 6155 0
-1048 -6096 6156 0
-1048 -6097 6157 0
-1048 -6098 6158 0
-1048 -6099 6159 0
-1048 -6100 6160 0
-1048 -6101 6161 0
-1048 -6102 6162 0
-1048 -6103 6163 0
-1048 -6104 6164 0
-1048 -6105 6165 0
-1048 -6106 6166 0
-1048 -6107 6167 0
-1048 -6108 6168 0
-1048 -6109 6169 0
-1048 -6110 6170 0
-1048 -6111 6171 0
-1048 -6112 6172 0
-1048 -6113 6173 0
-1048 -6114 6174 0
-1048 -6115 6175 0
-1048 -6116 6176 0
-1048 -6117 6177 0
-1048 -6118 6178 0
-1048 -6119 6179 0
-1048 -6120 6180 0
-1048 -6121 6181 0
-1048 -6122 6182 0
-1048 -6123 6183 0
-1048 -6124 6184 0
-1048 -6125 6185 0
-1048 -6126 6186 0
-1048 -6127 0
-6128 6187 0
-6129 6188 0
-6130 6189 0
-6131 6190 0
-6132 6191 0
-6133 6192 0
-6134 6193 0
-6135 6194 0
-6136 6195 0
-6137 6196 0
-6138 6197 0
-6139 6198 0
-6140 6199 0
-6141 6200 0
-6142 6201 0
-6143 6202 0
-6144 6203 0
-6145 6204 0
-6146 6205 0
-6147 6206 0
-6148 6207 0
-6149 6208 0
-6150 6209 0
-6151 6210 0
-6152 6211 0
-6153 6212 0
-6154 6213 0
-6155 6214 0
-6156 6215 0
-6157 6216 0
-6158 6217 0
-6159 6218 0
-6160 6219 0
-6161 6220 0
-6162 6221 0
-6163 6222 0
-6164 6223 0
-6165 6224 0
-6166 6225 0
-6167 6226 0
-6168 6227 0
-6169 6228 0
-6170 6229 0
-6171 6230 0
-6172 6231 0
-6173 6232 0
-6174 6233 0
-6175 6234 0
-6176 6235 0
-6177 6236 0
-6178 6237 0
-6179 6238 0
-6180 6239 0
-6181 6240 0
-6182 6241 0
-6183 6242 0
-6184 6243 0
-6185 6244 0
-6186 6245 0
-1050 -6128 6188 0
-1050 -6129 6189 0
-1050 -6130 6190 0
-1050 -6131 6191 0
-1050 -6132 6192 0
-1050 -6133 6193 0
-1050 -6134 6194 0
-1050 -6135 6195 0
-1050 -6136 6196 0
-1050 -6137 6197 0
-1050 -6138 6198 0
-1050 -6139 6199 0
-1050 -6140 6200 0
-1050 -6141 6201 0
-1050 -6142 6202 0
-1050 -6143 6203 0
-1050 -6144 6204 0
-1050 -6145 6205 0
-1050 -6146 6206 0
-1050 -6147 6207 0
-1050 -6148 6208 0
-1050 -6149 6209 0
-1050 -6150 6210 0
-1050 -6151 6211 0
-1050 -6152 6212 0
-1050 -6153 6213 0
-1050 -6154 6214 0
-1050 -6155 6215 0
-1050 -6156 6216 0
-1050 -6157 6217 0
-1050 -6158 6218 0
-1050 -6159 6219 0
-1050 -6160 6220 0
-1050 -6161 6221 0
-1050 -6162 6222 0
-1050 -6163 6223 0
-1050 -6164 6224 0
-1050 -6165 6225 0
-1050 -6166 6226 0
-1050 -6167 6227 0
-1050 -6168 6228 0
-1050 -6169 6229 0
-1050 -6170 6230 0
-1050 -6171 6231 0
-1050 -6172 6232 0
-1050 -6173 6233 0
-1050 -6174 6234 0
-1050 -6175 6235 0
-1050 -6176 6236 0
-1050 -6177 6237 0
-1050 -6178 6238 0
-1050 -6179 6239 0
-1050 -6180 6240 0
-1050 -6181 6241 0
-1050 -6182 6242 0
-1050 -6183 6243 0
-1050 -6184 6244 0
-1050 -6185 6245 0
-1050 -6186 0
-6187 6246 0
-6188 6247 0
-6189 6248 0
-6190 6249 0
-6191 6250 0
-6192 6251 0
-6193 6252 0
-6194 6253 0
-6195 6254 0
-6196 6255 0
-6197 6256 0
-6198 6257 0
-6199 6258 0
-6200 6259 0
-6201 6260 0
-6202 6261 0
-6203 6262 0
-6204 6263 0
-6205 6264 0
-6206 6265 0
-6207 6266 0
-6208 6267 0
-6209 6268 0
-6210 6269 0
-6211 6270 0
-6212 6271 0
-6213 6272 0
-6214 6273 0
-6215 6274 0
-6216 6275 0
-6217 6276 0
-6218 6277 0
-6219 6278 0
-6220 6279 0
-6221 6280 0
-6222 6281 0
-6223 6282 0
-6224 6283 0
-6225 6284 0
-6226 6285 0
-6227 6286 0
-6228 6287 0
-6229 6288 0
-6230 6289 0
-6231 6290 0
-6232 6291 0
-6233 6292 0
-6234 6293 0
-6235 6294 0
-6236 6295 0
-6237 6296 0
-6238 6297 0
-6239 6298 0
-6240 6299 0
-6241 6300 0
-6242 6301 0
-6243 6302 0
-6244 6303 0
-6245 6304 0
-1052 -6187 6247 0
-1052 -6188 6248 0
-1052 -6189 6249 0
-1052 -6190 6250 0
-1052 -6191 6251 0
-1052 -6192 6252 0
-1052 -6193 6253 0
-1052 -6194 6254 0
-1052 -6195 6255 0
-1052 -6196 6256 0
-1052 -6197 6257 0
-1052 -6198 6258 0
-1052 -6199 6259 0
-1052 -6200 6260 0
-1052 -6201 6261 0
-1052 -6202 6262 0
-1052 -6203 6263 0
-1052 -6204 6264 0
-1052 -6205 6265 0
-1052 -6206 6266 0
-1052 -6207 6267 0
-1052 -6208 6268 0
-1052 -6209 6269 0
-1052 -6210 6270 0
-1052 -6211 6271 0
-1052 -6212 6272 0
-1052 -6213 6273 0
-1052 -6214 6274 0
-1052 -6215 6275 0
-1052 -6216 6276 0
-1052 -6217 6277 0
-1052 -6218 6278 0
-1052 -6219 6279 0
-1052 -6220 6280 0
-1052 -6221 6281 0
-1052 -6222 6282 0
-1052 -6223 6283 0
-1052 -6224 6284 0
-1052 -6225 6285 0
-1052 -6226 6286 0
-1052 -6227 6287 0
-1052 -6228 6288 0
-1052 -6229 6289 0
-1052 -6230 6290 0
-1052 -6231 6291 0
-1052 -6232 6292 0
-1052 -6233 6293 0
-1052 -6234 6294 0
-1052 -6235 6295 0
-1052 -6236 6296 0
-1052 -6237 6297 0
-1052 -6238 6298 0
-1052 -6239 6299 0
-1052 -6240 6300 0
-1052 -6241 6301 0
-1052 -6242 6302 0
-1052 -6243 6303 0
-1052 -6244 6304 0
-1052 -6245 0
-6246 6305 0
-6247 6306 0
-6248 6307 0
-6249 6308 0
-6250 6309 0
-6251 6310 0
-6252 6311 0
-6253 6312 0
-6254 6313 0
-6255 6314 0
-6256 6315 0
-6257 6316 0
-6258 6317 0
-6259 6318 0
-6260 6319 0
-6261 6320 0
-6262 6321 0
-6263 6322 0
-6264 6323 0
-6265 6324 0
-6266 6325 0
-6267 6326 0
-6268 6327 0
-6269 6328 0
-6270 6329 0
-6271 6330 0
-6272 6331 0
-6273 6332 0
-6274 6333 0
-6275 6334 0
-6276 6335 0
-6277 6336 0
-6278 6337 0
-6279 6338 0
-6280 6339 0
-6281 6340 0
-6282 6341 0
-6283 6342 0
-6284 6343 0
-6285 6344 0
-6286 6345 0
-6287 6346 0
-6288 6347 0
-6289 6348 0
-6290 6349 0
-6291 6350 0
-6292 6351 0
-6293 6352 0
-6294 6353 0
-6295 6354 0
-6296 6355 0
-6297 6356 0
-6298 6357 0
-6299 6358 0
-6300 6359 0
-6301 6360 0
-6302 6361 0
-6303 6362 0
-6304 6363 0
-1054 -6246 6306 0
-1054 -6247 6307 0
-1054 -6248 6308 0
-1054 -6249 6309 0
-1054 -6250 6310 0
-1054 -6251 6311 0
-1054 -6252 6312 0
-1054 -6253 6313 0
-1054 -6254 6314 0
-1054 -6255 6315 0
-1054 -6256 6316 0
-1054 -6257 6317 0
-1054 -6258 6318 0
-1054 -6259 6319 0
-1054 -6260 6320 0
-1054 -6261 6321 0
-1054 -6262 6322 0
-1054 -6263 6323 0
-1054 -6264 6324 0
-1054 -6265 6325 0
-1054 -6266 6326 0
-1054 -6267 6327 0
-1054 -6268 6328 0
-1054 -6269 6329 0
-1054 -6270 6330 0
-1054 -6271 6331 0
-1054 -6272 6332 0
-1054 -6273 6333 0
-1054 -6274 6334 0
-1054 -6275 6335 0
-1054 -6276 6336 0
-1054 -6277 6337 0
-1054 -6278 6338 0
-1054 -6279 6339 0
-1054 -6280 6340 0
-1054 -6281 6341 0
-1054 -6282 6342 0
-1054 -6283 6343 0
-1054 -6284 6344 0
-1054 -6285 6345 0
-1054 -6286 6346 0
-1054 -6287 6347 0
-1054 -6288 6348 0
-1054 -6289 6349 0
-1054 -6290 6350 0
-1054 -6291 6351 0
-1054 -6292 6352 0
-1054 -6293 6353 0
-1054 -6294 6354 0
-1054 -6295 6355 0
-1054 -6296 6356 0
-1054 -6297 6357 0
-1054 -6298 6358 0
-1054 -6299 6359 0
-1054 -6300 6360 0
-1054 -6301 6361 0
-1054 -6302 6362 0
-1054 -6303 6363 0
-1054 -6304 0
-6305 6364 0
-6306 6365 0
-6307 6366 0
-6308 6367 0
-6309 6368 0
-6310 6369 0
-6311 6370 0
-6312 6371 0
-6313 6372 0
-6314 6373 0
-6315 6374 0
-6316 6375 0
-6317 6376 0
-6318 6377 0
-6319 6378 0
-6320 6379 0
-6321 6380 0
-6322 6381 0
-6323 6382 0
-6324 6383 0
-6325 6384 0
-6326 6385 0
-6327 6386 0
-6328 6387 0
-6329 6388 0
-6330 6389 0
-6331 6390 0
-6332 6391 0
-6333 6392 0
-6334 6393 0
-6335 6394 0
-6336 6395 0
-6337 6396 0
-6338 6397 0
-6339 6398 0
-6340 6399 0
-6341 6400 0
-6342 6401 0
-6343 6402 0
-6344 6403 0
-6345 6404 0
-6346 6405 0
-6347 6406 0
-6348 6407 0
-6349 6408 0
-6350 6409 0
-6351 6410 0
-6352 6411 0
-6353 6412 0
-6354 6413 0
-6355 6414 0
-6356 6415 0
-6357 6416 0
-6358 6417 0
-6359 6418 0
-6360 6419 0
-6361 6420 0
-6362 6421 0
-6363 6422 0
-1056 -6305 6365 0
-1056 -6306 6366 0
-1056 -6307 6367 0
-1056 -6308 6368 0
-1056 -6309 6369 0
-1056 -6310 6370 0
-1056 -6311 6371 0
-1056 -6312 6372 0
-1056 -6313 6373 0
-1056 -6314 6374 0
-1056 -6315 6375 0
-1056 -6316 6376 0
-1056 -6317 6377 0
-1056 -6318 6378 0
-1056 -6319 6379 0
-1056 -6320 6380 0
-1056 -6321 6381 0
-1056 -6322 6382 0
-1056 -6323 6383 0
-1056 -6324 6384 0
-1056 -6325 6385 0
-1056 -6326 6386 0
-1056 -6327 6387 0
-1056 -6328 6388 0
-1056 -6329 6389 0
-1056 -6330 6390 0
-1056 -6331 6391 0
-1056 -6332 6392 0
-1056 -6333 6393 0
-1056 -6334 6394 0
-1056 -6335 6395 0
-1056 -6336 6396 0
-1056 -6337 6397 0
-1056 -6338 6398 0
-1056 -6339 6399 0
-1056 -6340 6400 0
-1056 -6341 6401 0
-1056 -6342 6402 0
-1056 -6343 6403 0
-1056 -6344 6404 0
-1056 -6345 6405 0
-1056 -6346 6406 0
-1056 -6347 6407 0
-1056 -6348 6408 0
-1056 -6349 6409 0
-1056 -6350 6410 0
-1056 -6351 6411 0
-1056 -6352 6412 0
-1056 -6353 6413 0
-1056 -6354 6414 0
-1056 -6355 6415 0
-1056 -6356 6416 0
-1056 -6357 6417 0
-1056 -6358 6418 0
-1056 -6359 6419 0
-1056 -6360 6420 0
-1056 -6361 6421 0
-1056 -6362 6422 0
-1056 -6363 0
-6364 6423 0
-6365 6424 0
-6366 6425 0
-6367 6426 0
-6368 6427 0
-6369 6428 0
-6370 6429 0
-6371 6430 0
-6372 6431 0
-6373 6432 0
-6374 6433 0
-6375 6434 0
-6376 6435 0
-6377 6436 0
-6378 6437 0
-6379 6438 0
-6380 6439 0
-6381 6440 0
-6382 6441 0
-6383 6442 0
-6384 6443 0
-6385 6444 0
-6386 6445 0
-6387 6446 0
-6388 6447 0
-6389 6448 0
-6390 6449 0
-6391 6450 0
-6392 6451 0
-6393 6452 0
-6394 6453 0
-6395 6454 0
-6396 6455 0
-6397 6456 0
-6398 6457 0
-6399 6458 0
-6400 6459 0
-6401 6460 0
-6402 6461 0
-6403 6462 0
-6404 6463 0
-6405 6464 0
-6406 6465 0
-6407 6466 0
-6408 6467 0
-6409 6468 0
-6410 6469 0
-6411 6470 0
-6412 6471 0
-6413 6472 0
-6414 6473 0
-6415 6474 0
-6416 6475 0
-6417 6476 0
-6418 6477 0
-6419 6478 0
-6420 6479 0
-6421 6480 0
-6422 6481 0
-1058 -6364 6424 0
-1058 -6365 6425 0
-1058 -6366 6426 0
-1058 -6367 6427 0
-1058 -6368 6428 0
-1058 -6369 6429 0
-1058 -6370 6430 0
-1058 -6371 6431 0
-1058 -6372 6432 0
-1058 -6373 6433 0
-1058 -6374 6434 0
-1058 -6375 6435 0
-1058 -6376 6436 0
-1058 -6377 6437 0
-1058 -6378 6438 0
-1058 -6379 6439 0
-1058 -6380 6440 0
-1058 -6381 6441 0
-1058 -6382 6442 0
-1058 -6383 6443 0
-1058 -6384 6444 0
-1058 -6385 6445 0
-1058 -6386 6446 0
-1058 -6387 6447 0
-1058 -6388 6448 0
-1058 -6389 6449 0
-1058 -6390 6450 0
-1058 -6391 6451 0
-1058 -6392 6452 0
-1058 -6393 6453 0
-1058 -6394 6454 0
-1058 -6395 6455 0
-1058 -6396 6456 0
-1058 -6397 6457 0
-1058 -6398 6458 0
-1058 -6399 6459 0
-1058 -6400 6460 0
-1058 -6401 6461 0
-1058 -6402 6462 0
-1058 -6403 6463 0
-1058 -6404 6464 0
-1058 -6405 6465 0
-1058 -6406 6466 0
-1058 -6407 6467 0
-1058 -6408 6468 0
-1058 -6409 6469 0
-1058 -6410 6470 0
-1058 -6411 6471 0
-1058 -6412 6472 0
-1058 -6413 6473 0
-1058 -6414 6474 0
-1058 -6415 6475 0
-1058 -6416 6476 0
-1058 -6417 6477 0
-1058 -6418 6478 0
-1058 -6419 6479 0
-1058 -6420 6480 0
-1058 -6421 6481 0
-1058 -6422 0
-6423 6482 0
-6424 6483 0
-6425 6484 0
-6426 6485 0
-6427 6486 0
-6428 6487 0
-6429 6488 0
-6430 6489 0
-6431 6490 0
-6432 6491 0
-6433 6492 0
-6434 6493 0
-6435 6494 0
-6436 6495 0
-6437 6496 0
-6438 6497 0
-6439 6498 0
-6440 6499 0
-6441 6500 0
-6442 6501 0
-6443 6502 0
-6444 6503 0
-6445 6504 0
-6446 6505 0
-6447 6506 0
-6448 6507 0
-6449 6508 0
-6450 6509 0
-6451 6510 0
-6452 6511 0
-6453 6512 0
-6454 6513 0
-6455 6514 0
-6456 6515 0
-6457 6516 0
-6458 6517 0
-6459 6518 0
-6460 6519 0
-6461 6520 0
-6462 6521 0
-6463 6522 0
-6464 6523 0
-6465 6524 0
-6466 6525 0
-6467 6526 0
-6468 6527 0
-6469 6528 0
-6470 6529 0
-6471 6530 0
-6472 6531 0
-6473 6532 0
-6474 6533 0
-6475 6534 0
-6476 6535 0
-6477 6536 0
-6478 6537 0
-6479 6538 0
-6480 6539 0
-6481 6540 0
-1060 -6423 6483 0
-1060 -6424 6484 0
-1060 -6425 6485 0
-1060 -6426 6486 0
-1060 -6427 6487 0
-1060 -6428 6488 0
-1060 -6429 6489 0
-1060 -6430 6490 0
-1060 -6431 6491 0
-1060 -6432 6492 0
-1060 -6433 6493 0
-1060 -6434 6494 0
-1060 -6435 6495 0
-1060 -6436 6496 0
-1060 -6437 6497 0
-1060 -6438 6498 0
-1060 -6439 6499 0
-1060 -6440 6500 0
-1060 -6441 6501 0
-1060 -6442 6502 0
-1060 -6443 6503 0
-1060 -6444 6504 0
-1060 -6445 6505 0
-1060 -6446 6506 0
-1060 -6447 6507 0
-1060 -6448 6508 0
-1060 -6449 6509 0
-1060 -6450 6510 0
-1060 -6451 6511 0
-1060 -6452 6512 0
-1060 -6453 6513 0
-1060 -6454 6514 0
-1060 -6455 6515 0
-1060 -6456 6516 0
-1060 -6457 6517 0
-1060 -6458 6518 0
-1060 -6459 6519 0
-1060 -6460 6520 0
-1060 -6461 6521 0
-1060 -6462 6522 0
-1060 -6463 6523 0
-1060 -6464 6524 0
-1060 -6465 6525 0
-1060 -6466 6526 0
-1060 -6467 6527 0
-1060 -6468 6528 0
-1060 -6469 6529 0
-1060 -6470 6530 0
-1060 -6471 6531 0
-1060 -6472 6532 0
-1060 -6473 6533 0
-1060 -6474 6534 0
-1060 -6475 6535 0
-1060 -6476 6536 0
-1060 -6477 6537 0
-1060 -6478 6538 0
-1060 -6479 6539 0
-1060 -6480 6540 0
-1060 -6481 0
-6482 6541 0
-6483 6542 0
-6484 6543 0
-6485 6544 0
-6486 6545 0
-6487 6546 0
-6488 6547 0
-6489 6548 0
-6490 6549 0
-6491 6550 0
-6492 6551 0
-6493 6552 0
-6494 6553 0
-6495 6554 0
-6496 6555 0
-6497 6556 0
-6498 6557 0
-6499 6558 0
-6500 6559 0
-6501 6560 0
-6502 6561 0
-6503 6562 0
-6504 6563 0
-6505 6564 0
-6506 6565 0
-6507 6566 0
-6508 6567 0
-6509 6568 0
-6510 6569 0
-6511 6570 0
-6512 6571 0
-6513 6572 0
-6514 6573 0
-6515 6574 0
-6516 6575 0
-6517 6576 0
-6518 6577 0
-6519 6578 0
-6520 6579 0
-6521 6580 0
-6522 6581 0
-6523 6582 0
-6524 6583 0
-6525 6584 0
-6526 6585 0
-6527 6586 0
-6528 6587 0
-6529 6588 0
-6530 6589 0
-6531 6590 0
-6532 6591 0
-6533 6592 0
-6534 6593 0
-6535 6594 0
-6536 6595 0
-6537 6596 0
-6538 6597 0
-6539 6598 0
-6540 6599 0
-1062 -6482 6542 0
-1062 -6483 6543 0
-1062 -6484 6544 0
-1062 -6485 6545 0
-1062 -6486 6546 0
-1062 -6487 6547 0
-1062 -6488 6548 0
-1062 -6489 6549 0
-1062 -6490 6550 0
-1062 -6491 6551 0
-1062 -6492 6552 0
-1062 -6493 6553 0
-1062 -6494 6554 0
-1062 -6495 6555 0
-1062 -6496 6556 0
-1062 -6497 6557 0
-1062 -6498 6558 0
-1062 -6499 6559 0
-1062 -6500 6560 0
-1062 -6501 6561 0
-1062 -6502 6562 0
-1062 -6503 6563 0
-1062 -6504 6564 0
-1062 -6505 6565 0
-1062 -6506 6566 0
-1062 -6507 6567 0
-1062 -6508 6568 0
-1062 -6509 6569 0
-1062 -6510 6570 0
-1062 -6511 6571 0
-1062 -6512 6572 0
-1062 -6513 6573 0
-1062 -6514 6574 0
-1062 -6515 6575 0
-1062 -6516 6576 0
-1062 -6517 6577 0
-1062 -6518 6578 0
-1062 -6519 6579 0
-1062 -6520 6580 0
-1062 -6521 6581 0
-1062 -6522 6582 0
-1062 -6523 6583 0
-1062 -6524 6584 0
-1062 -6525 6585 0
-1062 -6526 6586 0
-1062 -6527 6587 0
-1062 -6528 6588 0
-1062 -6529 6589 0
-1062 -6530 6590 0
-1062 -6531 6591 0
-1062 -6532 6592 0
-1062 -6533 6593 0
-1062 -6534 6594 0
-1062 -6535 6595 0
-1062 -6536 6596 0
-1062 -6537 6597 0
-1062 -6538 6598 0
-1062 -6539 6599 0
-1062 -6540 0
-6541 6600 0
-6542 6601 0
-6543 6602 0
-6544 6603 0
-6545 6604 0
-6546 6605 0
-6547 6606 0
-6548 6607 0
-6549 6608 0
-6550 6609 0
-6551 6610 0
-6552 6611 0
-6553 6612 0
-6554 6613 0
-6555 6614 0
-6556 6615 0
-6557 6616 0
-6558 6617 0
-6559 6618 0
-6560 6619 0
-6561 6620 0
-6562 6621 0
-6563 6622 0
-6564 6623 0
-6565 6624 0
-6566 6625 0
-6567 6626 0
-6568 6627 0
-6569 6628 0
-6570 6629 0
-6571 6630 0
-6572 6631 0
-6573 6632 0
-6574 6633 0
-6575 6634 0
-6576 6635 0
-6577 6636 0
-6578 6637 0
-6579 6638 0
-6580 6639 0
-6581 6640 0
-6582 6641 0
-6583 6642 0
-6584 6643 0
-6585 6644 0
-6586 6645 0
-6587 6646 0
-6588 6647 0
-6589 6648 0
-6590 6649 0
-6591 6650 0
-6592 6651 0
-6593 6652 0
-6594 6653 0
-6595 6654 0
-6596 6655 0
-6597 6656 0
-6598 6657 0
-6599 6658 0
-1064 -6541 6601 0
-1064 -6542 6602 0
-1064 -6543 6603 0
-1064 -6544 6604 0
-1064 -6545 6605 0
-1064 -6546 6606 0
-1064 -6547 6607 0
-1064 -6548 6608 0
-1064 -6549 6609 0
-1064 -6550 6610 0
-1064 -6551 6611 0
-1064 -6552 6612 0
-1064 -6553 6613 0
-1064 -6554 6614 0
-1064 -6555 6615 0
-1064 -6556 6616 0
-1064 -6557 6617 0
-1064 -6558 6618 0
-1064 -6559 6619 0
-1064 -6560 6620 0
-1064 -6561 6621 0
-1064 -6562 6622 0
-1064 -6563 6623 0
-1064 -6564 6624 0
-1064 -6565 6625 0
-1064 -6566 6626 0
-1064 -6567 6627 0
-1064 -6568 6628 0
-1064 -6569 6629 0
-1064 -6570 6630 0
-1064 -6571 6631 0
-1064 -6572 6632 0
-1064 -6573 6633 0
-1064 -6574 6634 0
-1064 -6575 6635 0
-1064 -6576 6636 0
-1064 -6577 6637 0
-1064 -6578 6638 0
-1064 -6579 6639 0
-1064 -6580 6640 0
-1064 -6581 6641 0
-1064 -6582 6642 0
-1064 -6583 6643 0
-1064 -6584 6644 0
-1064 -6585 6645 0
-1064 -6586 6646 0
-1064 -6587 6647 0
-1064 -6588 6648 0
-1064 -6589 6649 0
-1064 -6590 6650 0
-1064 -6591 6651 0
-1064 -6592 6652 0
-1064 -6593 6653 0
-1064 -6594 6654 0
-1064 -6595 6655 0
-1064 -6596 6656 0
-1064 -6597 6657 0
-1064 -6598 6658 0
-1064 -6599 0
-6600 6659 0
-6601 6660 0
-6602 6661 0
-6603 6662 0
-6604 6663 0
-6605 6664 0
-6606 6665 0
-6607 6666 0
-6608 6667 0
-6609 6668 0
-6610 6669 0
-6611 6670 0
-6612 6671 0
-6613 6672 0
-6614 6673 0
-6615 6674 0
-6616 6675 0
-6617 6676 0
-6618 6677 0
-6619 6678 0
-6620 6679 0
-6621 6680 0
-6622 6681 0
-6623 6682 0
-6624 6683 0
-6625 6684 0
-6626 6685 0
-6627 6686 0
-6628 6687 0
-6629 6688 0
-6630 6689 0
-6631 6690 0
-6632 6691 0
-6633 6692 0
-6634 6693 0
-6635 6694 0
-6636 6695 0
-6637 6696 0
-6638 6697 0
-6639 6698 0
-6640 6699 0
-6641 6700 0
-6642 6701 0
-6643 6702 0
-6644 6703 0
-6645 6704 0
-6646 6705 0
-6647 6706 0
-6648 6707 0
-6649 6708 0
-6650 6709 0
-6651 6710 0
-6652 6711 0
-6653 6712 0
-6654 6713 0
-6655 6714 0
-6656 6715 0
-6657 6716 0
-6658 6717 0
-1066 -6600 6660 0
-1066 -6601 6661 0
-1066 -6602 6662 0
-1066 -6603 6663 0
-1066 -6604 6664 0
-1066 -6605 6665 0
-1066 -6606 6666 0
-1066 -6607 6667 0
-1066 -6608 6668 0
-1066 -6609 6669 0
-1066 -6610 6670 0
-1066 -6611 6671 0
-1066 -6612 6672 0
-1066 -6613 6673 0
-1066 -6614 6674 0
-1066 -6615 6675 0
-1066 -6616 6676 0
-1066 -6617 6677 0
-1066 -6618 6678 0
-1066 -6619 6679 0
-1066 -6620 6680 0
-1066 -6621 6681 0
-1066 -6622 6682 0
-1066 -6623 6683 0
-1066 -6624 6684 0
-1066 -6625 6685 0
-1066 -6626 6686 0
-1066 -6627 6687 0
-1066 -6628 6688 0
-1066 -6629 6689 0
-1066 -6630 6690 0
-1066 -6631 6691 0
-1066 -6632 6692 0
-1066 -6633 6693 0
-1066 -6634 6694 0
-1066 -6635 6695 0
-1066 -6636 6696 0
-1066 -6637 6697 0
-1066 -6638 6698 0
-1066 -6639 6699 0
-1066 -6640 6700 0
-1066 -6641 6701 0
-1066 -6642 6702 0
-1066 -6643 6703 0
-1066 -6644 6704 0
-1066 -6645 6705 0
-1066 -6646 6706 0
-1066 -6647 6707 0
-1066 -6648 6708 0
-1066 -6649 6709 0
-1066 -6650 6710 0
-1066 -6651 6711 0
-1066 -6652 6712 0
-1066 -6653 6713 0
-1066 -6654 6714 0
-1066 -6655 6715 0
-1066 -6656 6716 0
-1066 -6657 6717 0
-1066 -6658 0
-6659 6718 0
-6660 6719 0
-6661 6720 0
-6662 6721 0
-6663 6722 0
-6664 6723 0
-6665 6724 0
-6666 6725 0
-6667 6726 0
-6668 6727 0
-6669 6728 0
-6670 6729 0
-6671 6730 0
-6672 6731 0
-6673 6732 0
-6674 6733 0
-6675 6734 0
-6676 6735 0
-6677 6736 0
-6678 6737 0
-6679 6738 0
-6680 6739 0
-6681 6740 0
-6682 6741 0
-6683 6742 0
-6684 6743 0
-6685 6744 0
-6686 6745 0
-6687 6746 0
-6688 6747 0
-6689 6748 0
-6690 6749 0
-6691 6750 0
-6692 6751 0
-6693 6752 0
-6694 6753 0
-6695 6754 0
-6696 6755 0
-6697 6756 0
-6698 6757 0
-6699 6758 0
-6700 6759 0
-6701 6760 0
-6702 6761 0
-6703 6762 0
-6704 6763 0
-6705 6764 0
-6706 6765 0
-6707 6766 0
-6708 6767 0
-6709 6768 0
-6710 6769 0
-6711 6770 0
-6712 6771 0
-6713 6772 0
-6714 6773 0
-6715 6774 0
-6716 6775 0
-6717 6776 0
-1068 -6659 6719 0
-1068 -6660 6720 0
-1068 -6661 6721 0
-1068 -6662 6722 0
-1068 -6663 6723 0
-1068 -6664 6724 0
-1068 -6665 6725 0
-1068 -6666 6726 0
-1068 -6667 6727 0
-1068 -6668 6728 0
-1068 -6669 6729 0
-1068 -6670 6730 0
-1068 -6671 6731 0
-1068 -6672 6732 0
-1068 -6673 6733 0
-1068 -6674 6734 0
-1068 -6675 6735 0
-1068 -6676 6736 0
-1068 -6677 6737 0
-1068 -6678 6738 0
-1068 -6679 6739 0
-1068 -6680 6740 0
-1068 -6681 6741 0
-1068 -6682 6742 0
-1068 -6683 6743 0
-1068 -6684 6744 0
-1068 -6685 6745 0
-1068 -6686 6746 0
-1068 -6687 6747 0
-1068 -6688 6748 0
-1068 -6689 6749 0
-1068 -6690 6750 0
-1068 -6691 6751 0
-1068 -6692 6752 0
-1068 -6693 6753 0
-1068 -6694 6754 0
-1068 -6695 6755 0
-1068 -6696 6756 0
-1068 -6697 6757 0
-1068 -6698 6758 0
-1068 -6699 6759 0
-1068 -6700 6760 0
-1068 -6701 6761 0
-1068 -6702 6762 0
-1068 -6703 6763 0
-1068 -6704 6764 0
-1068 -6705 6765 0
-1068 -6706 6766 0
-1068 -6707 6767 0
-1068 -6708 6768 0
-1068 -6709 6769 0
-1068 -6710 6770 0
-1068 -6711 6771 0
-1068 -6712 6772 0
-1068 -6713 6773 0
-1068 -6714 6774 0
-1068 -6715 6775 0
-1068 -6716 6776 0
-1068 -6717 0
-6718 6777 0
-6719 6778 0
-6720 6779 0
-6721 6780 0
-6722 6781 0
-6723 6782 0
-6724 6783 0
-6725 6784 0
-6726 6785 0
-6727 6786 0
-6728 6787 0
-6729 6788 0
-6730 6789 0
-6731 6790 0
-6732 6791 0
-6733 6792 0
-6734 6793 0
-6735 6794 0
-6736 6795 0
-6737 6796 0
-6738 6797 0
-6739 6798 0
-6740 6799 0
-6741 6800 0
-6742 6801 0
-6743 6802 0
-6744 6803 0
-6745 6804 0
-6746 6805 0
-6747 6806 0
-6748 6807 0
-6749 6808 0
-6750 6809 0
-6751 6810 0
-6752 6811 0
-6753 6812 0
-6754 6813 0
-6755 6814 0
-6756 6815 0
-6757 6816 0
-6758 6817 0
-6759 6818 0
-6760 6819 0
-6761 6820 0
-6762 6821 0
-6763 6822 0
-6764 6823 0
-6765 6824 0
-6766 6825 0
-6767 6826 0
-6768 6827 0
-6769 6828 0
-6770 6829 0
-6771 6830 0
-6772 6831 0
-6773 6832 0
-6774 6833 0
-6775 6834 0
-6776 6835 0
-1070 -6718 6778 0
-1070 -6719 6779 0
-1070 -6720 6780 0
-1070 -6721 6781 0
-1070 -6722 6782 0
-1070 -6723 6783 0
-1070 -6724 6784 0
-1070 -6725 6785 0
-1070 -6726 6786 0
-1070 -6727 6787 0
-1070 -6728 6788 0
-1070 -6729 6789 0
-1070 -6730 6790 0
-1070 -6731 6791 0
-1070 -6732 6792 0
-1070 -6733 6793 0
-1070 -6734 6794 0
-1070 -6735 6795 0
-1070 -6736 6796 0
-1070 -6737 6797 0
-1070 -6738 6798 0
-1070 -6739 6799 0
-1070 -6740 6800 0
-1070 -6741 6801 0
-1070 -6742 6802 0
-1070 -6743 6803 0
-1070 -6744 6804 0
-1070 -6745 6805 0
-1070 -6746 6806 0
-1070 -6747 6807 0
-1070 -6748 6808 0
-1070 -6749 6809 0
-1070 -6750 6810 0
-1070 -6751 6811 0
-1070 -6752 6812 0
-1070 -6753 6813 0
-1070 -6754 6814 0
-1070 -6755 6815 0
-1070 -6756 6816 0
-1070 -6757 6817 0
-1070 -6758 6818 0
-1070 -6759 6819 0
-1070 -6760 6820 0
-1070 -6761 6821 0
-1070 -6762 6822 0
-1070 -6763 6823 0
-1070 -6764 6824 0
-1070 -6765 6825 0
-1070 -6766 6826 0
-1070 -6767 6827 0
-1070 -6768 6828 0
-1070 -6769 6829 0
-1070 -6770 6830 0
-1070 -6771 6831 0
-1070 -6772 6832 0
-1070 -6773 6833 0
-1070 -6774 6834 0
-1070 -6775 6835 0
-1070 -6776 0
-6777 6836 0
-6778 6837 0
-6779 6838 0
-6780 6839 0
-6781 6840 0
-6782 6841 0
-6783 6842 0
-6784 6843 0
-6785 6844 0
-6786 6845 0
-6787 6846 0
-6788 6847 0
-6789 6848 0
-6790 6849 0
-6791 6850 0
-6792 6851 0
-6793 6852 0
-6794 6853 0
-6795 6854 0
-6796 6855 0
-6797 6856 0
-6798 6857 0
-6799 6858 0
-6800 6859 0
-6801 6860 0
-6802 6861 0
-6803 6862 0
-6804 6863 0
-6805 6864 0
-6806 6865 0
-6807 6866 0
-6808 6867 0
-6809 6868 0
-6810 6869 0
-6811 6870 0
-6812 6871 0
-6813 6872 0
-6814 6873 0
-6815 6874 0
-6816 6875 0
-6817 6876 0
-6818 6877 0
-6819 6878 0
-6820 6879 0
-6821 6880 0
-6822 6881 0
-6823 6882 0
-6824 6883 0
-6825 6884 0
-6826 6885 0
-6827 6886 0
-6828 6887 0
-6829 6888 0
-6830 6889 0
-6831 6890 0
-6832 6891 0
-6833 6892 0
-6834 6893 0
-6835 6894 0
-1072 -6777 6837 0
-1072 -6778 6838 0
-1072 -6779 6839 0
-1072 -6780 6840 0
-1072 -6781 6841 0
-1072 -6782 6842 0
-1072 -6783 6843 0
-1072 -6784 6844 0
-1072 -6785 6845 0
-1072 -6786 6846 0
-1072 -6787 6847 0
-1072 -6788 6848 0
-1072 -6789 6849 0
-1072 -6790 6850 0
-1072 -6791 6851 0
-1072 -6792 6852 0
-1072 -6793 6853 0
-1072 -6794 6854 0
-1072 -6795 6855 0
-1072 -6796 6856 0
-1072 -6797 6857 0
-1072 -6798 6858 0
-1072 -6799 6859 0
-1072 -6800 6860 0
-1072 -6801 6861 0
-1072 -6802 6862 0
-1072 -6803 6863 0
-1072 -6804 6864 0
-1072 -6805 6865 0
-1072 -6806 6866 0
-1072 -6807 6867 0
-1072 -6808 6868 0
-1072 -6809 6869 0
-1072 -6810 6870 0
-1072 -6811 6871 0
-1072 -6812 6872 0
-1072 -6813 6873 0
-1072 -6814 6874 0
-1072 -6815 6875 0
-1072 -6816 6876 0
-1072 -6817 6877 0
-1072 -6818 6878 0
-1072 -6819 6879 0
-1072 -6820 6880 0
-1072 -6821 6881 0
-1072 -6822 6882 0
-1072 -6823 6883 0
-1072 -6824 6884 0
-1072 -6825 6885 0
-1072 -6826 6886 0
-1072 -6827 6887 0
-1072 -6828 6888 0
-1072 -6829 6889 0
-1072 -6830 6890 0
-1072 -6831 6891 0
-1072 -6832 6892 0
-1072 -6833 6893 0
-1072 -6834 6894 0
-1072 -6835 0
-6836 6895 0
-6837 6896 0
-6838 6897 0
-6839 6898 0
-6840 6899 0
-6841 6900 0
-6842 6901 0
-6843 6902 0
-6844 6903 0
-6845 6904 0
-6846 6905 0
-6847 6906 0
-6848 6907 0
-6849 6908 0
-6850 6909 0
-6851 6910 0
-6852 6911 0
-6853 6912 0
-6854 6913 0
-6855 6914 0
-6856 6915 0
-6857 6916 0
-6858 6917 0
-6859 6918 0
-6860 6919 0
-6861 6920 0
-6862 6921 0
-6863 6922 0
-6864 6923 0
-6865 6924 0
-6866 6925 0
-6867 6926 0
-6868 6927 0
-6869 6928 0
-6870 6929 0
-6871 6930 0
-6872 6931 0
-6873 6932 0
-6874 6933 0
-6875 6934 0
-6876 6935 0
-6877 6936 0
-6878 6937 0
-6879 6938 0
-6880 6939 0
-6881 6940 0
-6882 6941 0
-6883 6942 0
-6884 6943 0
-6885 6944 0
-6886 6945 0
-6887 6946 0
-6888 6947 0
-6889 6948 0
-6890 6949 0
-6891 6950 0
-6892 6951 0
-6893 6952 0
-6894 6953 0
-1074 -6836 6896 0
-1074 -6837 6897 0
-1074 -6838 6898 0
-1074 -6839 6899 0
-1074 -6840 6900 0
-1074 -6841 6901 0
-1074 -6842 6902 0
-1074 -6843 6903 0
-1074 -6844 6904 0
-1074 -6845 6905 0
-1074 -6846 6906 0
-1074 -6847 6907 0
-1074 -6848 6908 0
-1074 -6849 6909 0
-1074 -6850 6910 0
-1074 -6851 6911 0
-1074 -6852 6912 0
-1074 -6853 6913 0
-1074 -6854 6914 0
-1074 -6855 6915 0
-1074 -6856 6916 0
-1074 -6857 6917 0
-1074 -6858 6918 0
-1074 -6859 6919 0
-1074 -6860 6920 0
-1074 -6861 6921 0
-1074 -6862 6922 0
-1074 -6863 6923 0
-1074 -6864 6924 0
-1074 -6865 6925 0
-1074 -6866 6926 0
-1074 -6867 6927 0
-1074 -6868 6928 0
-1074 -6869 6929 0
-1074 -6870 6930 0
-1074 -6871 6931 0
-1074 -6872 6932 0
-1074 -6873 6933 0
-1074 -6874 6934 0
-1074 -6875 6935 0
-1074 -6876 6936 0
-1074 -6877 6937 0
-1074 -6878 6938 0
-1074 -6879 6939 0
-1074 -6880 6940 0
-1074 -6881 6941 0
-1074 -6882 6942 0
-1074 -6883 6943 0
-1074 -6884 6944 0
-1074 -6885 6945 0
-1074 -6886 6946 0
-1074 -6887 6947 0
-1074 -6888 6948 0
-1074 -6889 6949 0
-1074 -6890 6950 0
-1074 -6891 6951 0
-1074 -6892 6952 0
-1074 -6893 6953 0
-1074 -6894 0
-6895 6954 0
-6896 6955 0
-6897 6956 0
-6898 6957 0
-6899 6958 0
-6900 6959 0
-6901 6960 0
-6902 6961 0
-6903 6962 0
-6904 6963 0
-6905 6964 0
-6906 6965 0
-6907 6966 0
-6908 6967 0
-6909 6968 0
-6910 6969 0
-6911 6970 0
-6912 6971 0
-6913 6972 0
-6914 6973 0
-6915 6974 0
-6916 6975 0
-6917 6976 0
-6918 6977 0
-6919 6978 0
-6920 6979 0
-6921 6980 0
-6922 6981 0
-6923 6982 0
-6924 6983 0
-6925 6984 0
-6926 6985 0
-6927 6986 0
-6928 6987 0
-6929 6988 0
-6930 6989 0
-6931 6990 0
-6932 6991 0
-6933 6992 0
-6934 6993 0
-6935 6994 0
-6936 6995 0
-6937 6996 0
-6938 6997 0
-6939 6998 0
-6940 6999 0
-6941 7000 0
-6942 7001 0
-6943 7002 0
-6944 7003 0
-6945 7004 0
-6946 7005 0
-6947 7006 0
-6948 7007 0
-6949 7008 0
-6950 7009 0
-6951 7010 0
-6952 7011 0
-6953 7012 0
-1076 -6895 6955 0
-1076 -6896 6956 0
-1076 -6897 6957 0
-1076 -6898 6958 0
-1076 -6899 6959 0
-1076 -6900 6960 0
-1076 -6901 6961 0
-1076 -6902 6962 0
-1076 -6903 6963 0
-1076 -6904 6964 0
-1076 -6905 6965 0
-1076 -6906 6966 0
-1076 -6907 6967 0
-1076 -6908 6968 0
-1076 -6909 6969 0
-1076 -6910 6970 0
-1076 -6911 6971 0
-1076 -6912 6972 0
-1076 -6913 6973 0
-1076 -6914 6974 0
-1076 -6915 6975 0
-1076 -6916 6976 0
-1076 -6917 6977 0
-1076 -6918 6978 0
-1076 -6919 6979 0
-1076 -6920 6980 0
-1076 -6921 6981 0
-1076 -6922 6982 0
-1076 -6923 6983 0
-1076 -6924 6984 0
-1076 -6925 6985 0
-1076 -6926 6986 0
-1076 -6927 6987 0
-1076 -6928 6988 0
-1076 -6929 6989 0
-1076 -6930 6990 0
-1076 -6931 6991 0
-1076 -6932 6992 0
-1076 -6933 6993 0
-1076 -6934 6994 0
-1076 -6935 6995 0
-1076 -6936 6996 0
-1076 -6937 6997 0
-1076 -6938 6998 0
-1076 -6939 6999 0
-1076 -6940 7000 0
-1076 -6941 7001 0
-1076 -6942 7002 0
-1076 -6943 7003 0
-1076 -6944 7004 0
-1076 -6945 7005 0
-1076 -6946 7006 0
-1076 -6947 7007 0
-1076 -6948 7008 0
-1076 -6949 7009 0
-1076 -6950 7010 0
-1076 -6951 7011 0
-1076 -6952 7012 0
-1076 -6953 0
-6954 7013 0
-6955 7014 0
-6956 7015 0
-6957 7016 0
-6958 7017 0
-6959 7018 0
-6960 7019 0
-6961 7020 0
-6962 7021 0
-6963 7022 0
-6964 7023 0
-6965 7024 0
-6966 7025 0
-6967 7026 0
-6968 7027 0
-6969 7028 0
-6970 7029 0
-6971 7030 0
-6972 7031 0
-6973 7032 0
-6974 7033 0
-6975 7034 0
-6976 7035 0
-6977 7036 0
-6978 7037 0
-6979 7038 0
-6980 7039 0
-6981 7040 0
-6982 7041 0
-6983 7042 0
-6984 7043 0
-6985 7044 0
-6986 7045 0
-6987 7046 0
-6988 7047 0
-6989 7048 0
-6990 7049 0
-6991 7050 0
-6992 7051 0
-6993 7052 0
-6994 7053 0
-6995 7054 0
-6996 7055 0
-6997 7056 0
-6998 7057 0
-6999 7058 0
-7000 7059 0
-7001 7060 0
-7002 7061 0
-7003 7062 0
-7004 7063 0
-7005 7064 0
-7006 7065 0
-7007 7066 0
-7008 7067 0
-7009 7068 0
-7010 7069 0
-7011 7070 0
-7012 7071 0
-1078 -6954 7014 0
-1078 -6955 7015 0
-1078 -6956 7016 0
-1078 -6957 7017 0
-1078 -6958 7018 0
-1078 -6959 7019 0
-1078 -6960 7020 0
-1078 -6961 7021 0
-1078 -6962 7022 0
-1078 -6963 7023 0
-1078 -6964 7024 0
-1078 -6965 7025 0
-1078 -6966 7026 0
-1078 -6967 7027 0
-1078 -6968 7028 0
-1078 -6969 7029 0
-1078 -6970 7030 0
-1078 -6971 7031 0
-1078 -6972 7032 0
-1078 -6973 7033 0
-1078 -6974 7034 0
-1078 -6975 7035 0
-1078 -6976 7036 0
-1078 -6977 7037 0
-1078 -6978 7038 0
-1078 -6979 7039 0
-1078 -6980 7040 0
-1078 -6981 7041 0
-1078 -6982 7042 0
-1078 -6983 7043 0
-1078 -6984 7044 0
-1078 -6985 7045 0
-1078 -6986 7046 0
-1078 -6987 7047 0
-1078 -6988 7048 0
-1078 -6989 7049 0
-1078 -6990 7050 0
-1078 -6991 7051 0
-1078 -6992 7052 0
-1078 -6993 7053 0
-1078 -6994 7054 0
-1078 -6995 7055 0
-1078 -6996 7056 0
-1078 -6997 7057 0
-1078 -6998 7058 0
-1078 -6999 7059 0
-1078 -7000 7060 0
-1078 -7001 7061 0
-1078 -7002 7062 0
-1078 -7003 7063 0
-1078 -7004 7064 0
-1078 -7005 7065 0
-1078 -7006 7066 0
-1078 -7007 7067 0
-1078 -7008 7068 0
-1078 -7009 7069 0
-1078 -7010 7070 0
-1078 -7011 7071 0
-1078 -7012 0
-7013 7072 0
-7014 7073 0
-7015 7074 0
-7016 7075 0
-7017 7076 0
-7018 7077 0
-7019 7078 0
-7020 7079 0
-7021 7080 0
-7022 7081 0
-7023 7082 0
-7024 7083 0
-7025 7084 0
-7026 7085 0
-7027 7086 0
-7028 7087 0
-7029 7088 0
-7030 7089 0
-7031 7090 0
-7032 7091 0
-7033 7092 0
-7034 7093 0
-7035 7094 0
-7036 7095 0
-7037 7096 0
-7038 7097 0
-7039 7098 0
-7040 7099 0
-7041 7100 0
-7042 7101 0
-7043 7102 0
-7044 7103 0
-7045 7104 0
-7046 7105 0
-7047 7106 0
-7048 7107 0
-7049 7108 0
-7050 7109 0
-7051 7110 0
-7052 7111 0
-7053 7112 0
-7054 7113 0
-7055 7114 0
-7056 7115 0
-7057 7116 0
-7058 7117 0
-7059 7118 0
-7060 7119 0
-7061 7120 0
-7062 7121 0
-7063 7122 0
-7064 7123 0
-7065 7124 0
-7066 7125 0
-7067 7126 0
-7068 7127 0
-7069 7128 0
-7070 7129 0
-7071 7130 0
-1080 -7013 7073 0
-1080 -7014 7074 0
-1080 -7015 7075 0
-1080 -7016 7076 0
-1080 -7017 7077 0
-1080 -7018 7078 0
-1080 -7019 7079 0
-1080 -7020 7080 0
-1080 -7021 7081 0
-1080 -7022 7082 0
-1080 -7023 7083 0
-1080 -7024 7084 0
-1080 -7025 7085 0
-1080 -7026 7086 0
-1080 -7027 7087 0
-1080 -7028 7088 0
-1080 -7029 7089 0
-1080 -7030 7090 0
-1080 -7031 7091 0
-1080 -7032 7092 0
-1080 -7033 7093 0
-1080 -7034 7094 0
-1080 -7035 7095 0
-1080 -7036 7096 0
-1080 -7037 7097 0
-1080 -7038 7098 0
-1080 -7039 7099 0
-1080 -7040 7100 0
-1080 -7041 7101 0
-1080 -7042 7102 0
-1080 -7043 7103 0
-1080 -7044 7104 0
-1080 -7045 7105 0
-1080 -7046 7106 0
-1080 -7047 7107 0
-1080 -7048 7108 0
-1080 -7049 7109 0
-1080 -7050 7110 0
-1080 -7051 7111 0
-1080 -7052 7112 0
-1080 -7053 7113 0
-1080 -7054 7114 0
-1080 -7055 7115 0
-1080 -7056 7116 0
-1080 -7057 7117 0
-1080 -7058 7118 0
-1080 -7059 7119 0
-1080 -7060 7120 0
-1080 -7061 7121 0
-1080 -7062 7122 0
-1080 -7063 7123 0
-1080 -7064 7124 0
-1080 -7065 7125 0
-1080 -7066 7126 0
-1080 -7067 7127 0
-1080 -7068 7128 0
-1080 -7069 7129 0
-1080 -7070 7130 0
-1080 -7071 0
-7072 7131 0
-7073 7132 0
-7074 7133 0
-7075 7134 0
-7076 7135 0
-7077 7136 0
-7078 7137 0
-7079 7138 0
-7080 7139 0
-7081 7140 0
-7082 7141 0
-7083 7142 0
-7084 7143 0
-7085 7144 0
-7086 7145 0
-7087 7146 0
-7088 7147 0
-7089 7148 0
-7090 7149 0
-7091 7150 0
-7092 7151 0
-7093 7152 0
-7094 7153 0
-7095 7154 0
-7096 7155 0
-7097 7156 0
-7098 7157 0
-7099 7158 0
-7100 7159 0
-7101 7160 0
-7102 7161 0
-7103 7162 0
-7104 7163 0
-7105 7164 0
-7106 7165 0
-7107 7166 0
-7108 7167 0
-7109 7168 0
-7110 7169 0
-7111 7170 0
-7112 7171 0
-7113 7172 0
-7114 7173 0
-7115 7174 0
-7116 7175 0
-7117 7176 0
-7118 7177 0
-7119 7178 0
-7120 7179 0
-7121 7180 0
-7122 7181 0
-7123 7182 0
-7124 7183 0
-7125 7184 0
-7126 7185 0
-7127 7186 0
-7128 7187 0
-7129 7188 0
-7130 7189 0
-1082 -7072 7132 0
-1082 -7073 7133 0
-1082 -7074 7134 0
-1082 -7075 7135 0
-1082 -7076 7136 0
-1082 -7077 7137 0
-1082 -7078 7138 0
-1082 -7079 7139 0
-1082 -7080 7140 0
-1082 -7081 7141 0
-1082 -7082 7142 0
-1082 -7083 7143 0
-1082 -7084 7144 0
-1082 -7085 7145 0
-1082 -7086 7146 0
-1082 -7087 7147 0
-1082 -7088 7148 0
-1082 -7089 7149 0
-1082 -7090 7150 0
-1082 -7091 7151 0
-1082 -7092 7152 0
-1082 -7093 7153 0
-1082 -7094 7154 0
-1082 -7095 7155 0
-1082 -7096 7156 0
-1082 -7097 7157 0
-1082 -7098 7158 0
-1082 -7099 7159 0
-1082 -7100 7160 0
-1082 -7101 7161 0
-1082 -7102 7162 0
-1082 -7103 7163 0
-1082 -7104 7164 0
-1082 -7105 7165 0
-1082 -7106 7166 0
-1082 -7107 7167 0
-1082 -7108 7168 0
-1082 -7109 7169 0
-1082 -7110 7170 0
-1082 -7111 7171 0
-1082 -7112 7172 0
-1082 -7113 7173 0
-1082 -7114 7174 0
-1082 -7115 7175 0
-1082 -7116 7176 0
-1082 -7117 7177 0
-1082 -7118 7178 0
-1082 -7119 7179 0
-1082 -7120 7180 0
-1082 -7121 7181 0
-1082 -7122 7182 0
-1082 -7123 7183 0
-1082 -7124 7184 0
-1082 -7125 7185 0
-1082 -7126 7186 0
-1082 -7127 7187 0
-1082 -7128 7188 0
-1082 -7129 7189 0
-1082 -7130 0
-7131 7190 0
-7132 7191 0
-7133 7192 0
-7134 7193 0
-7135 7194 0
-7136 7195 0
-7137 7196 0
-7138 7197 0
-7139 7198 0
-7140 7199 0
-7141 7200 0
-7142 7201 0
-7143 7202 0
-7144 7203 0
-7145 7204 0
-7146 7205 0
-7147 7206 0
-7148 7207 0
-7149 7208 0
-7150 7209 0
-7151 7210 0
-7152 7211 0
-7153 7212 0
-7154 7213 0
-7155 7214 0
-7156 7215 0
-7157 7216 0
-7158 7217 0
-7159 7218 0
-7160 7219 0
-7161 7220 0
-7162 7221 0
-7163 7222 0
-7164 7223 0
-7165 7224 0
-7166 7225 0
-7167 7226 0
-7168 7227 0
-7169 7228 0
-7170 7229 0
-7171 7230 0
-7172 7231 0
-7173 7232 0
-7174 7233 0
-7175 7234 0
-7176 7235 0
-7177 7236 0
-7178 7237 0
-7179 7238 0
-7180 7239 0
-7181 7240 0
-7182 7241 0
-7183 7242 0
-7184 7243 0
-7185 7244 0
-7186 7245 0
-7187 7246 0
-7188 7247 0
-7189 7248 0
-1084 -7131 7191 0
-1084 -7132 7192 0
-1084 -7133 7193 0
-1084 -7134 7194 0
-1084 -7135 7195 0
-1084 -7136 7196 0
-1084 -7137 7197 0
-1084 -7138 7198 0
-1084 -7139 7199 0
-1084 -7140 7200 0
-1084 -7141 7201 0
-1084 -7142 7202 0
-1084 -7143 7203 0
-1084 -7144 7204 0
-1084 -7145 7205 0
-1084 -7146 7206 0
-1084 -7147 7207 0
-1084 -7148 7208 0
-1084 -7149 7209 0
-1084 -7150 7210 0
-1084 -7151 7211 0
-1084 -7152 7212 0
-1084 -7153 7213 0
-1084 -7154 7214 0
-1084 -7155 7215 0
-1084 -7156 7216 0
-1084 -7157 7217 0
-1084 -7158 7218 0
-1084 -7159 7219 0
-1084 -7160 7220 0
-1084 -7161 7221 0
-1084 -7162 7222 0
-1084 -7163 7223 0
-1084 -7164 7224 0
-1084 -7165 7225 0
-1084 -7166 7226 0
-1084 -7167 7227 0
-1084 -7168 7228 0
-1084 -7169 7229 0
-1084 -7170 7230 0
-1084 -7171 7231 0
-1084 -7172 7232 0
-1084 -7173 7233 0
-1084 -7174 7234 0
-1084 -7175 7235 0
-1084 -7176 7236 0
-1084 -7177 7237 0
-1084 -7178 7238 0
-1084 -7179 7239 0
-1084 -7180 7240 0
-1084 -7181 7241 0
-1084 -7182 7242 0
-1084 -7183 7243 0
-1084 -7184 7244 0
-1084 -7185 7245 0
-1084 -7186 7246 0
-1084 -7187 7247 0
-1084 -7188 7248 0
-1084 -7189 0
-7190 7249 0
-7191 7250 0
-7192 7251 0
-7193 7252 0
-7194 7253 0
-7195 7254 0
-7196 7255 0
-7197 7256 0
-7198 7257 0
-7199 7258 0
-7200 7259 0
-7201 7260 0
-7202 7261 0
-7203 7262 0
-7204 7263 0
-7205 7264 0
-7206 7265 0
-7207 7266 0
-7208 7267 0
-7209 7268 0
-7210 7269 0
-7211 7270 0
-7212 7271 0
-7213 7272 0
-7214 7273 0
-7215 7274 0
-7216 7275 0
-7217 7276 0
-7218 7277 0
-7219 7278 0
-7220 7279 0
-7221 7280 0
-7222 7281 0
-7223 7282 0
-7224 7283 0
-7225 7284 0
-7226 7285 0
-7227 7286 0
-7228 7287 0
-7229 7288 0
-7230 7289 0
-7231 7290 0
-7232 7291 0
-7233 7292 0
-7234 7293 0
-7235 7294 0
-7236 7295 0
-7237 7296 0
-7238 7297 0
-7239 7298 0
-7240 7299 0
-7241 7300 0
-7242 7301 0
-7243 7302 0
-7244 7303 0
-7245 7304 0
-7246 7305 0
-7247 7306 0
-7248 7307 0
-1086 -7190 7250 0
-1086 -7191 7251 0
-1086 -7192 7252 0
-1086 -7193 7253 0
-1086 -7194 7254 0
-1086 -7195 7255 0
-1086 -7196 7256 0
-1086 -7197 7257 0
-1086 -7198 7258 0
-1086 -7199 7259 0
-1086 -7200 7260 0
-1086 -7201 7261 0
-1086 -7202 7262 0
-1086 -7203 7263 0
-1086 -7204 7264 0
-1086 -7205 7265 0
-1086 -7206 7266 0
-1086 -7207 7267 0
-1086 -7208 7268 0
-1086 -7209 7269 0
-1086 -7210 7270 0
-1086 -7211 7271 0
-1086 -7212 7272 0
-1086 -7213 7273 0
-1086 -7214 7274 0
-1086 -7215 7275 0
-1086 -7216 7276 0
-1086 -7217 7277 0
-1086 -7218 7278 0
-1086 -7219 7279 0
-1086 -7220 7280 0
-1086 -7221 7281 0
-1086 -7222 7282 0
-1086 -7223 7283 0
-1086 -7224 7284 0
-1086 -7225 7285 0
-1086 -7226 7286 0
-1086 -7227 7287 0
-1086 -7228 7288 0
-1086 -7229 7289 0
-1086 -7230 7290 0
-1086 -7231 7291 0
-1086 -7232 7292 0
-1086 -7233 7293 0
-1086 -7234 7294 0
-1086 -7235 7295 0
-1086 -7236 7296 0
-1086 -7237 7297 0
-1086 -7238 7298 0
-1086 -7239 7299 0
-1086 -7240 7300 0
-1086 -7241 7301 0
-1086 -7242 7302 0
-1086 -7243 7303 0
-1086 -7244 7304 0
-1086 -7245 7305 0
-1086 -7246 7306 0
-1086 -7247 7307 0
-1086 -7248 0
-7249 7308 0
-7250 7309 0
-7251 7310 0
-7252 7311 0
-7253 7312 0
-7254 7313 0
-7255 7314 0
-7256 7315 0
-7257 7316 0
-7258 7317 0
-7259 7318 0
-7260 7319 0
-7261 7320 0
-7262 7321 0
-7263 7322 0
-7264 7323 0
-7265 7324 0
-7266 7325 0
-7267 7326 0
-7268 7327 0
-7269 7328 0
-7270 7329 0
-7271 7330 0
-7272 7331 0
-7273 7332 0
-7274 7333 0
-7275 7334 0
-7276 7335 0
-7277 7336 0
-7278 7337 0
-7279 7338 0
-7280 7339 0
-7281 7340 0
-7282 7341 0
-7283 7342 0
-7284 7343 0
-7285 7344 0
-7286 7345 0
-7287 7346 0
-7288 7347 0
-7289 7348 0
-7290 7349 0
-7291 7350 0
-7292 7351 0
-7293 7352 0
-7294 7353 0
-7295 7354 0
-7296 7355 0
-7297 7356 0
-7298 7357 0
-7299 7358 0
-7300 7359 0
-7301 7360 0
-7302 7361 0
-7303 7362 0
-7304 7363 0
-7305 7364 0
-7306 7365 0
-7307 7366 0
-1088 -7249 7309 0
-1088 -7250 7310 0
-1088 -7251 7311 0
-1088 -7252 7312 0
-1088 -7253 7313 0
-1088 -7254 7314 0
-1088 -7255 7315 0
-1088 -7256 7316 0
-1088 -7257 7317 0
-1088 -7258 7318 0
-1088 -7259 7319 0
-1088 -7260 7320 0
-1088 -7261 7321 0
-1088 -7262 7322 0
-1088 -7263 7323 0
-1088 -7264 7324 0
-1088 -7265 7325 0
-1088 -7266 7326 0
-1088 -7267 7327 0
-1088 -7268 7328 0
-1088 -7269 7329 0
-1088 -7270 7330 0
-1088 -7271 7331 0
-1088 -7272 7332 0
-1088 -7273 7333 0
-1088 -7274 7334 0
-1088 -7275 7335 0
-1088 -7276 7336 0
-1088 -7277 7337 0
-1088 -7278 7338 0
-1088 -7279 7339 0
-1088 -7280 7340 0
-1088 -7281 7341 0
-1088 -7282 7342 0
-1088 -7283 7343 0
-1088 -7284 7344 0
-1088 -7285 7345 0
-1088 -7286 7346 0
-1088 -7287 7347 0
-1088 -7288 7348 0
-1088 -7289 7349 0
-1088 -7290 7350 0
-1088 -7291 7351 0
-1088 -7292 7352 0
-1088 -7293 7353 0
-1088 -7294 7354 0
-1088 -7295 7355 0
-1088 -7296 7356 0
-1088 -7297 7357 0
-1088 -7298 7358 0
-1088 -7299 7359 0
-1088 -7300 7360 0
-1088 -7301 7361 0
-1088 -7302 7362 0
-1088 -7303 7363 0
-1088 -7304 7364 0
-1088 -7305 7365 0
-1088 -7306 7366 0
-1088 -7307 0
-7308 7367 0
-7309 7368 0
-7310 7369 0
-7311 7370 0
-7312 7371 0
-7313 7372 0
-7314 7373 0
-7315 7374 0
-7316 7375 0
-7317 7376 0
-7318 7377 0
-7319 7378 0
-7320 7379 0
-7321 7380 0
-7322 7381 0
-7323 7382 0
-7324 7383 0
-7325 7384 0
-7326 7385 0
-7327 7386 0
-7328 7387 0
-7329 7388 0
-7330 7389 0
-7331 7390 0
-7332 7391 0
-7333 7392 0
-7334 7393 0
-7335 7394 0
-7336 7395 0
-7337 7396 0
-7338 7397 0
-7339 7398 0
-7340 7399 0
-7341 7400 0
-7342 7401 0
-7343 7402 0
-7344 7403 0
-7345 7404 0
-7346 7405 0
-7347 7406 0
-7348 7407 0
-7349 7408 0
-7350 7409 0
-7351 7410 0
-7352 7411 0
-7353 7412 0
-7354 7413 0
-7355 7414 0
-7356 7415 0
-7357 7416 0
-7358 7417 0
-7359 7418 0
-7360 7419 0
-7361 7420 0
-7362 7421 0
-7363 7422 0
-7364 7423 0
-7365 7424 0
-7366 7425 0
-1090 -7308 7368 0
-1090 -7309 7369 0
-1090 -7310 7370 0
-1090 -7311 7371 0
-1090 -7312 7372 0
-1090 -7313 7373 0
-1090 -7314 7374 0
-1090 -7315 7375 0
-1090 -7316 7376 0
-1090 -7317 7377 0
-1090 -7318 7378 0
-1090 -7319 7379 0
-1090 -7320 7380 0
-1090 -7321 7381 0
-1090 -7322 7382 0
-1090 -7323 7383 0
-1090 -7324 7384 0
-1090 -7325 7385 0
-1090 -7326 7386 0
-1090 -7327 7387 0
-1090 -7328 7388 0
-1090 -7329 7389 0
-1090 -7330 7390 0
-1090 -7331 7391 0
-1090 -7332 7392 0
-1090 -7333 7393 0
-1090 -7334 7394 0
-1090 -7335 7395 0
-1090 -7336 7396 0
-1090 -7337 7397 0
-1090 -7338 7398 0
-1090 -7339 7399 0
-1090 -7340 7400 0
-1090 -7341 7401 0
-1090 -7342 7402 0
-1090 -7343 7403 0
-1090 -7344 7404 0
-1090 -7345 7405 0
-1090 -7346 7406 0
-1090 -7347 7407 0
-1090 -7348 7408 0
-1090 -7349 7409 0
-1090 -7350 7410 0
-1090 -7351 7411 0
-1090 -7352 7412 0
-1090 -7353 7413 0
-1090 -7354 7414 0
-1090 -7355 7415 0
-1090 -7356 7416 0
-1090 -7357 7417 0
-1090 -7358 7418 0
-1090 -7359 7419 0
-1090 -7360 7420 0
-1090 -7361 7421 0
-1090 -7362 7422 0
-1090 -7363 7423 0
-1090 -7364 7424 0
-1090 -7365 7425 0
-1090 -7366 0
-7367 7426 0
-7368 7427 0
-7369 7428 0
-7370 7429 0
-7371 7430 0
-7372 7431 0
-7373 7432 0
-7374 7433 0
-7375 7434 0
-7376 7435 0
-7377 7436 0
-7378 7437 0
-7379 7438 0
-7380 7439 0
-7381 7440 0
-7382 7441 0
-7383 7442 0
-7384 7443 0
-7385 7444 0
-7386 7445 0
-7387 7446 0
-7388 7447 0
-7389 7448 0
-7390 7449 0
-7391 7450 0
-7392 7451 0
-7393 7452 0
-7394 7453 0
-7395 7454 0
-7396 7455 0
-7397 7456 0
-7398 7457 0
-7399 7458 0
-7400 7459 0
-7401 7460 0
-7402 7461 0
-7403 7462 0
-7404 7463 0
-7405 7464 0
-7406 7465 0
-7407 7466 0
-7408 7467 0
-7409 7468 0
-7410 7469 0
-7411 7470 0
-7412 7471 0
-7413 7472 0
-7414 7473 0
-7415 7474 0
-7416 7475 0
-7417 7476 0
-7418 7477 0
-7419 7478 0
-7420 7479 0
-7421 7480 0
-7422 7481 0
-7423 7482 0
-7424 7483 0
-7425 7484 0
-1092 -7367 7427 0
-1092 -7368 7428 0
-1092 -7369 7429 0
-1092 -7370 7430 0
-1092 -7371 7431 0
-1092 -7372 7432 0
-1092 -7373 7433 0
-1092 -7374 7434 0
-1092 -7375 7435 0
-1092 -7376 7436 0
-1092 -7377 7437 0
-1092 -7378 7438 0
-1092 -7379 7439 0
-1092 -7380 7440 0
-1092 -7381 7441 0
-1092 -7382 7442 0
-1092 -7383 7443 0
-1092 -7384 7444 0
-1092 -7385 7445 0
-1092 -7386 7446 0
-1092 -7387 7447 0
-1092 -7388 7448 0
-1092 -7389 7449 0
-1092 -7390 7450 0
-1092 -7391 7451 0
-1092 -7392 7452 0
-1092 -7393 7453 0
-1092 -7394 7454 0
-1092 -7395 7455 0
-1092 -7396 7456 0
-1092 -7397 7457 0
-1092 -7398 7458 0
-1092 -7399 7459 0
-1092 -7400 7460 0
-1092 -7401 7461 0
-1092 -7402 7462 0
-1092 -7403 7463 0
-1092 -7404 7464 0
-1092 -7405 7465 0
-1092 -7406 7466 0
-1092 -7407 7467 0
-1092 -7408 7468 0
-1092 -7409 7469 0
-1092 -7410 7470 0
-1092 -7411 7471 0
-1092 -7412 7472 0
-1092 -7413 7473 0
-1092 -7414 7474 0
-1092 -7415 7475 0
-1092 -7416 7476 0
-1092 -7417 7477 0
-1092 -7418 7478 0
-1092 -7419 7479 0
-1092 -7420 7480 0
-1092 -7421 7481 0
-1092 -7422 7482 0
-1092 -7423 7483 0
-1092 -7424 7484 0
-1092 -7425 0
-7426 7485 0
-7427 7486 0
-7428 7487 0
-7429 7488 0
-7430 7489 0
-7431 7490 0
-7432 7491 0
-7433 7492 0
-7434 7493 0
-7435 7494 0
-7436 7495 0
-7437 7496 0
-7438 7497 0
-7439 7498 0
-7440 7499 0
-7441 7500 0
-7442 7501 0
-7443 7502 0
-7444 7503 0
-7445 7504 0
-7446 7505 0
-7447 7506 0
-7448 7507 0
-7449 7508 0
-7450 7509 0
-7451 7510 0
-7452 7511 0
-7453 7512 0
-7454 7513 0
-7455 7514 0
-7456 7515 0
-7457 7516 0
-7458 7517 0
-7459 7518 0
-7460 7519 0
-7461 7520 0
-7462 7521 0
-7463 7522 0
-7464 7523 0
-7465 7524 0
-7466 7525 0
-7467 7526 0
-7468 7527 0
-7469 7528 0
-7470 7529 0
-7471 7530 0
-7472 7531 0
-7473 7532 0
-7474 7533 0
-7475 7534 0
-7476 7535 0
-7477 7536 0
-7478 7537 0
-7479 7538 0
-7480 7539 0
-7481 7540 0
-7482 7541 0
-7483 7542 0
-7484 7543 0
-1094 -7426 7486 0
-1094 -7427 7487 0
-1094 -7428 7488 0
-1094 -7429 7489 0
-1094 -7430 7490 0
-1094 -7431 7491 0
-1094 -7432 7492 0
-1094 -7433 7493 0
-1094 -7434 7494 0
-1094 -7435 7495 0
-1094 -7436 7496 0
-1094 -7437 7497 0
-1094 -7438 7498 0
-1094 -7439 7499 0
-1094 -7440 7500 0
-1094 -7441 7501 0
-1094 -7442 7502 0
-1094 -7443 7503 0
-1094 -7444 7504 0
-1094 -7445 7505 0
-1094 -7446 7506 0
-1094 -7447 7507 0
-1094 -7448 7508 0
-1094 -7449 7509 0
-1094 -7450 7510 0
-1094 -7451 7511 0
-1094 -7452 7512 0
-1094 -7453 7513 0
-1094 -7454 7514 0
-1094 -7455 7515 0
-1094 -7456 7516 0
-1094 -7457 7517 0
-1094 -7458 7518 0
-1094 -7459 7519 0
-1094 -7460 7520 0
-1094 -7461 7521 0
-1094 -7462 7522 0
-1094 -7463 7523 0
-1094 -7464 7524 0
-1094 -7465 7525 0
-1094 -7466 7526 0
-1094 -7467 7527 0
-1094 -7468 7528 0
-1094 -7469 7529 0
-1094 -7470 7530 0
-1094 -7471 7531 0
-1094 -7472 7532 0
-1094 -7473 7533 0
-1094 -7474 7534 0
-1094 -7475 7535 0
-1094 -7476 7536 0
-1094 -7477 7537 0
-1094 -7478 7538 0
-1094 -7479 7539 0
-1094 -7480 7540 0
-1094 -7481 7541 0
-1094 -7482 7542 0
-1094 -7483 7543 0
-1094 -7484 0
-7485 7544 0
-7486 7545 0
-7487 7546 0
-7488 7547 0
-7489 7548 0
-7490 7549 0
-7491 7550 0
-7492 7551 0
-7493 7552 0
-7494 7553 0
-7495 7554 0
-7496 7555 0
-7497 7556 0
-7498 7557 0
-7499 7558 0
-7500 7559 0
-7501 7560 0
-7502 7561 0
-7503 7562 0
-7504 7563 0
-7505 7564 0
-7506 7565 0
-7507 7566 0
-7508 7567 0
-7509 7568 0
-7510 7569 0
-7511 7570 0
-7512 7571 0
-7513 7572 0
-7514 7573 0
-7515 7574 0
-7516 7575 0
-7517 7576 0
-7518 7577 0
-7519 7578 0
-7520 7579 0
-7521 7580 0
-7522 7581 0
-7523 7582 0
-7524 7583 0
-7525 7584 0
-7526 7585 0
-7527 7586 0
-7528 7587 0
-7529 7588 0
-7530 7589 0
-7531 7590 0
-7532 7591 0
-7533 7592 0
-7534 7593 0
-7535 7594 0
-7536 7595 0
-7537 7596 0
-7538 7597 0
-7539 7598 0
-7540 7599 0
-7541 7600 0
-7542 7601 0
-7543 7602 0
-1096 -7485 7545 0
-1096 -7486 7546 0
-1096 -7487 7547 0
-1096 -7488 7548 0
-1096 -7489 7549 0
-1096 -7490 7550 0
-1096 -7491 7551 0
-1096 -7492 7552 0
-1096 -7493 7553 0
-1096 -7494 7554 0
-1096 -7495 7555 0
-1096 -7496 7556 0
-1096 -7497 7557 0
-1096 -7498 7558 0
-1096 -7499 7559 0
-1096 -7500 7560 0
-1096 -7501 7561 0
-1096 -7502 7562 0
-1096 -7503 7563 0
-1096 -7504 7564 0
-1096 -7505 7565 0
-1096 -7506 7566 0
-1096 -7507 7567 0
-1096 -7508 7568 0
-1096 -7509 7569 0
-1096 -7510 7570 0
-1096 -7511 7571 0
-1096 -7512 7572 0
-1096 -7513 7573 0
-1096 -7514 7574 0
-1096 -7515 7575 0
-1096 -7516 7576 0
-1096 -7517 7577 0
-1096 -7518 7578 0
-1096 -7519 7579 0
-1096 -7520 7580 0
-1096 -7521 7581 0
-1096 -7522 7582 0
-1096 -7523 7583 0
-1096 -7524 7584 0
-1096 -7525 7585 0
-1096 -7526 7586 0
-1096 -7527 7587 0
-1096 -7528 7588 0
-1096 -7529 7589 0
-1096 -7530 7590 0
-1096 -7531 7591 0
-1096 -7532 7592 0
-1096 -7533 7593 0
-1096 -7534 7594 0
-1096 -7535 7595 0
-1096 -7536 7596 0
-1096 -7537 7597 0
-1096 -7538 7598 0
-1096 -7539 7599 0
-1096 -7540 7600 0
-1096 -7541 7601 0
-1096 -7542 7602 0
-1096 -7543 0
-7544 7603 0
-7545 7604 0
-7546 7605 0
-7547 7606 0
-7548 7607 0
-7549 7608 0
-7550 7609 0
-7551 7610 0
-7552 7611 0
-7553 7612 0
-7554 7613 0
-7555 7614 0
-7556 7615 0
-7557 7616 0
-7558 7617 0
-7559 7618 0
-7560 7619 0
-7561 7620 0
-7562 7621 0
-7563 7622 0
-7564 7623 0
-7565 7624 0
-7566 7625 0
-7567 7626 0
-7568 7627 0
-7569 7628 0
-7570 7629 0
-7571 7630 0
-7572 7631 0
-7573 7632 0
-7574 7633 0
-7575 7634 0
-7576 7635 0
-7577 7636 0
-7578 7637 0
-7579 7638 0
-7580 7639 0
-7581 7640 0
-7582 7641 0
-7583 7642 0
-7584 7643 0
-7585 7644 0
-7586 7645 0
-7587 7646 0
-7588 7647 0
-7589 7648 0
-7590 7649 0
-7591 7650 0
-7592 7651 0
-7593 7652 0
-7594 7653 0
-7595 7654 0
-7596 7655 0
-7597 7656 0
-7598 7657 0
-7599 7658 0
-7600 7659 0
-7601 7660 0
-7602 7661 0
-1098 -7544 7604 0
-1098 -7545 7605 0
-1098 -7546 7606 0
-1098 -7547 7607 0
-1098 -7548 7608 0
-1098 -7549 7609 0
-1098 -7550 7610 0
-1098 -7551 7611 0
-1098 -7552 7612 0
-1098 -7553 7613 0
-1098 -7554 7614 0
-1098 -7555 7615 0
-1098 -7556 7616 0
-1098 -7557 7617 0
-1098 -7558 7618 0
-1098 -7559 7619 0
-1098 -7560 7620 0
-1098 -7561 7621 0
-1098 -7562 7622 0
-1098 -7563 7623 0
-1098 -7564 7624 0
-1098 -7565 7625 0
-1098 -7566 7626 0
-1098 -7567 7627 0
-1098 -7568 7628 0
-1098 -7569 7629 0
-1098 -7570 7630 0
-1098 -7571 7631 0
-1098 -7572 7632 0
-1098 -7573 7633 0
-1098 -7574 7634 0
-1098 -7575 7635 0
-1098 -7576 7636 0
-1098 -7577 7637 0
-1098 -7578 7638 0
-1098 -7579 7639 0
-1098 -7580 7640 0
-1098 -7581 7641 0
-1098 -7582 7642 0
-1098 -7583 7643 0
-1098 -7584 7644 0
-1098 -7585 7645 0
-1098 -7586 7646 0
-1098 -7587 7647 0
-1098 -7588 7648 0
-1098 -7589 7649 0
-1098 -7590 7650 0
-1098 -7591 7651 0
-1098 -7592 7652 0
-1098 -7593 7653 0
-1098 -7594 7654 0
-1098 -7595 7655 0
-1098 -7596 7656 0
-1098 -7597 7657 0
-1098 -7598 7658 0
-1098 -7599 7659 0
-1098 -7600 7660 0
-1098 -7601 7661 0
-1098 -7602 0
-7603 7662 0
-7604 7663 0
-7605 7664 0
-7606 7665 0
-7607 7666 0
-7608 7667 0
-7609 7668 0
-7610 7669 0
-7611 7670 0
-7612 7671 0
-7613 7672 0
-7614 7673 0
-7615 7674 0
-7616 7675 0
-7617 7676 0
-7618 7677 0
-7619 7678 0
-7620 7679 0
-7621 7680 0
-7622 7681 0
-7623 7682 0
-7624 7683 0
-7625 7684 0
-7626 7685 0
-7627 7686 0
-7628 7687 0
-7629 7688 0
-7630 7689 0
-7631 7690 0
-7632 7691 0
-7633 7692 0
-7634 7693 0
-7635 7694 0
-7636 7695 0
-7637 7696 0
-7638 7697 0
-7639 7698 0
-7640 7699 0
-7641 7700 0
-7642 7701 0
-7643 7702 0
-7644 7703 0
-7645 7704 0
-7646 7705 0
-7647 7706 0
-7648 7707 0
-7649 7708 0
-7650 7709 0
-7651 7710 0
-7652 7711 0
-7653 7712 0
-7654 7713 0
-7655 7714 0
-7656 7715 0
-7657 7716 0
-7658 7717 0
-7659 7718 0
-7660 7719 0
-7661 7720 0
-1100 -7603 7663 0
-1100 -7604 7664 0
-1100 -7605 7665 0
-1100 -7606 7666 0
-1100 -7607 7667 0
-1100 -7608 7668 0
-1100 -7609 7669 0
-1100 -7610 7670 0
-1100 -7611 7671 0
-1100 -7612 7672 0
-1100 -7613 7673 0
-1100 -7614 7674 0
-1100 -7615 7675 0
-1100 -7616 7676 0
-1100 -7617 7677 0
-1100 -7618 7678 0
-1100 -7619 7679 0
-1100 -7620 7680 0
-1100 -7621 7681 0
-1100 -7622 7682 0
-1100 -7623 7683 0
-1100 -7624 7684 0
-1100 -7625 7685 0
-1100 -7626 7686 0
-1100 -7627 7687 0
-1100 -7628 7688 0
-1100 -7629 7689 0
-1100 -7630 7690 0
-1100 -7631 7691 0
-1100 -7632 7692 0
-1100 -7633 7693 0
-1100 -7634 7694 0
-1100 -7635 7695 0
-1100 -7636 7696 0
-1100 -7637 7697 0
-1100 -7638 7698 0
-1100 -7639 7699 0
-1100 -7640 7700 0
-1100 -7641 7701 0
-1100 -7642 7702 0
-1100 -7643 7703 0
-1100 -7644 7704 0
-1100 -7645 7705 0
-1100 -7646 7706 0
-1100 -7647 7707 0
-1100 -7648 7708 0
-1100 -7649 7709 0
-1100 -7650 7710 0
-1100 -7651 7711 0
-1100 -7652 7712 0
-1100 -7653 7713 0
-1100 -7654 7714 0
-1100 -7655 7715 0
-1100 -7656 7716 0
-1100 -7657 7717 0
-1100 -7658 7718 0
-1100 -7659 7719 0
-1100 -7660 7720 0
-1100 -7661 0
-7662 7721 0
-7663 7722 0
-7664 7723 0
-7665 7724 0
-7666 7725 0
-7667 7726 0
-7668 7727 0
-7669 7728 0
-7670 7729 0
-7671 7730 0
-7672 7731 0
-7673 7732 0
-7674 7733 0
-7675 7734 0
-7676 7735 0
-7677 7736 0
-7678 7737 0
-7679 7738 0
-7680 7739 0
-7681 7740 0
-7682 7741 0
-7683 7742 0
-7684 7743 0
-7685 7744 0
-7686 7745 0
-7687 7746 0
-7688 7747 0
-7689 7748 0
-7690 7749 0
-7691 7750 0
-7692 7751 0
-7693 7752 0
-7694 7753 0
-7695 7754 0
-7696 7755 0
-7697 7756 0
-7698 7757 0
-7699 7758 0
-7700 7759 0
-7701 7760 0
-7702 7761 0
-7703 7762 0
-7704 7763 0
-7705 7764 0
-7706 7765 0
-7707 7766 0
-7708 7767 0
-7709 7768 0
-7710 7769 0
-7711 7770 0
-7712 7771 0
-7713 7772 0
-7714 7773 0
-7715 7774 0
-7716 7775 0
-7717 7776 0
-7718 7777 0
-7719 7778 0
-7720 7779 0
-1102 -7662 7722 0
-1102 -7663 7723 0
-1102 -7664 7724 0
-1102 -7665 7725 0
-1102 -7666 7726 0
-1102 -7667 7727 0
-1102 -7668 7728 0
-1102 -7669 7729 0
-1102 -7670 7730 0
-1102 -7671 7731 0
-1102 -7672 7732 0
-1102 -7673 7733 0
-1102 -7674 7734 0
-1102 -7675 7735 0
-1102 -7676 7736 0
-1102 -7677 7737 0
-1102 -7678 7738 0
-1102 -7679 7739 0
-1102 -7680 7740 0
-1102 -7681 7741 0
-1102 -7682 7742 0
-1102 -7683 7743 0
-1102 -7684 7744 0
-1102 -7685 7745 0
-1102 -7686 7746 0
-1102 -7687 7747 0
-1102 -7688 7748 0
-1102 -7689 7749 0
-1102 -7690 7750 0
-1102 -7691 7751 0
-1102 -7692 7752 0
-1102 -7693 7753 0
-1102 -7694 7754 0
-1102 -7695 7755 0
-1102 -7696 7756 0
-1102 -7697 7757 0
-1102 -7698 7758 0
-1102 -7699 7759 0
-1102 -7700 7760 0
-1102 -7701 7761 0
-1102 -7702 7762 0
-1102 -7703 7763 0
-1102 -7704 7764 0
-1102 -7705 7765 0
-1102 -7706 7766 0
-1102 -7707 7767 0
-1102 -7708 7768 0
-1102 -7709 7769 0
-1102 -7710 7770 0
-1102 -7711 7771 0
-1102 -7712 7772 0
-1102 -7713 7773 0
-1102 -7714 7774 0
-1102 -7715 7775 0
-1102 -7716 7776 0
-1102 -7717 7777 0
-1102 -7718 7778 0
-1102 -7719 7779 0
-1102 -7720 0
-7721 7780 0
-7722 7781 0
-7723 7782 0
-7724 7783 0
-7725 7784 0
-7726 7785 0
-7727 7786 0
-7728 7787 0
-7729 7788 0
-7730 7789 0
-7731 7790 0
-7732 7791 0
-7733 7792 0
-7734 7793 0
-7735 7794 0
-7736 7795 0
-7737 7796 0
-7738 7797 0
-7739 7798 0
-7740 7799 0
-7741 7800 0
-7742 7801 0
-7743 7802 0
-7744 7803 0
-7745 7804 0
-7746 7805 0
-7747 7806 0
-7748 7807 0
-7749 7808 0
-7750 7809 0
-7751 7810 0
-7752 7811 0
-7753 7812 0
-7754 7813 0
-7755 7814 0
-7756 7815 0
-7757 7816 0
-7758 7817 0
-7759 7818 0
-7760 7819 0
-7761 7820 0
-7762 7821 0
-7763 7822 0
-7764 7823 0
-7765 7824 0
-7766 7825 0
-7767 7826 0
-7768 7827 0
-7769 7828 0
-7770 7829 0
-7771 7830 0
-7772 7831 0
-7773 7832 0
-7774 7833 0
-7775 7834 0
-7776 7835 0
-7777 7836 0
-7778 7837 0
-7779 7838 0
-1104 -7721 7781 0
-1104 -7722 7782 0
-1104 -7723 7783 0
-1104 -7724 7784 0
-1104 -7725 7785 0
-1104 -7726 7786 0
-1104 -7727 7787 0
-1104 -7728 7788 0
-1104 -7729 7789 0
-1104 -7730 7790 0
-1104 -7731 7791 0
-1104 -7732 7792 0
-1104 -7733 7793 0
-1104 -7734 7794 0
-1104 -7735 7795 0
-1104 -7736 7796 0
-1104 -7737 7797 0
-1104 -7738 7798 0
-1104 -7739 7799 0
-1104 -7740 7800 0
-1104 -7741 7801 0
-1104 -7742 7802 0
-1104 -7743 7803 0
-1104 -7744 7804 0
-1104 -7745 7805 0
-1104 -7746 7806 0
-1104 -7747 7807 0
-1104 -7748 7808 0
-1104 -7749 7809 0
-1104 -7750 7810 0
-1104 -7751 7811 0
-1104 -7752 7812 0
-1104 -7753 7813 0
-1104 -7754 7814 0
-1104 -7755 7815 0
-1104 -7756 7816 0
-1104 -7757 7817 0
-1104 -7758 7818 0
-1104 -7759 7819 0
-1104 -7760 7820 0
-1104 -7761 7821 0
-1104 -7762 7822 0
-1104 -7763 7823 0
-1104 -7764 7824 0
-1104 -7765 7825 0
-1104 -7766 7826 0
-1104 -7767 7827 0
-1104 -7768 7828 0
-1104 -7769 7829 0
-1104 -7770 7830 0
-1104 -7771 7831 0
-1104 -7772 7832 0
-1104 -7773 7833 0
-1104 -7774 7834 0
-1104 -7775 7835 0
-1104 -7776 7836 0
-1104 -7777 7837 0
-1104 -7778 7838 0
-1104 -7779 0
-7780 7839 0
-7781 7840 0
-7782 7841 0
-7783 7842 0
-7784 7843 0
-7785 7844 0
-7786 7845 0
-7787 7846 0
-7788 7847 0
-7789 7848 0
-7790 7849 0
-7791 7850 0
-7792 7851 0
-7793 7852 0
-7794 7853 0
-7795 7854 0
-7796 7855 0
-7797 7856 0
-7798 7857 0
-7799 7858 0
-7800 7859 0
-7801 7860 0
-7802 7861 0
-7803 7862 0
-7804 7863 0
-7805 7864 0
-7806 7865 0
-7807 7866 0
-7808 7867 0
-7809 7868 0
-7810 7869 0
-7811 7870 0
-7812 7871 0
-7813 7872 0
-7814 7873 0
-7815 7874 0
-7816 7875 0
-7817 7876 0
-7818 7877 0
-7819 7878 0
-7820 7879 0
-7821 7880 0
-7822 7881 0
-7823 7882 0
-7824 7883 0
-7825 7884 0
-7826 7885 0
-7827 7886 0
-7828 7887 0
-7829 7888 0
-7830 7889 0
-7831 7890 0
-7832 7891 0
-7833 7892 0
-7834 7893 0
-7835 7894 0
-7836 7895 0
-7837 7896 0
-7838 7897 0
-1106 -7780 7840 0
-1106 -7781 7841 0
-1106 -7782 7842 0
-1106 -7783 7843 0
-1106 -7784 7844 0
-1106 -7785 7845 0
-1106 -7786 7846 0
-1106 -7787 7847 0
-1106 -7788 7848 0
-1106 -7789 7849 0
-1106 -7790 7850 0
-1106 -7791 7851 0
-1106 -7792 7852 0
-1106 -7793 7853 0
-1106 -7794 7854 0
-1106 -7795 7855 0
-1106 -7796 7856 0
-1106 -7797 7857 0
-1106 -7798 7858 0
-1106 -7799 7859 0
-1106 -7800 7860 0
-1106 -7801 7861 0
-1106 -7802 7862 0
-1106 -7803 7863 0
-1106 -7804 7864 0
-1106 -7805 7865 0
-1106 -7806 7866 0
-1106 -7807 7867 0
-1106 -7808 7868 0
-1106 -7809 7869 0
-1106 -7810 7870 0
-1106 -7811 7871 0
-1106 -7812 7872 0
-1106 -7813 7873 0
-1106 -7814 7874 0
-1106 -7815 7875 0
-1106 -7816 7876 0
-1106 -7817 7877 0
-1106 -7818 7878 0
-1106 -7819 7879 0
-1106 -7820 7880 0
-1106 -7821 7881 0
-1106 -7822 7882 0
-1106 -7823 7883 0
-1106 -7824 7884 0
-1106 -7825 7885 0
-1106 -7826 7886 0
-1106 -7827 7887 0
-1106 -7828 7888 0
-1106 -7829 7889 0
-1106 -7830 7890 0
-1106 -7831 7891 0
-1106 -7832 7892 0
-1106 -7833 7893 0
-1106 -7834 7894 0
-1106 -7835 7895 0
-1106 -7836 7896 0
-1106 -7837 7897 0
-1106 -7838 0
-7839 7898 0
-7840 7899 0
-7841 7900 0
-7842 7901 0
-7843 7902 0
-7844 7903 0
-7845 7904 0
-7846 7905 0
-7847 7906 0
-7848 7907 0
-7849 7908 0
-7850 7909 0
-7851 7910 0
-7852 7911 0
-7853 7912 0
-7854 7913 0
-7855 7914 0
-7856 7915 0
-7857 7916 0
-7858 7917 0
-7859 7918 0
-7860 7919 0
-7861 7920 0
-7862 7921 0
-7863 7922 0
-7864 7923 0
-7865 7924 0
-7866 7925 0
-7867 7926 0
-7868 7927 0
-7869 7928 0
-7870 7929 0
-7871 7930 0
-7872 7931 0
-7873 7932 0
-7874 7933 0
-7875 7934 0
-7876 7935 0
-7877 7936 0
-7878 7937 0
-7879 7938 0
-7880 7939 0
-7881 7940 0
-7882 7941 0
-7883 7942 0
-7884 7943 0
-7885 7944 0
-7886 7945 0
-7887 7946 0
-7888 7947 0
-7889 7948 0
-7890 7949 0
-7891 7950 0
-7892 7951 0
-7893 7952 0
-7894 7953 0
-7895 7954 0
-7896 7955 0
-7897 7956 0
-1108 -7839 7899 0
-1108 -7840 7900 0
-1108 -7841 7901 0
-1108 -7842 7902 0
-1108 -7843 7903 0
-1108 -7844 7904 0
-1108 -7845 7905 0
-1108 -7846 7906 0
-1108 -7847 7907 0
-1108 -7848 7908 0
-1108 -7849 7909 0
-1108 -7850 7910 0
-1108 -7851 7911 0
-1108 -7852 7912 0
-1108 -7853 7913 0
-1108 -7854 7914 0
-1108 -7855 7915 0
-1108 -7856 7916 0
-1108 -7857 7917 0
-1108 -7858 7918 0
-1108 -7859 7919 0
-1108 -7860 7920 0
-1108 -7861 7921 0
-1108 -7862 7922 0
-1108 -7863 7923 0
-1108 -7864 7924 0
-1108 -7865 7925 0
-1108 -7866 7926 0
-1108 -7867 7927 0
-1108 -7868 7928 0
-1108 -7869 7929 0
-1108 -7870 7930 0
-1108 -7871 7931 0
-1108 -7872 7932 0
-1108 -7873 7933 0
-1108 -7874 7934 0
-1108 -7875 7935 0
-1108 -7876 7936 0
-1108 -7877 7937 0
-1108 -7878 7938 0
-1108 -7879 7939 0
-1108 -7880 7940 0
-1108 -7881 7941 0
-1108 -7882 7942 0
-1108 -7883 7943 0
-1108 -7884 7944 0
-1108 -7885 7945 0
-1108 -7886 7946 0
-1108 -7887 7947 0
-1108 -7888 7948 0
-1108 -7889 7949 0
-1108 -7890 7950 0
-1108 -7891 7951 0
-1108 -7892 7952 0
-1108 -7893 7953 0
-1108 -7894 7954 0
-1108 -7895 7955 0
-1108 -7896 7956 0
-1108 -7897 0
-7898 7957 0
-7899 7958 0
-7900 7959 0
-7901 7960 0
-7902 7961 0
-7903 7962 0
-7904 7963 0
-7905 7964 0
-7906 7965 0
-7907 7966 0
-7908 7967 0
-7909 7968 0
-7910 7969 0
-7911 7970 0
-7912 7971 0
-7913 7972 0
-7914 7973 0
-7915 7974 0
-7916 7975 0
-7917 7976 0
-7918 7977 0
-7919 7978 0
-7920 7979 0
-7921 7980 0
-7922 7981 0
-7923 7982 0
-7924 7983 0
-7925 7984 0
-7926 7985 0
-7927 7986 0
-7928 7987 0
-7929 7988 0
-7930 7989 0
-7931 7990 0
-7932 7991 0
-7933 7992 0
-7934 7993 0
-7935 7994 0
-7936 7995 0
-7937 7996 0
-7938 7997 0
-7939 7998 0
-7940 7999 0
-7941 8000 0
-7942 8001 0
-7943 8002 0
-7944 8003 0
-7945 8004 0
-7946 8005 0
-7947 8006 0
-7948 8007 0
-7949 8008 0
-7950 8009 0
-7951 8010 0
-7952 8011 0
-7953 8012 0
-7954 8013 0
-7955 8014 0
-7956 8015 0
-1110 -7898 7958 0
-1110 -7899 7959 0
-1110 -7900 7960 0
-1110 -7901 7961 0
-1110 -7902 7962 0
-1110 -7903 7963 0
-1110 -7904 7964 0
-1110 -7905 7965 0
-1110 -7906 7966 0
-1110 -7907 7967 0
-1110 -7908 7968 0
-1110 -7909 7969 0
-1110 -7910 7970 0
-1110 -7911 7971 0
-1110 -7912 7972 0
-1110 -7913 7973 0
-1110 -7914 7974 0
-1110 -7915 7975 0
-1110 -7916 7976 0
-1110 -7917 7977 0
-1110 -7918 7978 0
-1110 -7919 7979 0
-1110 -7920 7980 0
-1110 -7921 7981 0
-1110 -7922 7982 0
-1110 -7923 7983 0
-1110 -7924 7984 0
-1110 -7925 7985 0
-1110 -7926 7986 0
-1110 -7927 7987 0
-1110 -7928 7988 0
-1110 -7929 7989 0
-1110 -7930 7990 0
-1110 -7931 7991 0
-1110 -7932 7992 0
-1110 -7933 7993 0
-1110 -7934 7994 0
-1110 -7935 7995 0
-1110 -7936 7996 0
-1110 -7937 7997 0
-1110 -7938 7998 0
-1110 -7939 7999 0
-1110 -7940 8000 0
-1110 -7941 8001 0
-1110 -7942 8002 0
-1110 -7943 8003 0
-1110 -7944 8004 0
-1110 -7945 8005 0
-1110 -7946 8006 0
-1110 -7947 8007 0
-1110 -7948 8008 0
-1110 -7949 8009 0
-1110 -7950 8010 0
-1110 -7951 8011 0
-1110 -7952 8012 0
-1110 -7953 8013 0
-1110 -7954 8014 0
-1110 -7955 8015 0
-1110 -7956 0
-7957 8016 0
-7958 8017 0
-7959 8018 0
-7960 8019 0
-7961 8020 0
-7962 8021 0
-7963 8022 0
-7964 8023 0
-7965 8024 0
-7966 8025 0
-7967 8026 0
-7968 8027 0
-7969 8028 0
-7970 8029 0
-7971 8030 0
-7972 8031 0
-7973 8032 0
-7974 8033 0
-7975 8034 0
-7976 8035 0
-7977 8036 0
-7978 8037 0
-7979 8038 0
-7980 8039 0
-7981 8040 0
-7982 8041 0
-7983 8042 0
-7984 8043 0
-7985 8044 0
-7986 8045 0
-7987 8046 0
-7988 8047 0
-7989 8048 0
-7990 8049 0
-7991 8050 0
-7992 8051 0
-7993 8052 0
-7994 8053 0
-7995 8054 0
-7996 8055 0
-7997 8056 0
-7998 8057 0
-7999 8058 0
-8000 8059 0
-8001 8060 0
-8002 8061 0
-8003 8062 0
-8004 8063 0
-8005 8064 0
-8006 8065 0
-8007 8066 0
-8008 8067 0
-8009 8068 0
-8010 8069 0
-8011 8070 0
-8012 8071 0
-8013 8072 0
-8014 8073 0
-8015 8074 0
-1112 -7957 8017 0
-1112 -7958 8018 0
-1112 -7959 8019 0
-1112 -7960 8020 0
-1112 -7961 8021 0
-1112 -7962 8022 0
-1112 -7963 8023 0
-1112 -7964 8024 0
-1112 -7965 8025 0
-1112 -7966 8026 0
-1112 -7967 8027 0
-1112 -7968 8028 0
-1112 -7969 8029 0
-1112 -7970 8030 0
-1112 -7971 8031 0
-1112 -7972 8032 0
-1112 -7973 8033 0
-1112 -7974 8034 0
-1112 -7975 8035 0
-1112 -7976 8036 0
-1112 -7977 8037 0
-1112 -7978 8038 0
-1112 -7979 8039 0
-1112 -7980 8040 0
-1112 -7981 8041 0
-1112 -7982 8042 0
-1112 -7983 8043 0
-1112 -7984 8044 0
-1112 -7985 8045 0
-1112 -7986 8046 0
-1112 -7987 8047 0
-1112 -7988 8048 0
-1112 -7989 8049 0
-1112 -7990 8050 0
-1112 -7991 8051 0
-1112 -7992 8052 0
-1112 -7993 8053 0
-1112 -7994 8054 0
-1112 -7995 8055 0
-1112 -7996 8056 0
-1112 -7997 8057 0
-1112 -7998 8058 0
-1112 -7999 8059 0
-1112 -8000 8060 0
-1112 -8001 8061 0
-1112 -8002 8062 0
-1112 -8003 8063 0
-1112 -8004 8064 0
-1112 -8005 8065 0
-1112 -8006 8066 0
-1112 -8007 8067 0
-1112 -8008 8068 0
-1112 -8009 8069 0
-1112 -8010 8070 0
-1112 -8011 8071 0
-1112 -8012 8072 0
-1112 -8013 8073 0
-1112 -8014 8074 0
-1112 -8015 0
-8016 8075 0
-8017 8076 0
-8018 8077 0
-8019 8078 0
-8020 8079 0
-8021 8080 0
-8022 8081 0
-8023 8082 0
-8024 8083 0
-8025 8084 0
-8026 8085 0
-8027 8086 0
-8028 8087 0
-8029 8088 0
-8030 8089 0
-8031 8090 0
-8032 8091 0
-8033 8092 0
-8034 8093 0
-8035 8094 0
-8036 8095 0
-8037 8096 0
-8038 8097 0
-8039 8098 0
-8040 8099 0
-8041 8100 0
-8042 8101 0
-8043 8102 0
-8044 8103 0
-8045 8104 0
-8046 8105 0
-8047 8106 0
-8048 8107 0
-8049 8108 0
-8050 8109 0
-8051 8110 0
-8052 8111 0
-8053 8112 0
-8054 8113 0
-8055 8114 0
-8056 8115 0
-8057 8116 0
-8058 8117 0
-8059 8118 0
-8060 8119 0
-8061 8120 0
-8062 8121 0
-8063 8122 0
-8064 8123 0
-8065 8124 0
-8066 8125 0
-8067 8126 0
-8068 8127 0
-8069 8128 0
-8070 8129 0
-8071 8130 0
-8072 8131 0
-8073 8132 0
-8074 8133 0
-1114 -8016 8076 0
-1114 -8017 8077 0
-1114 -8018 8078 0
-1114 -8019 8079 0
-1114 -8020 8080 0
-1114 -8021 8081 0
-1114 -8022 8082 0
-1114 -8023 8083 0
-1114 -8024 8084 0
-1114 -8025 8085 0
-1114 -8026 8086 0
-1114 -8027 8087 0
-1114 -8028 8088 0
-1114 -8029 8089 0
-1114 -8030 8090 0
-1114 -8031 8091 0
-1114 -8032 8092 0
-1114 -8033 8093 0
-1114 -8034 8094 0
-1114 -8035 8095 0
-1114 -8036 8096 0
-1114 -8037 8097 0
-1114 -8038 8098 0
-1114 -8039 8099 0
-1114 -8040 8100 0
-1114 -8041 8101 0
-1114 -8042 8102 0
-1114 -8043 8103 0
-1114 -8044 8104 0
-1114 -8045 8105 0
-1114 -8046 8106 0
-1114 -8047 8107 0
-1114 -8048 8108 0
-1114 -8049 8109 0
-1114 -8050 8110 0
-1114 -8051 8111 0
-1114 -8052 8112 0
-1114 -8053 8113 0
-1114 -8054 8114 0
-1114 -8055 8115 0
-1114 -8056 8116 0
-1114 -8057 8117 0
-1114 -8058 8118 0
-1114 -8059 8119 0
-1114 -8060 8120 0
-1114 -8061 8121 0
-1114 -8062 8122 0
-1114 -8063 8123 0
-1114 -8064 8124 0
-1114 -8065 8125 0
-1114 -8066 8126 0
-1114 -8067 8127 0
-1114 -8068 8128 0
-1114 -8069 8129 0
-1114 -8070 8130 0
-1114 -8071 8131 0
-1114 -8072 8132 0
-1114 -8073 8133 0
-1114 -8074 0
-8075 8134 0
-8076 8135 0
-8077 8136 0
-8078 8137 0
-8079 8138 0
-8080 8139 0
-8081 8140 0
-8082 8141 0
-8083 8142 0
-8084 8143 0
-8085 8144 0
-8086 8145 0
-8087 8146 0
-8088 8147 0
-8089 8148 0
-8090 8149 0
-8091 8150 0
-8092 8151 0
-8093 8152 0
-8094 8153 0
-8095 8154 0
-8096 8155 0
-8097 8156 0
-8098 8157 0
-8099 8158 0
-8100 8159 0
-8101 8160 0
-8102 8161 0
-8103 8162 0
-8104 8163 0
-8105 8164 0
-8106 8165 0
-8107 8166 0
-8108 8167 0
-8109 8168 0
-8110 8169 0
-8111 8170 0
-8112 8171 0
-8113 8172 0
-8114 8173 0
-8115 8174 0
-8116 8175 0
-8117 8176 0
-8118 8177 0
-8119 8178 0
-8120 8179 0
-8121 8180 0
-8122 8181 0
-8123 8182 0
-8124 8183 0
-8125 8184 0
-8126 8185 0
-8127 8186 0
-8128 8187 0
-8129 8188 0
-8130 8189 0
-8131 8190 0
-8132 8191 0
-8133 8192 0
-1116 -8075 8135 0
-1116 -8076 8136 0
-1116 -8077 8137 0
-1116 -8078 8138 0
-1116 -8079 8139 0
-1116 -8080 8140 0
-1116 -8081 8141 0
-1116 -8082 8142 0
-1116 -8083 8143 0
-1116 -8084 8144 0
-1116 -8085 8145 0
-1116 -8086 8146 0
-1116 -8087 8147 0
-1116 -8088 8148 0
-1116 -8089 8149 0
-1116 -8090 8150 0
-1116 -8091 8151 0
-1116 -8092 8152 0
-1116 -8093 8153 0
-1116 -8094 8154 0
-1116 -8095 8155 0
-1116 -8096 8156 0
-1116 -8097 8157 0
-1116 -8098 8158 0
-1116 -8099 8159 0
-1116 -8100 8160 0
-1116 -8101 8161 0
-1116 -8102 8162 0
-1116 -8103 8163 0
-1116 -8104 8164 0
-1116 -8105 8165 0
-1116 -8106 8166 0
-1116 -8107 8167 0
-1116 -8108 8168 0
-1116 -8109 8169 0
-1116 -8110 8170 0
-1116 -8111 8171 0
-1116 -8112 8172 0
-1116 -8113 8173 0
-1116 -8114 8174 0
-1116 -8115 8175 0
-1116 -8116 8176 0
-1116 -8117 8177 0
-1116 -8118 8178 0
-1116 -8119 8179 0
-1116 -8120 8180 0
-1116 -8121 8181 0
-1116 -8122 8182 0
-1116 -8123 8183 0
-1116 -8124 8184 0
-1116 -8125 8185 0
-1116 -8126 8186 0
-1116 -8127 8187 0
-1116 -8128 8188 0
-1116 -8129 8189 0
-1116 -8130 8190 0
-1116 -8131 8191 0
-1116 -8132 8192 0
-1116 -8133 0
-8134 8193 0
-8135 8194 0
-8136 8195 0
-8137 8196 0
-8138 8197 0
-8139 8198 0
-8140 8199 0
-8141 8200 0
-8142 8201 0
-8143 8202 0
-8144 8203 0
-8145 8204 0
-8146 8205 0
-8147 8206 0
-8148 8207 0
-8149 8208 0
-8150 8209 0
-8151 8210 0
-8152 8211 0
-8153 8212 0
-8154 8213 0
-8155 8214 0
-8156 8215 0
-8157 8216 0
-8158 8217 0
-8159 8218 0
-8160 8219 0
-8161 8220 0
-8162 8221 0
-8163 8222 0
-8164 8223 0
-8165 8224 0
-8166 8225 0
-8167 8226 0
-8168 8227 0
-8169 8228 0
-8170 8229 0
-8171 8230 0
-8172 8231 0
-8173 8232 0
-8174 8233 0
-8175 8234 0
-8176 8235 0
-8177 8236 0
-8178 8237 0
-8179 8238 0
-8180 8239 0
-8181 8240 0
-8182 8241 0
-8183 8242 0
-8184 8243 0
-8185 8244 0
-8186 8245 0
-8187 8246 0
-8188 8247 0
-8189 8248 0
-8190 8249 0
-8191 8250 0
-8192 8251 0
-1118 -8134 8194 0
-1118 -8135 8195 0
-1118 -8136 8196 0
-1118 -8137 8197 0
-1118 -8138 8198 0
-1118 -8139 8199 0
-1118 -8140 8200 0
-1118 -8141 8201 0
-1118 -8142 8202 0
-1118 -8143 8203 0
-1118 -8144 8204 0
-1118 -8145 8205 0
-1118 -8146 8206 0
-1118 -8147 8207 0
-1118 -8148 8208 0
-1118 -8149 8209 0
-1118 -8150 8210 0
-1118 -8151 8211 0
-1118 -8152 8212 0
-1118 -8153 8213 0
-1118 -8154 8214 0
-1118 -8155 8215 0
-1118 -8156 8216 0
-1118 -8157 8217 0
-1118 -8158 8218 0
-1118 -8159 8219 0
-1118 -8160 8220 0
-1118 -8161 8221 0
-1118 -8162 8222 0
-1118 -8163 8223 0
-1118 -8164 8224 0
-1118 -8165 8225 0
-1118 -8166 8226 0
-1118 -8167 8227 0
-1118 -8168 8228 0
-1118 -8169 8229 0
-1118 -8170 8230 0
-1118 -8171 8231 0
-1118 -8172 8232 0
-1118 -8173 8233 0
-1118 -8174 8234 0
-1118 -8175 8235 0
-1118 -8176 8236 0
-1118 -8177 8237 0
-1118 -8178 8238 0
-1118 -8179 8239 0
-1118 -8180 8240 0
-1118 -8181 8241 0
-1118 -8182 8242 0
-1118 -8183 8243 0
-1118 -8184 8244 0
-1118 -8185 8245 0
-1118 -8186 8246 0
-1118 -8187 8247 0
-1118 -8188 8248 0
-1118 -8189 8249 0
-1118 -8190 8250 0
-1118 -8191 8251 0
-1118 -8192 0
-8193 8252 0
-8194 8253 0
-8195 8254 0
-8196 8255 0
-8197 8256 0
-8198 8257 0
-8199 8258 0
-8200 8259 0
-8201 8260 0
-8202 8261 0
-8203 8262 0
-8204 8263 0
-8205 8264 0
-8206 8265 0
-8207 8266 0
-8208 8267 0
-8209 8268 0
-8210 8269 0
-8211 8270 0
-8212 8271 0
-8213 8272 0
-8214 8273 0
-8215 8274 0
-8216 8275 0
-8217 8276 0
-8218 8277 0
-8219 8278 0
-8220 8279 0
-8221 8280 0
-8222 8281 0
-8223 8282 0
-8224 8283 0
-8225 8284 0
-8226 8285 0
-8227 8286 0
-8228 8287 0
-8229 8288 0
-8230 8289 0
-8231 8290 0
-8232 8291 0
-8233 8292 0
-8234 8293 0
-8235 8294 0
-8236 8295 0
-8237 8296 0
-8238 8297 0
-8239 8298 0
-8240 8299 0
-8241 8300 0
-8242 8301 0
-8243 8302 0
-8244 8303 0
-8245 8304 0
-8246 8305 0
-8247 8306 0
-8248 8307 0
-8249 8308 0
-8250 8309 0
-8251 8310 0
-1120 -8193 8253 0
-1120 -8194 8254 0
-1120 -8195 8255 0
-1120 -8196 8256 0
-1120 -8197 8257 0
-1120 -8198 8258 0
-1120 -8199 8259 0
-1120 -8200 8260 0
-1120 -8201 8261 0
-1120 -8202 8262 0
-1120 -8203 8263 0
-1120 -8204 8264 0
-1120 -8205 8265 0
-1120 -8206 8266 0
-1120 -8207 8267 0
-1120 -8208 8268 0
-1120 -8209 8269 0
-1120 -8210 8270 0
-1120 -8211 8271 0
-1120 -8212 8272 0
-1120 -8213 8273 0
-1120 -8214 8274 0
-1120 -8215 8275 0
-1120 -8216 8276 0
-1120 -8217 8277 0
-1120 -8218 8278 0
-1120 -8219 8279 0
-1120 -8220 8280 0
-1120 -8221 8281 0
-1120 -8222 8282 0
-1120 -8223 8283 0
-1120 -8224 8284 0
-1120 -8225 8285 0
-1120 -8226 8286 0
-1120 -8227 8287 0
-1120 -8228 8288 0
-1120 -8229 8289 0
-1120 -8230 8290 0
-1120 -8231 8291 0
-1120 -8232 8292 0
-1120 -8233 8293 0
-1120 -8234 8294 0
-1120 -8235 8295 0
-1120 -8236 8296 0
-1120 -8237 8297 0
-1120 -8238 8298 0
-1120 -8239 8299 0
-1120 -8240 8300 0
-1120 -8241 8301 0
-1120 -8242 8302 0
-1120 -8243 8303 0
-1120 -8244 8304 0
-1120 -8245 8305 0
-1120 -8246 8306 0
-1120 -8247 8307 0
-1120 -8248 8308 0
-1120 -8249 8309 0
-1120 -8250 8310 0
-1120 -8251 0
-8252 8311 0
-8253 8312 0
-8254 8313 0
-8255 8314 0
-8256 8315 0
-8257 8316 0
-8258 8317 0
-8259 8318 0
-8260 8319 0
-8261 8320 0
-8262 8321 0
-8263 8322 0
-8264 8323 0
-8265 8324 0
-8266 8325 0
-8267 8326 0
-8268 8327 0
-8269 8328 0
-8270 8329 0
-8271 8330 0
-8272 8331 0
-8273 8332 0
-8274 8333 0
-8275 8334 0
-8276 8335 0
-8277 8336 0
-8278 8337 0
-8279 8338 0
-8280 8339 0
-8281 8340 0
-8282 8341 0
-8283 8342 0
-8284 8343 0
-8285 8344 0
-8286 8345 0
-8287 8346 0
-8288 8347 0
-8289 8348 0
-8290 8349 0
-8291 8350 0
-8292 8351 0
-8293 8352 0
-8294 8353 0
-8295 8354 0
-8296 8355 0
-8297 8356 0
-8298 8357 0
-8299 8358 0
-8300 8359 0
-8301 8360 0
-8302 8361 0
-8303 8362 0
-8304 8363 0
-8305 8364 0
-8306 8365 0
-8307 8366 0
-8308 8367 0
-8309 8368 0
-8310 8369 0
-1122 -8252 8312 0
-1122 -8253 8313 0
-1122 -8254 8314 0
-1122 -8255 8315 0
-1122 -8256 8316 0
-1122 -8257 8317 0
-1122 -8258 8318 0
-1122 -8259 8319 0
-1122 -8260 8320 0
-1122 -8261 8321 0
-1122 -8262 8322 0
-1122 -8263 8323 0
-1122 -8264 8324 0
-1122 -8265 8325 0
-1122 -8266 8326 0
-1122 -8267 8327 0
-1122 -8268 8328 0
-1122 -8269 8329 0
-1122 -8270 8330 0
-1122 -8271 8331 0
-1122 -8272 8332 0
-1122 -8273 8333 0
-1122 -8274 8334 0
-1122 -8275 8335 0
-1122 -8276 8336 0
-1122 -8277 8337 0
-1122 -8278 8338 0
-1122 -8279 8339 0
-1122 -8280 8340 0
-1122 -8281 8341 0
-1122 -8282 8342 0
-1122 -8283 8343 0
-1122 -8284 8344 0
-1122 -8285 8345 0
-1122 -8286 8346 0
-1122 -8287 8347 0
-1122 -8288 8348 0
-1122 -8289 8349 0
-1122 -8290 8350 0
-1122 -8291 8351 0
-1122 -8292 8352 0
-1122 -8293 8353 0
-1122 -8294 8354 0
-1122 -8295 8355 0
-1122 -8296 8356 0
-1122 -8297 8357 0
-1122 -8298 8358 0
-1122 -8299 8359 0
-1122 -8300 8360 0
-1122 -8301 8361 0
-1122 -8302 8362 0
-1122 -8303 8363 0
-1122 -8304 8364 0
-1122 -8305 8365 0
-1122 -8306 8366 0
-1122 -8307 8367 0
-1122 -8308 8368 0
-1122 -8309 8369 0
-1122 -8310 0
-8311 8370 0
-8312 8371 0
-8313 8372 0
-8314 8373 0
-8315 8374 0
-8316 8375 0
-8317 8376 0
-8318 8377 0
-8319 8378 0
-8320 8379 0
-8321 8380 0
-8322 8381 0
-8323 8382 0
-8324 8383 0
-8325 8384 0
-8326 8385 0
-8327 8386 0
-8328 8387 0
-8329 8388 0
-8330 8389 0
-8331 8390 0
-8332 8391 0
-8333 8392 0
-8334 8393 0
-8335 8394 0
-8336 8395 0
-8337 8396 0
-8338 8397 0
-8339 8398 0
-8340 8399 0
-8341 8400 0
-8342 8401 0
-8343 8402 0
-8344 8403 0
-8345 8404 0
-8346 8405 0
-8347 8406 0
-8348 8407 0
-8349 8408 0
-8350 8409 0
-8351 8410 0
-8352 8411 0
-8353 8412 0
-8354 8413 0
-8355 8414 0
-8356 8415 0
-8357 8416 0
-8358 8417 0
-8359 8418 0
-8360 8419 0
-8361 8420 0
-8362 8421 0
-8363 8422 0
-8364 8423 0
-8365 8424 0
-8366 8425 0
-8367 8426 0
-8368 8427 0
-8369 8428 0
-1124 -8311 8371 0
-1124 -8312 8372 0
-1124 -8313 8373 0
-1124 -8314 8374 0
-1124 -8315 8375 0
-1124 -8316 8376 0
-1124 -8317 8377 0
-1124 -8318 8378 0
-1124 -8319 8379 0
-1124 -8320 8380 0
-1124 -8321 8381 0
-1124 -8322 8382 0
-1124 -8323 8383 0
-1124 -8324 8384 0
-1124 -8325 8385 0
-1124 -8326 8386 0
-1124 -8327 8387 0
-1124 -8328 8388 0
-1124 -8329 8389 0
-1124 -8330 8390 0
-1124 -8331 8391 0
-1124 -8332 8392 0
-1124 -8333 8393 0
-1124 -8334 8394 0
-1124 -8335 8395 0
-1124 -8336 8396 0
-1124 -8337 8397 0
-1124 -8338 8398 0
-1124 -8339 8399 0
-1124 -8340 8400 0
-1124 -8341 8401 0
-1124 -8342 8402 0
-1124 -8343 8403 0
-1124 -8344 8404 0
-1124 -8345 8405 0
-1124 -8346 8406 0
-1124 -8347 8407 0
-1124 -8348 8408 0
-1124 -8349 8409 0
-1124 -8350 8410 0
-1124 -8351 8411 0
-1124 -8352 8412 0
-1124 -8353 8413 0
-1124 -8354 8414 0
-1124 -8355 8415 0
-1124 -8356 8416 0
-1124 -8357 8417 0
-1124 -8358 8418 0
-1124 -8359 8419 0
-1124 -8360 8420 0
-1124 -8361 8421 0
-1124 -8362 8422 0
-1124 -8363 8423 0
-1124 -8364 8424 0
-1124 -8365 8425 0
-1124 -8366 8426 0
-1124 -8367 8427 0
-1124 -8368 8428 0
-1124 -8369 0
-8370 8429 0
-8371 8430 0
-8372 8431 0
-8373 8432 0
-8374 8433 0
-8375 8434 0
-8376 8435 0
-8377 8436 0
-8378 8437 0
-8379 8438 0
-8380 8439 0
-8381 8440 0
-8382 8441 0
-8383 8442 0
-8384 8443 0
-8385 8444 0
-8386 8445 0
-8387 8446 0
-8388 8447 0
-8389 8448 0
-8390 8449 0
-8391 8450 0
-8392 8451 0
-8393 8452 0
-8394 8453 0
-8395 8454 0
-8396 8455 0
-8397 8456 0
-8398 8457 0
-8399 8458 0
-8400 8459 0
-8401 8460 0
-8402 8461 0
-8403 8462 0
-8404 8463 0
-8405 8464 0
-8406 8465 0
-8407 8466 0
-8408 8467 0
-8409 8468 0
-8410 8469 0
-8411 8470 0
-8412 8471 0
-8413 8472 0
-8414 8473 0
-8415 8474 0
-8416 8475 0
-8417 8476 0
-8418 8477 0
-8419 8478 0
-8420 8479 0
-8421 8480 0
-8422 8481 0
-8423 8482 0
-8424 8483 0
-8425 8484 0
-8426 8485 0
-8427 8486 0
-8428 8487 0
-1126 -8370 8430 0
-1126 -8371 8431 0
-1126 -8372 8432 0
-1126 -8373 8433 0
-1126 -8374 8434 0
-1126 -8375 8435 0
-1126 -8376 8436 0
-1126 -8377 8437 0
-1126 -8378 8438 0
-1126 -8379 8439 0
-1126 -8380 8440 0
-1126 -8381 8441 0
-1126 -8382 8442 0
-1126 -8383 8443 0
-1126 -8384 8444 0
-1126 -8385 8445 0
-1126 -8386 8446 0
-1126 -8387 8447 0
-1126 -8388 8448 0
-1126 -8389 8449 0
-1126 -8390 8450 0
-1126 -8391 8451 0
-1126 -8392 8452 0
-1126 -8393 8453 0
-1126 -8394 8454 0
-1126 -8395 8455 0
-1126 -8396 8456 0
-1126 -8397 8457 0
-1126 -8398 8458 0
-1126 -8399 8459 0
-1126 -8400 8460 0
-1126 -8401 8461 0
-1126 -8402 8462 0
-1126 -8403 8463 0
-1126 -8404 8464 0
-1126 -8405 8465 0
-1126 -8406 8466 0
-1126 -8407 8467 0
-1126 -8408 8468 0
-1126 -8409 8469 0
-1126 -8410 8470 0
-1126 -8411 8471 0
-1126 -8412 8472 0
-1126 -8413 8473 0
-1126 -8414 8474 0
-1126 -8415 8475 0
-1126 -8416 8476 0
-1126 -8417 8477 0
-1126 -8418 8478 0
-1126 -8419 8479 0
-1126 -8420 8480 0
-1126 -8421 8481 0
-1126 -8422 8482 0
-1126 -8423 8483 0
-1126 -8424 8484 0
-1126 -8425 8485 0
-1126 -8426 8486 0
-1126 -8427 8487 0
-1126 -8428 0
-8429 8488 0
-8430 8489 0
-8431 8490 0
-8432 8491 0
-8433 8492 0
-8434 8493 0
-8435 8494 0
-8436 8495 0
-8437 8496 0
-8438 8497 0
-8439 8498 0
-8440 8499 0
-8441 8500 0
-8442 8501 0
-8443 8502 0
-8444 8503 0
-8445 8504 0
-8446 8505 0
-8447 8506 0
-8448 8507 0
-8449 8508 0
-8450 8509 0
-8451 8510 0
-8452 8511 0
-8453 8512 0
-8454 8513 0
-8455 8514 0
-8456 8515 0
-8457 8516 0
-8458 8517 0
-8459 8518 0
-8460 8519 0
-8461 8520 0
-8462 8521 0
-8463 8522 0
-8464 8523 0
-8465 8524 0
-8466 8525 0
-8467 8526 0
-8468 8527 0
-8469 8528 0
-8470 8529 0
-8471 8530 0
-8472 8531 0
-8473 8532 0
-8474 8533 0
-8475 8534 0
-8476 8535 0
-8477 8536 0
-8478 8537 0
-8479 8538 0
-8480 8539 0
-8481 8540 0
-8482 8541 0
-8483 8542 0
-8484 8543 0
-8485 8544 0
-8486 8545 0
-8487 8546 0
-1128 -8429 8489 0
-1128 -8430 8490 0
-1128 -8431 8491 0
-1128 -8432 8492 0
-1128 -8433 8493 0
-1128 -8434 8494 0
-1128 -8435 8495 0
-1128 -8436 8496 0
-1128 -8437 8497 0
-1128 -8438 8498 0
-1128 -8439 8499 0
-1128 -8440 8500 0
-1128 -8441 8501 0
-1128 -8442 8502 0
-1128 -8443 8503 0
-1128 -8444 8504 0
-1128 -8445 8505 0
-1128 -8446 8506 0
-1128 -8447 8507 0
-1128 -8448 8508 0
-1128 -8449 8509 0
-1128 -8450 8510 0
-1128 -8451 8511 0
-1128 -8452 8512 0
-1128 -8453 8513 0
-1128 -8454 8514 0
-1128 -8455 8515 0
-1128 -8456 8516 0
-1128 -8457 8517 0
-1128 -8458 8518 0
-1128 -8459 8519 0
-1128 -8460 8520 0
-1128 -8461 8521 0
-1128 -8462 8522 0
-1128 -8463 8523 0
-1128 -8464 8524 0
-1128 -8465 8525 0
-1128 -8466 8526 0
-1128 -8467 8527 0
-1128 -8468 8528 0
-1128 -8469 8529 0
-1128 -8470 8530 0
-1128 -8471 8531 0
-1128 -8472 8532 0
-1128 -8473 8533 0
-1128 -8474 8534 0
-1128 -8475 8535 0
-1128 -8476 8536 0
-1128 -8477 8537 0
-1128 -8478 8538 0
-1128 -8479 8539 0
-1128 -8480 8540 0
-1128 -8481 8541 0
-1128 -8482 8542 0
-1128 -8483 8543 0
-1128 -8484 8544 0
-1128 -8485 8545 0
-1128 -8486 8546 0
-1128 -8487 0
-8488 8547 0
-8489 8548 0
-8490 8549 0
-8491 8550 0
-8492 8551 0
-8493 8552 0
-8494 8553 0
-8495 8554 0
-8496 8555 0
-8497 8556 0
-8498 8557 0
-8499 8558 0
-8500 8559 0
-8501 8560 0
-8502 8561 0
-8503 8562 0
-8504 8563 0
-8505 8564 0
-8506 8565 0
-8507 8566 0
-8508 8567 0
-8509 8568 0
-8510 8569 0
-8511 8570 0
-8512 8571 0
-8513 8572 0
-8514 8573 0
-8515 8574 0
-8516 8575 0
-8517 8576 0
-8518 8577 0
-8519 8578 0
-8520 8579 0
-8521 8580 0
-8522 8581 0
-8523 8582 0
-8524 8583 0
-8525 8584 0
-8526 8585 0
-8527 8586 0
-8528 8587 0
-8529 8588 0
-8530 8589 0
-8531 8590 0
-8532 8591 0
-8533 8592 0
-8534 8593 0
-8535 8594 0
-8536 8595 0
-8537 8596 0
-8538 8597 0
-8539 8598 0
-8540 8599 0
-8541 8600 0
-8542 8601 0
-8543 8602 0
-8544 8603 0
-8545 8604 0
-8546 8605 0
-1130 -8488 8548 0
-1130 -8489 8549 0
-1130 -8490 8550 0
-1130 -8491 8551 0
-1130 -8492 8552 0
-1130 -8493 8553 0
-1130 -8494 8554 0
-1130 -8495 8555 0
-1130 -8496 8556 0
-1130 -8497 8557 0
-1130 -8498 8558 0
-1130 -8499 8559 0
-1130 -8500 8560 0
-1130 -8501 8561 0
-1130 -8502 8562 0
-1130 -8503 8563 0
-1130 -8504 8564 0
-1130 -8505 8565 0
-1130 -8506 8566 0
-1130 -8507 8567 0
-1130 -8508 8568 0
-1130 -8509 8569 0
-1130 -8510 8570 0
-1130 -8511 8571 0
-1130 -8512 8572 0
-1130 -8513 8573 0
-1130 -8514 8574 0
-1130 -8515 8575 0
-1130 -8516 8576 0
-1130 -8517 8577 0
-1130 -8518 8578 0
-1130 -8519 8579 0
-1130 -8520 8580 0
-1130 -8521 8581 0
-1130 -8522 8582 0
-1130 -8523 8583 0
-1130 -8524 8584 0
-1130 -8525 8585 0
-1130 -8526 8586 0
-1130 -8527 8587 0
-1130 -8528 8588 0
-1130 -8529 8589 0
-1130 -8530 8590 0
-1130 -8531 8591 0
-1130 -8532 8592 0
-1130 -8533 8593 0
-1130 -8534 8594 0
-1130 -8535 8595 0
-1130 -8536 8596 0
-1130 -8537 8597 0
-1130 -8538 8598 0
-1130 -8539 8599 0
-1130 -8540 8600 0
-1130 -8541 8601 0
-1130 -8542 8602 0
-1130 -8543 8603 0
-1130 -8544 8604 0
-1130 -8545 8605 0
-1130 -8546 0
-8547 8606 0
-8548 8607 0
-8549 8608 0
-8550 8609 0
-8551 8610 0
-8552 8611 0
-8553 8612 0
-8554 8613 0
-8555 8614 0
-8556 8615 0
-8557 8616 0
-8558 8617 0
-8559 8618 0
-8560 8619 0
-8561 8620 0
-8562 8621 0
-8563 8622 0
-8564 8623 0
-8565 8624 0
-8566 8625 0
-8567 8626 0
-8568 8627 0
-8569 8628 0
-8570 8629 0
-8571 8630 0
-8572 8631 0
-8573 8632 0
-8574 8633 0
-8575 8634 0
-8576 8635 0
-8577 8636 0
-8578 8637 0
-8579 8638 0
-8580 8639 0
-8581 8640 0
-8582 8641 0
-8583 8642 0
-8584 8643 0
-8585 8644 0
-8586 8645 0
-8587 8646 0
-8588 8647 0
-8589 8648 0
-8590 8649 0
-8591 8650 0
-8592 8651 0
-8593 8652 0
-8594 8653 0
-8595 8654 0
-8596 8655 0
-8597 8656 0
-8598 8657 0
-8599 8658 0
-8600 8659 0
-8601 8660 0
-8602 8661 0
-8603 8662 0
-8604 8663 0
-8605 8664 0
-1132 -8547 8607 0
-1132 -8548 8608 0
-1132 -8549 8609 0
-1132 -8550 8610 0
-1132 -8551 8611 0
-1132 -8552 8612 0
-1132 -8553 8613 0
-1132 -8554 8614 0
-1132 -8555 8615 0
-1132 -8556 8616 0
-1132 -8557 8617 0
-1132 -8558 8618 0
-1132 -8559 8619 0
-1132 -8560 8620 0
-1132 -8561 8621 0
-1132 -8562 8622 0
-1132 -8563 8623 0
-1132 -8564 8624 0
-1132 -8565 8625 0
-1132 -8566 8626 0
-1132 -8567 8627 0
-1132 -8568 8628 0
-1132 -8569 8629 0
-1132 -8570 8630 0
-1132 -8571 8631 0
-1132 -8572 8632 0
-1132 -8573 8633 0
-1132 -8574 8634 0
-1132 -8575 8635 0
-1132 -8576 8636 0
-1132 -8577 8637 0
-1132 -8578 8638 0
-1132 -8579 8639 0
-1132 -8580 8640 0
-1132 -8581 8641 0
-1132 -8582 8642 0
-1132 -8583 8643 0
-1132 -8584 8644 0
-1132 -8585 8645 0
-1132 -8586 8646 0
-1132 -8587 8647 0
-1132 -8588 8648 0
-1132 -8589 8649 0
-1132 -8590 8650 0
-1132 -8591 8651 0
-1132 -8592 8652 0
-1132 -8593 8653 0
-1132 -8594 8654 0
-1132 -8595 8655 0
-1132 -8596 8656 0
-1132 -8597 8657 0
-1132 -8598 8658 0
-1132 -8599 8659 0
-1132 -8600 8660 0
-1132 -8601 8661 0
-1132 -8602 8662 0
-1132 -8603 8663 0
-1132 -8604 8664 0
-1132 -8605 0
-8606 8665 0
-8607 8666 0
-8608 8667 0
-8609 8668 0
-8610 8669 0
-8611 8670 0
-8612 8671 0
-8613 8672 0
-8614 8673 0
-8615 8674 0
-8616 8675 0
-8617 8676 0
-8618 8677 0
-8619 8678 0
-8620 8679 0
-8621 8680 0
-8622 8681 0
-8623 8682 0
-8624 8683 0
-8625 8684 0
-8626 8685 0
-8627 8686 0
-8628 8687 0
-8629 8688 0
-8630 8689 0
-8631 8690 0
-8632 8691 0
-8633 8692 0
-8634 8693 0
-8635 8694 0
-8636 8695 0
-8637 8696 0
-8638 8697 0
-8639 8698 0
-8640 8699 0
-8641 8700 0
-8642 8701 0
-8643 8702 0
-8644 8703 0
-8645 8704 0
-8646 8705 0
-8647 8706 0
-8648 8707 0
-8649 8708 0
-8650 8709 0
-8651 8710 0
-8652 8711 0
-8653 8712 0
-8654 8713 0
-8655 8714 0
-8656 8715 0
-8657 8716 0
-8658 8717 0
-8659 8718 0
-8660 8719 0
-8661 8720 0
-8662 8721 0
-8663 8722 0
-8664 8723 0
-1134 -8606 8666 0
-1134 -8607 8667 0
-1134 -8608 8668 0
-1134 -8609 8669 0
-1134 -8610 8670 0
-1134 -8611 8671 0
-1134 -8612 8672 0
-1134 -8613 8673 0
-1134 -8614 8674 0
-1134 -8615 8675 0
-1134 -8616 8676 0
-1134 -8617 8677 0
-1134 -8618 8678 0
-1134 -8619 8679 0
-1134 -8620 8680 0
-1134 -8621 8681 0
-1134 -8622 8682 0
-1134 -8623 8683 0
-1134 -8624 8684 0
-1134 -8625 8685 0
-1134 -8626 8686 0
-1134 -8627 8687 0
-1134 -8628 8688 0
-1134 -8629 8689 0
-1134 -8630 8690 0
-1134 -8631 8691 0
-1134 -8632 8692 0
-1134 -8633 8693 0
-1134 -8634 8694 0
-1134 -8635 8695 0
-1134 -8636 8696 0
-1134 -8637 8697 0
-1134 -8638 8698 0
-1134 -8639 8699 0
-1134 -8640 8700 0
-1134 -8641 8701 0
-1134 -8642 8702 0
-1134 -8643 8703 0
-1134 -8644 8704 0
-1134 -8645 8705 0
-1134 -8646 8706 0
-1134 -8647 8707 0
-1134 -8648 8708 0
-1134 -8649 8709 0
-1134 -8650 8710 0
-1134 -8651 8711 0
-1134 -8652 8712 0
-1134 -8653 8713 0
-1134 -8654 8714 0
-1134 -8655 8715 0
-1134 -8656 8716 0
-1134 -8657 8717 0
-1134 -8658 8718 0
-1134 -8659 8719 0
-1134 -8660 8720 0
-1134 -8661 8721 0
-1134 -8662 8722 0
-1134 -8663 8723 0
-1134 -8664 0
-8665 8724 0
-8666 8725 0
-8667 8726 0
-8668 8727 0
-8669 8728 0
-8670 8729 0
-8671 8730 0
-8672 8731 0
-8673 8732 0
-8674 8733 0
-8675 8734 0
-8676 8735 0
-8677 8736 0
-8678 8737 0
-8679 8738 0
-8680 8739 0
-8681 8740 0
-8682 8741 0
-8683 8742 0
-8684 8743 0
-8685 8744 0
-8686 8745 0
-8687 8746 0
-8688 8747 0
-8689 8748 0
-8690 8749 0
-8691 8750 0
-8692 8751 0
-8693 8752 0
-8694 8753 0
-8695 8754 0
-8696 8755 0
-8697 8756 0
-8698 8757 0
-8699 8758 0
-8700 8759 0
-8701 8760 0
-8702 8761 0
-8703 8762 0
-8704 8763 0
-8705 8764 0
-8706 8765 0
-8707 8766 0
-8708 8767 0
-8709 8768 0
-8710 8769 0
-8711 8770 0
-8712 8771 0
-8713 8772 0
-8714 8773 0
-8715 8774 0
-8716 8775 0
-8717 8776 0
-8718 8777 0
-8719 8778 0
-8720 8779 0
-8721 8780 0
-8722 8781 0
-8723 8782 0
-1136 -8665 8725 0
-1136 -8666 8726 0
-1136 -8667 8727 0
-1136 -8668 8728 0
-1136 -8669 8729 0
-1136 -8670 8730 0
-1136 -8671 8731 0
-1136 -8672 8732 0
-1136 -8673 8733 0
-1136 -8674 8734 0
-1136 -8675 8735 0
-1136 -8676 8736 0
-1136 -8677 8737 0
-1136 -8678 8738 0
-1136 -8679 8739 0
-1136 -8680 8740 0
-1136 -8681 8741 0
-1136 -8682 8742 0
-1136 -8683 8743 0
-1136 -8684 8744 0
-1136 -8685 8745 0
-1136 -8686 8746 0
-1136 -8687 8747 0
-1136 -8688 8748 0
-1136 -8689 8749 0
-1136 -8690 8750 0
-1136 -8691 8751 0
-1136 -8692 8752 0
-1136 -8693 8753 0
-1136 -8694 8754 0
-1136 -8695 8755 0
-1136 -8696 8756 0
-1136 -8697 8757 0
-1136 -8698 8758 0
-1136 -8699 8759 0
-1136 -8700 8760 0
-1136 -8701 8761 0
-1136 -8702 8762 0
-1136 -8703 8763 0
-1136 -8704 8764 0
-1136 -8705 8765 0
-1136 -8706 8766 0
-1136 -8707 8767 0
-1136 -8708 8768 0
-1136 -8709 8769 0
-1136 -8710 8770 0
-1136 -8711 8771 0
-1136 -8712 8772 0
-1136 -8713 8773 0
-1136 -8714 8774 0
-1136 -8715 8775 0
-1136 -8716 8776 0
-1136 -8717 8777 0
-1136 -8718 8778 0
-1136 -8719 8779 0
-1136 -8720 8780 0
-1136 -8721 8781 0
-1136 -8722 8782 0
-1136 -8723 0
-8724 8783 0
-8725 8784 0
-8726 8785 0
-8727 8786 0
-8728 8787 0
-8729 8788 0
-8730 8789 0
-8731 8790 0
-8732 8791 0
-8733 8792 0
-8734 8793 0
-8735 8794 0
-8736 8795 0
-8737 8796 0
-8738 8797 0
-8739 8798 0
-8740 8799 0
-8741 8800 0
-8742 8801 0
-8743 8802 0
-8744 8803 0
-8745 8804 0
-8746 8805 0
-8747 8806 0
-8748 8807 0
-8749 8808 0
-8750 8809 0
-8751 8810 0
-8752 8811 0
-8753 8812 0
-8754 8813 0
-8755 8814 0
-8756 8815 0
-8757 8816 0
-8758 8817 0
-8759 8818 0
-8760 8819 0
-8761 8820 0
-8762 8821 0
-8763 8822 0
-8764 8823 0
-8765 8824 0
-8766 8825 0
-8767 8826 0
-8768 8827 0
-8769 8828 0
-8770 8829 0
-8771 8830 0
-8772 8831 0
-8773 8832 0
-8774 8833 0
-8775 8834 0
-8776 8835 0
-8777 8836 0
-8778 8837 0
-8779 8838 0
-8780 8839 0
-8781 8840 0
-8782 8841 0
-1138 -8724 8784 0
-1138 -8725 8785 0
-1138 -8726 8786 0
-1138 -8727 8787 0
-1138 -8728 8788 0
-1138 -8729 8789 0
-1138 -8730 8790 0
-1138 -8731 8791 0
-1138 -8732 8792 0
-1138 -8733 8793 0
-1138 -8734 8794 0
-1138 -8735 8795 0
-1138 -8736 8796 0
-1138 -8737 8797 0
-1138 -8738 8798 0
-1138 -8739 8799 0
-1138 -8740 8800 0
-1138 -8741 8801 0
-1138 -8742 8802 0
-1138 -8743 8803 0
-1138 -8744 8804 0
-1138 -8745 8805 0
-1138 -8746 8806 0
-1138 -8747 8807 0
-1138 -8748 8808 0
-1138 -8749 8809 0
-1138 -8750 8810 0
-1138 -8751 8811 0
-1138 -8752 8812 0
-1138 -8753 8813 0
-1138 -8754 8814 0
-1138 -8755 8815 0
-1138 -8756 8816 0
-1138 -8757 8817 0
-1138 -8758 8818 0
-1138 -8759 8819 0
-1138 -8760 8820 0
-1138 -8761 8821 0
-1138 -8762 8822 0
-1138 -8763 8823 0
-1138 -8764 8824 0
-1138 -8765 8825 0
-1138 -8766 8826 0
-1138 -8767 8827 0
-1138 -8768 8828 0
-1138 -8769 8829 0
-1138 -8770 8830 0
-1138 -8771 8831 0
-1138 -8772 8832 0
-1138 -8773 8833 0
-1138 -8774 8834 0
-1138 -8775 8835 0
-1138 -8776 8836 0
-1138 -8777 8837 0
-1138 -8778 8838 0
-1138 -8779 8839 0
-1138 -8780 8840 0
-1138 -8781 8841 0
-1138 -8782 0
-8783 8842 0
-8784 8843 0
-8785 8844 0
-8786 8845 0
-8787 8846 0
-8788 8847 0
-8789 8848 0
-8790 8849 0
-8791 8850 0
-8792 8851 0
-8793 8852 0
-8794 8853 0
-8795 8854 0
-8796 8855 0
-8797 8856 0
-8798 8857 0
-8799 8858 0
-8800 8859 0
-8801 8860 0
-8802 8861 0
-8803 8862 0
-8804 8863 0
-8805 8864 0
-8806 8865 0
-8807 8866 0
-8808 8867 0
-8809 8868 0
-8810 8869 0
-8811 8870 0
-8812 8871 0
-8813 8872 0
-8814 8873 0
-8815 8874 0
-8816 8875 0
-8817 8876 0
-8818 8877 0
-8819 8878 0
-8820 8879 0
-8821 8880 0
-8822 8881 0
-8823 8882 0
-8824 8883 0
-8825 8884 0
-8826 8885 0
-8827 8886 0
-8828 8887 0
-8829 8888 0
-8830 8889 0
-8831 8890 0
-8832 8891 0
-8833 8892 0
-8834 8893 0
-8835 8894 0
-8836 8895 0
-8837 8896 0
-8838 8897 0
-8839 8898 0
-8840 8899 0
-8841 8900 0
-1140 -8783 8843 0
-1140 -8784 8844 0
-1140 -8785 8845 0
-1140 -8786 8846 0
-1140 -8787 8847 0
-1140 -8788 8848 0
-1140 -8789 8849 0
-1140 -8790 8850 0
-1140 -8791 8851 0
-1140 -8792 8852 0
-1140 -8793 8853 0
-1140 -8794 8854 0
-1140 -8795 8855 0
-1140 -8796 8856 0
-1140 -8797 8857 0
-1140 -8798 8858 0
-1140 -8799 8859 0
-1140 -8800 8860 0
-1140 -8801 8861 0
-1140 -8802 8862 0
-1140 -8803 8863 0
-1140 -8804 8864 0
-1140 -8805 8865 0
-1140 -8806 8866 0
-1140 -8807 8867 0
-1140 -8808 8868 0
-1140 -8809 8869 0
-1140 -8810 8870 0
-1140 -8811 8871 0
-1140 -8812 8872 0
-1140 -8813 8873 0
-1140 -8814 8874 0
-1140 -8815 8875 0
-1140 -8816 8876 0
-1140 -8817 8877 0
-1140 -8818 8878 0
-1140 -8819 8879 0
-1140 -8820 8880 0
-1140 -8821 8881 0
-1140 -8822 8882 0
-1140 -8823 8883 0
-1140 -8824 8884 0
-1140 -8825 8885 0
-1140 -8826 8886 0
-1140 -8827 8887 0
-1140 -8828 8888 0
-1140 -8829 8889 0
-1140 -8830 8890 0
-1140 -8831 8891 0
-1140 -8832 8892 0
-1140 -8833 8893 0
-1140 -8834 8894 0
-1140 -8835 8895 0
-1140 -8836 8896 0
-1140 -8837 8897 0
-1140 -8838 8898 0
-1140 -8839 8899 0
-1140 -8840 8900 0
-1140 -8841 0
-8842 8901 0
-8843 8902 0
-8844 8903 0
-8845 8904 0
-8846 8905 0
-8847 8906 0
-8848 8907 0
-8849 8908 0
-8850 8909 0
-8851 8910 0
-8852 8911 0
-8853 8912 0
-8854 8913 0
-8855 8914 0
-8856 8915 0
-8857 8916 0
-8858 8917 0
-8859 8918 0
-8860 8919 0
-8861 8920 0
-8862 8921 0
-8863 8922 0
-8864 8923 0
-8865 8924 0
-8866 8925 0
-8867 8926 0
-8868 8927 0
-8869 8928 0
-8870 8929 0
-8871 8930 0
-8872 8931 0
-8873 8932 0
-8874 8933 0
-8875 8934 0
-8876 8935 0
-8877 8936 0
-8878 8937 0
-8879 8938 0
-8880 8939 0
-8881 8940 0
-8882 8941 0
-8883 8942 0
-8884 8943 0
-8885 8944 0
-8886 8945 0
-8887 8946 0
-8888 8947 0
-8889 8948 0
-8890 8949 0
-8891 8950 0
-8892 8951 0
-8893 8952 0
-8894 8953 0
-8895 8954 0
-8896 8955 0
-8897 8956 0
-8898 8957 0
-8899 8958 0
-8900 8959 0
-1142 -8842 8902 0
-1142 -8843 8903 0
-1142 -8844 8904 0
-1142 -8845 8905 0
-1142 -8846 8906 0
-1142 -8847 8907 0
-1142 -8848 8908 0
-1142 -8849 8909 0
-1142 -8850 8910 0
-1142 -8851 8911 0
-1142 -8852 8912 0
-1142 -8853 8913 0
-1142 -8854 8914 0
-1142 -8855 8915 0
-1142 -8856 8916 0
-1142 -8857 8917 0
-1142 -8858 8918 0
-1142 -8859 8919 0
-1142 -8860 8920 0
-1142 -8861 8921 0
-1142 -8862 8922 0
-1142 -8863 8923 0
-1142 -8864 8924 0
-1142 -8865 8925 0
-1142 -8866 8926 0
-1142 -8867 8927 0
-1142 -8868 8928 0
-1142 -8869 8929 0
-1142 -8870 8930 0
-1142 -8871 8931 0
-1142 -8872 8932 0
-1142 -8873 8933 0
-1142 -8874 8934 0
-1142 -8875 8935 0
-1142 -8876 8936 0
-1142 -8877 8937 0
-1142 -8878 8938 0
-1142 -8879 8939 0
-1142 -8880 8940 0
-1142 -8881 8941 0
-1142 -8882 8942 0
-1142 -8883 8943 0
-1142 -8884 8944 0
-1142 -8885 8945 0
-1142 -8886 8946 0
-1142 -8887 8947 0
-1142 -8888 8948 0
-1142 -8889 8949 0
-1142 -8890 8950 0
-1142 -8891 8951 0
-1142 -8892 8952 0
-1142 -8893 8953 0
-1142 -8894 8954 0
-1142 -8895 8955 0
-1142 -8896 8956 0
-1142 -8897 8957 0
-1142 -8898 8958 0
-1142 -8899 8959 0
-1142 -8900 0
-8901 8960 0
-8902 8961 0
-8903 8962 0
-8904 8963 0
-8905 8964 0
-8906 8965 0
-8907 8966 0
-8908 8967 0
-8909 8968 0
-8910 8969 0
-8911 8970 0
-8912 8971 0
-8913 8972 0
-8914 8973 0
-8915 8974 0
-8916 8975 0
-8917 8976 0
-8918 8977 0
-8919 8978 0
-8920 8979 0
-8921 8980 0
-8922 8981 0
-8923 8982 0
-8924 8983 0
-8925 8984 0
-8926 8985 0
-8927 8986 0
-8928 8987 0
-8929 8988 0
-8930 8989 0
-8931 8990 0
-8932 8991 0
-8933 8992 0
-8934 8993 0
-8935 8994 0
-8936 8995 0
-8937 8996 0
-8938 8997 0
-8939 8998 0
-8940 8999 0
-8941 9000 0
-8942 9001 0
-8943 9002 0
-8944 9003 0
-8945 9004 0
-8946 9005 0
-8947 9006 0
-8948 9007 0
-8949 9008 0
-8950 9009 0
-8951 9010 0
-8952 9011 0
-8953 9012 0
-8954 9013 0
-8955 9014 0
-8956 9015 0
-8957 9016 0
-8958 9017 0
-8959 9018 0
-1144 -8901 8961 0
-1144 -8902 8962 0
-1144 -8903 8963 0
-1144 -8904 8964 0
-1144 -8905 8965 0
-1144 -8906 8966 0
-1144 -8907 8967 0
-1144 -8908 8968 0
-1144 -8909 8969 0
-1144 -8910 8970 0
-1144 -8911 8971 0
-1144 -8912 8972 0
-1144 -8913 8973 0
-1144 -8914 8974 0
-1144 -8915 8975 0
-1144 -8916 8976 0
-1144 -8917 8977 0
-1144 -8918 8978 0
-1144 -8919 8979 0
-1144 -8920 8980 0
-1144 -8921 8981 0
-1144 -8922 8982 0
-1144 -8923 8983 0
-1144 -8924 8984 0
-1144 -8925 8985 0
-1144 -8926 8986 0
-1144 -8927 8987 0
-1144 -8928 8988 0
-1144 -8929 8989 0
-1144 -8930 8990 0
-1144 -8931 8991 0
-1144 -8932 8992 0
-1144 -8933 8993 0
-1144 -8934 8994 0
-1144 -8935 8995 0
-1144 -8936 8996 0
-1144 -8937 8997 0
-1144 -8938 8998 0
-1144 -8939 8999 0
-1144 -8940 9000 0
-1144 -8941 9001 0
-1144 -8942 9002 0
-1144 -8943 9003 0
-1144 -8944 9004 0
-1144 -8945 9005 0
-1144 -8946 9006 0
-1144 -8947 9007 0
-1144 -8948 9008 0
-1144 -8949 9009 0
-1144 -8950 9010 0
-1144 -8951 9011 0
-1144 -8952 9012 0
-1144 -8953 9013 0
-1144 -8954 9014 0
-1144 -8955 9015 0
-1144 -8956 9016 0
-1144 -8957 9017 0
-1144 -8958 9018 0
-1144 -8959 0
-8960 9019 0
-8961 9020 0
-8962 9021 0
-8963 9022 0
-8964 9023 0
-8965 9024 0
-8966 9025 0
-8967 9026 0
-8968 9027 0
-8969 9028 0
-8970 9029 0
-8971 9030 0
-8972 9031 0
-8973 9032 0
-8974 9033 0
-8975 9034 0
-8976 9035 0
-8977 9036 0
-8978 9037 0
-8979 9038 0
-8980 9039 0
-8981 9040 0
-8982 9041 0
-8983 9042 0
-8984 9043 0
-8985 9044 0
-8986 9045 0
-8987 9046 0
-8988 9047 0
-8989 9048 0
-8990 9049 0
-8991 9050 0
-8992 9051 0
-8993 9052 0
-8994 9053 0
-8995 9054 0
-8996 9055 0
-8997 9056 0
-8998 9057 0
-8999 9058 0
-9000 9059 0
-9001 9060 0
-9002 9061 0
-9003 9062 0
-9004 9063 0
-9005 9064 0
-9006 9065 0
-9007 9066 0
-9008 9067 0
-9009 9068 0
-9010 9069 0
-9011 9070 0
-9012 9071 0
-9013 9072 0
-9014 9073 0
-9015 9074 0
-9016 9075 0
-9017 9076 0
-9018 9077 0
-1146 -8960 9020 0
-1146 -8961 9021 0
-1146 -8962 9022 0
-1146 -8963 9023 0
-1146 -8964 9024 0
-1146 -8965 9025 0
-1146 -8966 9026 0
-1146 -8967 9027 0
-1146 -8968 9028 0
-1146 -8969 9029 0
-1146 -8970 9030 0
-1146 -8971 9031 0
-1146 -8972 9032 0
-1146 -8973 9033 0
-1146 -8974 9034 0
-1146 -8975 9035 0
-1146 -8976 9036 0
-1146 -8977 9037 0
-1146 -8978 9038 0
-1146 -8979 9039 0
-1146 -8980 9040 0
-1146 -8981 9041 0
-1146 -8982 9042 0
-1146 -8983 9043 0
-1146 -8984 9044 0
-1146 -8985 9045 0
-1146 -8986 9046 0
-1146 -8987 9047 0
-1146 -8988 9048 0
-1146 -8989 9049 0
-1146 -8990 9050 0
-1146 -8991 9051 0
-1146 -8992 9052 0
-1146 -8993 9053 0
-1146 -8994 9054 0
-1146 -8995 9055 0
-1146 -8996 9056 0
-1146 -8997 9057 0
-1146 -8998 9058 0
-1146 -8999 9059 0
-1146 -9000 9060 0
-1146 -9001 9061 0
-1146 -9002 9062 0
-1146 -9003 9063 0
-1146 -9004 9064 0
-1146 -9005 9065 0
-1146 -9006 9066 0
-1146 -9007 9067 0
-1146 -9008 9068 0
-1146 -9009 9069 0
-1146 -9010 9070 0
-1146 -9011 9071 0
-1146 -9012 9072 0
-1146 -9013 9073 0
-1146 -9014 9074 0
-1146 -9015 9075 0
-1146 -9016 9076 0
-1146 -9017 9077 0
-1146 -9018 0
-9019 9078 0
-9020 9079 0
-9021 9080 0
-9022 9081 0
-9023 9082 0
-9024 9083 0
-9025 9084 0
-9026 9085 0
-9027 9086 0
-9028 9087 0
-9029 9088 0
-9030 9089 0
-9031 9090 0
-9032 9091 0
-9033 9092 0
-9034 9093 0
-9035 9094 0
-9036 9095 0
-9037 9096 0
-9038 9097 0
-9039 9098 0
-9040 9099 0
-9041 9100 0
-9042 9101 0
-9043 9102 0
-9044 9103 0
-9045 9104 0
-9046 9105 0
-9047 9106 0
-9048 9107 0
-9049 9108 0
-9050 9109 0
-9051 9110 0
-9052 9111 0
-9053 9112 0
-9054 9113 0
-9055 9114 0
-9056 9115 0
-9057 9116 0
-9058 9117 0
-9059 9118 0
-9060 9119 0
-9061 9120 0
-9062 9121 0
-9063 9122 0
-9064 9123 0
-9065 9124 0
-9066 9125 0
-9067 9126 0
-9068 9127 0
-9069 9128 0
-9070 9129 0
-9071 9130 0
-9072 9131 0
-9073 9132 0
-9074 9133 0
-9075 9134 0
-9076 9135 0
-9077 9136 0
-1148 -9019 9079 0
-1148 -9020 9080 0
-1148 -9021 9081 0
-1148 -9022 9082 0
-1148 -9023 9083 0
-1148 -9024 9084 0
-1148 -9025 9085 0
-1148 -9026 9086 0
-1148 -9027 9087 0
-1148 -9028 9088 0
-1148 -9029 9089 0
-1148 -9030 9090 0
-1148 -9031 9091 0
-1148 -9032 9092 0
-1148 -9033 9093 0
-1148 -9034 9094 0
-1148 -9035 9095 0
-1148 -9036 9096 0
-1148 -9037 9097 0
-1148 -9038 9098 0
-1148 -9039 9099 0
-1148 -9040 9100 0
-1148 -9041 9101 0
-1148 -9042 9102 0
-1148 -9043 9103 0
-1148 -9044 9104 0
-1148 -9045 9105 0
-1148 -9046 9106 0
-1148 -9047 9107 0
-1148 -9048 9108 0
-1148 -9049 9109 0
-1148 -9050 9110 0
-1148 -9051 9111 0
-1148 -9052 9112 0
-1148 -9053 9113 0
-1148 -9054 9114 0
-1148 -9055 9115 0
-1148 -9056 9116 0
-1148 -9057 9117 0
-1148 -9058 9118 0
-1148 -9059 9119 0
-1148 -9060 9120 0
-1148 -9061 9121 0
-1148 -9062 9122 0
-1148 -9063 9123 0
-1148 -9064 9124 0
-1148 -9065 9125 0
-1148 -9066 9126 0
-1148 -9067 9127 0
-1148 -9068 9128 0
-1148 -9069 9129 0
-1148 -9070 9130 0
-1148 -9071 9131 0
-1148 -9072 9132 0
-1148 -9073 9133 0
-1148 -9074 9134 0
-1148 -9075 9135 0
-1148 -9076 9136 0
-1148 -9077 0
-9078 9137 0
-9079 9138 0
-9080 9139 0
-9081 9140 0
-9082 9141 0
-9083 9142 0
-9084 9143 0
-9085 9144 0
-9086 9145 0
-9087 9146 0
-9088 9147 0
-9089 9148 0
-9090 9149 0
-9091 9150 0
-9092 9151 0
-9093 9152 0
-9094 9153 0
-9095 9154 0
-9096 9155 0
-9097 9156 0
-9098 9157 0
-9099 9158 0
-9100 9159 0
-9101 9160 0
-9102 9161 0
-9103 9162 0
-9104 9163 0
-9105 9164 0
-9106 9165 0
-9107 9166 0
-9108 9167 0
-9109 9168 0
-9110 9169 0
-9111 9170 0
-9112 9171 0
-9113 9172 0
-9114 9173 0
-9115 9174 0
-9116 9175 0
-9117 9176 0
-9118 9177 0
-9119 9178 0
-9120 9179 0
-9121 9180 0
-9122 9181 0
-9123 9182 0
-9124 9183 0
-9125 9184 0
-9126 9185 0
-9127 9186 0
-9128 9187 0
-9129 9188 0
-9130 9189 0
-9131 9190 0
-9132 9191 0
-9133 9192 0
-9134 9193 0
-9135 9194 0
-9136 9195 0
-1150 -9078 9138 0
-1150 -9079 9139 0
-1150 -9080 9140 0
-1150 -9081 9141 0
-1150 -9082 9142 0
-1150 -9083 9143 0
-1150 -9084 9144 0
-1150 -9085 9145 0
-1150 -9086 9146 0
-1150 -9087 9147 0
-1150 -9088 9148 0
-1150 -9089 9149 0
-1150 -9090 9150 0
-1150 -9091 9151 0
-1150 -9092 9152 0
-1150 -9093 9153 0
-1150 -9094 9154 0
-1150 -9095 9155 0
-1150 -9096 9156 0
-1150 -9097 9157 0
-1150 -9098 9158 0
-1150 -9099 9159 0
-1150 -9100 9160 0
-1150 -9101 9161 0
-1150 -9102 9162 0
-1150 -9103 9163 0
-1150 -9104 9164 0
-1150 -9105 9165 0
-1150 -9106 9166 0
-1150 -9107 9167 0
-1150 -9108 9168 0
-1150 -9109 9169 0
-1150 -9110 9170 0
-1150 -9111 9171 0
-1150 -9112 9172 0
-1150 -9113 9173 0
-1150 -9114 9174 0
-1150 -9115 9175 0
-1150 -9116 9176 0
-1150 -9117 9177 0
-1150 -9118 9178 0
-1150 -9119 9179 0
-1150 -9120 9180 0
-1150 -9121 9181 0
-1150 -9122 9182 0
-1150 -9123 9183 0
-1150 -9124 9184 0
-1150 -9125 9185 0
-1150 -9126 9186 0
-1150 -9127 9187 0
-1150 -9128 9188 0
-1150 -9129 9189 0
-1150 -9130 9190 0
-1150 -9131 9191 0
-1150 -9132 9192 0
-1150 -9133 9193 0
-1150 -9134 9194 0
-1150 -9135 9195 0
-1150 -9136 0
-9137 9196 0
-9138 9197 0
-9139 9198 0
-9140 9199 0
-9141 9200 0
-9142 9201 0
-9143 9202 0
-9144 9203 0
-9145 9204 0
-9146 9205 0
-9147 9206 0
-9148 9207 0
-9149 9208 0
-9150 9209 0
-9151 9210 0
-9152 9211 0
-9153 9212 0
-9154 9213 0
-9155 9214 0
-9156 9215 0
-9157 9216 0
-9158 9217 0
-9159 9218 0
-9160 9219 0
-9161 9220 0
-9162 9221 0
-9163 9222 0
-9164 9223 0
-9165 9224 0
-9166 9225 0
-9167 9226 0
-9168 9227 0
-9169 9228 0
-9170 9229 0
-9171 9230 0
-9172 9231 0
-9173 9232 0
-9174 9233 0
-9175 9234 0
-9176 9235 0
-9177 9236 0
-9178 9237 0
-9179 9238 0
-9180 9239 0
-9181 9240 0
-9182 9241 0
-9183 9242 0
-9184 9243 0
-9185 9244 0
-9186 9245 0
-9187 9246 0
-9188 9247 0
-9189 9248 0
-9190 9249 0
-9191 9250 0
-9192 9251 0
-9193 9252 0
-9194 9253 0
-9195 9254 0
-1152 -9137 9197 0
-1152 -9138 9198 0
-1152 -9139 9199 0
-1152 -9140 9200 0
-1152 -9141 9201 0
-1152 -9142 9202 0
-1152 -9143 9203 0
-1152 -9144 9204 0
-1152 -9145 9205 0
-1152 -9146 9206 0
-1152 -9147 9207 0
-1152 -9148 9208 0
-1152 -9149 9209 0
-1152 -9150 9210 0
-1152 -9151 9211 0
-1152 -9152 9212 0
-1152 -9153 9213 0
-1152 -9154 9214 0
-1152 -9155 9215 0
-1152 -9156 9216 0
-1152 -9157 9217 0
-1152 -9158 9218 0
-1152 -9159 9219 0
-1152 -9160 9220 0
-1152 -9161 9221 0
-1152 -9162 9222 0
-1152 -9163 9223 0
-1152 -9164 9224 0
-1152 -9165 9225 0
-1152 -9166 9226 0
-1152 -9167 9227 0
-1152 -9168 9228 0
-1152 -9169 9229 0
-1152 -9170 9230 0
-1152 -9171 9231 0
-1152 -9172 9232 0
-1152 -9173 9233 0
-1152 -9174 9234 0
-1152 -9175 9235 0
-1152 -9176 9236 0
-1152 -9177 9237 0
-1152 -9178 9238 0
-1152 -9179 9239 0
-1152 -9180 9240 0
-1152 -9181 9241 0
-1152 -9182 9242 0
-1152 -9183 9243 0
-1152 -9184 9244 0
-1152 -9185 9245 0
-1152 -9186 9246 0
-1152 -9187 9247 0
-1152 -9188 9248 0
-1152 -9189 9249 0
-1152 -9190 9250 0
-1152 -9191 9251 0
-1152 -9192 9252 0
-1152 -9193 9253 0
-1152 -9194 9254 0
-1152 -9195 0
-9196 9255 0
-9197 9256 0
-9198 9257 0
-9199 9258 0
-9200 9259 0
-9201 9260 0
-9202 9261 0
-9203 9262 0
-9204 9263 0
-9205 9264 0
-9206 9265 0
-9207 9266 0
-9208 9267 0
-9209 9268 0
-9210 9269 0
-9211 9270 0
-9212 9271 0
-9213 9272 0
-9214 9273 0
-9215 9274 0
-9216 9275 0
-9217 9276 0
-9218 9277 0
-9219 9278 0
-9220 9279 0
-9221 9280 0
-9222 9281 0
-9223 9282 0
-9224 9283 0
-9225 9284 0
-9226 9285 0
-9227 9286 0
-9228 9287 0
-9229 9288 0
-9230 9289 0
-9231 9290 0
-9232 9291 0
-9233 9292 0
-9234 9293 0
-9235 9294 0
-9236 9295 0
-9237 9296 0
-9238 9297 0
-9239 9298 0
-9240 9299 0
-9241 9300 0
-9242 9301 0
-9243 9302 0
-9244 9303 0
-9245 9304 0
-9246 9305 0
-9247 9306 0
-9248 9307 0
-9249 9308 0
-9250 9309 0
-9251 9310 0
-9252 9311 0
-9253 9312 0
-9254 9313 0
-1154 -9196 9256 0
-1154 -9197 9257 0
-1154 -9198 9258 0
-1154 -9199 9259 0
-1154 -9200 9260 0
-1154 -9201 9261 0
-1154 -9202 9262 0
-1154 -9203 9263 0
-1154 -9204 9264 0
-1154 -9205 9265 0
-1154 -9206 9266 0
-1154 -9207 9267 0
-1154 -9208 9268 0
-1154 -9209 9269 0
-1154 -9210 9270 0
-1154 -9211 9271 0
-1154 -9212 9272 0
-1154 -9213 9273 0
-1154 -9214 9274 0
-1154 -9215 9275 0
-1154 -9216 9276 0
-1154 -9217 9277 0
-1154 -9218 9278 0
-1154 -9219 9279 0
-1154 -9220 9280 0
-1154 -9221 9281 0
-1154 -9222 9282 0
-1154 -9223 9283 0
-1154 -9224 9284 0
-1154 -9225 9285 0
-1154 -9226 9286 0
-1154 -9227 9287 0
-1154 -9228 9288 0
-1154 -9229 9289 0
-1154 -9230 9290 0
-1154 -9231 9291 0
-1154 -9232 9292 0
-1154 -9233 9293 0
-1154 -9234 9294 0
-1154 -9235 9295 0
-1154 -9236 9296 0
-1154 -9237 9297 0
-1154 -9238 9298 0
-1154 -9239 9299 0
-1154 -9240 9300 0
-1154 -9241 9301 0
-1154 -9242 9302 0
-1154 -9243 9303 0
-1154 -9244 9304 0
-1154 -9245 9305 0
-1154 -9246 9306 0
-1154 -9247 9307 0
-1154 -9248 9308 0
-1154 -9249 9309 0
-1154 -9250 9310 0
-1154 -9251 9311 0
-1154 -9252 9312 0
-1154 -9253 9313 0
-1154 -9254 0
-9255 9314 0
-9256 9315 0
-9257 9316 0
-9258 9317 0
-9259 9318 0
-9260 9319 0
-9261 9320 0
-9262 9321 0
-9263 9322 0
-9264 9323 0
-9265 9324 0
-9266 9325 0
-9267 9326 0
-9268 9327 0
-9269 9328 0
-9270 9329 0
-9271 9330 0
-9272 9331 0
-9273 9332 0
-9274 9333 0
-9275 9334 0
-9276 9335 0
-9277 9336 0
-9278 9337 0
-9279 9338 0
-9280 9339 0
-9281 9340 0
-9282 9341 0
-9283 9342 0
-9284 9343 0
-9285 9344 0
-9286 9345 0
-9287 9346 0
-9288 9347 0
-9289 9348 0
-9290 9349 0
-9291 9350 0
-9292 9351 0
-9293 9352 0
-9294 9353 0
-9295 9354 0
-9296 9355 0
-9297 9356 0
-9298 9357 0
-9299 9358 0
-9300 9359 0
-9301 9360 0
-9302 9361 0
-9303 9362 0
-9304 9363 0
-9305 9364 0
-9306 9365 0
-9307 9366 0
-9308 9367 0
-9309 9368 0
-9310 9369 0
-9311 9370 0
-9312 9371 0
-9313 9372 0
-1156 -9255 9315 0
-1156 -9256 9316 0
-1156 -9257 9317 0
-1156 -9258 9318 0
-1156 -9259 9319 0
-1156 -9260 9320 0
-1156 -9261 9321 0
-1156 -9262 9322 0
-1156 -9263 9323 0
-1156 -9264 9324 0
-1156 -9265 9325 0
-1156 -9266 9326 0
-1156 -9267 9327 0
-1156 -9268 9328 0
-1156 -9269 9329 0
-1156 -9270 9330 0
-1156 -9271 9331 0
-1156 -9272 9332 0
-1156 -9273 9333 0
-1156 -9274 9334 0
-1156 -9275 9335 0
-1156 -9276 9336 0
-1156 -9277 9337 0
-1156 -9278 9338 0
-1156 -9279 9339 0
-1156 -9280 9340 0
-1156 -9281 9341 0
-1156 -9282 9342 0
-1156 -9283 9343 0
-1156 -9284 9344 0
-1156 -9285 9345 0
-1156 -9286 9346 0
-1156 -9287 9347 0
-1156 -9288 9348 0
-1156 -9289 9349 0
-1156 -9290 9350 0
-1156 -9291 9351 0
-1156 -9292 9352 0
-1156 -9293 9353 0
-1156 -9294 9354 0
-1156 -9295 9355 0
-1156 -9296 9356 0
-1156 -9297 9357 0
-1156 -9298 9358 0
-1156 -9299 9359 0
-1156 -9300 9360 0
-1156 -9301 9361 0
-1156 -9302 9362 0
-1156 -9303 9363 0
-1156 -9304 9364 0
-1156 -9305 9365 0
-1156 -9306 9366 0
-1156 -9307 9367 0
-1156 -9308 9368 0
-1156 -9309 9369 0
-1156 -9310 9370 0
-1156 -9311 9371 0
-1156 -9312 9372 0
-1156 -9313 0
-9314 9373 0
-9315 9374 0
-9316 9375 0
-9317 9376 0
-9318 9377 0
-9319 9378 0
-9320 9379 0
-9321 9380 0
-9322 9381 0
-9323 9382 0
-9324 9383 0
-9325 9384 0
-9326 9385 0
-9327 9386 0
-9328 9387 0
-9329 9388 0
-9330 9389 0
-9331 9390 0
-9332 9391 0
-9333 9392 0
-9334 9393 0
-9335 9394 0
-9336 9395 0
-9337 9396 0
-9338 9397 0
-9339 9398 0
-9340 9399 0
-9341 9400 0
-9342 9401 0
-9343 9402 0
-9344 9403 0
-9345 9404 0
-9346 9405 0
-9347 9406 0
-9348 9407 0
-9349 9408 0
-9350 9409 0
-9351 9410 0
-9352 9411 0
-9353 9412 0
-9354 9413 0
-9355 9414 0
-9356 9415 0
-9357 9416 0
-9358 9417 0
-9359 9418 0
-9360 9419 0
-9361 9420 0
-9362 9421 0
-9363 9422 0
-9364 9423 0
-9365 9424 0
-9366 9425 0
-9367 9426 0
-9368 9427 0
-9369 9428 0
-9370 9429 0
-9371 9430 0
-9372 9431 0
-1158 -9314 9374 0
-1158 -9315 9375 0
-1158 -9316 9376 0
-1158 -9317 9377 0
-1158 -9318 9378 0
-1158 -9319 9379 0
-1158 -9320 9380 0
-1158 -9321 9381 0
-1158 -9322 9382 0
-1158 -9323 9383 0
-1158 -9324 9384 0
-1158 -9325 9385 0
-1158 -9326 9386 0
-1158 -9327 9387 0
-1158 -9328 9388 0
-1158 -9329 9389 0
-1158 -9330 9390 0
-1158 -9331 9391 0
-1158 -9332 9392 0
-1158 -9333 9393 0
-1158 -9334 9394 0
-1158 -9335 9395 0
-1158 -9336 9396 0
-1158 -9337 9397 0
-1158 -9338 9398 0
-1158 -9339 9399 0
-1158 -9340 9400 0
-1158 -9341 9401 0
-1158 -9342 9402 0
-1158 -9343 9403 0
-1158 -9344 9404 0
-1158 -9345 9405 0
-1158 -9346 9406 0
-1158 -9347 9407 0
-1158 -9348 9408 0
-1158 -9349 9409 0
-1158 -9350 9410 0
-1158 -9351 9411 0
-1158 -9352 9412 0
-1158 -9353 9413 0
-1158 -9354 9414 0
-1158 -9355 9415 0
-1158 -9356 9416 0
-1158 -9357 9417 0
-1158 -9358 9418 0
-1158 -9359 9419 0
-1158 -9360 9420 0
-1158 -9361 9421 0
-1158 -9362 9422 0
-1158 -9363 9423 0
-1158 -9364 9424 0
-1158 -9365 9425 0
-1158 -9366 9426 0
-1158 -9367 9427 0
-1158 -9368 9428 0
-1158 -9369 9429 0
-1158 -9370 9430 0
-1158 -9371 9431 0
-1158 -9372 0
-9373 9432 0
-9374 9433 0
-9375 9434 0
-9376 9435 0
-9377 9436 0
-9378 9437 0
-9379 9438 0
-9380 9439 0
-9381 9440 0
-9382 9441 0
-9383 9442 0
-9384 9443 0
-9385 9444 0
-9386 9445 0
-9387 9446 0
-9388 9447 0
-9389 9448 0
-9390 9449 0
-9391 9450 0
-9392 9451 0
-9393 9452 0
-9394 9453 0
-9395 9454 0
-9396 9455 0
-9397 9456 0
-9398 9457 0
-9399 9458 0
-9400 9459 0
-9401 9460 0
-9402 9461 0
-9403 9462 0
-9404 9463 0
-9405 9464 0
-9406 9465 0
-9407 9466 0
-9408 9467 0
-9409 9468 0
-9410 9469 0
-9411 9470 0
-9412 9471 0
-9413 9472 0
-9414 9473 0
-9415 9474 0
-9416 9475 0
-9417 9476 0
-9418 9477 0
-9419 9478 0
-9420 9479 0
-9421 9480 0
-9422 9481 0
-9423 9482 0
-9424 9483 0
-9425 9484 0
-9426 9485 0
-9427 9486 0
-9428 9487 0
-9429 9488 0
-9430 9489 0
-9431 9490 0
-1160 -9373 9433 0
-1160 -9374 9434 0
-1160 -9375 9435 0
-1160 -9376 9436 0
-1160 -9377 9437 0
-1160 -9378 9438 0
-1160 -9379 9439 0
-1160 -9380 9440 0
-1160 -9381 9441 0
-1160 -9382 9442 0
-1160 -9383 9443 0
-1160 -9384 9444 0
-1160 -9385 9445 0
-1160 -9386 9446 0
-1160 -9387 9447 0
-1160 -9388 9448 0
-1160 -9389 9449 0
-1160 -9390 9450 0
-1160 -9391 9451 0
-1160 -9392 9452 0
-1160 -9393 9453 0
-1160 -9394 9454 0
-1160 -9395 9455 0
-1160 -9396 9456 0
-1160 -9397 9457 0
-1160 -9398 9458 0
-1160 -9399 9459 0
-1160 -9400 9460 0
-1160 -9401 9461 0
-1160 -9402 9462 0
-1160 -9403 9463 0
-1160 -9404 9464 0
-1160 -9405 9465 0
-1160 -9406 9466 0
-1160 -9407 9467 0
-1160 -9408 9468 0
-1160 -9409 9469 0
-1160 -9410 9470 0
-1160 -9411 9471 0
-1160 -9412 9472 0
-1160 -9413 9473 0
-1160 -9414 9474 0
-1160 -9415 9475 0
-1160 -9416 9476 0
-1160 -9417 9477 0
-1160 -9418 9478 0
-1160 -9419 9479 0
-1160 -9420 9480 0
-1160 -9421 9481 0
-1160 -9422 9482 0
-1160 -9423 9483 0
-1160 -9424 9484 0
-1160 -9425 9485 0
-1160 -9426 9486 0
-1160 -9427 9487 0
-1160 -9428 9488 0
-1160 -9429 9489 0
-1160 -9430 9490 0
-1160 -9431 0
-9432 9491 0
-9433 9492 0
-9434 9493 0
-9435 9494 0
-9436 9495 0
-9437 9496 0
-9438 9497 0
-9439 9498 0
-9440 9499 0
-9441 9500 0
-9442 9501 0
-9443 9502 0
-9444 9503 0
-9445 9504 0
-9446 9505 0
-9447 9506 0
-9448 9507 0
-9449 9508 0
-9450 9509 0
-9451 9510 0
-9452 9511 0
-9453 9512 0
-9454 9513 0
-9455 9514 0
-9456 9515 0
-9457 9516 0
-9458 9517 0
-9459 9518 0
-9460 9519 0
-9461 9520 0
-9462 9521 0
-9463 9522 0
-9464 9523 0
-9465 9524 0
-9466 9525 0
-9467 9526 0
-9468 9527 0
-9469 9528 0
-9470 9529 0
-9471 9530 0
-9472 9531 0
-9473 9532 0
-9474 9533 0
-9475 9534 0
-9476 9535 0
-9477 9536 0
-9478 9537 0
-9479 9538 0
-9480 9539 0
-9481 9540 0
-9482 9541 0
-9483 9542 0
-9484 9543 0
-9485 9544 0
-9486 9545 0
-9487 9546 0
-9488 9547 0
-9489 9548 0
-9490 9549 0
-1162 -9432 9492 0
-1162 -9433 9493 0
-1162 -9434 9494 0
-1162 -9435 9495 0
-1162 -9436 9496 0
-1162 -9437 9497 0
-1162 -9438 9498 0
-1162 -9439 9499 0
-1162 -9440 9500 0
-1162 -9441 9501 0
-1162 -9442 9502 0
-1162 -9443 9503 0
-1162 -9444 9504 0
-1162 -9445 9505 0
-1162 -9446 9506 0
-1162 -9447 9507 0
-1162 -9448 9508 0
-1162 -9449 9509 0
-1162 -9450 9510 0
-1162 -9451 9511 0
-1162 -9452 9512 0
-1162 -9453 9513 0
-1162 -9454 9514 0
-1162 -9455 9515 0
-1162 -9456 9516 0
-1162 -9457 9517 0
-1162 -9458 9518 0
-1162 -9459 9519 0
-1162 -9460 9520 0
-1162 -9461 9521 0
-1162 -9462 9522 0
-1162 -9463 9523 0
-1162 -9464 9524 0
-1162 -9465 9525 0
-1162 -9466 9526 0
-1162 -9467 9527 0
-1162 -9468 9528 0
-1162 -9469 9529 0
-1162 -9470 9530 0
-1162 -9471 9531 0
-1162 -9472 9532 0
-1162 -9473 9533 0
-1162 -9474 9534 0
-1162 -9475 9535 0
-1162 -9476 9536 0
-1162 -9477 9537 0
-1162 -9478 9538 0
-1162 -9479 9539 0
-1162 -9480 9540 0
-1162 -9481 9541 0
-1162 -9482 9542 0
-1162 -9483 9543 0
-1162 -9484 9544 0
-1162 -9485 9545 0
-1162 -9486 9546 0
-1162 -9487 9547 0
-1162 -9488 9548 0
-1162 -9489 9549 0
-1162 -9490 0
-9491 9550 0
-9492 9551 0
-9493 9552 0
-9494 9553 0
-9495 9554 0
-9496 9555 0
-9497 9556 0
-9498 9557 0
-9499 9558 0
-9500 9559 0
-9501 9560 0
-9502 9561 0
-9503 9562 0
-9504 9563 0
-9505 9564 0
-9506 9565 0
-9507 9566 0
-9508 9567 0
-9509 9568 0
-9510 9569 0
-9511 9570 0
-9512 9571 0
-9513 9572 0
-9514 9573 0
-9515 9574 0
-9516 9575 0
-9517 9576 0
-9518 9577 0
-9519 9578 0
-9520 9579 0
-9521 9580 0
-9522 9581 0
-9523 9582 0
-9524 9583 0
-9525 9584 0
-9526 9585 0
-9527 9586 0
-9528 9587 0
-9529 9588 0
-9530 9589 0
-9531 9590 0
-9532 9591 0
-9533 9592 0
-9534 9593 0
-9535 9594 0
-9536 9595 0
-9537 9596 0
-9538 9597 0
-9539 9598 0
-9540 9599 0
-9541 9600 0
-9542 9601 0
-9543 9602 0
-9544 9603 0
-9545 9604 0
-9546 9605 0
-9547 9606 0
-9548 9607 0
-9549 9608 0
-1164 -9491 9551 0
-1164 -9492 9552 0
-1164 -9493 9553 0
-1164 -9494 9554 0
-1164 -9495 9555 0
-1164 -9496 9556 0
-1164 -9497 9557 0
-1164 -9498 9558 0
-1164 -9499 9559 0
-1164 -9500 9560 0
-1164 -9501 9561 0
-1164 -9502 9562 0
-1164 -9503 9563 0
-1164 -9504 9564 0
-1164 -9505 9565 0
-1164 -9506 9566 0
-1164 -9507 9567 0
-1164 -9508 9568 0
-1164 -9509 9569 0
-1164 -9510 9570 0
-1164 -9511 9571 0
-1164 -9512 9572 0
-1164 -9513 9573 0
-1164 -9514 9574 0
-1164 -9515 9575 0
-1164 -9516 9576 0
-1164 -9517 9577 0
-1164 -9518 9578 0
-1164 -9519 9579 0
-1164 -9520 9580 0
-1164 -9521 9581 0
-1164 -9522 9582 0
-1164 -9523 9583 0
-1164 -9524 9584 0
-1164 -9525 9585 0
-1164 -9526 9586 0
-1164 -9527 9587 0
-1164 -9528 9588 0
-1164 -9529 9589 0
-1164 -9530 9590 0
-1164 -9531 9591 0
-1164 -9532 9592 0
-1164 -9533 9593 0
-1164 -9534 9594 0
-1164 -9535 9595 0
-1164 -9536 9596 0
-1164 -9537 9597 0
-1164 -9538 9598 0
-1164 -9539 9599 0
-1164 -9540 9600 0
-1164 -9541 9601 0
-1164 -9542 9602 0
-1164 -9543 9603 0
-1164 -9544 9604 0
-1164 -9545 9605 0
-1164 -9546 9606 0
-1164 -9547 9607 0
-1164 -9548 9608 0
-1164 -9549 0
-9550 9609 0
-9551 9610 0
-9552 9611 0
-9553 9612 0
-9554 9613 0
-9555 9614 0
-9556 9615 0
-9557 9616 0
-9558 9617 0
-9559 9618 0
-9560 9619 0
-9561 9620 0
-9562 9621 0
-9563 9622 0
-9564 9623 0
-9565 9624 0
-9566 9625 0
-9567 9626 0
-9568 9627 0
-9569 9628 0
-9570 9629 0
-9571 9630 0
-9572 9631 0
-9573 9632 0
-9574 9633 0
-9575 9634 0
-9576 9635 0
-9577 9636 0
-9578 9637 0
-9579 9638 0
-9580 9639 0
-9581 9640 0
-9582 9641 0
-9583 9642 0
-9584 9643 0
-9585 9644 0
-9586 9645 0
-9587 9646 0
-9588 9647 0
-9589 9648 0
-9590 9649 0
-9591 9650 0
-9592 9651 0
-9593 9652 0
-9594 9653 0
-9595 9654 0
-9596 9655 0
-9597 9656 0
-9598 9657 0
-9599 9658 0
-9600 9659 0
-9601 9660 0
-9602 9661 0
-9603 9662 0
-9604 9663 0
-9605 9664 0
-9606 9665 0
-9607 9666 0
-9608 9667 0
-1166 -9550 9610 0
-1166 -9551 9611 0
-1166 -9552 9612 0
-1166 -9553 9613 0
-1166 -9554 9614 0
-1166 -9555 9615 0
-1166 -9556 9616 0
-1166 -9557 9617 0
-1166 -9558 9618 0
-1166 -9559 9619 0
-1166 -9560 9620 0
-1166 -9561 9621 0
-1166 -9562 9622 0
-1166 -9563 9623 0
-1166 -9564 9624 0
-1166 -9565 9625 0
-1166 -9566 9626 0
-1166 -9567 9627 0
-1166 -9568 9628 0
-1166 -9569 9629 0
-1166 -9570 9630 0
-1166 -9571 9631 0
-1166 -9572 9632 0
-1166 -9573 9633 0
-1166 -9574 9634 0
-1166 -9575 9635 0
-1166 -9576 9636 0
-1166 -9577 9637 0
-1166 -9578 9638 0
-1166 -9579 9639 0
-1166 -9580 9640 0
-1166 -9581 9641 0
-1166 -9582 9642 0
-1166 -9583 9643 0
-1166 -9584 9644 0
-1166 -9585 9645 0
-1166 -9586 9646 0
-1166 -9587 9647 0
-1166 -9588 9648 0
-1166 -9589 9649 0
-1166 -9590 9650 0
-1166 -9591 9651 0
-1166 -9592 9652 0
-1166 -9593 9653 0
-1166 -9594 9654 0
-1166 -9595 9655 0
-1166 -9596 9656 0
-1166 -9597 9657 0
-1166 -9598 9658 0
-1166 -9599 9659 0
-1166 -9600 9660 0
-1166 -9601 9661 0
-1166 -9602 9662 0
-1166 -9603 9663 0
-1166 -9604 9664 0
-1166 -9605 9665 0
-1166 -9606 9666 0
-1166 -9607 9667 0
-1166 -9608 0
-9609 9668 0
-9610 9669 0
-9611 9670 0
-9612 9671 0
-9613 9672 0
-9614 9673 0
-9615 9674 0
-9616 9675 0
-9617 9676 0
-9618 9677 0
-9619 9678 0
-9620 9679 0
-9621 9680 0
-9622 9681 0
-9623 9682 0
-9624 9683 0
-9625 9684 0
-9626 9685 0
-9627 9686 0
-9628 9687 0
-9629 9688 0
-9630 9689 0
-9631 9690 0
-9632 9691 0
-9633 9692 0
-9634 9693 0
-9635 9694 0
-9636 9695 0
-9637 9696 0
-9638 9697 0
-9639 9698 0
-9640 9699 0
-9641 9700 0
-9642 9701 0
-9643 9702 0
-9644 9703 0
-9645 9704 0
-9646 9705 0
-9647 9706 0
-9648 9707 0
-9649 9708 0
-9650 9709 0
-9651 9710 0
-9652 9711 0
-9653 9712 0
-9654 9713 0
-9655 9714 0
-9656 9715 0
-9657 9716 0
-9658 9717 0
-9659 9718 0
-9660 9719 0
-9661 9720 0
-9662 9721 0
-9663 9722 0
-9664 9723 0
-9665 9724 0
-9666 9725 0
-9667 9726 0
-1168 -9609 9669 0
-1168 -9610 9670 0
-1168 -9611 9671 0
-1168 -9612 9672 0
-1168 -9613 9673 0
-1168 -9614 9674 0
-1168 -9615 9675 0
-1168 -9616 9676 0
-1168 -9617 9677 0
-1168 -9618 9678 0
-1168 -9619 9679 0
-1168 -9620 9680 0
-1168 -9621 9681 0
-1168 -9622 9682 0
-1168 -9623 9683 0
-1168 -9624 9684 0
-1168 -9625 9685 0
-1168 -9626 9686 0
-1168 -9627 9687 0
-1168 -9628 9688 0
-1168 -9629 9689 0
-1168 -9630 9690 0
-1168 -9631 9691 0
-1168 -9632 9692 0
-1168 -9633 9693 0
-1168 -9634 9694 0
-1168 -9635 9695 0
-1168 -9636 9696 0
-1168 -9637 9697 0
-1168 -9638 9698 0
-1168 -9639 9699 0
-1168 -9640 9700 0
-1168 -9641 9701 0
-1168 -9642 9702 0
-1168 -9643 9703 0
-1168 -9644 9704 0
-1168 -9645 9705 0
-1168 -9646 9706 0
-1168 -9647 9707 0
-1168 -9648 9708 0
-1168 -9649 9709 0
-1168 -9650 9710 0
-1168 -9651 9711 0
-1168 -9652 9712 0
-1168 -9653 9713 0
-1168 -9654 9714 0
-1168 -9655 9715 0
-1168 -9656 9716 0
-1168 -9657 9717 0
-1168 -9658 9718 0
-1168 -9659 9719 0
-1168 -9660 9720 0
-1168 -9661 9721 0
-1168 -9662 9722 0
-1168 -9663 9723 0
-1168 -9664 9724 0
-1168 -9665 9725 0
-1168 -9666 9726 0
-1168 -9667 0
-9668 9727 0
-9669 9728 0
-9670 9729 0
-9671 9730 0
-9672 9731 0
-9673 9732 0
-9674 9733 0
-9675 9734 0
-9676 9735 0
-9677 9736 0
-9678 9737 0
-9679 9738 0
-9680 9739 0
-9681 9740 0
-9682 9741 0
-9683 9742 0
-9684 9743 0
-9685 9744 0
-9686 9745 0
-9687 9746 0
-9688 9747 0
-9689 9748 0
-9690 9749 0
-9691 9750 0
-9692 9751 0
-9693 9752 0
-9694 9753 0
-9695 9754 0
-9696 9755 0
-9697 9756 0
-9698 9757 0
-9699 9758 0
-9700 9759 0
-9701 9760 0
-9702 9761 0
-9703 9762 0
-9704 9763 0
-9705 9764 0
-9706 9765 0
-9707 9766 0
-9708 9767 0
-9709 9768 0
-9710 9769 0
-9711 9770 0
-9712 9771 0
-9713 9772 0
-9714 9773 0
-9715 9774 0
-9716 9775 0
-9717 9776 0
-9718 9777 0
-9719 9778 0
-9720 9779 0
-9721 9780 0
-9722 9781 0
-9723 9782 0
-9724 9783 0
-9725 9784 0
-9726 9785 0
-1170 -9668 9728 0
-1170 -9669 9729 0
-1170 -9670 9730 0
-1170 -9671 9731 0
-1170 -9672 9732 0
-1170 -9673 9733 0
-1170 -9674 9734 0
-1170 -9675 9735 0
-1170 -9676 9736 0
-1170 -9677 9737 0
-1170 -9678 9738 0
-1170 -9679 9739 0
-1170 -9680 9740 0
-1170 -9681 9741 0
-1170 -9682 9742 0
-1170 -9683 9743 0
-1170 -9684 9744 0
-1170 -9685 9745 0
-1170 -9686 9746 0
-1170 -9687 9747 0
-1170 -9688 9748 0
-1170 -9689 9749 0
-1170 -9690 9750 0
-1170 -9691 9751 0
-1170 -9692 9752 0
-1170 -9693 9753 0
-1170 -9694 9754 0
-1170 -9695 9755 0
-1170 -9696 9756 0
-1170 -9697 9757 0
-1170 -9698 9758 0
-1170 -9699 9759 0
-1170 -9700 9760 0
-1170 -9701 9761 0
-1170 -9702 9762 0
-1170 -9703 9763 0
-1170 -9704 9764 0
-1170 -9705 9765 0
-1170 -9706 9766 0
-1170 -9707 9767 0
-1170 -9708 9768 0
-1170 -9709 9769 0
-1170 -9710 9770 0
-1170 -9711 9771 0
-1170 -9712 9772 0
-1170 -9713 9773 0
-1170 -9714 9774 0
-1170 -9715 9775 0
-1170 -9716 9776 0
-1170 -9717 9777 0
-1170 -9718 9778 0
-1170 -9719 9779 0
-1170 -9720 9780 0
-1170 -9721 9781 0
-1170 -9722 9782 0
-1170 -9723 9783 0
-1170 -9724 9784 0
-1170 -9725 9785 0
-1170 -9726 0
-9727 9786 0
-9728 9787 0
-9729 9788 0
-9730 9789 0
-9731 9790 0
-9732 9791 0
-9733 9792 0
-9734 9793 0
-9735 9794 0
-9736 9795 0
-9737 9796 0
-9738 9797 0
-9739 9798 0
-9740 9799 0
-9741 9800 0
-9742 9801 0
-9743 9802 0
-9744 9803 0
-9745 9804 0
-9746 9805 0
-9747 9806 0
-9748 9807 0
-9749 9808 0
-9750 9809 0
-9751 9810 0
-9752 9811 0
-9753 9812 0
-9754 9813 0
-9755 9814 0
-9756 9815 0
-9757 9816 0
-9758 9817 0
-9759 9818 0
-9760 9819 0
-9761 9820 0
-9762 9821 0
-9763 9822 0
-9764 9823 0
-9765 9824 0
-9766 9825 0
-9767 9826 0
-9768 9827 0
-9769 9828 0
-9770 9829 0
-9771 9830 0
-9772 9831 0
-9773 9832 0
-9774 9833 0
-9775 9834 0
-9776 9835 0
-9777 9836 0
-9778 9837 0
-9779 9838 0
-9780 9839 0
-9781 9840 0
-9782 9841 0
-9783 9842 0
-9784 9843 0
-9785 9844 0
-1172 -9727 9787 0
-1172 -9728 9788 0
-1172 -9729 9789 0
-1172 -9730 9790 0
-1172 -9731 9791 0
-1172 -9732 9792 0
-1172 -9733 9793 0
-1172 -9734 9794 0
-1172 -9735 9795 0
-1172 -9736 9796 0
-1172 -9737 9797 0
-1172 -9738 9798 0
-1172 -9739 9799 0
-1172 -9740 9800 0
-1172 -9741 9801 0
-1172 -9742 9802 0
-1172 -9743 9803 0
-1172 -9744 9804 0
-1172 -9745 9805 0
-1172 -9746 9806 0
-1172 -9747 9807 0
-1172 -9748 9808 0
-1172 -9749 9809 0
-1172 -9750 9810 0
-1172 -9751 9811 0
-1172 -9752 9812 0
-1172 -9753 9813 0
-1172 -9754 9814 0
-1172 -9755 9815 0
-1172 -9756 9816 0
-1172 -9757 9817 0
-1172 -9758 9818 0
-1172 -9759 9819 0
-1172 -9760 9820 0
-1172 -9761 9821 0
-1172 -9762 9822 0
-1172 -9763 9823 0
-1172 -9764 9824 0
-1172 -9765 9825 0
-1172 -9766 9826 0
-1172 -9767 9827 0
-1172 -9768 9828 0
-1172 -9769 9829 0
-1172 -9770 9830 0
-1172 -9771 9831 0
-1172 -9772 9832 0
-1172 -9773 9833 0
-1172 -9774 9834 0
-1172 -9775 9835 0
-1172 -9776 9836 0
-1172 -9777 9837 0
-1172 -9778 9838 0
-1172 -9779 9839 0
-1172 -9780 9840 0
-1172 -9781 9841 0
-1172 -9782 9842 0
-1172 -9783 9843 0
-1172 -9784 9844 0
-1172 -9785 0
-9786 9845 0
-9787 9846 0
-9788 9847 0
-9789 9848 0
-9790 9849 0
-9791 9850 0
-9792 9851 0
-9793 9852 0
-9794 9853 0
-9795 9854 0
-9796 9855 0
-9797 9856 0
-9798 9857 0
-9799 9858 0
-9800 9859 0
-9801 9860 0
-9802 9861 0
-9803 9862 0
-9804 9863 0
-9805 9864 0
-9806 9865 0
-9807 9866 0
-9808 9867 0
-9809 9868 0
-9810 9869 0
-9811 9870 0
-9812 9871 0
-9813 9872 0
-9814 9873 0
-9815 9874 0
-9816 9875 0
-9817 9876 0
-9818 9877 0
-9819 9878 0
-9820 9879 0
-9821 9880 0
-9822 9881 0
-9823 9882 0
-9824 9883 0
-9825 9884 0
-9826 9885 0
-9827 9886 0
-9828 9887 0
-9829 9888 0
-9830 9889 0
-9831 9890 0
-9832 9891 0
-9833 9892 0
-9834 9893 0
-9835 9894 0
-9836 9895 0
-9837 9896 0
-9838 9897 0
-9839 9898 0
-9840 9899 0
-9841 9900 0
-9842 9901 0
-9843 9902 0
-9844 9903 0
-1174 -9786 9846 0
-1174 -9787 9847 0
-1174 -9788 9848 0
-1174 -9789 9849 0
-1174 -9790 9850 0
-1174 -9791 9851 0
-1174 -9792 9852 0
-1174 -9793 9853 0
-1174 -9794 9854 0
-1174 -9795 9855 0
-1174 -9796 9856 0
-1174 -9797 9857 0
-1174 -9798 9858 0
-1174 -9799 9859 0
-1174 -9800 9860 0
-1174 -9801 9861 0
-1174 -9802 9862 0
-1174 -9803 9863 0
-1174 -9804 9864 0
-1174 -9805 9865 0
-1174 -9806 9866 0
-1174 -9807 9867 0
-1174 -9808 9868 0
-1174 -9809 9869 0
-1174 -9810 9870 0
-1174 -9811 9871 0
-1174 -9812 9872 0
-1174 -9813 9873 0
-1174 -9814 9874 0
-1174 -9815 9875 0
-1174 -9816 9876 0
-1174 -9817 9877 0
-1174 -9818 9878 0
-1174 -9819 9879 0
-1174 -9820 9880 0
-1174 -9821 9881 0
-1174 -9822 9882 0
-1174 -9823 9883 0
-1174 -9824 9884 0
-1174 -9825 9885 0
-1174 -9826 9886 0
-1174 -9827 9887 0
-1174 -9828 9888 0
-1174 -9829 9889 0
-1174 -9830 9890 0
-1174 -9831 9891 0
-1174 -9832 9892 0
-1174 -9833 9893 0
-1174 -9834 9894 0
-1174 -9835 9895 0
-1174 -9836 9896 0
-1174 -9837 9897 0
-1174 -9838 9898 0
-1174 -9839 9899 0
-1174 -9840 9900 0
-1174 -9841 9901 0
-1174 -9842 9902 0
-1174 -9843 9903 0
-1174 -9844 0
-9845 9904 0
-9846 9905 0
-9847 9906 0
-9848 9907 0
-9849 9908 0
-9850 9909 0
-9851 9910 0
-9852 9911 0
-9853 9912 0
-9854 9913 0
-9855 9914 0
-9856 9915 0
-9857 9916 0
-9858 9917 0
-9859 9918 0
-9860 9919 0
-9861 9920 0
-9862 9921 0
-9863 9922 0
-9864 9923 0
-9865 9924 0
-9866 9925 0
-9867 9926 0
-9868 9927 0
-9869 9928 0
-9870 9929 0
-9871 9930 0
-9872 9931 0
-9873 9932 0
-9874 9933 0
-9875 9934 0
-9876 9935 0
-9877 9936 0
-9878 9937 0
-9879 9938 0
-9880 9939 0
-9881 9940 0
-9882 9941 0
-9883 9942 0
-9884 9943 0
-9885 9944 0
-9886 9945 0
-9887 9946 0
-9888 9947 0
-9889 9948 0
-9890 9949 0
-9891 9950 0
-9892 9951 0
-9893 9952 0
-9894 9953 0
-9895 9954 0
-9896 9955 0
-9897 9956 0
-9898 9957 0
-9899 9958 0
-9900 9959 0
-9901 9960 0
-9902 9961 0
-9903 9962 0
-1176 -9845 9905 0
-1176 -9846 9906 0
-1176 -9847 9907 0
-1176 -9848 9908 0
-1176 -9849 9909 0
-1176 -9850 9910 0
-1176 -9851 9911 0
-1176 -9852 9912 0
-1176 -9853 9913 0
-1176 -9854 9914 0
-1176 -9855 9915 0
-1176 -9856 9916 0
-1176 -9857 9917 0
-1176 -9858 9918 0
-1176 -9859 9919 0
-1176 -9860 9920 0
-1176 -9861 9921 0
-1176 -9862 9922 0
-1176 -9863 9923 0
-1176 -9864 9924 0
-1176 -9865 9925 0
-1176 -9866 9926 0
-1176 -9867 9927 0
-1176 -9868 9928 0
-1176 -9869 9929 0
-1176 -9870 9930 0
-1176 -9871 9931 0
-1176 -9872 9932 0
-1176 -9873 9933 0
-1176 -9874 9934 0
-1176 -9875 9935 0
-1176 -9876 9936 0
-1176 -9877 9937 0
-1176 -9878 9938 0
-1176 -9879 9939 0
-1176 -9880 9940 0
-1176 -9881 9941 0
-1176 -9882 9942 0
-1176 -9883 9943 0
-1176 -9884 9944 0
-1176 -9885 9945 0
-1176 -9886 9946 0
-1176 -9887 9947 0
-1176 -9888 9948 0
-1176 -9889 9949 0
-1176 -9890 9950 0
-1176 -9891 9951 0
-1176 -9892 9952 0
-1176 -9893 9953 0
-1176 -9894 9954 0
-1176 -9895 9955 0
-1176 -9896 9956 0
-1176 -9897 9957 0
-1176 -9898 9958 0
-1176 -9899 9959 0
-1176 -9900 9960 0
-1176 -9901 9961 0
-1176 -9902 9962 0
-1176 -9903 0
-9904 9963 0
-9905 9964 0
-9906 9965 0
-9907 9966 0
-9908 9967 0
-9909 9968 0
-9910 9969 0
-9911 9970 0
-9912 9971 0
-9913 9972 0
-9914 9973 0
-9915 9974 0
-9916 9975 0
-9917 9976 0
-9918 9977 0
-9919 9978 0
-9920 9979 0
-9921 9980 0
-9922 9981 0
-9923 9982 0
-9924 9983 0
-9925 9984 0
-9926 9985 0
-9927 9986 0
-9928 9987 0
-9929 9988 0
-9930 9989 0
-9931 9990 0
-9932 9991 0
-9933 9992 0
-9934 9993 0
-9935 9994 0
-9936 9995 0
-9937 9996 0
-9938 9997 0
-9939 9998 0
-9940 9999 0
-9941 10000 0
-9942 10001 0
-9943 10002 0
-9944 10003 0
-9945 10004 0
-9946 10005 0
-9947 10006 0
-9948 10007 0
-9949 10008 0
-9950 10009 0
-9951 10010 0
-9952 10011 0
-9953 10012 0
-9954 10013 0
-9955 10014 0
-9956 10015 0
-9957 10016 0
-9958 10017 0
-9959 10018 0
-9960 10019 0
-9961 10020 0
-9962 10021 0
-1178 -9904 9964 0
-1178 -9905 9965 0
-1178 -9906 9966 0
-1178 -9907 9967 0
-1178 -9908 9968 0
-1178 -9909 9969 0
-1178 -9910 9970 0
-1178 -9911 9971 0
-1178 -9912 9972 0
-1178 -9913 9973 0
-1178 -9914 9974 0
-1178 -9915 9975 0
-1178 -9916 9976 0
-1178 -9917 9977 0
-1178 -9918 9978 0
-1178 -9919 9979 0
-1178 -9920 9980 0
-1178 -9921 9981 0
-1178 -9922 9982 0
-1178 -9923 9983 0
-1178 -9924 9984 0
-1178 -9925 9985 0
-1178 -9926 9986 0
-1178 -9927 9987 0
-1178 -9928 9988 0
-1178 -9929 9989 0
-1178 -9930 9990 0
-1178 -9931 9991 0
-1178 -9932 9992 0
-1178 -9933 9993 0
-1178 -9934 9994 0
-1178 -9935 9995 0
-1178 -9936 9996 0
-1178 -9937 9997 0
-1178 -9938 9998 0
-1178 -9939 9999 0
-1178 -9940 10000 0
-1178 -9941 10001 0
-1178 -9942 10002 0
-1178 -9943 10003 0
-1178 -9944 10004 0
-1178 -9945 10005 0
-1178 -9946 10006 0
-1178 -9947 10007 0
-1178 -9948 10008 0
-1178 -9949 10009 0
-1178 -9950 10010 0
-1178 -9951 10011 0
-1178 -9952 10012 0
-1178 -9953 10013 0
-1178 -9954 10014 0
-1178 -9955 10015 0
-1178 -9956 10016 0
-1178 -9957 10017 0
-1178 -9958 10018 0
-1178 -9959 10019 0
-1178 -9960 10020 0
-1178 -9961 10021 0
-1178 -9962 0
-9963 10022 0
-9964 10023 0
-9965 10024 0
-9966 10025 0
-9967 10026 0
-9968 10027 0
-9969 10028 0
-9970 10029 0
-9971 10030 0
-9972 10031 0
-9973 10032 0
-9974 10033 0
-9975 10034 0
-9976 10035 0
-9977 10036 0
-9978 10037 0
-9979 10038 0
-9980 10039 0
-9981 10040 0
-9982 10041 0
-9983 10042 0
-9984 10043 0
-9985 10044 0
-9986 10045 0
-9987 10046 0
-9988 10047 0
-9989 10048 0
-9990 10049 0
-9991 10050 0
-9992 10051 0
-9993 10052 0
-9994 10053 0
-9995 10054 0
-9996 10055 0
-9997 10056 0
-9998 10057 0
-9999 10058 0
-10000 10059 0
-10001 10060 0
-10002 10061 0
-10003 10062 0
-10004 10063 0
-10005 10064 0
-10006 10065 0
-10007 10066 0
-10008 10067 0
-10009 10068 0
-10010 10069 0
-10011 10070 0
-10012 10071 0
-10013 10072 0
-10014 10073 0
-10015 10074 0
-10016 10075 0
-10017 10076 0
-10018 10077 0
-10019 10078 0
-10020 10079 0
-10021 10080 0
-1180 -9963 10023 0
-1180 -9964 10024 0
-1180 -9965 10025 0
-1180 -9966 10026 0
-1180 -9967 10027 0
-1180 -9968 10028 0
-1180 -9969 10029 0
-1180 -9970 10030 0
-1180 -9971 10031 0
-1180 -9972 10032 0
-1180 -9973 10033 0
-1180 -9974 10034 0
-1180 -9975 10035 0
-1180 -9976 10036 0
-1180 -9977 10037 0
-1180 -9978 10038 0
-1180 -9979 10039 0
-1180 -9980 10040 0
-1180 -9981 10041 0
-1180 -9982 10042 0
-1180 -9983 10043 0
-1180 -9984 10044 0
-1180 -9985 10045 0
-1180 -9986 10046 0
-1180 -9987 10047 0
-1180 -9988 10048 0
-1180 -9989 10049 0
-1180 -9990 10050 0
-1180 -9991 10051 0
-1180 -9992 10052 0
-1180 -9993 10053 0
-1180 -9994 10054 0
-1180 -9995 10055 0
-1180 -9996 10056 0
-1180 -9997 10057 0
-1180 -9998 10058 0
-1180 -9999 10059 0
-1180 -10000 10060 0
-1180 -10001 10061 0
-1180 -10002 10062 0
-1180 -10003 10063 0
-1180 -10004 10064 0
-1180 -10005 10065 0
-1180 -10006 10066 0
-1180 -10007 10067 0
-1180 -10008 10068 0
-1180 -10009 10069 0
-1180 -10010 10070 0
-1180 -10011 10071 0
-1180 -10012 10072 0
-1180 -10013 10073 0
-1180 -10014 10074 0
-1180 -10015 10075 0
-1180 -10016 10076 0
-1180 -10017 10077 0
-1180 -10018 10078 0
-1180 -10019 10079 0
-1180 -10020 10080 0
-1180 -10021 0
-10022 10081 0
-10023 10082 0
-10024 10083 0
-10025 10084 0
-10026 10085 0
-10027 10086 0
-10028 10087 0
-10029 10088 0
-10030 10089 0
-10031 10090 0
-10032 10091 0
-10033 10092 0
-10034 10093 0
-10035 10094 0
-10036 10095 0
-10037 10096 0
-10038 10097 0
-10039 10098 0
-10040 10099 0
-10041 10100 0
-10042 10101 0
-10043 10102 0
-10044 10103 0
-10045 10104 0
-10046 10105 0
-10047 10106 0
-10048 10107 0
-10049 10108 0
-10050 10109 0
-10051 10110 0
-10052 10111 0
-10053 10112 0
-10054 10113 0
-10055 10114 0
-10056 10115 0
-10057 10116 0
-10058 10117 0
-10059 10118 0
-10060 10119 0
-10061 10120 0
-10062 10121 0
-10063 10122 0
-10064 10123 0
-10065 10124 0
-10066 10125 0
-10067 10126 0
-10068 10127 0
-10069 10128 0
-10070 10129 0
-10071 10130 0
-10072 10131 0
-10073 10132 0
-10074 10133 0
-10075 10134 0
-10076 10135 0
-10077 10136 0
-10078 10137 0
-10079 10138 0
-10080 10139 0
-1182 -10022 10082 0
-1182 -10023 10083 0
-1182 -10024 10084 0
-1182 -10025 10085 0
-1182 -10026 10086 0
-1182 -10027 10087 0
-1182 -10028 10088 0
-1182 -10029 10089 0
-1182 -10030 10090 0
-1182 -10031 10091 0
-1182 -10032 10092 0
-1182 -10033 10093 0
-1182 -10034 10094 0
-1182 -10035 10095 0
-1182 -10036 10096 0
-1182 -10037 10097 0
-1182 -10038 10098 0
-1182 -10039 10099 0
-1182 -10040 10100 0
-1182 -10041 10101 0
-1182 -10042 10102 0
-1182 -10043 10103 0
-1182 -10044 10104 0
-1182 -10045 10105 0
-1182 -10046 10106 0
-1182 -10047 10107 0
-1182 -10048 10108 0
-1182 -10049 10109 0
-1182 -10050 10110 0
-1182 -10051 10111 0
-1182 -10052 10112 0
-1182 -10053 10113 0
-1182 -10054 10114 0
-1182 -10055 10115 0
-1182 -10056 10116 0
-1182 -10057 10117 0
-1182 -10058 10118 0
-1182 -10059 10119 0
-1182 -10060 10120 0
-1182 -10061 10121 0
-1182 -10062 10122 0
-1182 -10063 10123 0
-1182 -10064 10124 0
-1182 -10065 10125 0
-1182 -10066 10126 0
-1182 -10067 10127 0
-1182 -10068 10128 0
-1182 -10069 10129 0
-1182 -10070 10130 0
-1182 -10071 10131 0
-1182 -10072 10132 0
-1182 -10073 10133 0
-1182 -10074 10134 0
-1182 -10075 10135 0
-1182 -10076 10136 0
-1182 -10077 10137 0
-1182 -10078 10138 0
-1182 -10079 10139 0
-1182 -10080 0
-10081 10140 0
-10082 10141 0
-10083 10142 0
-10084 10143 0
-10085 10144 0
-10086 10145 0
-10087 10146 0
-10088 10147 0
-10089 10148 0
-10090 10149 0
-10091 10150 0
-10092 10151 0
-10093 10152 0
-10094 10153 0
-10095 10154 0
-10096 10155 0
-10097 10156 0
-10098 10157 0
-10099 10158 0
-10100 10159 0
-10101 10160 0
-10102 10161 0
-10103 10162 0
-10104 10163 0
-10105 10164 0
-10106 10165 0
-10107 10166 0
-10108 10167 0
-10109 10168 0
-10110 10169 0
-10111 10170 0
-10112 10171 0
-10113 10172 0
-10114 10173 0
-10115 10174 0
-10116 10175 0
-10117 10176 0
-10118 10177 0
-10119 10178 0
-10120 10179 0
-10121 10180 0
-10122 10181 0
-10123 10182 0
-10124 10183 0
-10125 10184 0
-10126 10185 0
-10127 10186 0
-10128 10187 0
-10129 10188 0
-10130 10189 0
-10131 10190 0
-10132 10191 0
-10133 10192 0
-10134 10193 0
-10135 10194 0
-10136 10195 0
-10137 10196 0
-10138 10197 0
-10139 10198 0
-1184 -10081 10141 0
-1184 -10082 10142 0
-1184 -10083 10143 0
-1184 -10084 10144 0
-1184 -10085 10145 0
-1184 -10086 10146 0
-1184 -10087 10147 0
-1184 -10088 10148 0
-1184 -10089 10149 0
-1184 -10090 10150 0
-1184 -10091 10151 0
-1184 -10092 10152 0
-1184 -10093 10153 0
-1184 -10094 10154 0
-1184 -10095 10155 0
-1184 -10096 10156 0
-1184 -10097 10157 0
-1184 -10098 10158 0
-1184 -10099 10159 0
-1184 -10100 10160 0
-1184 -10101 10161 0
-1184 -10102 10162 0
-1184 -10103 10163 0
-1184 -10104 10164 0
-1184 -10105 10165 0
-1184 -10106 10166 0
-1184 -10107 10167 0
-1184 -10108 10168 0
-1184 -10109 10169 0
-1184 -10110 10170 0
-1184 -10111 10171 0
-1184 -10112 10172 0
-1184 -10113 10173 0
-1184 -10114 10174 0
-1184 -10115 10175 0
-1184 -10116 10176 0
-1184 -10117 10177 0
-1184 -10118 10178 0
-1184 -10119 10179 0
-1184 -10120 10180 0
-1184 -10121 10181 0
-1184 -10122 10182 0
-1184 -10123 10183 0
-1184 -10124 10184 0
-1184 -10125 10185 0
-1184 -10126 10186 0
-1184 -10127 10187 0
-1184 -10128 10188 0
-1184 -10129 10189 0
-1184 -10130 10190 0
-1184 -10131 10191 0
-1184 -10132 10192 0
-1184 -10133 10193 0
-1184 -10134 10194 0
-1184 -10135 10195 0
-1184 -10136 10196 0
-1184 -10137 10197 0
-1184 -10138 10198 0
-1184 -10139 0
-10140 10199 0
-10141 10200 0
-10142 10201 0
-10143 10202 0
-10144 10203 0
-10145 10204 0
-10146 10205 0
-10147 10206 0
-10148 10207 0
-10149 10208 0
-10150 10209 0
-10151 10210 0
-10152 10211 0
-10153 10212 0
-10154 10213 0
-10155 10214 0
-10156 10215 0
-10157 10216 0
-10158 10217 0
-10159 10218 0
-10160 10219 0
-10161 10220 0
-10162 10221 0
-10163 10222 0
-10164 10223 0
-10165 10224 0
-10166 10225 0
-10167 10226 0
-10168 10227 0
-10169 10228 0
-10170 10229 0
-10171 10230 0
-10172 10231 0
-10173 10232 0
-10174 10233 0
-10175 10234 0
-10176 10235 0
-10177 10236 0
-10178 10237 0
-10179 10238 0
-10180 10239 0
-10181 10240 0
-10182 10241 0
-10183 10242 0
-10184 10243 0
-10185 10244 0
-10186 10245 0
-10187 10246 0
-10188 10247 0
-10189 10248 0
-10190 10249 0
-10191 10250 0
-10192 10251 0
-10193 10252 0
-10194 10253 0
-10195 10254 0
-10196 10255 0
-10197 10256 0
-10198 10257 0
-1186 -10140 10200 0
-1186 -10141 10201 0
-1186 -10142 10202 0
-1186 -10143 10203 0
-1186 -10144 10204 0
-1186 -10145 10205 0
-1186 -10146 10206 0
-1186 -10147 10207 0
-1186 -10148 10208 0
-1186 -10149 10209 0
-1186 -10150 10210 0
-1186 -10151 10211 0
-1186 -10152 10212 0
-1186 -10153 10213 0
-1186 -10154 10214 0
-1186 -10155 10215 0
-1186 -10156 10216 0
-1186 -10157 10217 0
-1186 -10158 10218 0
-1186 -10159 10219 0
-1186 -10160 10220 0
-1186 -10161 10221 0
-1186 -10162 10222 0
-1186 -10163 10223 0
-1186 -10164 10224 0
-1186 -10165 10225 0
-1186 -10166 10226 0
-1186 -10167 10227 0
-1186 -10168 10228 0
-1186 -10169 10229 0
-1186 -10170 10230 0
-1186 -10171 10231 0
-1186 -10172 10232 0
-1186 -10173 10233 0
-1186 -10174 10234 0
-1186 -10175 10235 0
-1186 -10176 10236 0
-1186 -10177 10237 0
-1186 -10178 10238 0
-1186 -10179 10239 0
-1186 -10180 10240 0
-1186 -10181 10241 0
-1186 -10182 10242 0
-1186 -10183 10243 0
-1186 -10184 10244 0
-1186 -10185 10245 0
-1186 -10186 10246 0
-1186 -10187 10247 0
-1186 -10188 10248 0
-1186 -10189 10249 0
-1186 -10190 10250 0
-1186 -10191 10251 0
-1186 -10192 10252 0
-1186 -10193 10253 0
-1186 -10194 10254 0
-1186 -10195 10255 0
-1186 -10196 10256 0
-1186 -10197 10257 0
-1186 -10198 0
-10199 10258 0
-10200 10259 0
-10201 10260 0
-10202 10261 0
-10203 10262 0
-10204 10263 0
-10205 10264 0
-10206 10265 0
-10207 10266 0
-10208 10267 0
-10209 10268 0
-10210 10269 0
-10211 10270 0
-10212 10271 0
-10213 10272 0
-10214 10273 0
-10215 10274 0
-10216 10275 0
-10217 10276 0
-10218 10277 0
-10219 10278 0
-10220 10279 0
-10221 10280 0
-10222 10281 0
-10223 10282 0
-10224 10283 0
-10225 10284 0
-10226 10285 0
-10227 10286 0
-10228 10287 0
-10229 10288 0
-10230 10289 0
-10231 10290 0
-10232 10291 0
-10233 10292 0
-10234 10293 0
-10235 10294 0
-10236 10295 0
-10237 10296 0
-10238 10297 0
-10239 10298 0
-10240 10299 0
-10241 10300 0
-10242 10301 0
-10243 10302 0
-10244 10303 0
-10245 10304 0
-10246 10305 0
-10247 10306 0
-10248 10307 0
-10249 10308 0
-10250 10309 0
-10251 10310 0
-10252 10311 0
-10253 10312 0
-10254 10313 0
-10255 10314 0
-10256 10315 0
-10257 10316 0
-1188 -10199 10259 0
-1188 -10200 10260 0
-1188 -10201 10261 0
-1188 -10202 10262 0
-1188 -10203 10263 0
-1188 -10204 10264 0
-1188 -10205 10265 0
-1188 -10206 10266 0
-1188 -10207 10267 0
-1188 -10208 10268 0
-1188 -10209 10269 0
-1188 -10210 10270 0
-1188 -10211 10271 0
-1188 -10212 10272 0
-1188 -10213 10273 0
-1188 -10214 10274 0
-1188 -10215 10275 0
-1188 -10216 10276 0
-1188 -10217 10277 0
-1188 -10218 10278 0
-1188 -10219 10279 0
-1188 -10220 10280 0
-1188 -10221 10281 0
-1188 -10222 10282 0
-1188 -10223 10283 0
-1188 -10224 10284 0
-1188 -10225 10285 0
-1188 -10226 10286 0
-1188 -10227 10287 0
-1188 -10228 10288 0
-1188 -10229 10289 0
-1188 -10230 10290 0
-1188 -10231 10291 0
-1188 -10232 10292 0
-1188 -10233 10293 0
-1188 -10234 10294 0
-1188 -10235 10295 0
-1188 -10236 10296 0
-1188 -10237 10297 0
-1188 -10238 10298 0
-1188 -10239 10299 0
-1188 -10240 10300 0
-1188 -10241 10301 0
-1188 -10242 10302 0
-1188 -10243 10303 0
-1188 -10244 10304 0
-1188 -10245 10305 0
-1188 -10246 10306 0
-1188 -10247 10307 0
-1188 -10248 10308 0
-1188 -10249 10309 0
-1188 -10250 10310 0
-1188 -10251 10311 0
-1188 -10252 10312 0
-1188 -10253 10313 0
-1188 -10254 10314 0
-1188 -10255 10315 0
-1188 -10256 10316 0
-1188 -10257 0
-10258 10317 0
-10259 10318 0
-10260 10319 0
-10261 10320 0
-10262 10321 0
-10263 10322 0
-10264 10323 0
-10265 10324 0
-10266 10325 0
-10267 10326 0
-10268 10327 0
-10269 10328 0
-10270 10329 0
-10271 10330 0
-10272 10331 0
-10273 10332 0
-10274 10333 0
-10275 10334 0
-10276 10335 0
-10277 10336 0
-10278 10337 0
-10279 10338 0
-10280 10339 0
-10281 10340 0
-10282 10341 0
-10283 10342 0
-10284 10343 0
-10285 10344 0
-10286 10345 0
-10287 10346 0
-10288 10347 0
-10289 10348 0
-10290 10349 0
-10291 10350 0
-10292 10351 0
-10293 10352 0
-10294 10353 0
-10295 10354 0
-10296 10355 0
-10297 10356 0
-10298 10357 0
-10299 10358 0
-10300 10359 0
-10301 10360 0
-10302 10361 0
-10303 10362 0
-10304 10363 0
-10305 10364 0
-10306 10365 0
-10307 10366 0
-10308 10367 0
-10309 10368 0
-10310 10369 0
-10311 10370 0
-10312 10371 0
-10313 10372 0
-10314 10373 0
-10315 10374 0
-10316 10375 0
-1190 -10258 10318 0
-1190 -10259 10319 0
-1190 -10260 10320 0
-1190 -10261 10321 0
-1190 -10262 10322 0
-1190 -10263 10323 0
-1190 -10264 10324 0
-1190 -10265 10325 0
-1190 -10266 10326 0
-1190 -10267 10327 0
-1190 -10268 10328 0
-1190 -10269 10329 0
-1190 -10270 10330 0
-1190 -10271 10331 0
-1190 -10272 10332 0
-1190 -10273 10333 0
-1190 -10274 10334 0
-1190 -10275 10335 0
-1190 -10276 10336 0
-1190 -10277 10337 0
-1190 -10278 10338 0
-1190 -10279 10339 0
-1190 -10280 10340 0
-1190 -10281 10341 0
-1190 -10282 10342 0
-1190 -10283 10343 0
-1190 -10284 10344 0
-1190 -10285 10345 0
-1190 -10286 10346 0
-1190 -10287 10347 0
-1190 -10288 10348 0
-1190 -10289 10349 0
-1190 -10290 10350 0
-1190 -10291 10351 0
-1190 -10292 10352 0
-1190 -10293 10353 0
-1190 -10294 10354 0
-1190 -10295 10355 0
-1190 -10296 10356 0
-1190 -10297 10357 0
-1190 -10298 10358 0
-1190 -10299 10359 0
-1190 -10300 10360 0
-1190 -10301 10361 0
-1190 -10302 10362 0
-1190 -10303 10363 0
-1190 -10304 10364 0
-1190 -10305 10365 0
-1190 -10306 10366 0
-1190 -10307 10367 0
-1190 -10308 10368 0
-1190 -10309 10369 0
-1190 -10310 10370 0
-1190 -10311 10371 0
-1190 -10312 10372 0
-1190 -10313 10373 0
-1190 -10314 10374 0
-1190 -10315 10375 0
-1190 -10316 0
-10317 10376 0
-10318 10377 0
-10319 10378 0
-10320 10379 0
-10321 10380 0
-10322 10381 0
-10323 10382 0
-10324 10383 0
-10325 10384 0
-10326 10385 0
-10327 10386 0
-10328 10387 0
-10329 10388 0
-10330 10389 0
-10331 10390 0
-10332 10391 0
-10333 10392 0
-10334 10393 0
-10335 10394 0
-10336 10395 0
-10337 10396 0
-10338 10397 0
-10339 10398 0
-10340 10399 0
-10341 10400 0
-10342 10401 0
-10343 10402 0
-10344 10403 0
-10345 10404 0
-10346 10405 0
-10347 10406 0
-10348 10407 0
-10349 10408 0
-10350 10409 0
-10351 10410 0
-10352 10411 0
-10353 10412 0
-10354 10413 0
-10355 10414 0
-10356 10415 0
-10357 10416 0
-10358 10417 0
-10359 10418 0
-10360 10419 0
-10361 10420 0
-10362 10421 0
-10363 10422 0
-10364 10423 0
-10365 10424 0
-10366 10425 0
-10367 10426 0
-10368 10427 0
-10369 10428 0
-10370 10429 0
-10371 10430 0
-10372 10431 0
-10373 10432 0
-10374 10433 0
-10375 10434 0
-1192 -10317 10377 0
-1192 -10318 10378 0
-1192 -10319 10379 0
-1192 -10320 10380 0
-1192 -10321 10381 0
-1192 -10322 10382 0
-1192 -10323 10383 0
-1192 -10324 10384 0
-1192 -10325 10385 0
-1192 -10326 10386 0
-1192 -10327 10387 0
-1192 -10328 10388 0
-1192 -10329 10389 0
-1192 -10330 10390 0
-1192 -10331 10391 0
-1192 -10332 10392 0
-1192 -10333 10393 0
-1192 -10334 10394 0
-1192 -10335 10395 0
-1192 -10336 10396 0
-1192 -10337 10397 0
-1192 -10338 10398 0
-1192 -10339 10399 0
-1192 -10340 10400 0
-1192 -10341 10401 0
-1192 -10342 10402 0
-1192 -10343 10403 0
-1192 -10344 10404 0
-1192 -10345 10405 0
-1192 -10346 10406 0
-1192 -10347 10407 0
-1192 -10348 10408 0
-1192 -10349 10409 0
-1192 -10350 10410 0
-1192 -10351 10411 0
-1192 -10352 10412 0
-1192 -10353 10413 0
-1192 -10354 10414 0
-1192 -10355 10415 0
-1192 -10356 10416 0
-1192 -10357 10417 0
-1192 -10358 10418 0
-1192 -10359 10419 0
-1192 -10360 10420 0
-1192 -10361 10421 0
-1192 -10362 10422 0
-1192 -10363 10423 0
-1192 -10364 10424 0
-1192 -10365 10425 0
-1192 -10366 10426 0
-1192 -10367 10427 0
-1192 -10368 10428 0
-1192 -10369 10429 0
-1192 -10370 10430 0
-1192 -10371 10431 0
-1192 -10372 10432 0
-1192 -10373 10433 0
-1192 -10374 10434 0
-1192 -10375 0
-10376 10435 0
-10377 10436 0
-10378 10437 0
-10379 10438 0
-10380 10439 0
-10381 10440 0
-10382 10441 0
-10383 10442 0
-10384 10443 0
-10385 10444 0
-10386 10445 0
-10387 10446 0
-10388 10447 0
-10389 10448 0
-10390 10449 0
-10391 10450 0
-10392 10451 0
-10393 10452 0
-10394 10453 0
-10395 10454 0
-10396 10455 0
-10397 10456 0
-10398 10457 0
-10399 10458 0
-10400 10459 0
-10401 10460 0
-10402 10461 0
-10403 10462 0
-10404 10463 0
-10405 10464 0
-10406 10465 0
-10407 10466 0
-10408 10467 0
-10409 10468 0
-10410 10469 0
-10411 10470 0
-10412 10471 0
-10413 10472 0
-10414 10473 0
-10415 10474 0
-10416 10475 0
-10417 10476 0
-10418 10477 0
-10419 10478 0
-10420 10479 0
-10421 10480 0
-10422 10481 0
-10423 10482 0
-10424 10483 0
-10425 10484 0
-10426 10485 0
-10427 10486 0
-10428 10487 0
-10429 10488 0
-10430 10489 0
-10431 10490 0
-10432 10491 0
-10433 10492 0
-10434 10493 0
-1194 -10376 10436 0
-1194 -10377 10437 0
-1194 -10378 10438 0
-1194 -10379 10439 0
-1194 -10380 10440 0
-1194 -10381 10441 0
-1194 -10382 10442 0
-1194 -10383 10443 0
-1194 -10384 10444 0
-1194 -10385 10445 0
-1194 -10386 10446 0
-1194 -10387 10447 0
-1194 -10388 10448 0
-1194 -10389 10449 0
-1194 -10390 10450 0
-1194 -10391 10451 0
-1194 -10392 10452 0
-1194 -10393 10453 0
-1194 -10394 10454 0
-1194 -10395 10455 0
-1194 -10396 10456 0
-1194 -10397 10457 0
-1194 -10398 10458 0
-1194 -10399 10459 0
-1194 -10400 10460 0
-1194 -10401 10461 0
-1194 -10402 10462 0
-1194 -10403 10463 0
-1194 -10404 10464 0
-1194 -10405 10465 0
-1194 -10406 10466 0
-1194 -10407 10467 0
-1194 -10408 10468 0
-1194 -10409 10469 0
-1194 -10410 10470 0
-1194 -10411 10471 0
-1194 -10412 10472 0
-1194 -10413 10473 0
-1194 -10414 10474 0
-1194 -10415 10475 0
-1194 -10416 10476 0
-1194 -10417 10477 0
-1194 -10418 10478 0
-1194 -10419 10479 0
-1194 -10420 10480 0
-1194 -10421 10481 0
-1194 -10422 10482 0
-1194 -10423 10483 0
-1194 -10424 10484 0
-1194 -10425 10485 0
-1194 -10426 10486 0
-1194 -10427 10487 0
-1194 -10428 10488 0
-1194 -10429 10489 0
-1194 -10430 10490 0
-1194 -10431 10491 0
-1194 -10432 10492 0
-1194 -10433 10493 0
-1194 -10434 0
-10435 10494 0
-10436 10495 0
-10437 10496 0
-10438 10497 0
-10439 10498 0
-10440 10499 0
-10441 10500 0
-10442 10501 0
-10443 10502 0
-10444 10503 0
-10445 10504 0
-10446 10505 0
-10447 10506 0
-10448 10507 0
-10449 10508 0
-10450 10509 0
-10451 10510 0
-10452 10511 0
-10453 10512 0
-10454 10513 0
-10455 10514 0
-10456 10515 0
-10457 10516 0
-10458 10517 0
-10459 10518 0
-10460 10519 0
-10461 10520 0
-10462 10521 0
-10463 10522 0
-10464 10523 0
-10465 10524 0
-10466 10525 0
-10467 10526 0
-10468 10527 0
-10469 10528 0
-10470 10529 0
-10471 10530 0
-10472 10531 0
-10473 10532 0
-10474 10533 0
-10475 10534 0
-10476 10535 0
-10477 10536 0
-10478 10537 0
-10479 10538 0
-10480 10539 0
-10481 10540 0
-10482 10541 0
-10483 10542 0
-10484 10543 0
-10485 10544 0
-10486 10545 0
-10487 10546 0
-10488 10547 0
-10489 10548 0
-10490 10549 0
-10491 10550 0
-10492 10551 0
-10493 10552 0
-1196 -10435 10495 0
-1196 -10436 10496 0
-1196 -10437 10497 0
-1196 -10438 10498 0
-1196 -10439 10499 0
-1196 -10440 10500 0
-1196 -10441 10501 0
-1196 -10442 10502 0
-1196 -10443 10503 0
-1196 -10444 10504 0
-1196 -10445 10505 0
-1196 -10446 10506 0
-1196 -10447 10507 0
-1196 -10448 10508 0
-1196 -10449 10509 0
-1196 -10450 10510 0
-1196 -10451 10511 0
-1196 -10452 10512 0
-1196 -10453 10513 0
-1196 -10454 10514 0
-1196 -10455 10515 0
-1196 -10456 10516 0
-1196 -10457 10517 0
-1196 -10458 10518 0
-1196 -10459 10519 0
-1196 -10460 10520 0
-1196 -10461 10521 0
-1196 -10462 10522 0
-1196 -10463 10523 0
-1196 -10464 10524 0
-1196 -10465 10525 0
-1196 -10466 10526 0
-1196 -10467 10527 0
-1196 -10468 10528 0
-1196 -10469 10529 0
-1196 -10470 10530 0
-1196 -10471 10531 0
-1196 -10472 10532 0
-1196 -10473 10533 0
-1196 -10474 10534 0
-1196 -10475 10535 0
-1196 -10476 10536 0
-1196 -10477 10537 0
-1196 -10478 10538 0
-1196 -10479 10539 0
-1196 -10480 10540 0
-1196 -10481 10541 0
-1196 -10482 10542 0
-1196 -10483 10543 0
-1196 -10484 10544 0
-1196 -10485 10545 0
-1196 -10486 10546 0
-1196 -10487 10547 0
-1196 -10488 10548 0
-1196 -10489 10549 0
-1196 -10490 10550 0
-1196 -10491 10551 0
-1196 -10492 10552 0
-1196 -10493 0
-10494 10553 0
-10495 10554 0
-10496 10555 0
-10497 10556 0
-10498 10557 0
-10499 10558 0
-10500 10559 0
-10501 10560 0
-10502 10561 0
-10503 10562 0
-10504 10563 0
-10505 10564 0
-10506 10565 0
-10507 10566 0
-10508 10567 0
-10509 10568 0
-10510 10569 0
-10511 10570 0
-10512 10571 0
-10513 10572 0
-10514 10573 0
-10515 10574 0
-10516 10575 0
-10517 10576 0
-10518 10577 0
-10519 10578 0
-10520 10579 0
-10521 10580 0
-10522 10581 0
-10523 10582 0
-10524 10583 0
-10525 10584 0
-10526 10585 0
-10527 10586 0
-10528 10587 0
-10529 10588 0
-10530 10589 0
-10531 10590 0
-10532 10591 0
-10533 10592 0
-10534 10593 0
-10535 10594 0
-10536 10595 0
-10537 10596 0
-10538 10597 0
-10539 10598 0
-10540 10599 0
-10541 10600 0
-10542 10601 0
-10543 10602 0
-10544 10603 0
-10545 10604 0
-10546 10605 0
-10547 10606 0
-10548 10607 0
-10549 10608 0
-10550 10609 0
-10551 10610 0
-10552 10611 0
-1198 -10494 10554 0
-1198 -10495 10555 0
-1198 -10496 10556 0
-1198 -10497 10557 0
-1198 -10498 10558 0
-1198 -10499 10559 0
-1198 -10500 10560 0
-1198 -10501 10561 0
-1198 -10502 10562 0
-1198 -10503 10563 0
-1198 -10504 10564 0
-1198 -10505 10565 0
-1198 -10506 10566 0
-1198 -10507 10567 0
-1198 -10508 10568 0
-1198 -10509 10569 0
-1198 -10510 10570 0
-1198 -10511 10571 0
-1198 -10512 10572 0
-1198 -10513 10573 0
-1198 -10514 10574 0
-1198 -10515 10575 0
-1198 -10516 10576 0
-1198 -10517 10577 0
-1198 -10518 10578 0
-1198 -10519 10579 0
-1198 -10520 10580 0
-1198 -10521 10581 0
-1198 -10522 10582 0
-1198 -10523 10583 0
-1198 -10524 10584 0
-1198 -10525 10585 0
-1198 -10526 10586 0
-1198 -10527 10587 0
-1198 -10528 10588 0
-1198 -10529 10589 0
-1198 -10530 10590 0
-1198 -10531 10591 0
-1198 -10532 10592 0
-1198 -10533 10593 0
-1198 -10534 10594 0
-1198 -10535 10595 0
-1198 -10536 10596 0
-1198 -10537 10597 0
-1198 -10538 10598 0
-1198 -10539 10599 0
-1198 -10540 10600 0
-1198 -10541 10601 0
-1198 -10542 10602 0
-1198 -10543 10603 0
-1198 -10544 10604 0
-1198 -10545 10605 0
-1198 -10546 10606 0
-1198 -10547 10607 0
-1198 -10548 10608 0
-1198 -10549 10609 0
-1198 -10550 10610 0
-1198 -10551 10611 0
-1198 -10552 0
-10553 10612 0
-10554 10613 0
-10555 10614 0
-10556 10615 0
-10557 10616 0
-10558 10617 0
-10559 10618 0
-10560 10619 0
-10561 10620 0
-10562 10621 0
-10563 10622 0
-10564 10623 0
-10565 10624 0
-10566 10625 0
-10567 10626 0
-10568 10627 0
-10569 10628 0
-10570 10629 0
-10571 10630 0
-10572 10631 0
-10573 10632 0
-10574 10633 0
-10575 10634 0
-10576 10635 0
-10577 10636 0
-10578 10637 0
-10579 10638 0
-10580 10639 0
-10581 10640 0
-10582 10641 0
-10583 10642 0
-10584 10643 0
-10585 10644 0
-10586 10645 0
-10587 10646 0
-10588 10647 0
-10589 10648 0
-10590 10649 0
-10591 10650 0
-10592 10651 0
-10593 10652 0
-10594 10653 0
-10595 10654 0
-10596 10655 0
-10597 10656 0
-10598 10657 0
-10599 10658 0
-10600 10659 0
-10601 10660 0
-10602 10661 0
-10603 10662 0
-10604 10663 0
-10605 10664 0
-10606 10665 0
-10607 10666 0
-10608 10667 0
-10609 10668 0
-10610 10669 0
-10611 10670 0
-1200 -10553 10613 0
-1200 -10554 10614 0
-1200 -10555 10615 0
-1200 -10556 10616 0
-1200 -10557 10617 0
-1200 -10558 10618 0
-1200 -10559 10619 0
-1200 -10560 10620 0
-1200 -10561 10621 0
-1200 -10562 10622 0
-1200 -10563 10623 0
-1200 -10564 10624 0
-1200 -10565 10625 0
-1200 -10566 10626 0
-1200 -10567 10627 0
-1200 -10568 10628 0
-1200 -10569 10629 0
-1200 -10570 10630 0
-1200 -10571 10631 0
-1200 -10572 10632 0
-1200 -10573 10633 0
-1200 -10574 10634 0
-1200 -10575 10635 0
-1200 -10576 10636 0
-1200 -10577 10637 0
-1200 -10578 10638 0
-1200 -10579 10639 0
-1200 -10580 10640 0
-1200 -10581 10641 0
-1200 -10582 10642 0
-1200 -10583 10643 0
-1200 -10584 10644 0
-1200 -10585 10645 0
-1200 -10586 10646 0
-1200 -10587 10647 0
-1200 -10588 10648 0
-1200 -10589 10649 0
-1200 -10590 10650 0
-1200 -10591 10651 0
-1200 -10592 10652 0
-1200 -10593 10653 0
-1200 -10594 10654 0
-1200 -10595 10655 0
-1200 -10596 10656 0
-1200 -10597 10657 0
-1200 -10598 10658 0
-1200 -10599 10659 0
-1200 -10600 10660 0
-1200 -10601 10661 0
-1200 -10602 10662 0
-1200 -10603 10663 0
-1200 -10604 10664 0
-1200 -10605 10665 0
-1200 -10606 10666 0
-1200 -10607 10667 0
-1200 -10608 10668 0
-1200 -10609 10669 0
-1200 -10610 10670 0
-1200 -10611 0
-10612 10671 0
-10613 10672 0
-10614 10673 0
-10615 10674 0
-10616 10675 0
-10617 10676 0
-10618 10677 0
-10619 10678 0
-10620 10679 0
-10621 10680 0
-10622 10681 0
-10623 10682 0
-10624 10683 0
-10625 10684 0
-10626 10685 0
-10627 10686 0
-10628 10687 0
-10629 10688 0
-10630 10689 0
-10631 10690 0
-10632 10691 0
-10633 10692 0
-10634 10693 0
-10635 10694 0
-10636 10695 0
-10637 10696 0
-10638 10697 0
-10639 10698 0
-10640 10699 0
-10641 10700 0
-10642 10701 0
-10643 10702 0
-10644 10703 0
-10645 10704 0
-10646 10705 0
-10647 10706 0
-10648 10707 0
-10649 10708 0
-10650 10709 0
-10651 10710 0
-10652 10711 0
-10653 10712 0
-10654 10713 0
-10655 10714 0
-10656 10715 0
-10657 10716 0
-10658 10717 0
-10659 10718 0
-10660 10719 0
-10661 10720 0
-10662 10721 0
-10663 10722 0
-10664 10723 0
-10665 10724 0
-10666 10725 0
-10667 10726 0
-10668 10727 0
-10669 10728 0
-10670 10729 0
-1202 -10612 10672 0
-1202 -10613 10673 0
-1202 -10614 10674 0
-1202 -10615 10675 0
-1202 -10616 10676 0
-1202 -10617 10677 0
-1202 -10618 10678 0
-1202 -10619 10679 0
-1202 -10620 10680 0
-1202 -10621 10681 0
-1202 -10622 10682 0
-1202 -10623 10683 0
-1202 -10624 10684 0
-1202 -10625 10685 0
-1202 -10626 10686 0
-1202 -10627 10687 0
-1202 -10628 10688 0
-1202 -10629 10689 0
-1202 -10630 10690 0
-1202 -10631 10691 0
-1202 -10632 10692 0
-1202 -10633 10693 0
-1202 -10634 10694 0
-1202 -10635 10695 0
-1202 -10636 10696 0
-1202 -10637 10697 0
-1202 -10638 10698 0
-1202 -10639 10699 0
-1202 -10640 10700 0
-1202 -10641 10701 0
-1202 -10642 10702 0
-1202 -10643 10703 0
-1202 -10644 10704 0
-1202 -10645 10705 0
-1202 -10646 10706 0
-1202 -10647 10707 0
-1202 -10648 10708 0
-1202 -10649 10709 0
-1202 -10650 10710 0
-1202 -10651 10711 0
-1202 -10652 10712 0
-1202 -10653 10713 0
-1202 -10654 10714 0
-1202 -10655 10715 0
-1202 -10656 10716 0
-1202 -10657 10717 0
-1202 -10658 10718 0
-1202 -10659 10719 0
-1202 -10660 10720 0
-1202 -10661 10721 0
-1202 -10662 10722 0
-1202 -10663 10723 0
-1202 -10664 10724 0
-1202 -10665 10725 0
-1202 -10666 10726 0
-1202 -10667 10727 0
-1202 -10668 10728 0
-1202 -10669 10729 0
-1202 -10670 0
-10671 10730 0
-10672 10731 0
-10673 10732 0
-10674 10733 0
-10675 10734 0
-10676 10735 0
-10677 10736 0
-10678 10737 0
-10679 10738 0
-10680 10739 0
-10681 10740 0
-10682 10741 0
-10683 10742 0
-10684 10743 0
-10685 10744 0
-10686 10745 0
-10687 10746 0
-10688 10747 0
-10689 10748 0
-10690 10749 0
-10691 10750 0
-10692 10751 0
-10693 10752 0
-10694 10753 0
-10695 10754 0
-10696 10755 0
-10697 10756 0
-10698 10757 0
-10699 10758 0
-10700 10759 0
-10701 10760 0
-10702 10761 0
-10703 10762 0
-10704 10763 0
-10705 10764 0
-10706 10765 0
-10707 10766 0
-10708 10767 0
-10709 10768 0
-10710 10769 0
-10711 10770 0
-10712 10771 0
-10713 10772 0
-10714 10773 0
-10715 10774 0
-10716 10775 0
-10717 10776 0
-10718 10777 0
-10719 10778 0
-10720 10779 0
-10721 10780 0
-10722 10781 0
-10723 10782 0
-10724 10783 0
-10725 10784 0
-10726 10785 0
-10727 10786 0
-10728 10787 0
-10729 10788 0
-1204 -10671 10731 0
-1204 -10672 10732 0
-1204 -10673 10733 0
-1204 -10674 10734 0
-1204 -10675 10735 0
-1204 -10676 10736 0
-1204 -10677 10737 0
-1204 -10678 10738 0
-1204 -10679 10739 0
-1204 -10680 10740 0
-1204 -10681 10741 0
-1204 -10682 10742 0
-1204 -10683 10743 0
-1204 -10684 10744 0
-1204 -10685 10745 0
-1204 -10686 10746 0
-1204 -10687 10747 0
-1204 -10688 10748 0
-1204 -10689 10749 0
-1204 -10690 10750 0
-1204 -10691 10751 0
-1204 -10692 10752 0
-1204 -10693 10753 0
-1204 -10694 10754 0
-1204 -10695 10755 0
-1204 -10696 10756 0
-1204 -10697 10757 0
-1204 -10698 10758 0
-1204 -10699 10759 0
-1204 -10700 10760 0
-1204 -10701 10761 0
-1204 -10702 10762 0
-1204 -10703 10763 0
-1204 -10704 10764 0
-1204 -10705 10765 0
-1204 -10706 10766 0
-1204 -10707 10767 0
-1204 -10708 10768 0
-1204 -10709 10769 0
-1204 -10710 10770 0
-1204 -10711 10771 0
-1204 -10712 10772 0
-1204 -10713 10773 0
-1204 -10714 10774 0
-1204 -10715 10775 0
-1204 -10716 10776 0
-1204 -10717 10777 0
-1204 -10718 10778 0
-1204 -10719 10779 0
-1204 -10720 10780 0
-1204 -10721 10781 0
-1204 -10722 10782 0
-1204 -10723 10783 0
-1204 -10724 10784 0
-1204 -10725 10785 0
-1204 -10726 10786 0
-1204 -10727 10787 0
-1204 -10728 10788 0
-1204 -10729 0
-10730 10789 0
-10731 10790 0
-10732 10791 0
-10733 10792 0
-10734 10793 0
-10735 10794 0
-10736 10795 0
-10737 10796 0
-10738 10797 0
-10739 10798 0
-10740 10799 0
-10741 10800 0
-10742 10801 0
-10743 10802 0
-10744 10803 0
-10745 10804 0
-10746 10805 0
-10747 10806 0
-10748 10807 0
-10749 10808 0
-10750 10809 0
-10751 10810 0
-10752 10811 0
-10753 10812 0
-10754 10813 0
-10755 10814 0
-10756 10815 0
-10757 10816 0
-10758 10817 0
-10759 10818 0
-10760 10819 0
-10761 10820 0
-10762 10821 0
-10763 10822 0
-10764 10823 0
-10765 10824 0
-10766 10825 0
-10767 10826 0
-10768 10827 0
-10769 10828 0
-10770 10829 0
-10771 10830 0
-10772 10831 0
-10773 10832 0
-10774 10833 0
-10775 10834 0
-10776 10835 0
-10777 10836 0
-10778 10837 0
-10779 10838 0
-10780 10839 0
-10781 10840 0
-10782 10841 0
-10783 10842 0
-10784 10843 0
-10785 10844 0
-10786 10845 0
-10787 10846 0
-10788 10847 0
-1206 -10730 10790 0
-1206 -10731 10791 0
-1206 -10732 10792 0
-1206 -10733 10793 0
-1206 -10734 10794 0
-1206 -10735 10795 0
-1206 -10736 10796 0
-1206 -10737 10797 0
-1206 -10738 10798 0
-1206 -10739 10799 0
-1206 -10740 10800 0
-1206 -10741 10801 0
-1206 -10742 10802 0
-1206 -10743 10803 0
-1206 -10744 10804 0
-1206 -10745 10805 0
-1206 -10746 10806 0
-1206 -10747 10807 0
-1206 -10748 10808 0
-1206 -10749 10809 0
-1206 -10750 10810 0
-1206 -10751 10811 0
-1206 -10752 10812 0
-1206 -10753 10813 0
-1206 -10754 10814 0
-1206 -10755 10815 0
-1206 -10756 10816 0
-1206 -10757 10817 0
-1206 -10758 10818 0
-1206 -10759 10819 0
-1206 -10760 10820 0
-1206 -10761 10821 0
-1206 -10762 10822 0
-1206 -10763 10823 0
-1206 -10764 10824 0
-1206 -10765 10825 0
-1206 -10766 10826 0
-1206 -10767 10827 0
-1206 -10768 10828 0
-1206 -10769 10829 0
-1206 -10770 10830 0
-1206 -10771 10831 0
-1206 -10772 10832 0
-1206 -10773 10833 0
-1206 -10774 10834 0
-1206 -10775 10835 0
-1206 -10776 10836 0
-1206 -10777 10837 0
-1206 -10778 10838 0
-1206 -10779 10839 0
-1206 -10780 10840 0
-1206 -10781 10841 0
-1206 -10782 10842 0
-1206 -10783 10843 0
-1206 -10784 10844 0
-1206 -10785 10845 0
-1206 -10786 10846 0
-1206 -10787 10847 0
-1206 -10788 0
-10789 10848 0
-10790 10849 0
-10791 10850 0
-10792 10851 0
-10793 10852 0
-10794 10853 0
-10795 10854 0
-10796 10855 0
-10797 10856 0
-10798 10857 0
-10799 10858 0
-10800 10859 0
-10801 10860 0
-10802 10861 0
-10803 10862 0
-10804 10863 0
-10805 10864 0
-10806 10865 0
-10807 10866 0
-10808 10867 0
-10809 10868 0
-10810 10869 0
-10811 10870 0
-10812 10871 0
-10813 10872 0
-10814 10873 0
-10815 10874 0
-10816 10875 0
-10817 10876 0
-10818 10877 0
-10819 10878 0
-10820 10879 0
-10821 10880 0
-10822 10881 0
-10823 10882 0
-10824 10883 0
-10825 10884 0
-10826 10885 0
-10827 10886 0
-10828 10887 0
-10829 10888 0
-10830 10889 0
-10831 10890 0
-10832 10891 0
-10833 10892 0
-10834 10893 0
-10835 10894 0
-10836 10895 0
-10837 10896 0
-10838 10897 0
-10839 10898 0
-10840 10899 0
-10841 10900 0
-10842 10901 0
-10843 10902 0
-10844 10903 0
-10845 10904 0
-10846 10905 0
-10847 10906 0
-1208 -10789 10849 0
-1208 -10790 10850 0
-1208 -10791 10851 0
-1208 -10792 10852 0
-1208 -10793 10853 0
-1208 -10794 10854 0
-1208 -10795 10855 0
-1208 -10796 10856 0
-1208 -10797 10857 0
-1208 -10798 10858 0
-1208 -10799 10859 0
-1208 -10800 10860 0
-1208 -10801 10861 0
-1208 -10802 10862 0
-1208 -10803 10863 0
-1208 -10804 10864 0
-1208 -10805 10865 0
-1208 -10806 10866 0
-1208 -10807 10867 0
-1208 -10808 10868 0
-1208 -10809 10869 0
-1208 -10810 10870 0
-1208 -10811 10871 0
-1208 -10812 10872 0
-1208 -10813 10873 0
-1208 -10814 10874 0
-1208 -10815 10875 0
-1208 -10816 10876 0
-1208 -10817 10877 0
-1208 -10818 10878 0
-1208 -10819 10879 0
-1208 -10820 10880 0
-1208 -10821 10881 0
-1208 -10822 10882 0
-1208 -10823 10883 0
-1208 -10824 10884 0
-1208 -10825 10885 0
-1208 -10826 10886 0
-1208 -10827 10887 0
-1208 -10828 10888 0
-1208 -10829 10889 0
-1208 -10830 10890 0
-1208 -10831 10891 0
-1208 -10832 10892 0
-1208 -10833 10893 0
-1208 -10834 10894 0
-1208 -10835 10895 0
-1208 -10836 10896 0
-1208 -10837 10897 0
-1208 -10838 10898 0
-1208 -10839 10899 0
-1208 -10840 10900 0
-1208 -10841 10901 0
-1208 -10842 10902 0
-1208 -10843 10903 0
-1208 -10844 10904 0
-1208 -10845 10905 0
-1208 -10846 10906 0
-1208 -10847 0
-10848 10907 0
-10849 10908 0
-10850 10909 0
-10851 10910 0
-10852 10911 0
-10853 10912 0
-10854 10913 0
-10855 10914 0
-10856 10915 0
-10857 10916 0
-10858 10917 0
-10859 10918 0
-10860 10919 0
-10861 10920 0
-10862 10921 0
-10863 10922 0
-10864 10923 0
-10865 10924 0
-10866 10925 0
-10867 10926 0
-10868 10927 0
-10869 10928 0
-10870 10929 0
-10871 10930 0
-10872 10931 0
-10873 10932 0
-10874 10933 0
-10875 10934 0
-10876 10935 0
-10877 10936 0
-10878 10937 0
-10879 10938 0
-10880 10939 0
-10881 10940 0
-10882 10941 0
-10883 10942 0
-10884 10943 0
-10885 10944 0
-10886 10945 0
-10887 10946 0
-10888 10947 0
-10889 10948 0
-10890 10949 0
-10891 10950 0
-10892 10951 0
-10893 10952 0
-10894 10953 0
-10895 10954 0
-10896 10955 0
-10897 10956 0
-10898 10957 0
-10899 10958 0
-10900 10959 0
-10901 10960 0
-10902 10961 0
-10903 10962 0
-10904 10963 0
-10905 10964 0
-10906 10965 0
-1210 -10848 10908 0
-1210 -10849 10909 0
-1210 -10850 10910 0
-1210 -10851 10911 0
-1210 -10852 10912 0
-1210 -10853 10913 0
-1210 -10854 10914 0
-1210 -10855 10915 0
-1210 -10856 10916 0
-1210 -10857 10917 0
-1210 -10858 10918 0
-1210 -10859 10919 0
-1210 -10860 10920 0
-1210 -10861 10921 0
-1210 -10862 10922 0
-1210 -10863 10923 0
-1210 -10864 10924 0
-1210 -10865 10925 0
-1210 -10866 10926 0
-1210 -10867 10927 0
-1210 -10868 10928 0
-1210 -10869 10929 0
-1210 -10870 10930 0
-1210 -10871 10931 0
-1210 -10872 10932 0
-1210 -10873 10933 0
-1210 -10874 10934 0
-1210 -10875 10935 0
-1210 -10876 10936 0
-1210 -10877 10937 0
-1210 -10878 10938 0
-1210 -10879 10939 0
-1210 -10880 10940 0
-1210 -10881 10941 0
-1210 -10882 10942 0
-1210 -10883 10943 0
-1210 -10884 10944 0
-1210 -10885 10945 0
-1210 -10886 10946 0
-1210 -10887 10947 0
-1210 -10888 10948 0
-1210 -10889 10949 0
-1210 -10890 10950 0
-1210 -10891 10951 0
-1210 -10892 10952 0
-1210 -10893 10953 0
-1210 -10894 10954 0
-1210 -10895 10955 0
-1210 -10896 10956 0
-1210 -10897 10957 0
-1210 -10898 10958 0
-1210 -10899 10959 0
-1210 -10900 10960 0
-1210 -10901 10961 0
-1210 -10902 10962 0
-1210 -10903 10963 0
-1210 -10904 10964 0
-1210 -10905 10965 0
-1210 -10906 0
-10907 10966 0
-10908 10967 0
-10909 10968 0
-10910 10969 0
-10911 10970 0
-10912 10971 0
-10913 10972 0
-10914 10973 0
-10915 10974 0
-10916 10975 0
-10917 10976 0
-10918 10977 0
-10919 10978 0
-10920 10979 0
-10921 10980 0
-10922 10981 0
-10923 10982 0
-10924 10983 0
-10925 10984 0
-10926 10985 0
-10927 10986 0
-10928 10987 0
-10929 10988 0
-10930 10989 0
-10931 10990 0
-10932 10991 0
-10933 10992 0
-10934 10993 0
-10935 10994 0
-10936 10995 0
-10937 10996 0
-10938 10997 0
-10939 10998 0
-10940 10999 0
-10941 11000 0
-10942 11001 0
-10943 11002 0
-10944 11003 0
-10945 11004 0
-10946 11005 0
-10947 11006 0
-10948 11007 0
-10949 11008 0
-10950 11009 0
-10951 11010 0
-10952 11011 0
-10953 11012 0
-10954 11013 0
-10955 11014 0
-10956 11015 0
-10957 11016 0
-10958 11017 0
-10959 11018 0
-10960 11019 0
-10961 11020 0
-10962 11021 0
-10963 11022 0
-10964 11023 0
-10965 11024 0
-1212 -10907 10967 0
-1212 -10908 10968 0
-1212 -10909 10969 0
-1212 -10910 10970 0
-1212 -10911 10971 0
-1212 -10912 10972 0
-1212 -10913 10973 0
-1212 -10914 10974 0
-1212 -10915 10975 0
-1212 -10916 10976 0
-1212 -10917 10977 0
-1212 -10918 10978 0
-1212 -10919 10979 0
-1212 -10920 10980 0
-1212 -10921 10981 0
-1212 -10922 10982 0
-1212 -10923 10983 0
-1212 -10924 10984 0
-1212 -10925 10985 0
-1212 -10926 10986 0
-1212 -10927 10987 0
-1212 -10928 10988 0
-1212 -10929 10989 0
-1212 -10930 10990 0
-1212 -10931 10991 0
-1212 -10932 10992 0
-1212 -10933 10993 0
-1212 -10934 10994 0
-1212 -10935 10995 0
-1212 -10936 10996 0
-1212 -10937 10997 0
-1212 -10938 10998 0
-1212 -10939 10999 0
-1212 -10940 11000 0
-1212 -10941 11001 0
-1212 -10942 11002 0
-1212 -10943 11003 0
-1212 -10944 11004 0
-1212 -10945 11005 0
-1212 -10946 11006 0
-1212 -10947 11007 0
-1212 -10948 11008 0
-1212 -10949 11009 0
-1212 -10950 11010 0
-1212 -10951 11011 0
-1212 -10952 11012 0
-1212 -10953 11013 0
-1212 -10954 11014 0
-1212 -10955 11015 0
-1212 -10956 11016 0
-1212 -10957 11017 0
-1212 -10958 11018 0
-1212 -10959 11019 0
-1212 -10960 11020 0
-1212 -10961 11021 0
-1212 -10962 11022 0
-1212 -10963 11023 0
-1212 -10964 11024 0
-1212 -10965 0
-10966 11025 0
-10967 11026 0
-10968 11027 0
-10969 11028 0
-10970 11029 0
-10971 11030 0
-10972 11031 0
-10973 11032 0
-10974 11033 0
-10975 11034 0
-10976 11035 0
-10977 11036 0
-10978 11037 0
-10979 11038 0
-10980 11039 0
-10981 11040 0
-10982 11041 0
-10983 11042 0
-10984 11043 0
-10985 11044 0
-10986 11045 0
-10987 11046 0
-10988 11047 0
-10989 11048 0
-10990 11049 0
-10991 11050 0
-10992 11051 0
-10993 11052 0
-10994 11053 0
-10995 11054 0
-10996 11055 0
-10997 11056 0
-10998 11057 0
-10999 11058 0
-11000 11059 0
-11001 11060 0
-11002 11061 0
-11003 11062 0
-11004 11063 0
-11005 11064 0
-11006 11065 0
-11007 11066 0
-11008 11067 0
-11009 11068 0
-11010 11069 0
-11011 11070 0
-11012 11071 0
-11013 11072 0
-11014 11073 0
-11015 11074 0
-11016 11075 0
-11017 11076 0
-11018 11077 0
-11019 11078 0
-11020 11079 0
-11021 11080 0
-11022 11081 0
-11023 11082 0
-11024 11083 0
-1214 -10966 11026 0
-1214 -10967 11027 0
-1214 -10968 11028 0
-1214 -10969 11029 0
-1214 -10970 11030 0
-1214 -10971 11031 0
-1214 -10972 11032 0
-1214 -10973 11033 0
-1214 -10974 11034 0
-1214 -10975 11035 0
-1214 -10976 11036 0
-1214 -10977 11037 0
-1214 -10978 11038 0
-1214 -10979 11039 0
-1214 -10980 11040 0
-1214 -10981 11041 0
-1214 -10982 11042 0
-1214 -10983 11043 0
-1214 -10984 11044 0
-1214 -10985 11045 0
-1214 -10986 11046 0
-1214 -10987 11047 0
-1214 -10988 11048 0
-1214 -10989 11049 0
-1214 -10990 11050 0
-1214 -10991 11051 0
-1214 -10992 11052 0
-1214 -10993 11053 0
-1214 -10994 11054 0
-1214 -10995 11055 0
-1214 -10996 11056 0
-1214 -10997 11057 0
-1214 -10998 11058 0
-1214 -10999 11059 0
-1214 -11000 11060 0
-1214 -11001 11061 0
-1214 -11002 11062 0
-1214 -11003 11063 0
-1214 -11004 11064 0
-1214 -11005 11065 0
-1214 -11006 11066 0
-1214 -11007 11067 0
-1214 -11008 11068 0
-1214 -11009 11069 0
-1214 -11010 11070 0
-1214 -11011 11071 0
-1214 -11012 11072 0
-1214 -11013 11073 0
-1214 -11014 11074 0
-1214 -11015 11075 0
-1214 -11016 11076 0
-1214 -11017 11077 0
-1214 -11018 11078 0
-1214 -11019 11079 0
-1214 -11020 11080 0
-1214 -11021 11081 0
-1214 -11022 11082 0
-1214 -11023 11083 0
-1214 -11024 0
-11025 11084 0
-11026 11085 0
-11027 11086 0
-11028 11087 0
-11029 11088 0
-11030 11089 0
-11031 11090 0
-11032 11091 0
-11033 11092 0
-11034 11093 0
-11035 11094 0
-11036 11095 0
-11037 11096 0
-11038 11097 0
-11039 11098 0
-11040 11099 0
-11041 11100 0
-11042 11101 0
-11043 11102 0
-11044 11103 0
-11045 11104 0
-11046 11105 0
-11047 11106 0
-11048 11107 0
-11049 11108 0
-11050 11109 0
-11051 11110 0
-11052 11111 0
-11053 11112 0
-11054 11113 0
-11055 11114 0
-11056 11115 0
-11057 11116 0
-11058 11117 0
-11059 11118 0
-11060 11119 0
-11061 11120 0
-11062 11121 0
-11063 11122 0
-11064 11123 0
-11065 11124 0
-11066 11125 0
-11067 11126 0
-11068 11127 0
-11069 11128 0
-11070 11129 0
-11071 11130 0
-11072 11131 0
-11073 11132 0
-11074 11133 0
-11075 11134 0
-11076 11135 0
-11077 11136 0
-11078 11137 0
-11079 11138 0
-11080 11139 0
-11081 11140 0
-11082 11141 0
-11083 11142 0
-1216 -11025 11085 0
-1216 -11026 11086 0
-1216 -11027 11087 0
-1216 -11028 11088 0
-1216 -11029 11089 0
-1216 -11030 11090 0
-1216 -11031 11091 0
-1216 -11032 11092 0
-1216 -11033 11093 0
-1216 -11034 11094 0
-1216 -11035 11095 0
-1216 -11036 11096 0
-1216 -11037 11097 0
-1216 -11038 11098 0
-1216 -11039 11099 0
-1216 -11040 11100 0
-1216 -11041 11101 0
-1216 -11042 11102 0
-1216 -11043 11103 0
-1216 -11044 11104 0
-1216 -11045 11105 0
-1216 -11046 11106 0
-1216 -11047 11107 0
-1216 -11048 11108 0
-1216 -11049 11109 0
-1216 -11050 11110 0
-1216 -11051 11111 0
-1216 -11052 11112 0
-1216 -11053 11113 0
-1216 -11054 11114 0
-1216 -11055 11115 0
-1216 -11056 11116 0
-1216 -11057 11117 0
-1216 -11058 11118 0
-1216 -11059 11119 0
-1216 -11060 11120 0
-1216 -11061 11121 0
-1216 -11062 11122 0
-1216 -11063 11123 0
-1216 -11064 11124 0
-1216 -11065 11125 0
-1216 -11066 11126 0
-1216 -11067 11127 0
-1216 -11068 11128 0
-1216 -11069 11129 0
-1216 -11070 11130 0
-1216 -11071 11131 0
-1216 -11072 11132 0
-1216 -11073 11133 0
-1216 -11074 11134 0
-1216 -11075 11135 0
-1216 -11076 11136 0
-1216 -11077 11137 0
-1216 -11078 11138 0
-1216 -11079 11139 0
-1216 -11080 11140 0
-1216 -11081 11141 0
-1216 -11082 11142 0
-1216 -11083 0
-11084 11143 0
-11085 11144 0
-11086 11145 0
-11087 11146 0
-11088 11147 0
-11089 11148 0
-11090 11149 0
-11091 11150 0
-11092 11151 0
-11093 11152 0
-11094 11153 0
-11095 11154 0
-11096 11155 0
-11097 11156 0
-11098 11157 0
-11099 11158 0
-11100 11159 0
-11101 11160 0
-11102 11161 0
-11103 11162 0
-11104 11163 0
-11105 11164 0
-11106 11165 0
-11107 11166 0
-11108 11167 0
-11109 11168 0
-11110 11169 0
-11111 11170 0
-11112 11171 0
-11113 11172 0
-11114 11173 0
-11115 11174 0
-11116 11175 0
-11117 11176 0
-11118 11177 0
-11119 11178 0
-11120 11179 0
-11121 11180 0
-11122 11181 0
-11123 11182 0
-11124 11183 0
-11125 11184 0
-11126 11185 0
-11127 11186 0
-11128 11187 0
-11129 11188 0
-11130 11189 0
-11131 11190 0
-11132 11191 0
-11133 11192 0
-11134 11193 0
-11135 11194 0
-11136 11195 0
-11137 11196 0
-11138 11197 0
-11139 11198 0
-11140 11199 0
-11141 11200 0
-11142 11201 0
-1218 -11084 11144 0
-1218 -11085 11145 0
-1218 -11086 11146 0
-1218 -11087 11147 0
-1218 -11088 11148 0
-1218 -11089 11149 0
-1218 -11090 11150 0
-1218 -11091 11151 0
-1218 -11092 11152 0
-1218 -11093 11153 0
-1218 -11094 11154 0
-1218 -11095 11155 0
-1218 -11096 11156 0
-1218 -11097 11157 0
-1218 -11098 11158 0
-1218 -11099 11159 0
-1218 -11100 11160 0
-1218 -11101 11161 0
-1218 -11102 11162 0
-1218 -11103 11163 0
-1218 -11104 11164 0
-1218 -11105 11165 0
-1218 -11106 11166 0
-1218 -11107 11167 0
-1218 -11108 11168 0
-1218 -11109 11169 0
-1218 -11110 11170 0
-1218 -11111 11171 0
-1218 -11112 11172 0
-1218 -11113 11173 0
-1218 -11114 11174 0
-1218 -11115 11175 0
-1218 -11116 11176 0
-1218 -11117 11177 0
-1218 -11118 11178 0
-1218 -11119 11179 0
-1218 -11120 11180 0
-1218 -11121 11181 0
-1218 -11122 11182 0
-1218 -11123 11183 0
-1218 -11124 11184 0
-1218 -11125 11185 0
-1218 -11126 11186 0
-1218 -11127 11187 0
-1218 -11128 11188 0
-1218 -11129 11189 0
-1218 -11130 11190 0
-1218 -11131 11191 0
-1218 -11132 11192 0
-1218 -11133 11193 0
-1218 -11134 11194 0
-1218 -11135 11195 0
-1218 -11136 11196 0
-1218 -11137 11197 0
-1218 -11138 11198 0
-1218 -11139 11199 0
-1218 -11140 11200 0
-1218 -11141 11201 0
-1218 -11142 0
-11143 11202 0
-11144 11203 0
-11145 11204 0
-11146 11205 0
-11147 11206 0
-11148 11207 0
-11149 11208 0
-11150 11209 0
-11151 11210 0
-11152 11211 0
-11153 11212 0
-11154 11213 0
-11155 11214 0
-11156 11215 0
-11157 11216 0
-11158 11217 0
-11159 11218 0
-11160 11219 0
-11161 11220 0
-11162 11221 0
-11163 11222 0
-11164 11223 0
-11165 11224 0
-11166 11225 0
-11167 11226 0
-11168 11227 0
-11169 11228 0
-11170 11229 0
-11171 11230 0
-11172 11231 0
-11173 11232 0
-11174 11233 0
-11175 11234 0
-11176 11235 0
-11177 11236 0
-11178 11237 0
-11179 11238 0
-11180 11239 0
-11181 11240 0
-11182 11241 0
-11183 11242 0
-11184 11243 0
-11185 11244 0
-11186 11245 0
-11187 11246 0
-11188 11247 0
-11189 11248 0
-11190 11249 0
-11191 11250 0
-11192 11251 0
-11193 11252 0
-11194 11253 0
-11195 11254 0
-11196 11255 0
-11197 11256 0
-11198 11257 0
-11199 11258 0
-11200 11259 0
-11201 11260 0
-1220 -11143 11203 0
-1220 -11144 11204 0
-1220 -11145 11205 0
-1220 -11146 11206 0
-1220 -11147 11207 0
-1220 -11148 11208 0
-1220 -11149 11209 0
-1220 -11150 11210 0
-1220 -11151 11211 0
-1220 -11152 11212 0
-1220 -11153 11213 0
-1220 -11154 11214 0
-1220 -11155 11215 0
-1220 -11156 11216 0
-1220 -11157 11217 0
-1220 -11158 11218 0
-1220 -11159 11219 0
-1220 -11160 11220 0
-1220 -11161 11221 0
-1220 -11162 11222 0
-1220 -11163 11223 0
-1220 -11164 11224 0
-1220 -11165 11225 0
-1220 -11166 11226 0
-1220 -11167 11227 0
-1220 -11168 11228 0
-1220 -11169 11229 0
-1220 -11170 11230 0
-1220 -11171 11231 0
-1220 -11172 11232 0
-1220 -11173 11233 0
-1220 -11174 11234 0
-1220 -11175 11235 0
-1220 -11176 11236 0
-1220 -11177 11237 0
-1220 -11178 11238 0
-1220 -11179 11239 0
-1220 -11180 11240 0
-1220 -11181 11241 0
-1220 -11182 11242 0
-1220 -11183 11243 0
-1220 -11184 11244 0
-1220 -11185 11245 0
-1220 -11186 11246 0
-1220 -11187 11247 0
-1220 -11188 11248 0
-1220 -11189 11249 0
-1220 -11190 11250 0
-1220 -11191 11251 0
-1220 -11192 11252 0
-1220 -11193 11253 0
-1220 -11194 11254 0
-1220 -11195 11255 0
-1220 -11196 11256 0
-1220 -11197 11257 0
-1220 -11198 11258 0
-1220 -11199 11259 0
-1220 -11200 11260 0
-1220 -11201 0
-11202 11261 0
-11203 11262 0
-11204 11263 0
-11205 11264 0
-11206 11265 0
-11207 11266 0
-11208 11267 0
-11209 11268 0
-11210 11269 0
-11211 11270 0
-11212 11271 0
-11213 11272 0
-11214 11273 0
-11215 11274 0
-11216 11275 0
-11217 11276 0
-11218 11277 0
-11219 11278 0
-11220 11279 0
-11221 11280 0
-11222 11281 0
-11223 11282 0
-11224 11283 0
-11225 11284 0
-11226 11285 0
-11227 11286 0
-11228 11287 0
-11229 11288 0
-11230 11289 0
-11231 11290 0
-11232 11291 0
-11233 11292 0
-11234 11293 0
-11235 11294 0
-11236 11295 0
-11237 11296 0
-11238 11297 0
-11239 11298 0
-11240 11299 0
-11241 11300 0
-11242 11301 0
-11243 11302 0
-11244 11303 0
-11245 11304 0
-11246 11305 0
-11247 11306 0
-11248 11307 0
-11249 11308 0
-11250 11309 0
-11251 11310 0
-11252 11311 0
-11253 11312 0
-11254 11313 0
-11255 11314 0
-11256 11315 0
-11257 11316 0
-11258 11317 0
-11259 11318 0
-11260 11319 0
-1222 -11202 11262 0
-1222 -11203 11263 0
-1222 -11204 11264 0
-1222 -11205 11265 0
-1222 -11206 11266 0
-1222 -11207 11267 0
-1222 -11208 11268 0
-1222 -11209 11269 0
-1222 -11210 11270 0
-1222 -11211 11271 0
-1222 -11212 11272 0
-1222 -11213 11273 0
-1222 -11214 11274 0
-1222 -11215 11275 0
-1222 -11216 11276 0
-1222 -11217 11277 0
-1222 -11218 11278 0
-1222 -11219 11279 0
-1222 -11220 11280 0
-1222 -11221 11281 0
-1222 -11222 11282 0
-1222 -11223 11283 0
-1222 -11224 11284 0
-1222 -11225 11285 0
-1222 -11226 11286 0
-1222 -11227 11287 0
-1222 -11228 11288 0
-1222 -11229 11289 0
-1222 -11230 11290 0
-1222 -11231 11291 0
-1222 -11232 11292 0
-1222 -11233 11293 0
-1222 -11234 11294 0
-1222 -11235 11295 0
-1222 -11236 11296 0
-1222 -11237 11297 0
-1222 -11238 11298 0
-1222 -11239 11299 0
-1222 -11240 11300 0
-1222 -11241 11301 0
-1222 -11242 11302 0
-1222 -11243 11303 0
-1222 -11244 11304 0
-1222 -11245 11305 0
-1222 -11246 11306 0
-1222 -11247 11307 0
-1222 -11248 11308 0
-1222 -11249 11309 0
-1222 -11250 11310 0
-1222 -11251 11311 0
-1222 -11252 11312 0
-1222 -11253 11313 0
-1222 -11254 11314 0
-1222 -11255 11315 0
-1222 -11256 11316 0
-1222 -11257 11317 0
-1222 -11258 11318 0
-1222 -11259 11319 0
-1222 -11260 0
-11261 11320 0
-11262 11321 0
-11263 11322 0
-11264 11323 0
-11265 11324 0
-11266 11325 0
-11267 11326 0
-11268 11327 0
-11269 11328 0
-11270 11329 0
-11271 11330 0
-11272 11331 0
-11273 11332 0
-11274 11333 0
-11275 11334 0
-11276 11335 0
-11277 11336 0
-11278 11337 0
-11279 11338 0
-11280 11339 0
-11281 11340 0
-11282 11341 0
-11283 11342 0
-11284 11343 0
-11285 11344 0
-11286 11345 0
-11287 11346 0
-11288 11347 0
-11289 11348 0
-11290 11349 0
-11291 11350 0
-11292 11351 0
-11293 11352 0
-11294 11353 0
-11295 11354 0
-11296 11355 0
-11297 11356 0
-11298 11357 0
-11299 11358 0
-11300 11359 0
-11301 11360 0
-11302 11361 0
-11303 11362 0
-11304 11363 0
-11305 11364 0
-11306 11365 0
-11307 11366 0
-11308 11367 0
-11309 11368 0
-11310 11369 0
-11311 11370 0
-11312 11371 0
-11313 11372 0
-11314 11373 0
-11315 11374 0
-11316 11375 0
-11317 11376 0
-11318 11377 0
-11319 11378 0
-1224 -11261 11321 0
-1224 -11262 11322 0
-1224 -11263 11323 0
-1224 -11264 11324 0
-1224 -11265 11325 0
-1224 -11266 11326 0
-1224 -11267 11327 0
-1224 -11268 11328 0
-1224 -11269 11329 0
-1224 -11270 11330 0
-1224 -11271 11331 0
-1224 -11272 11332 0
-1224 -11273 11333 0
-1224 -11274 11334 0
-1224 -11275 11335 0
-1224 -11276 11336 0
-1224 -11277 11337 0
-1224 -11278 11338 0
-1224 -11279 11339 0
-1224 -11280 11340 0
-1224 -11281 11341 0
-1224 -11282 11342 0
-1224 -11283 11343 0
-1224 -11284 11344 0
-1224 -11285 11345 0
-1224 -11286 11346 0
-1224 -11287 11347 0
-1224 -11288 11348 0
-1224 -11289 11349 0
-1224 -11290 11350 0
-1224 -11291 11351 0
-1224 -11292 11352 0
-1224 -11293 11353 0
-1224 -11294 11354 0
-1224 -11295 11355 0
-1224 -11296 11356 0
-1224 -11297 11357 0
-1224 -11298 11358 0
-1224 -11299 11359 0
-1224 -11300 11360 0
-1224 -11301 11361 0
-1224 -11302 11362 0
-1224 -11303 11363 0
-1224 -11304 11364 0
-1224 -11305 11365 0
-1224 -11306 11366 0
-1224 -11307 11367 0
-1224 -11308 11368 0
-1224 -11309 11369 0
-1224 -11310 11370 0
-1224 -11311 11371 0
-1224 -11312 11372 0
-1224 -11313 11373 0
-1224 -11314 11374 0
-1224 -11315 11375 0
-1224 -11316 11376 0
-1224 -11317 11377 0
-1224 -11318 11378 0
-1224 -11319 0
-11320 11379 0
-11321 11380 0
-11322 11381 0
-11323 11382 0
-11324 11383 0
-11325 11384 0
-11326 11385 0
-11327 11386 0
-11328 11387 0
-11329 11388 0
-11330 11389 0
-11331 11390 0
-11332 11391 0
-11333 11392 0
-11334 11393 0
-11335 11394 0
-11336 11395 0
-11337 11396 0
-11338 11397 0
-11339 11398 0
-11340 11399 0
-11341 11400 0
-11342 11401 0
-11343 11402 0
-11344 11403 0
-11345 11404 0
-11346 11405 0
-11347 11406 0
-11348 11407 0
-11349 11408 0
-11350 11409 0
-11351 11410 0
-11352 11411 0
-11353 11412 0
-11354 11413 0
-11355 11414 0
-11356 11415 0
-11357 11416 0
-11358 11417 0
-11359 11418 0
-11360 11419 0
-11361 11420 0
-11362 11421 0
-11363 11422 0
-11364 11423 0
-11365 11424 0
-11366 11425 0
-11367 11426 0
-11368 11427 0
-11369 11428 0
-11370 11429 0
-11371 11430 0
-11372 11431 0
-11373 11432 0
-11374 11433 0
-11375 11434 0
-11376 11435 0
-11377 11436 0
-11378 11437 0
-1226 -11320 11380 0
-1226 -11321 11381 0
-1226 -11322 11382 0
-1226 -11323 11383 0
-1226 -11324 11384 0
-1226 -11325 11385 0
-1226 -11326 11386 0
-1226 -11327 11387 0
-1226 -11328 11388 0
-1226 -11329 11389 0
-1226 -11330 11390 0
-1226 -11331 11391 0
-1226 -11332 11392 0
-1226 -11333 11393 0
-1226 -11334 11394 0
-1226 -11335 11395 0
-1226 -11336 11396 0
-1226 -11337 11397 0
-1226 -11338 11398 0
-1226 -11339 11399 0
-1226 -11340 11400 0
-1226 -11341 11401 0
-1226 -11342 11402 0
-1226 -11343 11403 0
-1226 -11344 11404 0
-1226 -11345 11405 0
-1226 -11346 11406 0
-1226 -11347 11407 0
-1226 -11348 11408 0
-1226 -11349 11409 0
-1226 -11350 11410 0
-1226 -11351 11411 0
-1226 -11352 11412 0
-1226 -11353 11413 0
-1226 -11354 11414 0
-1226 -11355 11415 0
-1226 -11356 11416 0
-1226 -11357 11417 0
-1226 -11358 11418 0
-1226 -11359 11419 0
-1226 -11360 11420 0
-1226 -11361 11421 0
-1226 -11362 11422 0
-1226 -11363 11423 0
-1226 -11364 11424 0
-1226 -11365 11425 0
-1226 -11366 11426 0
-1226 -11367 11427 0
-1226 -11368 11428 0
-1226 -11369 11429 0
-1226 -11370 11430 0
-1226 -11371 11431 0
-1226 -11372 11432 0
-1226 -11373 11433 0
-1226 -11374 11434 0
-1226 -11375 11435 0
-1226 -11376 11436 0
-1226 -11377 11437 0
-1226 -11378 0
-11379 11438 0
-11380 11439 0
-11381 11440 0
-11382 11441 0
-11383 11442 0
-11384 11443 0
-11385 11444 0
-11386 11445 0
-11387 11446 0
-11388 11447 0
-11389 11448 0
-11390 11449 0
-11391 11450 0
-11392 11451 0
-11393 11452 0
-11394 11453 0
-11395 11454 0
-11396 11455 0
-11397 11456 0
-11398 11457 0
-11399 11458 0
-11400 11459 0
-11401 11460 0
-11402 11461 0
-11403 11462 0
-11404 11463 0
-11405 11464 0
-11406 11465 0
-11407 11466 0
-11408 11467 0
-11409 11468 0
-11410 11469 0
-11411 11470 0
-11412 11471 0
-11413 11472 0
-11414 11473 0
-11415 11474 0
-11416 11475 0
-11417 11476 0
-11418 11477 0
-11419 11478 0
-11420 11479 0
-11421 11480 0
-11422 11481 0
-11423 11482 0
-11424 11483 0
-11425 11484 0
-11426 11485 0
-11427 11486 0
-11428 11487 0
-11429 11488 0
-11430 11489 0
-11431 11490 0
-11432 11491 0
-11433 11492 0
-11434 11493 0
-11435 11494 0
-11436 11495 0
-11437 11496 0
-1228 -11379 11439 0
-1228 -11380 11440 0
-1228 -11381 11441 0
-1228 -11382 11442 0
-1228 -11383 11443 0
-1228 -11384 11444 0
-1228 -11385 11445 0
-1228 -11386 11446 0
-1228 -11387 11447 0
-1228 -11388 11448 0
-1228 -11389 11449 0
-1228 -11390 11450 0
-1228 -11391 11451 0
-1228 -11392 11452 0
-1228 -11393 11453 0
-1228 -11394 11454 0
-1228 -11395 11455 0
-1228 -11396 11456 0
-1228 -11397 11457 0
-1228 -11398 11458 0
-1228 -11399 11459 0
-1228 -11400 11460 0
-1228 -11401 11461 0
-1228 -11402 11462 0
-1228 -11403 11463 0
-1228 -11404 11464 0
-1228 -11405 11465 0
-1228 -11406 11466 0
-1228 -11407 11467 0
-1228 -11408 11468 0
-1228 -11409 11469 0
-1228 -11410 11470 0
-1228 -11411 11471 0
-1228 -11412 11472 0
-1228 -11413 11473 0
-1228 -11414 11474 0
-1228 -11415 11475 0
-1228 -11416 11476 0
-1228 -11417 11477 0
-1228 -11418 11478 0
-1228 -11419 11479 0
-1228 -11420 11480 0
-1228 -11421 11481 0
-1228 -11422 11482 0
-1228 -11423 11483 0
-1228 -11424 11484 0
-1228 -11425 11485 0
-1228 -11426 11486 0
-1228 -11427 11487 0
-1228 -11428 11488 0
-1228 -11429 11489 0
-1228 -11430 11490 0
-1228 -11431 11491 0
-1228 -11432 11492 0
-1228 -11433 11493 0
-1228 -11434 11494 0
-1228 -11435 11495 0
-1228 -11436 11496 0
-1228 -11437 0
-11438 11497 0
-11439 11498 0
-11440 11499 0
-11441 11500 0
-11442 11501 0
-11443 11502 0
-11444 11503 0
-11445 11504 0
-11446 11505 0
-11447 11506 0
-11448 11507 0
-11449 11508 0
-11450 11509 0
-11451 11510 0
-11452 11511 0
-11453 11512 0
-11454 11513 0
-11455 11514 0
-11456 11515 0
-11457 11516 0
-11458 11517 0
-11459 11518 0
-11460 11519 0
-11461 11520 0
-11462 11521 0
-11463 11522 0
-11464 11523 0
-11465 11524 0
-11466 11525 0
-11467 11526 0
-11468 11527 0
-11469 11528 0
-11470 11529 0
-11471 11530 0
-11472 11531 0
-11473 11532 0
-11474 11533 0
-11475 11534 0
-11476 11535 0
-11477 11536 0
-11478 11537 0
-11479 11538 0
-11480 11539 0
-11481 11540 0
-11482 11541 0
-11483 11542 0
-11484 11543 0
-11485 11544 0
-11486 11545 0
-11487 11546 0
-11488 11547 0
-11489 11548 0
-11490 11549 0
-11491 11550 0
-11492 11551 0
-11493 11552 0
-11494 11553 0
-11495 11554 0
-11496 11555 0
-1230 -11438 11498 0
-1230 -11439 11499 0
-1230 -11440 11500 0
-1230 -11441 11501 0
-1230 -11442 11502 0
-1230 -11443 11503 0
-1230 -11444 11504 0
-1230 -11445 11505 0
-1230 -11446 11506 0
-1230 -11447 11507 0
-1230 -11448 11508 0
-1230 -11449 11509 0
-1230 -11450 11510 0
-1230 -11451 11511 0
-1230 -11452 11512 0
-1230 -11453 11513 0
-1230 -11454 11514 0
-1230 -11455 11515 0
-1230 -11456 11516 0
-1230 -11457 11517 0
-1230 -11458 11518 0
-1230 -11459 11519 0
-1230 -11460 11520 0
-1230 -11461 11521 0
-1230 -11462 11522 0
-1230 -11463 11523 0
-1230 -11464 11524 0
-1230 -11465 11525 0
-1230 -11466 11526 0
-1230 -11467 11527 0
-1230 -11468 11528 0
-1230 -11469 11529 0
-1230 -11470 11530 0
-1230 -11471 11531 0
-1230 -11472 11532 0
-1230 -11473 11533 0
-1230 -11474 11534 0
-1230 -11475 11535 0
-1230 -11476 11536 0
-1230 -11477 11537 0
-1230 -11478 11538 0
-1230 -11479 11539 0
-1230 -11480 11540 0
-1230 -11481 11541 0
-1230 -11482 11542 0
-1230 -11483 11543 0
-1230 -11484 11544 0
-1230 -11485 11545 0
-1230 -11486 11546 0
-1230 -11487 11547 0
-1230 -11488 11548 0
-1230 -11489 11549 0
-1230 -11490 11550 0
-1230 -11491 11551 0
-1230 -11492 11552 0
-1230 -11493 11553 0
-1230 -11494 11554 0
-1230 -11495 11555 0
-1230 -11496 0
-11497 11556 0
-11498 11557 0
-11499 11558 0
-11500 11559 0
-11501 11560 0
-11502 11561 0
-11503 11562 0
-11504 11563 0
-11505 11564 0
-11506 11565 0
-11507 11566 0
-11508 11567 0
-11509 11568 0
-11510 11569 0
-11511 11570 0
-11512 11571 0
-11513 11572 0
-11514 11573 0
-11515 11574 0
-11516 11575 0
-11517 11576 0
-11518 11577 0
-11519 11578 0
-11520 11579 0
-11521 11580 0
-11522 11581 0
-11523 11582 0
-11524 11583 0
-11525 11584 0
-11526 11585 0
-11527 11586 0
-11528 11587 0
-11529 11588 0
-11530 11589 0
-11531 11590 0
-11532 11591 0
-11533 11592 0
-11534 11593 0
-11535 11594 0
-11536 11595 0
-11537 11596 0
-11538 11597 0
-11539 11598 0
-11540 11599 0
-11541 11600 0
-11542 11601 0
-11543 11602 0
-11544 11603 0
-11545 11604 0
-11546 11605 0
-11547 11606 0
-11548 11607 0
-11549 11608 0
-11550 11609 0
-11551 11610 0
-11552 11611 0
-11553 11612 0
-11554 11613 0
-11555 11614 0
-1232 -11497 11557 0
-1232 -11498 11558 0
-1232 -11499 11559 0
-1232 -11500 11560 0
-1232 -11501 11561 0
-1232 -11502 11562 0
-1232 -11503 11563 0
-1232 -11504 11564 0
-1232 -11505 11565 0
-1232 -11506 11566 0
-1232 -11507 11567 0
-1232 -11508 11568 0
-1232 -11509 11569 0
-1232 -11510 11570 0
-1232 -11511 11571 0
-1232 -11512 11572 0
-1232 -11513 11573 0
-1232 -11514 11574 0
-1232 -11515 11575 0
-1232 -11516 11576 0
-1232 -11517 11577 0
-1232 -11518 11578 0
-1232 -11519 11579 0
-1232 -11520 11580 0
-1232 -11521 11581 0
-1232 -11522 11582 0
-1232 -11523 11583 0
-1232 -11524 11584 0
-1232 -11525 11585 0
-1232 -11526 11586 0
-1232 -11527 11587 0
-1232 -11528 11588 0
-1232 -11529 11589 0
-1232 -11530 11590 0
-1232 -11531 11591 0
-1232 -11532 11592 0
-1232 -11533 11593 0
-1232 -11534 11594 0
-1232 -11535 11595 0
-1232 -11536 11596 0
-1232 -11537 11597 0
-1232 -11538 11598 0
-1232 -11539 11599 0
-1232 -11540 11600 0
-1232 -11541 11601 0
-1232 -11542 11602 0
-1232 -11543 11603 0
-1232 -11544 11604 0
-1232 -11545 11605 0
-1232 -11546 11606 0
-1232 -11547 11607 0
-1232 -11548 11608 0
-1232 -11549 11609 0
-1232 -11550 11610 0
-1232 -11551 11611 0
-1232 -11552 11612 0
-1232 -11553 11613 0
-1232 -11554 11614 0
-1232 -11555 0
-11556 11615 0
-11557 11616 0
-11558 11617 0
-11559 11618 0
-11560 11619 0
-11561 11620 0
-11562 11621 0
-11563 11622 0
-11564 11623 0
-11565 11624 0
-11566 11625 0
-11567 11626 0
-11568 11627 0
-11569 11628 0
-11570 11629 0
-11571 11630 0
-11572 11631 0
-11573 11632 0
-11574 11633 0
-11575 11634 0
-11576 11635 0
-11577 11636 0
-11578 11637 0
-11579 11638 0
-11580 11639 0
-11581 11640 0
-11582 11641 0
-11583 11642 0
-11584 11643 0
-11585 11644 0
-11586 11645 0
-11587 11646 0
-11588 11647 0
-11589 11648 0
-11590 11649 0
-11591 11650 0
-11592 11651 0
-11593 11652 0
-11594 11653 0
-11595 11654 0
-11596 11655 0
-11597 11656 0
-11598 11657 0
-11599 11658 0
-11600 11659 0
-11601 11660 0
-11602 11661 0
-11603 11662 0
-11604 11663 0
-11605 11664 0
-11606 11665 0
-11607 11666 0
-11608 11667 0
-11609 11668 0
-11610 11669 0
-11611 11670 0
-11612 11671 0
-11613 11672 0
-11614 11673 0
-1234 -11556 11616 0
-1234 -11557 11617 0
-1234 -11558 11618 0
-1234 -11559 11619 0
-1234 -11560 11620 0
-1234 -11561 11621 0
-1234 -11562 11622 0
-1234 -11563 11623 0
-1234 -11564 11624 0
-1234 -11565 11625 0
-1234 -11566 11626 0
-1234 -11567 11627 0
-1234 -11568 11628 0
-1234 -11569 11629 0
-1234 -11570 11630 0
-1234 -11571 11631 0
-1234 -11572 11632 0
-1234 -11573 11633 0
-1234 -11574 11634 0
-1234 -11575 11635 0
-1234 -11576 11636 0
-1234 -11577 11637 0
-1234 -11578 11638 0
-1234 -11579 11639 0
-1234 -11580 11640 0
-1234 -11581 11641 0
-1234 -11582 11642 0
-1234 -11583 11643 0
-1234 -11584 11644 0
-1234 -11585 11645 0
-1234 -11586 11646 0
-1234 -11587 11647 0
-1234 -11588 11648 0
-1234 -11589 11649 0
-1234 -11590 11650 0
-1234 -11591 11651 0
-1234 -11592 11652 0
-1234 -11593 11653 0
-1234 -11594 11654 0
-1234 -11595 11655 0
-1234 -11596 11656 0
-1234 -11597 11657 0
-1234 -11598 11658 0
-1234 -11599 11659 0
-1234 -11600 11660 0
-1234 -11601 11661 0
-1234 -11602 11662 0
-1234 -11603 11663 0
-1234 -11604 11664 0
-1234 -11605 11665 0
-1234 -11606 11666 0
-1234 -11607 11667 0
-1234 -11608 11668 0
-1234 -11609 11669 0
-1234 -11610 11670 0
-1234 -11611 11671 0
-1234 -11612 11672 0
-1234 -11613 11673 0
-1234 -11614 0
-11615 11674 0
-11616 11675 0
-11617 11676 0
-11618 11677 0
-11619 11678 0
-11620 11679 0
-11621 11680 0
-11622 11681 0
-11623 11682 0
-11624 11683 0
-11625 11684 0
-11626 11685 0
-11627 11686 0
-11628 11687 0
-11629 11688 0
-11630 11689 0
-11631 11690 0
-11632 11691 0
-11633 11692 0
-11634 11693 0
-11635 11694 0
-11636 11695 0
-11637 11696 0
-11638 11697 0
-11639 11698 0
-11640 11699 0
-11641 11700 0
-11642 11701 0
-11643 11702 0
-11644 11703 0
-11645 11704 0
-11646 11705 0
-11647 11706 0
-11648 11707 0
-11649 11708 0
-11650 11709 0
-11651 11710 0
-11652 11711 0
-11653 11712 0
-11654 11713 0
-11655 11714 0
-11656 11715 0
-11657 11716 0
-11658 11717 0
-11659 11718 0
-11660 11719 0
-11661 11720 0
-11662 11721 0
-11663 11722 0
-11664 11723 0
-11665 11724 0
-11666 11725 0
-11667 11726 0
-11668 11727 0
-11669 11728 0
-11670 11729 0
-11671 11730 0
-11672 11731 0
-11673 11732 0
-1236 -11615 11675 0
-1236 -11616 11676 0
-1236 -11617 11677 0
-1236 -11618 11678 0
-1236 -11619 11679 0
-1236 -11620 11680 0
-1236 -11621 11681 0
-1236 -11622 11682 0
-1236 -11623 11683 0
-1236 -11624 11684 0
-1236 -11625 11685 0
-1236 -11626 11686 0
-1236 -11627 11687 0
-1236 -11628 11688 0
-1236 -11629 11689 0
-1236 -11630 11690 0
-1236 -11631 11691 0
-1236 -11632 11692 0
-1236 -11633 11693 0
-1236 -11634 11694 0
-1236 -11635 11695 0
-1236 -11636 11696 0
-1236 -11637 11697 0
-1236 -11638 11698 0
-1236 -11639 11699 0
-1236 -11640 11700 0
-1236 -11641 11701 0
-1236 -11642 11702 0
-1236 -11643 11703 0
-1236 -11644 11704 0
-1236 -11645 11705 0
-1236 -11646 11706 0
-1236 -11647 11707 0
-1236 -11648 11708 0
-1236 -11649 11709 0
-1236 -11650 11710 0
-1236 -11651 11711 0
-1236 -11652 11712 0
-1236 -11653 11713 0
-1236 -11654 11714 0
-1236 -11655 11715 0
-1236 -11656 11716 0
-1236 -11657 11717 0
-1236 -11658 11718 0
-1236 -11659 11719 0
-1236 -11660 11720 0
-1236 -11661 11721 0
-1236 -11662 11722 0
-1236 -11663 11723 0
-1236 -11664 11724 0
-1236 -11665 11725 0
-1236 -11666 11726 0
-1236 -11667 11727 0
-1236 -11668 11728 0
-1236 -11669 11729 0
-1236 -11670 11730 0
-1236 -11671 11731 0
-1236 -11672 11732 0
-1236 -11673 0
-11674 11733 0
-11675 11734 0
-11676 11735 0
-11677 11736 0
-11678 11737 0
-11679 11738 0
-11680 11739 0
-11681 11740 0
-11682 11741 0
-11683 11742 0
-11684 11743 0
-11685 11744 0
-11686 11745 0
-11687 11746 0
-11688 11747 0
-11689 11748 0
-11690 11749 0
-11691 11750 0
-11692 11751 0
-11693 11752 0
-11694 11753 0
-11695 11754 0
-11696 11755 0
-11697 11756 0
-11698 11757 0
-11699 11758 0
-11700 11759 0
-11701 11760 0
-11702 11761 0
-11703 11762 0
-11704 11763 0
-11705 11764 0
-11706 11765 0
-11707 11766 0
-11708 11767 0
-11709 11768 0
-11710 11769 0
-11711 11770 0
-11712 11771 0
-11713 11772 0
-11714 11773 0
-11715 11774 0
-11716 11775 0
-11717 11776 0
-11718 11777 0
-11719 11778 0
-11720 11779 0
-11721 11780 0
-11722 11781 0
-11723 11782 0
-11724 11783 0
-11725 11784 0
-11726 11785 0
-11727 11786 0
-11728 11787 0
-11729 11788 0
-11730 11789 0
-11731 11790 0
-11732 11791 0
-1238 -11674 11734 0
-1238 -11675 11735 0
-1238 -11676 11736 0
-1238 -11677 11737 0
-1238 -11678 11738 0
-1238 -11679 11739 0
-1238 -11680 11740 0
-1238 -11681 11741 0
-1238 -11682 11742 0
-1238 -11683 11743 0
-1238 -11684 11744 0
-1238 -11685 11745 0
-1238 -11686 11746 0
-1238 -11687 11747 0
-1238 -11688 11748 0
-1238 -11689 11749 0
-1238 -11690 11750 0
-1238 -11691 11751 0
-1238 -11692 11752 0
-1238 -11693 11753 0
-1238 -11694 11754 0
-1238 -11695 11755 0
-1238 -11696 11756 0
-1238 -11697 11757 0
-1238 -11698 11758 0
-1238 -11699 11759 0
-1238 -11700 11760 0
-1238 -11701 11761 0
-1238 -11702 11762 0
-1238 -11703 11763 0
-1238 -11704 11764 0
-1238 -11705 11765 0
-1238 -11706 11766 0
-1238 -11707 11767 0
-1238 -11708 11768 0
-1238 -11709 11769 0
-1238 -11710 11770 0
-1238 -11711 11771 0
-1238 -11712 11772 0
-1238 -11713 11773 0
-1238 -11714 11774 0
-1238 -11715 11775 0
-1238 -11716 11776 0
-1238 -11717 11777 0
-1238 -11718 11778 0
-1238 -11719 11779 0
-1238 -11720 11780 0
-1238 -11721 11781 0
-1238 -11722 11782 0
-1238 -11723 11783 0
-1238 -11724 11784 0
-1238 -11725 11785 0
-1238 -11726 11786 0
-1238 -11727 11787 0
-1238 -11728 11788 0
-1238 -11729 11789 0
-1238 -11730 11790 0
-1238 -11731 11791 0
-1238 -11732 0
-11733 11792 0
-11734 11793 0
-11735 11794 0
-11736 11795 0
-11737 11796 0
-11738 11797 0
-11739 11798 0
-11740 11799 0
-11741 11800 0
-11742 11801 0
-11743 11802 0
-11744 11803 0
-11745 11804 0
-11746 11805 0
-11747 11806 0
-11748 11807 0
-11749 11808 0
-11750 11809 0
-11751 11810 0
-11752 11811 0
-11753 11812 0
-11754 11813 0
-11755 11814 0
-11756 11815 0
-11757 11816 0
-11758 11817 0
-11759 11818 0
-11760 11819 0
-11761 11820 0
-11762 11821 0
-11763 11822 0
-11764 11823 0
-11765 11824 0
-11766 11825 0
-11767 11826 0
-11768 11827 0
-11769 11828 0
-11770 11829 0
-11771 11830 0
-11772 11831 0
-11773 11832 0
-11774 11833 0
-11775 11834 0
-11776 11835 0
-11777 11836 0
-11778 11837 0
-11779 11838 0
-11780 11839 0
-11781 11840 0
-11782 11841 0
-11783 11842 0
-11784 11843 0
-11785 11844 0
-11786 11845 0
-11787 11846 0
-11788 11847 0
-11789 11848 0
-11790 11849 0
-11791 11850 0
-1240 -11733 11793 0
-1240 -11734 11794 0
-1240 -11735 11795 0
-1240 -11736 11796 0
-1240 -11737 11797 0
-1240 -11738 11798 0
-1240 -11739 11799 0
-1240 -11740 11800 0
-1240 -11741 11801 0
-1240 -11742 11802 0
-1240 -11743 11803 0
-1240 -11744 11804 0
-1240 -11745 11805 0
-1240 -11746 11806 0
-1240 -11747 11807 0
-1240 -11748 11808 0
-1240 -11749 11809 0
-1240 -11750 11810 0
-1240 -11751 11811 0
-1240 -11752 11812 0
-1240 -11753 11813 0
-1240 -11754 11814 0
-1240 -11755 11815 0
-1240 -11756 11816 0
-1240 -11757 11817 0
-1240 -11758 11818 0
-1240 -11759 11819 0
-1240 -11760 11820 0
-1240 -11761 11821 0
-1240 -11762 11822 0
-1240 -11763 11823 0
-1240 -11764 11824 0
-1240 -11765 11825 0
-1240 -11766 11826 0
-1240 -11767 11827 0
-1240 -11768 11828 0
-1240 -11769 11829 0
-1240 -11770 11830 0
-1240 -11771 11831 0
-1240 -11772 11832 0
-1240 -11773 11833 0
-1240 -11774 11834 0
-1240 -11775 11835 0
-1240 -11776 11836 0
-1240 -11777 11837 0
-1240 -11778 11838 0
-1240 -11779 11839 0
-1240 -11780 11840 0
-1240 -11781 11841 0
-1240 -11782 11842 0
-1240 -11783 11843 0
-1240 -11784 11844 0
-1240 -11785 11845 0
-1240 -11786 11846 0
-1240 -11787 11847 0
-1240 -11788 11848 0
-1240 -11789 11849 0
-1240 -11790 11850 0
-1240 -11791 0
-11792 11851 0
-11793 11852 0
-11794 11853 0
-11795 11854 0
-11796 11855 0
-11797 11856 0
-11798 11857 0
-11799 11858 0
-11800 11859 0
-11801 11860 0
-11802 11861 0
-11803 11862 0
-11804 11863 0
-11805 11864 0
-11806 11865 0
-11807 11866 0
-11808 11867 0
-11809 11868 0
-11810 11869 0
-11811 11870 0
-11812 11871 0
-11813 11872 0
-11814 11873 0
-11815 11874 0
-11816 11875 0
-11817 11876 0
-11818 11877 0
-11819 11878 0
-11820 11879 0
-11821 11880 0
-11822 11881 0
-11823 11882 0
-11824 11883 0
-11825 11884 0
-11826 11885 0
-11827 11886 0
-11828 11887 0
-11829 11888 0
-11830 11889 0
-11831 11890 0
-11832 11891 0
-11833 11892 0
-11834 11893 0
-11835 11894 0
-11836 11895 0
-11837 11896 0
-11838 11897 0
-11839 11898 0
-11840 11899 0
-11841 11900 0
-11842 11901 0
-11843 11902 0
-11844 11903 0
-11845 11904 0
-11846 11905 0
-11847 11906 0
-11848 11907 0
-11849 11908 0
-11850 11909 0
-1242 -11792 11852 0
-1242 -11793 11853 0
-1242 -11794 11854 0
-1242 -11795 11855 0
-1242 -11796 11856 0
-1242 -11797 11857 0
-1242 -11798 11858 0
-1242 -11799 11859 0
-1242 -11800 11860 0
-1242 -11801 11861 0
-1242 -11802 11862 0
-1242 -11803 11863 0
-1242 -11804 11864 0
-1242 -11805 11865 0
-1242 -11806 11866 0
-1242 -11807 11867 0
-1242 -11808 11868 0
-1242 -11809 11869 0
-1242 -11810 11870 0
-1242 -11811 11871 0
-1242 -11812 11872 0
-1242 -11813 11873 0
-1242 -11814 11874 0
-1242 -11815 11875 0
-1242 -11816 11876 0
-1242 -11817 11877 0
-1242 -11818 11878 0
-1242 -11819 11879 0
-1242 -11820 11880 0
-1242 -11821 11881 0
-1242 -11822 11882 0
-1242 -11823 11883 0
-1242 -11824 11884 0
-1242 -11825 11885 0
-1242 -11826 11886 0
-1242 -11827 11887 0
-1242 -11828 11888 0
-1242 -11829 11889 0
-1242 -11830 11890 0
-1242 -11831 11891 0
-1242 -11832 11892 0
-1242 -11833 11893 0
-1242 -11834 11894 0
-1242 -11835 11895 0
-1242 -11836 11896 0
-1242 -11837 11897 0
-1242 -11838 11898 0
-1242 -11839 11899 0
-1242 -11840 11900 0
-1242 -11841 11901 0
-1242 -11842 11902 0
-1242 -11843 11903 0
-1242 -11844 11904 0
-1242 -11845 11905 0
-1242 -11846 11906 0
-1242 -11847 11907 0
-1242 -11848 11908 0
-1242 -11849 11909 0
-1242 -11850 0
-11851 11910 0
-11852 11911 0
-11853 11912 0
-11854 11913 0
-11855 11914 0
-11856 11915 0
-11857 11916 0
-11858 11917 0
-11859 11918 0
-11860 11919 0
-11861 11920 0
-11862 11921 0
-11863 11922 0
-11864 11923 0
-11865 11924 0
-11866 11925 0
-11867 11926 0
-11868 11927 0
-11869 11928 0
-11870 11929 0
-11871 11930 0
-11872 11931 0
-11873 11932 0
-11874 11933 0
-11875 11934 0
-11876 11935 0
-11877 11936 0
-11878 11937 0
-11879 11938 0
-11880 11939 0
-11881 11940 0
-11882 11941 0
-11883 11942 0
-11884 11943 0
-11885 11944 0
-11886 11945 0
-11887 11946 0
-11888 11947 0
-11889 11948 0
-11890 11949 0
-11891 11950 0
-11892 11951 0
-11893 11952 0
-11894 11953 0
-11895 11954 0
-11896 11955 0
-11897 11956 0
-11898 11957 0
-11899 11958 0
-11900 11959 0
-11901 11960 0
-11902 11961 0
-11903 11962 0
-11904 11963 0
-11905 11964 0
-11906 11965 0
-11907 11966 0
-11908 11967 0
-11909 11968 0
-1244 -11851 11911 0
-1244 -11852 11912 0
-1244 -11853 11913 0
-1244 -11854 11914 0
-1244 -11855 11915 0
-1244 -11856 11916 0
-1244 -11857 11917 0
-1244 -11858 11918 0
-1244 -11859 11919 0
-1244 -11860 11920 0
-1244 -11861 11921 0
-1244 -11862 11922 0
-1244 -11863 11923 0
-1244 -11864 11924 0
-1244 -11865 11925 0
-1244 -11866 11926 0
-1244 -11867 11927 0
-1244 -11868 11928 0
-1244 -11869 11929 0
-1244 -11870 11930 0
-1244 -11871 11931 0
-1244 -11872 11932 0
-1244 -11873 11933 0
-1244 -11874 11934 0
-1244 -11875 11935 0
-1244 -11876 11936 0
-1244 -11877 11937 0
-1244 -11878 11938 0
-1244 -11879 11939 0
-1244 -11880 11940 0
-1244 -11881 11941 0
-1244 -11882 11942 0
-1244 -11883 11943 0
-1244 -11884 11944 0
-1244 -11885 11945 0
-1244 -11886 11946 0
-1244 -11887 11947 0
-1244 -11888 11948 0
-1244 -11889 11949 0
-1244 -11890 11950 0
-1244 -11891 11951 0
-1244 -11892 11952 0
-1244 -11893 11953 0
-1244 -11894 11954 0
-1244 -11895 11955 0
-1244 -11896 11956 0
-1244 -11897 11957 0
-1244 -11898 11958 0
-1244 -11899 11959 0
-1244 -11900 11960 0
-1244 -11901 11961 0
-1244 -11902 11962 0
-1244 -11903 11963 0
-1244 -11904 11964 0
-1244 -11905 11965 0
-1244 -11906 11966 0
-1244 -11907 11967 0
-1244 -11908 11968 0
-1244 -11909 0
-11910 11969 0
-11911 11970 0
-11912 11971 0
-11913 11972 0
-11914 11973 0
-11915 11974 0
-11916 11975 0
-11917 11976 0
-11918 11977 0
-11919 11978 0
-11920 11979 0
-11921 11980 0
-11922 11981 0
-11923 11982 0
-11924 11983 0
-11925 11984 0
-11926 11985 0
-11927 11986 0
-11928 11987 0
-11929 11988 0
-11930 11989 0
-11931 11990 0
-11932 11991 0
-11933 11992 0
-11934 11993 0
-11935 11994 0
-11936 11995 0
-11937 11996 0
-11938 11997 0
-11939 11998 0
-11940 11999 0
-11941 12000 0
-11942 12001 0
-11943 12002 0
-11944 12003 0
-11945 12004 0
-11946 12005 0
-11947 12006 0
-11948 12007 0
-11949 12008 0
-11950 12009 0
-11951 12010 0
-11952 12011 0
-11953 12012 0
-11954 12013 0
-11955 12014 0
-11956 12015 0
-11957 12016 0
-11958 12017 0
-11959 12018 0
-11960 12019 0
-11961 12020 0
-11962 12021 0
-11963 12022 0
-11964 12023 0
-11965 12024 0
-11966 12025 0
-11967 12026 0
-11968 12027 0
-1246 -11910 11970 0
-1246 -11911 11971 0
-1246 -11912 11972 0
-1246 -11913 11973 0
-1246 -11914 11974 0
-1246 -11915 11975 0
-1246 -11916 11976 0
-1246 -11917 11977 0
-1246 -11918 11978 0
-1246 -11919 11979 0
-1246 -11920 11980 0
-1246 -11921 11981 0
-1246 -11922 11982 0
-1246 -11923 11983 0
-1246 -11924 11984 0
-1246 -11925 11985 0
-1246 -11926 11986 0
-1246 -11927 11987 0
-1246 -11928 11988 0
-1246 -11929 11989 0
-1246 -11930 11990 0
-1246 -11931 11991 0
-1246 -11932 11992 0
-1246 -11933 11993 0
-1246 -11934 11994 0
-1246 -11935 11995 0
-1246 -11936 11996 0
-1246 -11937 11997 0
-1246 -11938 11998 0
-1246 -11939 11999 0
-1246 -11940 12000 0
-1246 -11941 12001 0
-1246 -11942 12002 0
-1246 -11943 12003 0
-1246 -11944 12004 0
-1246 -11945 12005 0
-1246 -11946 12006 0
-1246 -11947 12007 0
-1246 -11948 12008 0
-1246 -11949 12009 0
-1246 -11950 12010 0
-1246 -11951 12011 0
-1246 -11952 12012 0
-1246 -11953 12013 0
-1246 -11954 12014 0
-1246 -11955 12015 0
-1246 -11956 12016 0
-1246 -11957 12017 0
-1246 -11958 12018 0
-1246 -11959 12019 0
-1246 -11960 12020 0
-1246 -11961 12021 0
-1246 -11962 12022 0
-1246 -11963 12023 0
-1246 -11964 12024 0
-1246 -11965 12025 0
-1246 -11966 12026 0
-1246 -11967 12027 0
-1246 -11968 0
-11969 12028 0
-11970 12029 0
-11971 12030 0
-11972 12031 0
-11973 12032 0
-11974 12033 0
-11975 12034 0
-11976 12035 0
-11977 12036 0
-11978 12037 0
-11979 12038 0
-11980 12039 0
-11981 12040 0
-11982 12041 0
-11983 12042 0
-11984 12043 0
-11985 12044 0
-11986 12045 0
-11987 12046 0
-11988 12047 0
-11989 12048 0
-11990 12049 0
-11991 12050 0
-11992 12051 0
-11993 12052 0
-11994 12053 0
-11995 12054 0
-11996 12055 0
-11997 12056 0
-11998 12057 0
-11999 12058 0
-12000 12059 0
-12001 12060 0
-12002 12061 0
-12003 12062 0
-12004 12063 0
-12005 12064 0
-12006 12065 0
-12007 12066 0
-12008 12067 0
-12009 12068 0
-12010 12069 0
-12011 12070 0
-12012 12071 0
-12013 12072 0
-12014 12073 0
-12015 12074 0
-12016 12075 0
-12017 12076 0
-12018 12077 0
-12019 12078 0
-12020 12079 0
-12021 12080 0
-12022 12081 0
-12023 12082 0
-12024 12083 0
-12025 12084 0
-12026 12085 0
-12027 12086 0
-1248 -11969 12029 0
-1248 -11970 12030 0
-1248 -11971 12031 0
-1248 -11972 12032 0
-1248 -11973 12033 0
-1248 -11974 12034 0
-1248 -11975 12035 0
-1248 -11976 12036 0
-1248 -11977 12037 0
-1248 -11978 12038 0
-1248 -11979 12039 0
-1248 -11980 12040 0
-1248 -11981 12041 0
-1248 -11982 12042 0
-1248 -11983 12043 0
-1248 -11984 12044 0
-1248 -11985 12045 0
-1248 -11986 12046 0
-1248 -11987 12047 0
-1248 -11988 12048 0
-1248 -11989 12049 0
-1248 -11990 12050 0
-1248 -11991 12051 0
-1248 -11992 12052 0
-1248 -11993 12053 0
-1248 -11994 12054 0
-1248 -11995 12055 0
-1248 -11996 12056 0
-1248 -11997 12057 0
-1248 -11998 12058 0
-1248 -11999 12059 0
-1248 -12000 12060 0
-1248 -12001 12061 0
-1248 -12002 12062 0
-1248 -12003 12063 0
-1248 -12004 12064 0
-1248 -12005 12065 0
-1248 -12006 12066 0
-1248 -12007 12067 0
-1248 -12008 12068 0
-1248 -12009 12069 0
-1248 -12010 12070 0
-1248 -12011 12071 0
-1248 -12012 12072 0
-1248 -12013 12073 0
-1248 -12014 12074 0
-1248 -12015 12075 0
-1248 -12016 12076 0
-1248 -12017 12077 0
-1248 -12018 12078 0
-1248 -12019 12079 0
-1248 -12020 12080 0
-1248 -12021 12081 0
-1248 -12022 12082 0
-1248 -12023 12083 0
-1248 -12024 12084 0
-1248 -12025 12085 0
-1248 -12026 12086 0
-1248 -12027 0
-12028 12087 0
-12029 12088 0
-12030 12089 0
-12031 12090 0
-12032 12091 0
-12033 12092 0
-12034 12093 0
-12035 12094 0
-12036 12095 0
-12037 12096 0
-12038 12097 0
-12039 12098 0
-12040 12099 0
-12041 12100 0
-12042 12101 0
-12043 12102 0
-12044 12103 0
-12045 12104 0
-12046 12105 0
-12047 12106 0
-12048 12107 0
-12049 12108 0
-12050 12109 0
-12051 12110 0
-12052 12111 0
-12053 12112 0
-12054 12113 0
-12055 12114 0
-12056 12115 0
-12057 12116 0
-12058 12117 0
-12059 12118 0
-12060 12119 0
-12061 12120 0
-12062 12121 0
-12063 12122 0
-12064 12123 0
-12065 12124 0
-12066 12125 0
-12067 12126 0
-12068 12127 0
-12069 12128 0
-12070 12129 0
-12071 12130 0
-12072 12131 0
-12073 12132 0
-12074 12133 0
-12075 12134 0
-12076 12135 0
-12077 12136 0
-12078 12137 0
-12079 12138 0
-12080 12139 0
-12081 12140 0
-12082 12141 0
-12083 12142 0
-12084 12143 0
-12085 12144 0
-12086 12145 0
-1250 -12028 12088 0
-1250 -12029 12089 0
-1250 -12030 12090 0
-1250 -12031 12091 0
-1250 -12032 12092 0
-1250 -12033 12093 0
-1250 -12034 12094 0
-1250 -12035 12095 0
-1250 -12036 12096 0
-1250 -12037 12097 0
-1250 -12038 12098 0
-1250 -12039 12099 0
-1250 -12040 12100 0
-1250 -12041 12101 0
-1250 -12042 12102 0
-1250 -12043 12103 0
-1250 -12044 12104 0
-1250 -12045 12105 0
-1250 -12046 12106 0
-1250 -12047 12107 0
-1250 -12048 12108 0
-1250 -12049 12109 0
-1250 -12050 12110 0
-1250 -12051 12111 0
-1250 -12052 12112 0
-1250 -12053 12113 0
-1250 -12054 12114 0
-1250 -12055 12115 0
-1250 -12056 12116 0
-1250 -12057 12117 0
-1250 -12058 12118 0
-1250 -12059 12119 0
-1250 -12060 12120 0
-1250 -12061 12121 0
-1250 -12062 12122 0
-1250 -12063 12123 0
-1250 -12064 12124 0
-1250 -12065 12125 0
-1250 -12066 12126 0
-1250 -12067 12127 0
-1250 -12068 12128 0
-1250 -12069 12129 0
-1250 -12070 12130 0
-1250 -12071 12131 0
-1250 -12072 12132 0
-1250 -12073 12133 0
-1250 -12074 12134 0
-1250 -12075 12135 0
-1250 -12076 12136 0
-1250 -12077 12137 0
-1250 -12078 12138 0
-1250 -12079 12139 0
-1250 -12080 12140 0
-1250 -12081 12141 0
-1250 -12082 12142 0
-1250 -12083 12143 0
-1250 -12084 12144 0
-1250 -12085 12145 0
-1250 -12086 0
-12087 12146 0
-12088 12147 0
-12089 12148 0
-12090 12149 0
-12091 12150 0
-12092 12151 0
-12093 12152 0
-12094 12153 0
-12095 12154 0
-12096 12155 0
-12097 12156 0
-12098 12157 0
-12099 12158 0
-12100 12159 0
-12101 12160 0
-12102 12161 0
-12103 12162 0
-12104 12163 0
-12105 12164 0
-12106 12165 0
-12107 12166 0
-12108 12167 0
-12109 12168 0
-12110 12169 0
-12111 12170 0
-12112 12171 0
-12113 12172 0
-12114 12173 0
-12115 12174 0
-12116 12175 0
-12117 12176 0
-12118 12177 0
-12119 12178 0
-12120 12179 0
-12121 12180 0
-12122 12181 0
-12123 12182 0
-12124 12183 0
-12125 12184 0
-12126 12185 0
-12127 12186 0
-12128 12187 0
-12129 12188 0
-12130 12189 0
-12131 12190 0
-12132 12191 0
-12133 12192 0
-12134 12193 0
-12135 12194 0
-12136 12195 0
-12137 12196 0
-12138 12197 0
-12139 12198 0
-12140 12199 0
-12141 12200 0
-12142 12201 0
-12143 12202 0
-12144 12203 0
-12145 12204 0
-1252 -12087 12147 0
-1252 -12088 12148 0
-1252 -12089 12149 0
-1252 -12090 12150 0
-1252 -12091 12151 0
-1252 -12092 12152 0
-1252 -12093 12153 0
-1252 -12094 12154 0
-1252 -12095 12155 0
-1252 -12096 12156 0
-1252 -12097 12157 0
-1252 -12098 12158 0
-1252 -12099 12159 0
-1252 -12100 12160 0
-1252 -12101 12161 0
-1252 -12102 12162 0
-1252 -12103 12163 0
-1252 -12104 12164 0
-1252 -12105 12165 0
-1252 -12106 12166 0
-1252 -12107 12167 0
-1252 -12108 12168 0
-1252 -12109 12169 0
-1252 -12110 12170 0
-1252 -12111 12171 0
-1252 -12112 12172 0
-1252 -12113 12173 0
-1252 -12114 12174 0
-1252 -12115 12175 0
-1252 -12116 12176 0
-1252 -12117 12177 0
-1252 -12118 12178 0
-1252 -12119 12179 0
-1252 -12120 12180 0
-1252 -12121 12181 0
-1252 -12122 12182 0
-1252 -12123 12183 0
-1252 -12124 12184 0
-1252 -12125 12185 0
-1252 -12126 12186 0
-1252 -12127 12187 0
-1252 -12128 12188 0
-1252 -12129 12189 0
-1252 -12130 12190 0
-1252 -12131 12191 0
-1252 -12132 12192 0
-1252 -12133 12193 0
-1252 -12134 12194 0
-1252 -12135 12195 0
-1252 -12136 12196 0
-1252 -12137 12197 0
-1252 -12138 12198 0
-1252 -12139 12199 0
-1252 -12140 12200 0
-1252 -12141 12201 0
-1252 -12142 12202 0
-1252 -12143 12203 0
-1252 -12144 12204 0
-1252 -12145 0
-12146 12205 0
-12147 12206 0
-12148 12207 0
-12149 12208 0
-12150 12209 0
-12151 12210 0
-12152 12211 0
-12153 12212 0
-12154 12213 0
-12155 12214 0
-12156 12215 0
-12157 12216 0
-12158 12217 0
-12159 12218 0
-12160 12219 0
-12161 12220 0
-12162 12221 0
-12163 12222 0
-12164 12223 0
-12165 12224 0
-12166 12225 0
-12167 12226 0
-12168 12227 0
-12169 12228 0
-12170 12229 0
-12171 12230 0
-12172 12231 0
-12173 12232 0
-12174 12233 0
-12175 12234 0
-12176 12235 0
-12177 12236 0
-12178 12237 0
-12179 12238 0
-12180 12239 0
-12181 12240 0
-12182 12241 0
-12183 12242 0
-12184 12243 0
-12185 12244 0
-12186 12245 0
-12187 12246 0
-12188 12247 0
-12189 12248 0
-12190 12249 0
-12191 12250 0
-12192 12251 0
-12193 12252 0
-12194 12253 0
-12195 12254 0
-12196 12255 0
-12197 12256 0
-12198 12257 0
-12199 12258 0
-12200 12259 0
-12201 12260 0
-12202 12261 0
-12203 12262 0
-12204 12263 0
-1254 -12146 12206 0
-1254 -12147 12207 0
-1254 -12148 12208 0
-1254 -12149 12209 0
-1254 -12150 12210 0
-1254 -12151 12211 0
-1254 -12152 12212 0
-1254 -12153 12213 0
-1254 -12154 12214 0
-1254 -12155 12215 0
-1254 -12156 12216 0
-1254 -12157 12217 0
-1254 -12158 12218 0
-1254 -12159 12219 0
-1254 -12160 12220 0
-1254 -12161 12221 0
-1254 -12162 12222 0
-1254 -12163 12223 0
-1254 -12164 12224 0
-1254 -12165 12225 0
-1254 -12166 12226 0
-1254 -12167 12227 0
-1254 -12168 12228 0
-1254 -12169 12229 0
-1254 -12170 12230 0
-1254 -12171 12231 0
-1254 -12172 12232 0
-1254 -12173 12233 0
-1254 -12174 12234 0
-1254 -12175 12235 0
-1254 -12176 12236 0
-1254 -12177 12237 0
-1254 -12178 12238 0
-1254 -12179 12239 0
-1254 -12180 12240 0
-1254 -12181 12241 0
-1254 -12182 12242 0
-1254 -12183 12243 0
-1254 -12184 12244 0
-1254 -12185 12245 0
-1254 -12186 12246 0
-1254 -12187 12247 0
-1254 -12188 12248 0
-1254 -12189 12249 0
-1254 -12190 12250 0
-1254 -12191 12251 0
-1254 -12192 12252 0
-1254 -12193 12253 0
-1254 -12194 12254 0
-1254 -12195 12255 0
-1254 -12196 12256 0
-1254 -12197 12257 0
-1254 -12198 12258 0
-1254 -12199 12259 0
-1254 -12200 12260 0
-1254 -12201 12261 0
-1254 -12202 12262 0
-1254 -12203 12263 0
-1254 -12204 0
-12205 12264 0
-12206 12265 0
-12207 12266 0
-12208 12267 0
-12209 12268 0
-12210 12269 0
-12211 12270 0
-12212 12271 0
-12213 12272 0
-12214 12273 0
-12215 12274 0
-12216 12275 0
-12217 12276 0
-12218 12277 0
-12219 12278 0
-12220 12279 0
-12221 12280 0
-12222 12281 0
-12223 12282 0
-12224 12283 0
-12225 12284 0
-12226 12285 0
-12227 12286 0
-12228 12287 0
-12229 12288 0
-12230 12289 0
-12231 12290 0
-12232 12291 0
-12233 12292 0
-12234 12293 0
-12235 12294 0
-12236 12295 0
-12237 12296 0
-12238 12297 0
-12239 12298 0
-12240 12299 0
-12241 12300 0
-12242 12301 0
-12243 12302 0
-12244 12303 0
-12245 12304 0
-12246 12305 0
-12247 12306 0
-12248 12307 0
-12249 12308 0
-12250 12309 0
-12251 12310 0
-12252 12311 0
-12253 12312 0
-12254 12313 0
-12255 12314 0
-12256 12315 0
-12257 12316 0
-12258 12317 0
-12259 12318 0
-12260 12319 0
-12261 12320 0
-12262 12321 0
-12263 12322 0
-1256 -12205 12265 0
-1256 -12206 12266 0
-1256 -12207 12267 0
-1256 -12208 12268 0
-1256 -12209 12269 0
-1256 -12210 12270 0
-1256 -12211 12271 0
-1256 -12212 12272 0
-1256 -12213 12273 0
-1256 -12214 12274 0
-1256 -12215 12275 0
-1256 -12216 12276 0
-1256 -12217 12277 0
-1256 -12218 12278 0
-1256 -12219 12279 0
-1256 -12220 12280 0
-1256 -12221 12281 0
-1256 -12222 12282 0
-1256 -12223 12283 0
-1256 -12224 12284 0
-1256 -12225 12285 0
-1256 -12226 12286 0
-1256 -12227 12287 0
-1256 -12228 12288 0
-1256 -12229 12289 0
-1256 -12230 12290 0
-1256 -12231 12291 0
-1256 -12232 12292 0
-1256 -12233 12293 0
-1256 -12234 12294 0
-1256 -12235 12295 0
-1256 -12236 12296 0
-1256 -12237 12297 0
-1256 -12238 12298 0
-1256 -12239 12299 0
-1256 -12240 12300 0
-1256 -12241 12301 0
-1256 -12242 12302 0
-1256 -12243 12303 0
-1256 -12244 12304 0
-1256 -12245 12305 0
-1256 -12246 12306 0
-1256 -12247 12307 0
-1256 -12248 12308 0
-1256 -12249 12309 0
-1256 -12250 12310 0
-1256 -12251 12311 0
-1256 -12252 12312 0
-1256 -12253 12313 0
-1256 -12254 12314 0
-1256 -12255 12315 0
-1256 -12256 12316 0
-1256 -12257 12317 0
-1256 -12258 12318 0
-1256 -12259 12319 0
-1256 -12260 12320 0
-1256 -12261 12321 0
-1256 -12262 12322 0
-1256 -12263 0
-12264 12323 0
-12265 12324 0
-12266 12325 0
-12267 12326 0
-12268 12327 0
-12269 12328 0
-12270 12329 0
-12271 12330 0
-12272 12331 0
-12273 12332 0
-12274 12333 0
-12275 12334 0
-12276 12335 0
-12277 12336 0
-12278 12337 0
-12279 12338 0
-12280 12339 0
-12281 12340 0
-12282 12341 0
-12283 12342 0
-12284 12343 0
-12285 12344 0
-12286 12345 0
-12287 12346 0
-12288 12347 0
-12289 12348 0
-12290 12349 0
-12291 12350 0
-12292 12351 0
-12293 12352 0
-12294 12353 0
-12295 12354 0
-12296 12355 0
-12297 12356 0
-12298 12357 0
-12299 12358 0
-12300 12359 0
-12301 12360 0
-12302 12361 0
-12303 12362 0
-12304 12363 0
-12305 12364 0
-12306 12365 0
-12307 12366 0
-12308 12367 0
-12309 12368 0
-12310 12369 0
-12311 12370 0
-12312 12371 0
-12313 12372 0
-12314 12373 0
-12315 12374 0
-12316 12375 0
-12317 12376 0
-12318 12377 0
-12319 12378 0
-12320 12379 0
-12321 12380 0
-12322 12381 0
-1258 -12264 12324 0
-1258 -12265 12325 0
-1258 -12266 12326 0
-1258 -12267 12327 0
-1258 -12268 12328 0
-1258 -12269 12329 0
-1258 -12270 12330 0
-1258 -12271 12331 0
-1258 -12272 12332 0
-1258 -12273 12333 0
-1258 -12274 12334 0
-1258 -12275 12335 0
-1258 -12276 12336 0
-1258 -12277 12337 0
-1258 -12278 12338 0
-1258 -12279 12339 0
-1258 -12280 12340 0
-1258 -12281 12341 0
-1258 -12282 12342 0
-1258 -12283 12343 0
-1258 -12284 12344 0
-1258 -12285 12345 0
-1258 -12286 12346 0
-1258 -12287 12347 0
-1258 -12288 12348 0
-1258 -12289 12349 0
-1258 -12290 12350 0
-1258 -12291 12351 0
-1258 -12292 12352 0
-1258 -12293 12353 0
-1258 -12294 12354 0
-1258 -12295 12355 0
-1258 -12296 12356 0
-1258 -12297 12357 0
-1258 -12298 12358 0
-1258 -12299 12359 0
-1258 -12300 12360 0
-1258 -12301 12361 0
-1258 -12302 12362 0
-1258 -12303 12363 0
-1258 -12304 12364 0
-1258 -12305 12365 0
-1258 -12306 12366 0
-1258 -12307 12367 0
-1258 -12308 12368 0
-1258 -12309 12369 0
-1258 -12310 12370 0
-1258 -12311 12371 0
-1258 -12312 12372 0
-1258 -12313 12373 0
-1258 -12314 12374 0
-1258 -12315 12375 0
-1258 -12316 12376 0
-1258 -12317 12377 0
-1258 -12318 12378 0
-1258 -12319 12379 0
-1258 -12320 12380 0
-1258 -12321 12381 0
-1258 -12322 0
-12323 12382 0
-12324 12383 0
-12325 12384 0
-12326 12385 0
-12327 12386 0
-12328 12387 0
-12329 12388 0
-12330 12389 0
-12331 12390 0
-12332 12391 0
-12333 12392 0
-12334 12393 0
-12335 12394 0
-12336 12395 0
-12337 12396 0
-12338 12397 0
-12339 12398 0
-12340 12399 0
-12341 12400 0
-12342 12401 0
-12343 12402 0
-12344 12403 0
-12345 12404 0
-12346 12405 0
-12347 12406 0
-12348 12407 0
-12349 12408 0
-12350 12409 0
-12351 12410 0
-12352 12411 0
-12353 12412 0
-12354 12413 0
-12355 12414 0
-12356 12415 0
-12357 12416 0
-12358 12417 0
-12359 12418 0
-12360 12419 0
-12361 12420 0
-12362 12421 0
-12363 12422 0
-12364 12423 0
-12365 12424 0
-12366 12425 0
-12367 12426 0
-12368 12427 0
-12369 12428 0
-12370 12429 0
-12371 12430 0
-12372 12431 0
-12373 12432 0
-12374 12433 0
-12375 12434 0
-12376 12435 0
-12377 12436 0
-12378 12437 0
-12379 12438 0
-12380 12439 0
-12381 12440 0
-1260 -12323 12383 0
-1260 -12324 12384 0
-1260 -12325 12385 0
-1260 -12326 12386 0
-1260 -12327 12387 0
-1260 -12328 12388 0
-1260 -12329 12389 0
-1260 -12330 12390 0
-1260 -12331 12391 0
-1260 -12332 12392 0
-1260 -12333 12393 0
-1260 -12334 12394 0
-1260 -12335 12395 0
-1260 -12336 12396 0
-1260 -12337 12397 0
-1260 -12338 12398 0
-1260 -12339 12399 0
-1260 -12340 12400 0
-1260 -12341 12401 0
-1260 -12342 12402 0
-1260 -12343 12403 0
-1260 -12344 12404 0
-1260 -12345 12405 0
-1260 -12346 12406 0
-1260 -12347 12407 0
-1260 -12348 12408 0
-1260 -12349 12409 0
-1260 -12350 12410 0
-1260 -12351 12411 0
-1260 -12352 12412 0
-1260 -12353 12413 0
-1260 -12354 12414 0
-1260 -12355 12415 0
-1260 -12356 12416 0
-1260 -12357 12417 0
-1260 -12358 12418 0
-1260 -12359 12419 0
-1260 -12360 12420 0
-1260 -12361 12421 0
-1260 -12362 12422 0
-1260 -12363 12423 0
-1260 -12364 12424 0
-1260 -12365 12425 0
-1260 -12366 12426 0
-1260 -12367 12427 0
-1260 -12368 12428 0
-1260 -12369 12429 0
-1260 -12370 12430 0
-1260 -12371 12431 0
-1260 -12372 12432 0
-1260 -12373 12433 0
-1260 -12374 12434 0
-1260 -12375 12435 0
-1260 -12376 12436 0
-1260 -12377 12437 0
-1260 -12378 12438 0
-1260 -12379 12439 0
-1260 -12380 12440 0
-1260 -12381 0
-12382 12441 0
-12383 12442 0
-12384 12443 0
-12385 12444 0
-12386 12445 0
-12387 12446 0
-12388 12447 0
-12389 12448 0
-12390 12449 0
-12391 12450 0
-12392 12451 0
-12393 12452 0
-12394 12453 0
-12395 12454 0
-12396 12455 0
-12397 12456 0
-12398 12457 0
-12399 12458 0
-12400 12459 0
-12401 12460 0
-12402 12461 0
-12403 12462 0
-12404 12463 0
-12405 12464 0
-12406 12465 0
-12407 12466 0
-12408 12467 0
-12409 12468 0
-12410 12469 0
-12411 12470 0
-12412 12471 0
-12413 12472 0
-12414 12473 0
-12415 12474 0
-12416 12475 0
-12417 12476 0
-12418 12477 0
-12419 12478 0
-12420 12479 0
-12421 12480 0
-12422 12481 0
-12423 12482 0
-12424 12483 0
-12425 12484 0
-12426 12485 0
-12427 12486 0
-12428 12487 0
-12429 12488 0
-12430 12489 0
-12431 12490 0
-12432 12491 0
-12433 12492 0
-12434 12493 0
-12435 12494 0
-12436 12495 0
-12437 12496 0
-12438 12497 0
-12439 12498 0
-12440 12499 0
-1262 -12382 12442 0
-1262 -12383 12443 0
-1262 -12384 12444 0
-1262 -12385 12445 0
-1262 -12386 12446 0
-1262 -12387 12447 0
-1262 -12388 12448 0
-1262 -12389 12449 0
-1262 -12390 12450 0
-1262 -12391 12451 0
-1262 -12392 12452 0
-1262 -12393 12453 0
-1262 -12394 12454 0
-1262 -12395 12455 0
-1262 -12396 12456 0
-1262 -12397 12457 0
-1262 -12398 12458 0
-1262 -12399 12459 0
-1262 -12400 12460 0
-1262 -12401 12461 0
-1262 -12402 12462 0
-1262 -12403 12463 0
-1262 -12404 12464 0
-1262 -12405 12465 0
-1262 -12406 12466 0
-1262 -12407 12467 0
-1262 -12408 12468 0
-1262 -12409 12469 0
-1262 -12410 12470 0
-1262 -12411 12471 0
-1262 -12412 12472 0
-1262 -12413 12473 0
-1262 -12414 12474 0
-1262 -12415 12475 0
-1262 -12416 12476 0
-1262 -12417 12477 0
-1262 -12418 12478 0
-1262 -12419 12479 0
-1262 -12420 12480 0
-1262 -12421 12481 0
-1262 -12422 12482 0
-1262 -12423 12483 0
-1262 -12424 12484 0
-1262 -12425 12485 0
-1262 -12426 12486 0
-1262 -12427 12487 0
-1262 -12428 12488 0
-1262 -12429 12489 0
-1262 -12430 12490 0
-1262 -12431 12491 0
-1262 -12432 12492 0
-1262 -12433 12493 0
-1262 -12434 12494 0
-1262 -12435 12495 0
-1262 -12436 12496 0
-1262 -12437 12497 0
-1262 -12438 12498 0
-1262 -12439 12499 0
-1262 -12440 0
-12441 12500 0
-12442 12501 0
-12443 12502 0
-12444 12503 0
-12445 12504 0
-12446 12505 0
-12447 12506 0
-12448 12507 0
-12449 12508 0
-12450 12509 0
-12451 12510 0
-12452 12511 0
-12453 12512 0
-12454 12513 0
-12455 12514 0
-12456 12515 0
-12457 12516 0
-12458 12517 0
-12459 12518 0
-12460 12519 0
-12461 12520 0
-12462 12521 0
-12463 12522 0
-12464 12523 0
-12465 12524 0
-12466 12525 0
-12467 12526 0
-12468 12527 0
-12469 12528 0
-12470 12529 0
-12471 12530 0
-12472 12531 0
-12473 12532 0
-12474 12533 0
-12475 12534 0
-12476 12535 0
-12477 12536 0
-12478 12537 0
-12479 12538 0
-12480 12539 0
-12481 12540 0
-12482 12541 0
-12483 12542 0
-12484 12543 0
-12485 12544 0
-12486 12545 0
-12487 12546 0
-12488 12547 0
-12489 12548 0
-12490 12549 0
-12491 12550 0
-12492 12551 0
-12493 12552 0
-12494 12553 0
-12495 12554 0
-12496 12555 0
-12497 12556 0
-12498 12557 0
-12499 12558 0
-1264 -12441 12501 0
-1264 -12442 12502 0
-1264 -12443 12503 0
-1264 -12444 12504 0
-1264 -12445 12505 0
-1264 -12446 12506 0
-1264 -12447 12507 0
-1264 -12448 12508 0
-1264 -12449 12509 0
-1264 -12450 12510 0
-1264 -12451 12511 0
-1264 -12452 12512 0
-1264 -12453 12513 0
-1264 -12454 12514 0
-1264 -12455 12515 0
-1264 -12456 12516 0
-1264 -12457 12517 0
-1264 -12458 12518 0
-1264 -12459 12519 0
-1264 -12460 12520 0
-1264 -12461 12521 0
-1264 -12462 12522 0
-1264 -12463 12523 0
-1264 -12464 12524 0
-1264 -12465 12525 0
-1264 -12466 12526 0
-1264 -12467 12527 0
-1264 -12468 12528 0
-1264 -12469 12529 0
-1264 -12470 12530 0
-1264 -12471 12531 0
-1264 -12472 12532 0
-1264 -12473 12533 0
-1264 -12474 12534 0
-1264 -12475 12535 0
-1264 -12476 12536 0
-1264 -12477 12537 0
-1264 -12478 12538 0
-1264 -12479 12539 0
-1264 -12480 12540 0
-1264 -12481 12541 0
-1264 -12482 12542 0
-1264 -12483 12543 0
-1264 -12484 12544 0
-1264 -12485 12545 0
-1264 -12486 12546 0
-1264 -12487 12547 0
-1264 -12488 12548 0
-1264 -12489 12549 0
-1264 -12490 12550 0
-1264 -12491 12551 0
-1264 -12492 12552 0
-1264 -12493 12553 0
-1264 -12494 12554 0
-1264 -12495 12555 0
-1264 -12496 12556 0
-1264 -12497 12557 0
-1264 -12498 12558 0
-1264 -12499 0
-12500 12559 0
-12501 12560 0
-12502 12561 0
-12503 12562 0
-12504 12563 0
-12505 12564 0
-12506 12565 0
-12507 12566 0
-12508 12567 0
-12509 12568 0
-12510 12569 0
-12511 12570 0
-12512 12571 0
-12513 12572 0
-12514 12573 0
-12515 12574 0
-12516 12575 0
-12517 12576 0
-12518 12577 0
-12519 12578 0
-12520 12579 0
-12521 12580 0
-12522 12581 0
-12523 12582 0
-12524 12583 0
-12525 12584 0
-12526 12585 0
-12527 12586 0
-12528 12587 0
-12529 12588 0
-12530 12589 0
-12531 12590 0
-12532 12591 0
-12533 12592 0
-12534 12593 0
-12535 12594 0
-12536 12595 0
-12537 12596 0
-12538 12597 0
-12539 12598 0
-12540 12599 0
-12541 12600 0
-12542 12601 0
-12543 12602 0
-12544 12603 0
-12545 12604 0
-12546 12605 0
-12547 12606 0
-12548 12607 0
-12549 12608 0
-12550 12609 0
-12551 12610 0
-12552 12611 0
-12553 12612 0
-12554 12613 0
-12555 12614 0
-12556 12615 0
-12557 12616 0
-12558 12617 0
-1266 -12500 12560 0
-1266 -12501 12561 0
-1266 -12502 12562 0
-1266 -12503 12563 0
-1266 -12504 12564 0
-1266 -12505 12565 0
-1266 -12506 12566 0
-1266 -12507 12567 0
-1266 -12508 12568 0
-1266 -12509 12569 0
-1266 -12510 12570 0
-1266 -12511 12571 0
-1266 -12512 12572 0
-1266 -12513 12573 0
-1266 -12514 12574 0
-1266 -12515 12575 0
-1266 -12516 12576 0
-1266 -12517 12577 0
-1266 -12518 12578 0
-1266 -12519 12579 0
-1266 -12520 12580 0
-1266 -12521 12581 0
-1266 -12522 12582 0
-1266 -12523 12583 0
-1266 -12524 12584 0
-1266 -12525 12585 0
-1266 -12526 12586 0
-1266 -12527 12587 0
-1266 -12528 12588 0
-1266 -12529 12589 0
-1266 -12530 12590 0
-1266 -12531 12591 0
-1266 -12532 12592 0
-1266 -12533 12593 0
-1266 -12534 12594 0
-1266 -12535 12595 0
-1266 -12536 12596 0
-1266 -12537 12597 0
-1266 -12538 12598 0
-1266 -12539 12599 0
-1266 -12540 12600 0
-1266 -12541 12601 0
-1266 -12542 12602 0
-1266 -12543 12603 0
-1266 -12544 12604 0
-1266 -12545 12605 0
-1266 -12546 12606 0
-1266 -12547 12607 0
-1266 -12548 12608 0
-1266 -12549 12609 0
-1266 -12550 12610 0
-1266 -12551 12611 0
-1266 -12552 12612 0
-1266 -12553 12613 0
-1266 -12554 12614 0
-1266 -12555 12615 0
-1266 -12556 12616 0
-1266 -12557 12617 0
-1266 -12558 0
-12559 12618 0
-12560 12619 0
-12561 12620 0
-12562 12621 0
-12563 12622 0
-12564 12623 0
-12565 12624 0
-12566 12625 0
-12567 12626 0
-12568 12627 0
-12569 12628 0
-12570 12629 0
-12571 12630 0
-12572 12631 0
-12573 12632 0
-12574 12633 0
-12575 12634 0
-12576 12635 0
-12577 12636 0
-12578 12637 0
-12579 12638 0
-12580 12639 0
-12581 12640 0
-12582 12641 0
-12583 12642 0
-12584 12643 0
-12585 12644 0
-12586 12645 0
-12587 12646 0
-12588 12647 0
-12589 12648 0
-12590 12649 0
-12591 12650 0
-12592 12651 0
-12593 12652 0
-12594 12653 0
-12595 12654 0
-12596 12655 0
-12597 12656 0
-12598 12657 0
-12599 12658 0
-12600 12659 0
-12601 12660 0
-12602 12661 0
-12603 12662 0
-12604 12663 0
-12605 12664 0
-12606 12665 0
-12607 12666 0
-12608 12667 0
-12609 12668 0
-12610 12669 0
-12611 12670 0
-12612 12671 0
-12613 12672 0
-12614 12673 0
-12615 12674 0
-12616 12675 0
-12617 12676 0
-1268 -12559 12619 0
-1268 -12560 12620 0
-1268 -12561 12621 0
-1268 -12562 12622 0
-1268 -12563 12623 0
-1268 -12564 12624 0
-1268 -12565 12625 0
-1268 -12566 12626 0
-1268 -12567 12627 0
-1268 -12568 12628 0
-1268 -12569 12629 0
-1268 -12570 12630 0
-1268 -12571 12631 0
-1268 -12572 12632 0
-1268 -12573 12633 0
-1268 -12574 12634 0
-1268 -12575 12635 0
-1268 -12576 12636 0
-1268 -12577 12637 0
-1268 -12578 12638 0
-1268 -12579 12639 0
-1268 -12580 12640 0
-1268 -12581 12641 0
-1268 -12582 12642 0
-1268 -12583 12643 0
-1268 -12584 12644 0
-1268 -12585 12645 0
-1268 -12586 12646 0
-1268 -12587 12647 0
-1268 -12588 12648 0
-1268 -12589 12649 0
-1268 -12590 12650 0
-1268 -12591 12651 0
-1268 -12592 12652 0
-1268 -12593 12653 0
-1268 -12594 12654 0
-1268 -12595 12655 0
-1268 -12596 12656 0
-1268 -12597 12657 0
-1268 -12598 12658 0
-1268 -12599 12659 0
-1268 -12600 12660 0
-1268 -12601 12661 0
-1268 -12602 12662 0
-1268 -12603 12663 0
-1268 -12604 12664 0
-1268 -12605 12665 0
-1268 -12606 12666 0
-1268 -12607 12667 0
-1268 -12608 12668 0
-1268 -12609 12669 0
-1268 -12610 12670 0
-1268 -12611 12671 0
-1268 -12612 12672 0
-1268 -12613 12673 0
-1268 -12614 12674 0
-1268 -12615 12675 0
-1268 -12616 12676 0
-1268 -12617 0
-12618 12677 0
-12619 12678 0
-12620 12679 0
-12621 12680 0
-12622 12681 0
-12623 12682 0
-12624 12683 0
-12625 12684 0
-12626 12685 0
-12627 12686 0
-12628 12687 0
-12629 12688 0
-12630 12689 0
-12631 12690 0
-12632 12691 0
-12633 12692 0
-12634 12693 0
-12635 12694 0
-12636 12695 0
-12637 12696 0
-12638 12697 0
-12639 12698 0
-12640 12699 0
-12641 12700 0
-12642 12701 0
-12643 12702 0
-12644 12703 0
-12645 12704 0
-12646 12705 0
-12647 12706 0
-12648 12707 0
-12649 12708 0
-12650 12709 0
-12651 12710 0
-12652 12711 0
-12653 12712 0
-12654 12713 0
-12655 12714 0
-12656 12715 0
-12657 12716 0
-12658 12717 0
-12659 12718 0
-12660 12719 0
-12661 12720 0
-12662 12721 0
-12663 12722 0
-12664 12723 0
-12665 12724 0
-12666 12725 0
-12667 12726 0
-12668 12727 0
-12669 12728 0
-12670 12729 0
-12671 12730 0
-12672 12731 0
-12673 12732 0
-12674 12733 0
-12675 12734 0
-12676 12735 0
-1270 -12618 12678 0
-1270 -12619 12679 0
-1270 -12620 12680 0
-1270 -12621 12681 0
-1270 -12622 12682 0
-1270 -12623 12683 0
-1270 -12624 12684 0
-1270 -12625 12685 0
-1270 -12626 12686 0
-1270 -12627 12687 0
-1270 -12628 12688 0
-1270 -12629 12689 0
-1270 -12630 12690 0
-1270 -12631 12691 0
-1270 -12632 12692 0
-1270 -12633 12693 0
-1270 -12634 12694 0
-1270 -12635 12695 0
-1270 -12636 12696 0
-1270 -12637 12697 0
-1270 -12638 12698 0
-1270 -12639 12699 0
-1270 -12640 12700 0
-1270 -12641 12701 0
-1270 -12642 12702 0
-1270 -12643 12703 0
-1270 -12644 12704 0
-1270 -12645 12705 0
-1270 -12646 12706 0
-1270 -12647 12707 0
-1270 -12648 12708 0
-1270 -12649 12709 0
-1270 -12650 12710 0
-1270 -12651 12711 0
-1270 -12652 12712 0
-1270 -12653 12713 0
-1270 -12654 12714 0
-1270 -12655 12715 0
-1270 -12656 12716 0
-1270 -12657 12717 0
-1270 -12658 12718 0
-1270 -12659 12719 0
-1270 -12660 12720 0
-1270 -12661 12721 0
-1270 -12662 12722 0
-1270 -12663 12723 0
-1270 -12664 12724 0
-1270 -12665 12725 0
-1270 -12666 12726 0
-1270 -12667 12727 0
-1270 -12668 12728 0
-1270 -12669 12729 0
-1270 -12670 12730 0
-1270 -12671 12731 0
-1270 -12672 12732 0
-1270 -12673 12733 0
-1270 -12674 12734 0
-1270 -12675 12735 0
-1270 -12676 0
-12677 12736 0
-12678 12737 0
-12679 12738 0
-12680 12739 0
-12681 12740 0
-12682 12741 0
-12683 12742 0
-12684 12743 0
-12685 12744 0
-12686 12745 0
-12687 12746 0
-12688 12747 0
-12689 12748 0
-12690 12749 0
-12691 12750 0
-12692 12751 0
-12693 12752 0
-12694 12753 0
-12695 12754 0
-12696 12755 0
-12697 12756 0
-12698 12757 0
-12699 12758 0
-12700 12759 0
-12701 12760 0
-12702 12761 0
-12703 12762 0
-12704 12763 0
-12705 12764 0
-12706 12765 0
-12707 12766 0
-12708 12767 0
-12709 12768 0
-12710 12769 0
-12711 12770 0
-12712 12771 0
-12713 12772 0
-12714 12773 0
-12715 12774 0
-12716 12775 0
-12717 12776 0
-12718 12777 0
-12719 12778 0
-12720 12779 0
-12721 12780 0
-12722 12781 0
-12723 12782 0
-12724 12783 0
-12725 12784 0
-12726 12785 0
-12727 12786 0
-12728 12787 0
-12729 12788 0
-12730 12789 0
-12731 12790 0
-12732 12791 0
-12733 12792 0
-12734 12793 0
-12735 12794 0
-1272 -12677 12737 0
-1272 -12678 12738 0
-1272 -12679 12739 0
-1272 -12680 12740 0
-1272 -12681 12741 0
-1272 -12682 12742 0
-1272 -12683 12743 0
-1272 -12684 12744 0
-1272 -12685 12745 0
-1272 -12686 12746 0
-1272 -12687 12747 0
-1272 -12688 12748 0
-1272 -12689 12749 0
-1272 -12690 12750 0
-1272 -12691 12751 0
-1272 -12692 12752 0
-1272 -12693 12753 0
-1272 -12694 12754 0
-1272 -12695 12755 0
-1272 -12696 12756 0
-1272 -12697 12757 0
-1272 -12698 12758 0
-1272 -12699 12759 0
-1272 -12700 12760 0
-1272 -12701 12761 0
-1272 -12702 12762 0
-1272 -12703 12763 0
-1272 -12704 12764 0
-1272 -12705 12765 0
-1272 -12706 12766 0
-1272 -12707 12767 0
-1272 -12708 12768 0
-1272 -12709 12769 0
-1272 -12710 12770 0
-1272 -12711 12771 0
-1272 -12712 12772 0
-1272 -12713 12773 0
-1272 -12714 12774 0
-1272 -12715 12775 0
-1272 -12716 12776 0
-1272 -12717 12777 0
-1272 -12718 12778 0
-1272 -12719 12779 0
-1272 -12720 12780 0
-1272 -12721 12781 0
-1272 -12722 12782 0
-1272 -12723 12783 0
-1272 -12724 12784 0
-1272 -12725 12785 0
-1272 -12726 12786 0
-1272 -12727 12787 0
-1272 -12728 12788 0
-1272 -12729 12789 0
-1272 -12730 12790 0
-1272 -12731 12791 0
-1272 -12732 12792 0
-1272 -12733 12793 0
-1272 -12734 12794 0
-1272 -12735 0
-12736 12795 0
-12737 12796 0
-12738 12797 0
-12739 12798 0
-12740 12799 0
-12741 12800 0
-12742 12801 0
-12743 12802 0
-12744 12803 0
-12745 12804 0
-12746 12805 0
-12747 12806 0
-12748 12807 0
-12749 12808 0
-12750 12809 0
-12751 12810 0
-12752 12811 0
-12753 12812 0
-12754 12813 0
-12755 12814 0
-12756 12815 0
-12757 12816 0
-12758 12817 0
-12759 12818 0
-12760 12819 0
-12761 12820 0
-12762 12821 0
-12763 12822 0
-12764 12823 0
-12765 12824 0
-12766 12825 0
-12767 12826 0
-12768 12827 0
-12769 12828 0
-12770 12829 0
-12771 12830 0
-12772 12831 0
-12773 12832 0
-12774 12833 0
-12775 12834 0
-12776 12835 0
-12777 12836 0
-12778 12837 0
-12779 12838 0
-12780 12839 0
-12781 12840 0
-12782 12841 0
-12783 12842 0
-12784 12843 0
-12785 12844 0
-12786 12845 0
-12787 12846 0
-12788 12847 0
-12789 12848 0
-12790 12849 0
-12791 12850 0
-12792 12851 0
-12793 12852 0
-12794 12853 0
-1274 -12736 12796 0
-1274 -12737 12797 0
-1274 -12738 12798 0
-1274 -12739 12799 0
-1274 -12740 12800 0
-1274 -12741 12801 0
-1274 -12742 12802 0
-1274 -12743 12803 0
-1274 -12744 12804 0
-1274 -12745 12805 0
-1274 -12746 12806 0
-1274 -12747 12807 0
-1274 -12748 12808 0
-1274 -12749 12809 0
-1274 -12750 12810 0
-1274 -12751 12811 0
-1274 -12752 12812 0
-1274 -12753 12813 0
-1274 -12754 12814 0
-1274 -12755 12815 0
-1274 -12756 12816 0
-1274 -12757 12817 0
-1274 -12758 12818 0
-1274 -12759 12819 0
-1274 -12760 12820 0
-1274 -12761 12821 0
-1274 -12762 12822 0
-1274 -12763 12823 0
-1274 -12764 12824 0
-1274 -12765 12825 0
-1274 -12766 12826 0
-1274 -12767 12827 0
-1274 -12768 12828 0
-1274 -12769 12829 0
-1274 -12770 12830 0
-1274 -12771 12831 0
-1274 -12772 12832 0
-1274 -12773 12833 0
-1274 -12774 12834 0
-1274 -12775 12835 0
-1274 -12776 12836 0
-1274 -12777 12837 0
-1274 -12778 12838 0
-1274 -12779 12839 0
-1274 -12780 12840 0
-1274 -12781 12841 0
-1274 -12782 12842 0
-1274 -12783 12843 0
-1274 -12784 12844 0
-1274 -12785 12845 0
-1274 -12786 12846 0
-1274 -12787 12847 0
-1274 -12788 12848 0
-1274 -12789 12849 0
-1274 -12790 12850 0
-1274 -12791 12851 0
-1274 -12792 12852 0
-1274 -12793 12853 0
-1274 -12794 0
-12795 12854 0
-12796 12855 0
-12797 12856 0
-12798 12857 0
-12799 12858 0
-12800 12859 0
-12801 12860 0
-12802 12861 0
-12803 12862 0
-12804 12863 0
-12805 12864 0
-12806 12865 0
-12807 12866 0
-12808 12867 0
-12809 12868 0
-12810 12869 0
-12811 12870 0
-12812 12871 0
-12813 12872 0
-12814 12873 0
-12815 12874 0
-12816 12875 0
-12817 12876 0
-12818 12877 0
-12819 12878 0
-12820 12879 0
-12821 12880 0
-12822 12881 0
-12823 12882 0
-12824 12883 0
-12825 12884 0
-12826 12885 0
-12827 12886 0
-12828 12887 0
-12829 12888 0
-12830 12889 0
-12831 12890 0
-12832 12891 0
-12833 12892 0
-12834 12893 0
-12835 12894 0
-12836 12895 0
-12837 12896 0
-12838 12897 0
-12839 12898 0
-12840 12899 0
-12841 12900 0
-12842 12901 0
-12843 12902 0
-12844 12903 0
-12845 12904 0
-12846 12905 0
-12847 12906 0
-12848 12907 0
-12849 12908 0
-12850 12909 0
-12851 12910 0
-12852 12911 0
-12853 12912 0
-1276 -12795 12855 0
-1276 -12796 12856 0
-1276 -12797 12857 0
-1276 -12798 12858 0
-1276 -12799 12859 0
-1276 -12800 12860 0
-1276 -12801 12861 0
-1276 -12802 12862 0
-1276 -12803 12863 0
-1276 -12804 12864 0
-1276 -12805 12865 0
-1276 -12806 12866 0
-1276 -12807 12867 0
-1276 -12808 12868 0
-1276 -12809 12869 0
-1276 -12810 12870 0
-1276 -12811 12871 0
-1276 -12812 12872 0
-1276 -12813 12873 0
-1276 -12814 12874 0
-1276 -12815 12875 0
-1276 -12816 12876 0
-1276 -12817 12877 0
-1276 -12818 12878 0
-1276 -12819 12879 0
-1276 -12820 12880 0
-1276 -12821 12881 0
-1276 -12822 12882 0
-1276 -12823 12883 0
-1276 -12824 12884 0
-1276 -12825 12885 0
-1276 -12826 12886 0
-1276 -12827 12887 0
-1276 -12828 12888 0
-1276 -12829 12889 0
-1276 -12830 12890 0
-1276 -12831 12891 0
-1276 -12832 12892 0
-1276 -12833 12893 0
-1276 -12834 12894 0
-1276 -12835 12895 0
-1276 -12836 12896 0
-1276 -12837 12897 0
-1276 -12838 12898 0
-1276 -12839 12899 0
-1276 -12840 12900 0
-1276 -12841 12901 0
-1276 -12842 12902 0
-1276 -12843 12903 0
-1276 -12844 12904 0
-1276 -12845 12905 0
-1276 -12846 12906 0
-1276 -12847 12907 0
-1276 -12848 12908 0
-1276 -12849 12909 0
-1276 -12850 12910 0
-1276 -12851 12911 0
-1276 -12852 12912 0
-1276 -12853 0
-12854 12913 0
-12855 12914 0
-12856 12915 0
-12857 12916 0
-12858 12917 0
-12859 12918 0
-12860 12919 0
-12861 12920 0
-12862 12921 0
-12863 12922 0
-12864 12923 0
-12865 12924 0
-12866 12925 0
-12867 12926 0
-12868 12927 0
-12869 12928 0
-12870 12929 0
-12871 12930 0
-12872 12931 0
-12873 12932 0
-12874 12933 0
-12875 12934 0
-12876 12935 0
-12877 12936 0
-12878 12937 0
-12879 12938 0
-12880 12939 0
-12881 12940 0
-12882 12941 0
-12883 12942 0
-12884 12943 0
-12885 12944 0
-12886 12945 0
-12887 12946 0
-12888 12947 0
-12889 12948 0
-12890 12949 0
-12891 12950 0
-12892 12951 0
-12893 12952 0
-12894 12953 0
-12895 12954 0
-12896 12955 0
-12897 12956 0
-12898 12957 0
-12899 12958 0
-12900 12959 0
-12901 12960 0
-12902 12961 0
-12903 12962 0
-12904 12963 0
-12905 12964 0
-12906 12965 0
-12907 12966 0
-12908 12967 0
-12909 12968 0
-12910 12969 0
-12911 12970 0
-12912 12971 0
-1278 -12854 12914 0
-1278 -12855 12915 0
-1278 -12856 12916 0
-1278 -12857 12917 0
-1278 -12858 12918 0
-1278 -12859 12919 0
-1278 -12860 12920 0
-1278 -12861 12921 0
-1278 -12862 12922 0
-1278 -12863 12923 0
-1278 -12864 12924 0
-1278 -12865 12925 0
-1278 -12866 12926 0
-1278 -12867 12927 0
-1278 -12868 12928 0
-1278 -12869 12929 0
-1278 -12870 12930 0
-1278 -12871 12931 0
-1278 -12872 12932 0
-1278 -12873 12933 0
-1278 -12874 12934 0
-1278 -12875 12935 0
-1278 -12876 12936 0
-1278 -12877 12937 0
-1278 -12878 12938 0
-1278 -12879 12939 0
-1278 -12880 12940 0
-1278 -12881 12941 0
-1278 -12882 12942 0
-1278 -12883 12943 0
-1278 -12884 12944 0
-1278 -12885 12945 0
-1278 -12886 12946 0
-1278 -12887 12947 0
-1278 -12888 12948 0
-1278 -12889 12949 0
-1278 -12890 12950 0
-1278 -12891 12951 0
-1278 -12892 12952 0
-1278 -12893 12953 0
-1278 -12894 12954 0
-1278 -12895 12955 0
-1278 -12896 12956 0
-1278 -12897 12957 0
-1278 -12898 12958 0
-1278 -12899 12959 0
-1278 -12900 12960 0
-1278 -12901 12961 0
-1278 -12902 12962 0
-1278 -12903 12963 0
-1278 -12904 12964 0
-1278 -12905 12965 0
-1278 -12906 12966 0
-1278 -12907 12967 0
-1278 -12908 12968 0
-1278 -12909 12969 0
-1278 -12910 12970 0
-1278 -12911 12971 0
-1278 -12912 0
-12913 12972 0
-12914 12973 0
-12915 12974 0
-12916 12975 0
-12917 12976 0
-12918 12977 0
-12919 12978 0
-12920 12979 0
-12921 12980 0
-12922 12981 0
-12923 12982 0
-12924 12983 0
-12925 12984 0
-12926 12985 0
-12927 12986 0
-12928 12987 0
-12929 12988 0
-12930 12989 0
-12931 12990 0
-12932 12991 0
-12933 12992 0
-12934 12993 0
-12935 12994 0
-12936 12995 0
-12937 12996 0
-12938 12997 0
-12939 12998 0
-12940 12999 0
-12941 13000 0
-12942 13001 0
-12943 13002 0
-12944 13003 0
-12945 13004 0
-12946 13005 0
-12947 13006 0
-12948 13007 0
-12949 13008 0
-12950 13009 0
-12951 13010 0
-12952 13011 0
-12953 13012 0
-12954 13013 0
-12955 13014 0
-12956 13015 0
-12957 13016 0
-12958 13017 0
-12959 13018 0
-12960 13019 0
-12961 13020 0
-12962 13021 0
-12963 13022 0
-12964 13023 0
-12965 13024 0
-12966 13025 0
-12967 13026 0
-12968 13027 0
-12969 13028 0
-12970 13029 0
-12971 13030 0
-1280 -12913 12973 0
-1280 -12914 12974 0
-1280 -12915 12975 0
-1280 -12916 12976 0
-1280 -12917 12977 0
-1280 -12918 12978 0
-1280 -12919 12979 0
-1280 -12920 12980 0
-1280 -12921 12981 0
-1280 -12922 12982 0
-1280 -12923 12983 0
-1280 -12924 12984 0
-1280 -12925 12985 0
-1280 -12926 12986 0
-1280 -12927 12987 0
-1280 -12928 12988 0
-1280 -12929 12989 0
-1280 -12930 12990 0
-1280 -12931 12991 0
-1280 -12932 12992 0
-1280 -12933 12993 0
-1280 -12934 12994 0
-1280 -12935 12995 0
-1280 -12936 12996 0
-1280 -12937 12997 0
-1280 -12938 12998 0
-1280 -12939 12999 0
-1280 -12940 13000 0
-1280 -12941 13001 0
-1280 -12942 13002 0
-1280 -12943 13003 0
-1280 -12944 13004 0
-1280 -12945 13005 0
-1280 -12946 13006 0
-1280 -12947 13007 0
-1280 -12948 13008 0
-1280 -12949 13009 0
-1280 -12950 13010 0
-1280 -12951 13011 0
-1280 -12952 13012 0
-1280 -12953 13013 0
-1280 -12954 13014 0
-1280 -12955 13015 0
-1280 -12956 13016 0
-1280 -12957 13017 0
-1280 -12958 13018 0
-1280 -12959 13019 0
-1280 -12960 13020 0
-1280 -12961 13021 0
-1280 -12962 13022 0
-1280 -12963 13023 0
-1280 -12964 13024 0
-1280 -12965 13025 0
-1280 -12966 13026 0
-1280 -12967 13027 0
-1280 -12968 13028 0
-1280 -12969 13029 0
-1280 -12970 13030 0
-1280 -12971 0
-12972 13031 0
-12973 13032 0
-12974 13033 0
-12975 13034 0
-12976 13035 0
-12977 13036 0
-12978 13037 0
-12979 13038 0
-12980 13039 0
-12981 13040 0
-12982 13041 0
-12983 13042 0
-12984 13043 0
-12985 13044 0
-12986 13045 0
-12987 13046 0
-12988 13047 0
-12989 13048 0
-12990 13049 0
-12991 13050 0
-12992 13051 0
-12993 13052 0
-12994 13053 0
-12995 13054 0
-12996 13055 0
-12997 13056 0
-12998 13057 0
-12999 13058 0
-13000 13059 0
-13001 13060 0
-13002 13061 0
-13003 13062 0
-13004 13063 0
-13005 13064 0
-13006 13065 0
-13007 13066 0
-13008 13067 0
-13009 13068 0
-13010 13069 0
-13011 13070 0
-13012 13071 0
-13013 13072 0
-13014 13073 0
-13015 13074 0
-13016 13075 0
-13017 13076 0
-13018 13077 0
-13019 13078 0
-13020 13079 0
-13021 13080 0
-13022 13081 0
-13023 13082 0
-13024 13083 0
-13025 13084 0
-13026 13085 0
-13027 13086 0
-13028 13087 0
-13029 13088 0
-13030 13089 0
-1282 -12972 13032 0
-1282 -12973 13033 0
-1282 -12974 13034 0
-1282 -12975 13035 0
-1282 -12976 13036 0
-1282 -12977 13037 0
-1282 -12978 13038 0
-1282 -12979 13039 0
-1282 -12980 13040 0
-1282 -12981 13041 0
-1282 -12982 13042 0
-1282 -12983 13043 0
-1282 -12984 13044 0
-1282 -12985 13045 0
-1282 -12986 13046 0
-1282 -12987 13047 0
-1282 -12988 13048 0
-1282 -12989 13049 0
-1282 -12990 13050 0
-1282 -12991 13051 0
-1282 -12992 13052 0
-1282 -12993 13053 0
-1282 -12994 13054 0
-1282 -12995 13055 0
-1282 -12996 13056 0
-1282 -12997 13057 0
-1282 -12998 13058 0
-1282 -12999 13059 0
-1282 -13000 13060 0
-1282 -13001 13061 0
-1282 -13002 13062 0
-1282 -13003 13063 0
-1282 -13004 13064 0
-1282 -13005 13065 0
-1282 -13006 13066 0
-1282 -13007 13067 0
-1282 -13008 13068 0
-1282 -13009 13069 0
-1282 -13010 13070 0
-1282 -13011 13071 0
-1282 -13012 13072 0
-1282 -13013 13073 0
-1282 -13014 13074 0
-1282 -13015 13075 0
-1282 -13016 13076 0
-1282 -13017 13077 0
-1282 -13018 13078 0
-1282 -13019 13079 0
-1282 -13020 13080 0
-1282 -13021 13081 0
-1282 -13022 13082 0
-1282 -13023 13083 0
-1282 -13024 13084 0
-1282 -13025 13085 0
-1282 -13026 13086 0
-1282 -13027 13087 0
-1282 -13028 13088 0
-1282 -13029 13089 0
-1282 -13030 0
-13031 13090 0
-13032 13091 0
-13033 13092 0
-13034 13093 0
-13035 13094 0
-13036 13095 0
-13037 13096 0
-13038 13097 0
-13039 13098 0
-13040 13099 0
-13041 13100 0
-13042 13101 0
-13043 13102 0
-13044 13103 0
-13045 13104 0
-13046 13105 0
-13047 13106 0
-13048 13107 0
-13049 13108 0
-13050 13109 0
-13051 13110 0
-13052 13111 0
-13053 13112 0
-13054 13113 0
-13055 13114 0
-13056 13115 0
-13057 13116 0
-13058 13117 0
-13059 13118 0
-13060 13119 0
-13061 13120 0
-13062 13121 0
-13063 13122 0
-13064 13123 0
-13065 13124 0
-13066 13125 0
-13067 13126 0
-13068 13127 0
-13069 13128 0
-13070 13129 0
-13071 13130 0
-13072 13131 0
-13073 13132 0
-13074 13133 0
-13075 13134 0
-13076 13135 0
-13077 13136 0
-13078 13137 0
-13079 13138 0
-13080 13139 0
-13081 13140 0
-13082 13141 0
-13083 13142 0
-13084 13143 0
-13085 13144 0
-13086 13145 0
-13087 13146 0
-13088 13147 0
-13089 13148 0
-1284 -13031 13091 0
-1284 -13032 13092 0
-1284 -13033 13093 0
-1284 -13034 13094 0
-1284 -13035 13095 0
-1284 -13036 13096 0
-1284 -13037 13097 0
-1284 -13038 13098 0
-1284 -13039 13099 0
-1284 -13040 13100 0
-1284 -13041 13101 0
-1284 -13042 13102 0
-1284 -13043 13103 0
-1284 -13044 13104 0
-1284 -13045 13105 0
-1284 -13046 13106 0
-1284 -13047 13107 0
-1284 -13048 13108 0
-1284 -13049 13109 0
-1284 -13050 13110 0
-1284 -13051 13111 0
-1284 -13052 13112 0
-1284 -13053 13113 0
-1284 -13054 13114 0
-1284 -13055 13115 0
-1284 -13056 13116 0
-1284 -13057 13117 0
-1284 -13058 13118 0
-1284 -13059 13119 0
-1284 -13060 13120 0
-1284 -13061 13121 0
-1284 -13062 13122 0
-1284 -13063 13123 0
-1284 -13064 13124 0
-1284 -13065 13125 0
-1284 -13066 13126 0
-1284 -13067 13127 0
-1284 -13068 13128 0
-1284 -13069 13129 0
-1284 -13070 13130 0
-1284 -13071 13131 0
-1284 -13072 13132 0
-1284 -13073 13133 0
-1284 -13074 13134 0
-1284 -13075 13135 0
-1284 -13076 13136 0
-1284 -13077 13137 0
-1284 -13078 13138 0
-1284 -13079 13139 0
-1284 -13080 13140 0
-1284 -13081 13141 0
-1284 -13082 13142 0
-1284 -13083 13143 0
-1284 -13084 13144 0
-1284 -13085 13145 0
-1284 -13086 13146 0
-1284 -13087 13147 0
-1284 -13088 13148 0
-1284 -13089 0
-13090 13149 0
-13091 13150 0
-13092 13151 0
-13093 13152 0
-13094 13153 0
-13095 13154 0
-13096 13155 0
-13097 13156 0
-13098 13157 0
-13099 13158 0
-13100 13159 0
-13101 13160 0
-13102 13161 0
-13103 13162 0
-13104 13163 0
-13105 13164 0
-13106 13165 0
-13107 13166 0
-13108 13167 0
-13109 13168 0
-13110 13169 0
-13111 13170 0
-13112 13171 0
-13113 13172 0
-13114 13173 0
-13115 13174 0
-13116 13175 0
-13117 13176 0
-13118 13177 0
-13119 13178 0
-13120 13179 0
-13121 13180 0
-13122 13181 0
-13123 13182 0
-13124 13183 0
-13125 13184 0
-13126 13185 0
-13127 13186 0
-13128 13187 0
-13129 13188 0
-13130 13189 0
-13131 13190 0
-13132 13191 0
-13133 13192 0
-13134 13193 0
-13135 13194 0
-13136 13195 0
-13137 13196 0
-13138 13197 0
-13139 13198 0
-13140 13199 0
-13141 13200 0
-13142 13201 0
-13143 13202 0
-13144 13203 0
-13145 13204 0
-13146 13205 0
-13147 13206 0
-13148 13207 0
-1286 -13090 13150 0
-1286 -13091 13151 0
-1286 -13092 13152 0
-1286 -13093 13153 0
-1286 -13094 13154 0
-1286 -13095 13155 0
-1286 -13096 13156 0
-1286 -13097 13157 0
-1286 -13098 13158 0
-1286 -13099 13159 0
-1286 -13100 13160 0
-1286 -13101 13161 0
-1286 -13102 13162 0
-1286 -13103 13163 0
-1286 -13104 13164 0
-1286 -13105 13165 0
-1286 -13106 13166 0
-1286 -13107 13167 0
-1286 -13108 13168 0
-1286 -13109 13169 0
-1286 -13110 13170 0
-1286 -13111 13171 0
-1286 -13112 13172 0
-1286 -13113 13173 0
-1286 -13114 13174 0
-1286 -13115 13175 0
-1286 -13116 13176 0
-1286 -13117 13177 0
-1286 -13118 13178 0
-1286 -13119 13179 0
-1286 -13120 13180 0
-1286 -13121 13181 0
-1286 -13122 13182 0
-1286 -13123 13183 0
-1286 -13124 13184 0
-1286 -13125 13185 0
-1286 -13126 13186 0
-1286 -13127 13187 0
-1286 -13128 13188 0
-1286 -13129 13189 0
-1286 -13130 13190 0
-1286 -13131 13191 0
-1286 -13132 13192 0
-1286 -13133 13193 0
-1286 -13134 13194 0
-1286 -13135 13195 0
-1286 -13136 13196 0
-1286 -13137 13197 0
-1286 -13138 13198 0
-1286 -13139 13199 0
-1286 -13140 13200 0
-1286 -13141 13201 0
-1286 -13142 13202 0
-1286 -13143 13203 0
-1286 -13144 13204 0
-1286 -13145 13205 0
-1286 -13146 13206 0
-1286 -13147 13207 0
-1286 -13148 0
-13149 13208 0
-13150 13209 0
-13151 13210 0
-13152 13211 0
-13153 13212 0
-13154 13213 0
-13155 13214 0
-13156 13215 0
-13157 13216 0
-13158 13217 0
-13159 13218 0
-13160 13219 0
-13161 13220 0
-13162 13221 0
-13163 13222 0
-13164 13223 0
-13165 13224 0
-13166 13225 0
-13167 13226 0
-13168 13227 0
-13169 13228 0
-13170 13229 0
-13171 13230 0
-13172 13231 0
-13173 13232 0
-13174 13233 0
-13175 13234 0
-13176 13235 0
-13177 13236 0
-13178 13237 0
-13179 13238 0
-13180 13239 0
-13181 13240 0
-13182 13241 0
-13183 13242 0
-13184 13243 0
-13185 13244 0
-13186 13245 0
-13187 13246 0
-13188 13247 0
-13189 13248 0
-13190 13249 0
-13191 13250 0
-13192 13251 0
-13193 13252 0
-13194 13253 0
-13195 13254 0
-13196 13255 0
-13197 13256 0
-13198 13257 0
-13199 13258 0
-13200 13259 0
-13201 13260 0
-13202 13261 0
-13203 13262 0
-13204 13263 0
-13205 13264 0
-13206 13265 0
-13207 13266 0
-1288 -13149 13209 0
-1288 -13150 13210 0
-1288 -13151 13211 0
-1288 -13152 13212 0
-1288 -13153 13213 0
-1288 -13154 13214 0
-1288 -13155 13215 0
-1288 -13156 13216 0
-1288 -13157 13217 0
-1288 -13158 13218 0
-1288 -13159 13219 0
-1288 -13160 13220 0
-1288 -13161 13221 0
-1288 -13162 13222 0
-1288 -13163 13223 0
-1288 -13164 13224 0
-1288 -13165 13225 0
-1288 -13166 13226 0
-1288 -13167 13227 0
-1288 -13168 13228 0
-1288 -13169 13229 0
-1288 -13170 13230 0
-1288 -13171 13231 0
-1288 -13172 13232 0
-1288 -13173 13233 0
-1288 -13174 13234 0
-1288 -13175 13235 0
-1288 -13176 13236 0
-1288 -13177 13237 0
-1288 -13178 13238 0
-1288 -13179 13239 0
-1288 -13180 13240 0
-1288 -13181 13241 0
-1288 -13182 13242 0
-1288 -13183 13243 0
-1288 -13184 13244 0
-1288 -13185 13245 0
-1288 -13186 13246 0
-1288 -13187 13247 0
-1288 -13188 13248 0
-1288 -13189 13249 0
-1288 -13190 13250 0
-1288 -13191 13251 0
-1288 -13192 13252 0
-1288 -13193 13253 0
-1288 -13194 13254 0
-1288 -13195 13255 0
-1288 -13196 13256 0
-1288 -13197 13257 0
-1288 -13198 13258 0
-1288 -13199 13259 0
-1288 -13200 13260 0
-1288 -13201 13261 0
-1288 -13202 13262 0
-1288 -13203 13263 0
-1288 -13204 13264 0
-1288 -13205 13265 0
-1288 -13206 13266 0
-1288 -13207 0
-13208 13267 0
-13209 13268 0
-13210 13269 0
-13211 13270 0
-13212 13271 0
-13213 13272 0
-13214 13273 0
-13215 13274 0
-13216 13275 0
-13217 13276 0
-13218 13277 0
-13219 13278 0
-13220 13279 0
-13221 13280 0
-13222 13281 0
-13223 13282 0
-13224 13283 0
-13225 13284 0
-13226 13285 0
-13227 13286 0
-13228 13287 0
-13229 13288 0
-13230 13289 0
-13231 13290 0
-13232 13291 0
-13233 13292 0
-13234 13293 0
-13235 13294 0
-13236 13295 0
-13237 13296 0
-13238 13297 0
-13239 13298 0
-13240 13299 0
-13241 13300 0
-13242 13301 0
-13243 13302 0
-13244 13303 0
-13245 13304 0
-13246 13305 0
-13247 13306 0
-13248 13307 0
-13249 13308 0
-13250 13309 0
-13251 13310 0
-13252 13311 0
-13253 13312 0
-13254 13313 0
-13255 13314 0
-13256 13315 0
-13257 13316 0
-13258 13317 0
-13259 13318 0
-13260 13319 0
-13261 13320 0
-13262 13321 0
-13263 13322 0
-13264 13323 0
-13265 13324 0
-13266 13325 0
-1290 -13208 13268 0
-1290 -13209 13269 0
-1290 -13210 13270 0
-1290 -13211 13271 0
-1290 -13212 13272 0
-1290 -13213 13273 0
-1290 -13214 13274 0
-1290 -13215 13275 0
-1290 -13216 13276 0
-1290 -13217 13277 0
-1290 -13218 13278 0
-1290 -13219 13279 0
-1290 -13220 13280 0
-1290 -13221 13281 0
-1290 -13222 13282 0
-1290 -13223 13283 0
-1290 -13224 13284 0
-1290 -13225 13285 0
-1290 -13226 13286 0
-1290 -13227 13287 0
-1290 -13228 13288 0
-1290 -13229 13289 0
-1290 -13230 13290 0
-1290 -13231 13291 0
-1290 -13232 13292 0
-1290 -13233 13293 0
-1290 -13234 13294 0
-1290 -13235 13295 0
-1290 -13236 13296 0
-1290 -13237 13297 0
-1290 -13238 13298 0
-1290 -13239 13299 0
-1290 -13240 13300 0
-1290 -13241 13301 0
-1290 -13242 13302 0
-1290 -13243 13303 0
-1290 -13244 13304 0
-1290 -13245 13305 0
-1290 -13246 13306 0
-1290 -13247 13307 0
-1290 -13248 13308 0
-1290 -13249 13309 0
-1290 -13250 13310 0
-1290 -13251 13311 0
-1290 -13252 13312 0
-1290 -13253 13313 0
-1290 -13254 13314 0
-1290 -13255 13315 0
-1290 -13256 13316 0
-1290 -13257 13317 0
-1290 -13258 13318 0
-1290 -13259 13319 0
-1290 -13260 13320 0
-1290 -13261 13321 0
-1290 -13262 13322 0
-1290 -13263 13323 0
-1290 -13264 13324 0
-1290 -13265 13325 0
-1290 -13266 0
-13267 13326 0
-13268 13327 0
-13269 13328 0
-13270 13329 0
-13271 13330 0
-13272 13331 0
-13273 13332 0
-13274 13333 0
-13275 13334 0
-13276 13335 0
-13277 13336 0
-13278 13337 0
-13279 13338 0
-13280 13339 0
-13281 13340 0
-13282 13341 0
-13283 13342 0
-13284 13343 0
-13285 13344 0
-13286 13345 0
-13287 13346 0
-13288 13347 0
-13289 13348 0
-13290 13349 0
-13291 13350 0
-13292 13351 0
-13293 13352 0
-13294 13353 0
-13295 13354 0
-13296 13355 0
-13297 13356 0
-13298 13357 0
-13299 13358 0
-13300 13359 0
-13301 13360 0
-13302 13361 0
-13303 13362 0
-13304 13363 0
-13305 13364 0
-13306 13365 0
-13307 13366 0
-13308 13367 0
-13309 13368 0
-13310 13369 0
-13311 13370 0
-13312 13371 0
-13313 13372 0
-13314 13373 0
-13315 13374 0
-13316 13375 0
-13317 13376 0
-13318 13377 0
-13319 13378 0
-13320 13379 0
-13321 13380 0
-13322 13381 0
-13323 13382 0
-13324 13383 0
-13325 13384 0
-1292 -13267 13327 0
-1292 -13268 13328 0
-1292 -13269 13329 0
-1292 -13270 13330 0
-1292 -13271 13331 0
-1292 -13272 13332 0
-1292 -13273 13333 0
-1292 -13274 13334 0
-1292 -13275 13335 0
-1292 -13276 13336 0
-1292 -13277 13337 0
-1292 -13278 13338 0
-1292 -13279 13339 0
-1292 -13280 13340 0
-1292 -13281 13341 0
-1292 -13282 13342 0
-1292 -13283 13343 0
-1292 -13284 13344 0
-1292 -13285 13345 0
-1292 -13286 13346 0
-1292 -13287 13347 0
-1292 -13288 13348 0
-1292 -13289 13349 0
-1292 -13290 13350 0
-1292 -13291 13351 0
-1292 -13292 13352 0
-1292 -13293 13353 0
-1292 -13294 13354 0
-1292 -13295 13355 0
-1292 -13296 13356 0
-1292 -13297 13357 0
-1292 -13298 13358 0
-1292 -13299 13359 0
-1292 -13300 13360 0
-1292 -13301 13361 0
-1292 -13302 13362 0
-1292 -13303 13363 0
-1292 -13304 13364 0
-1292 -13305 13365 0
-1292 -13306 13366 0
-1292 -13307 13367 0
-1292 -13308 13368 0
-1292 -13309 13369 0
-1292 -13310 13370 0
-1292 -13311 13371 0
-1292 -13312 13372 0
-1292 -13313 13373 0
-1292 -13314 13374 0
-1292 -13315 13375 0
-1292 -13316 13376 0
-1292 -13317 13377 0
-1292 -13318 13378 0
-1292 -13319 13379 0
-1292 -13320 13380 0
-1292 -13321 13381 0
-1292 -13322 13382 0
-1292 -13323 13383 0
-1292 -13324 13384 0
-1292 -13325 0
-13326 13385 0
-13327 13386 0
-13328 13387 0
-13329 13388 0
-13330 13389 0
-13331 13390 0
-13332 13391 0
-13333 13392 0
-13334 13393 0
-13335 13394 0
-13336 13395 0
-13337 13396 0
-13338 13397 0
-13339 13398 0
-13340 13399 0
-13341 13400 0
-13342 13401 0
-13343 13402 0
-13344 13403 0
-13345 13404 0
-13346 13405 0
-13347 13406 0
-13348 13407 0
-13349 13408 0
-13350 13409 0
-13351 13410 0
-13352 13411 0
-13353 13412 0
-13354 13413 0
-13355 13414 0
-13356 13415 0
-13357 13416 0
-13358 13417 0
-13359 13418 0
-13360 13419 0
-13361 13420 0
-13362 13421 0
-13363 13422 0
-13364 13423 0
-13365 13424 0
-13366 13425 0
-13367 13426 0
-13368 13427 0
-13369 13428 0
-13370 13429 0
-13371 13430 0
-13372 13431 0
-13373 13432 0
-13374 13433 0
-13375 13434 0
-13376 13435 0
-13377 13436 0
-13378 13437 0
-13379 13438 0
-13380 13439 0
-13381 13440 0
-13382 13441 0
-13383 13442 0
-13384 13443 0
-1294 -13326 13386 0
-1294 -13327 13387 0
-1294 -13328 13388 0
-1294 -13329 13389 0
-1294 -13330 13390 0
-1294 -13331 13391 0
-1294 -13332 13392 0
-1294 -13333 13393 0
-1294 -13334 13394 0
-1294 -13335 13395 0
-1294 -13336 13396 0
-1294 -13337 13397 0
-1294 -13338 13398 0
-1294 -13339 13399 0
-1294 -13340 13400 0
-1294 -13341 13401 0
-1294 -13342 13402 0
-1294 -13343 13403 0
-1294 -13344 13404 0
-1294 -13345 13405 0
-1294 -13346 13406 0
-1294 -13347 13407 0
-1294 -13348 13408 0
-1294 -13349 13409 0
-1294 -13350 13410 0
-1294 -13351 13411 0
-1294 -13352 13412 0
-1294 -13353 13413 0
-1294 -13354 13414 0
-1294 -13355 13415 0
-1294 -13356 13416 0
-1294 -13357 13417 0
-1294 -13358 13418 0
-1294 -13359 13419 0
-1294 -13360 13420 0
-1294 -13361 13421 0
-1294 -13362 13422 0
-1294 -13363 13423 0
-1294 -13364 13424 0
-1294 -13365 13425 0
-1294 -13366 13426 0
-1294 -13367 13427 0
-1294 -13368 13428 0
-1294 -13369 13429 0
-1294 -13370 13430 0
-1294 -13371 13431 0
-1294 -13372 13432 0
-1294 -13373 13433 0
-1294 -13374 13434 0
-1294 -13375 13435 0
-1294 -13376 13436 0
-1294 -13377 13437 0
-1294 -13378 13438 0
-1294 -13379 13439 0
-1294 -13380 13440 0
-1294 -13381 13441 0
-1294 -13382 13442 0
-1294 -13383 13443 0
-1294 -13384 0
-13385 13444 0
-13386 13445 0
-13387 13446 0
-13388 13447 0
-13389 13448 0
-13390 13449 0
-13391 13450 0
-13392 13451 0
-13393 13452 0
-13394 13453 0
-13395 13454 0
-13396 13455 0
-13397 13456 0
-13398 13457 0
-13399 13458 0
-13400 13459 0
-13401 13460 0
-13402 13461 0
-13403 13462 0
-13404 13463 0
-13405 13464 0
-13406 13465 0
-13407 13466 0
-13408 13467 0
-13409 13468 0
-13410 13469 0
-13411 13470 0
-13412 13471 0
-13413 13472 0
-13414 13473 0
-13415 13474 0
-13416 13475 0
-13417 13476 0
-13418 13477 0
-13419 13478 0
-13420 13479 0
-13421 13480 0
-13422 13481 0
-13423 13482 0
-13424 13483 0
-13425 13484 0
-13426 13485 0
-13427 13486 0
-13428 13487 0
-13429 13488 0
-13430 13489 0
-13431 13490 0
-13432 13491 0
-13433 13492 0
-13434 13493 0
-13435 13494 0
-13436 13495 0
-13437 13496 0
-13438 13497 0
-13439 13498 0
-13440 13499 0
-13441 13500 0
-13442 13501 0
-13443 13502 0
-1296 -13385 13445 0
-1296 -13386 13446 0
-1296 -13387 13447 0
-1296 -13388 13448 0
-1296 -13389 13449 0
-1296 -13390 13450 0
-1296 -13391 13451 0
-1296 -13392 13452 0
-1296 -13393 13453 0
-1296 -13394 13454 0
-1296 -13395 13455 0
-1296 -13396 13456 0
-1296 -13397 13457 0
-1296 -13398 13458 0
-1296 -13399 13459 0
-1296 -13400 13460 0
-1296 -13401 13461 0
-1296 -13402 13462 0
-1296 -13403 13463 0
-1296 -13404 13464 0
-1296 -13405 13465 0
-1296 -13406 13466 0
-1296 -13407 13467 0
-1296 -13408 13468 0
-1296 -13409 13469 0
-1296 -13410 13470 0
-1296 -13411 13471 0
-1296 -13412 13472 0
-1296 -13413 13473 0
-1296 -13414 13474 0
-1296 -13415 13475 0
-1296 -13416 13476 0
-1296 -13417 13477 0
-1296 -13418 13478 0
-1296 -13419 13479 0
-1296 -13420 13480 0
-1296 -13421 13481 0
-1296 -13422 13482 0
-1296 -13423 13483 0
-1296 -13424 13484 0
-1296 -13425 13485 0
-1296 -13426 13486 0
-1296 -13427 13487 0
-1296 -13428 13488 0
-1296 -13429 13489 0
-1296 -13430 13490 0
-1296 -13431 13491 0
-1296 -13432 13492 0
-1296 -13433 13493 0
-1296 -13434 13494 0
-1296 -13435 13495 0
-1296 -13436 13496 0
-1296 -13437 13497 0
-1296 -13438 13498 0
-1296 -13439 13499 0
-1296 -13440 13500 0
-1296 -13441 13501 0
-1296 -13442 13502 0
-1296 -13443 0
-13444 13503 0
-13445 13504 0
-13446 13505 0
-13447 13506 0
-13448 13507 0
-13449 13508 0
-13450 13509 0
-13451 13510 0
-13452 13511 0
-13453 13512 0
-13454 13513 0
-13455 13514 0
-13456 13515 0
-13457 13516 0
-13458 13517 0
-13459 13518 0
-13460 13519 0
-13461 13520 0
-13462 13521 0
-13463 13522 0
-13464 13523 0
-13465 13524 0
-13466 13525 0
-13467 13526 0
-13468 13527 0
-13469 13528 0
-13470 13529 0
-13471 13530 0
-13472 13531 0
-13473 13532 0
-13474 13533 0
-13475 13534 0
-13476 13535 0
-13477 13536 0
-13478 13537 0
-13479 13538 0
-13480 13539 0
-13481 13540 0
-13482 13541 0
-13483 13542 0
-13484 13543 0
-13485 13544 0
-13486 13545 0
-13487 13546 0
-13488 13547 0
-13489 13548 0
-13490 13549 0
-13491 13550 0
-13492 13551 0
-13493 13552 0
-13494 13553 0
-13495 13554 0
-13496 13555 0
-13497 13556 0
-13498 13557 0
-13499 13558 0
-13500 13559 0
-13501 13560 0
-13502 13561 0
-1298 -13444 13504 0
-1298 -13445 13505 0
-1298 -13446 13506 0
-1298 -13447 13507 0
-1298 -13448 13508 0
-1298 -13449 13509 0
-1298 -13450 13510 0
-1298 -13451 13511 0
-1298 -13452 13512 0
-1298 -13453 13513 0
-1298 -13454 13514 0
-1298 -13455 13515 0
-1298 -13456 13516 0
-1298 -13457 13517 0
-1298 -13458 13518 0
-1298 -13459 13519 0
-1298 -13460 13520 0
-1298 -13461 13521 0
-1298 -13462 13522 0
-1298 -13463 13523 0
-1298 -13464 13524 0
-1298 -13465 13525 0
-1298 -13466 13526 0
-1298 -13467 13527 0
-1298 -13468 13528 0
-1298 -13469 13529 0
-1298 -13470 13530 0
-1298 -13471 13531 0
-1298 -13472 13532 0
-1298 -13473 13533 0
-1298 -13474 13534 0
-1298 -13475 13535 0
-1298 -13476 13536 0
-1298 -13477 13537 0
-1298 -13478 13538 0
-1298 -13479 13539 0
-1298 -13480 13540 0
-1298 -13481 13541 0
-1298 -13482 13542 0
-1298 -13483 13543 0
-1298 -13484 13544 0
-1298 -13485 13545 0
-1298 -13486 13546 0
-1298 -13487 13547 0
-1298 -13488 13548 0
-1298 -13489 13549 0
-1298 -13490 13550 0
-1298 -13491 13551 0
-1298 -13492 13552 0
-1298 -13493 13553 0
-1298 -13494 13554 0
-1298 -13495 13555 0
-1298 -13496 13556 0
-1298 -13497 13557 0
-1298 -13498 13558 0
-1298 -13499 13559 0
-1298 -13500 13560 0
-1298 -13501 13561 0
-1298 -13502 0
-13503 13562 0
-13504 13563 0
-13505 13564 0
-13506 13565 0
-13507 13566 0
-13508 13567 0
-13509 13568 0
-13510 13569 0
-13511 13570 0
-13512 13571 0
-13513 13572 0
-13514 13573 0
-13515 13574 0
-13516 13575 0
-13517 13576 0
-13518 13577 0
-13519 13578 0
-13520 13579 0
-13521 13580 0
-13522 13581 0
-13523 13582 0
-13524 13583 0
-13525 13584 0
-13526 13585 0
-13527 13586 0
-13528 13587 0
-13529 13588 0
-13530 13589 0
-13531 13590 0
-13532 13591 0
-13533 13592 0
-13534 13593 0
-13535 13594 0
-13536 13595 0
-13537 13596 0
-13538 13597 0
-13539 13598 0
-13540 13599 0
-13541 13600 0
-13542 13601 0
-13543 13602 0
-13544 13603 0
-13545 13604 0
-13546 13605 0
-13547 13606 0
-13548 13607 0
-13549 13608 0
-13550 13609 0
-13551 13610 0
-13552 13611 0
-13553 13612 0
-13554 13613 0
-13555 13614 0
-13556 13615 0
-13557 13616 0
-13558 13617 0
-13559 13618 0
-13560 13619 0
-13561 13620 0
-1300 -13503 13563 0
-1300 -13504 13564 0
-1300 -13505 13565 0
-1300 -13506 13566 0
-1300 -13507 13567 0
-1300 -13508 13568 0
-1300 -13509 13569 0
-1300 -13510 13570 0
-1300 -13511 13571 0
-1300 -13512 13572 0
-1300 -13513 13573 0
-1300 -13514 13574 0
-1300 -13515 13575 0
-1300 -13516 13576 0
-1300 -13517 13577 0
-1300 -13518 13578 0
-1300 -13519 13579 0
-1300 -13520 13580 0
-1300 -13521 13581 0
-1300 -13522 13582 0
-1300 -13523 13583 0
-1300 -13524 13584 0
-1300 -13525 13585 0
-1300 -13526 13586 0
-1300 -13527 13587 0
-1300 -13528 13588 0
-1300 -13529 13589 0
-1300 -13530 13590 0
-1300 -13531 13591 0
-1300 -13532 13592 0
-1300 -13533 13593 0
-1300 -13534 13594 0
-1300 -13535 13595 0
-1300 -13536 13596 0
-1300 -13537 13597 0
-1300 -13538 13598 0
-1300 -13539 13599 0
-1300 -13540 13600 0
-1300 -13541 13601 0
-1300 -13542 13602 0
-1300 -13543 13603 0
-1300 -13544 13604 0
-1300 -13545 13605 0
-1300 -13546 13606 0
-1300 -13547 13607 0
-1300 -13548 13608 0
-1300 -13549 13609 0
-1300 -13550 13610 0
-1300 -13551 13611 0
-1300 -13552 13612 0
-1300 -13553 13613 0
-1300 -13554 13614 0
-1300 -13555 13615 0
-1300 -13556 13616 0
-1300 -13557 13617 0
-1300 -13558 13618 0
-1300 -13559 13619 0
-1300 -13560 13620 0
-1300 -13561 0
-13562 13621 0
-13563 13622 0
-13564 13623 0
-13565 13624 0
-13566 13625 0
-13567 13626 0
-13568 13627 0
-13569 13628 0
-13570 13629 0
-13571 13630 0
-13572 13631 0
-13573 13632 0
-13574 13633 0
-13575 13634 0
-13576 13635 0
-13577 13636 0
-13578 13637 0
-13579 13638 0
-13580 13639 0
-13581 13640 0
-13582 13641 0
-13583 13642 0
-13584 13643 0
-13585 13644 0
-13586 13645 0
-13587 13646 0
-13588 13647 0
-13589 13648 0
-13590 13649 0
-13591 13650 0
-13592 13651 0
-13593 13652 0
-13594 13653 0
-13595 13654 0
-13596 13655 0
-13597 13656 0
-13598 13657 0
-13599 13658 0
-13600 13659 0
-13601 13660 0
-13602 13661 0
-13603 13662 0
-13604 13663 0
-13605 13664 0
-13606 13665 0
-13607 13666 0
-13608 13667 0
-13609 13668 0
-13610 13669 0
-13611 13670 0
-13612 13671 0
-13613 13672 0
-13614 13673 0
-13615 13674 0
-13616 13675 0
-13617 13676 0
-13618 13677 0
-13619 13678 0
-13620 13679 0
-1302 -13562 13622 0
-1302 -13563 13623 0
-1302 -13564 13624 0
-1302 -13565 13625 0
-1302 -13566 13626 0
-1302 -13567 13627 0
-1302 -13568 13628 0
-1302 -13569 13629 0
-1302 -13570 13630 0
-1302 -13571 13631 0
-1302 -13572 13632 0
-1302 -13573 13633 0
-1302 -13574 13634 0
-1302 -13575 13635 0
-1302 -13576 13636 0
-1302 -13577 13637 0
-1302 -13578 13638 0
-1302 -13579 13639 0
-1302 -13580 13640 0
-1302 -13581 13641 0
-1302 -13582 13642 0
-1302 -13583 13643 0
-1302 -13584 13644 0
-1302 -13585 13645 0
-1302 -13586 13646 0
-1302 -13587 13647 0
-1302 -13588 13648 0
-1302 -13589 13649 0
-1302 -13590 13650 0
-1302 -13591 13651 0
-1302 -13592 13652 0
-1302 -13593 13653 0
-1302 -13594 13654 0
-1302 -13595 13655 0
-1302 -13596 13656 0
-1302 -13597 13657 0
-1302 -13598 13658 0
-1302 -13599 13659 0
-1302 -13600 13660 0
-1302 -13601 13661 0
-1302 -13602 13662 0
-1302 -13603 13663 0
-1302 -13604 13664 0
-1302 -13605 13665 0
-1302 -13606 13666 0
-1302 -13607 13667 0
-1302 -13608 13668 0
-1302 -13609 13669 0
-1302 -13610 13670 0
-1302 -13611 13671 0
-1302 -13612 13672 0
-1302 -13613 13673 0
-1302 -13614 13674 0
-1302 -13615 13675 0
-1302 -13616 13676 0
-1302 -13617 13677 0
-1302 -13618 13678 0
-1302 -13619 13679 0
-1302 -13620 0
-13621 13680 0
-13622 13681 0
-13623 13682 0
-13624 13683 0
-13625 13684 0
-13626 13685 0
-13627 13686 0
-13628 13687 0
-13629 13688 0
-13630 13689 0
-13631 13690 0
-13632 13691 0
-13633 13692 0
-13634 13693 0
-13635 13694 0
-13636 13695 0
-13637 13696 0
-13638 13697 0
-13639 13698 0
-13640 13699 0
-13641 13700 0
-13642 13701 0
-13643 13702 0
-13644 13703 0
-13645 13704 0
-13646 13705 0
-13647 13706 0
-13648 13707 0
-13649 13708 0
-13650 13709 0
-13651 13710 0
-13652 13711 0
-13653 13712 0
-13654 13713 0
-13655 13714 0
-13656 13715 0
-13657 13716 0
-13658 13717 0
-13659 13718 0
-13660 13719 0
-13661 13720 0
-13662 13721 0
-13663 13722 0
-13664 13723 0
-13665 13724 0
-13666 13725 0
-13667 13726 0
-13668 13727 0
-13669 13728 0
-13670 13729 0
-13671 13730 0
-13672 13731 0
-13673 13732 0
-13674 13733 0
-13675 13734 0
-13676 13735 0
-13677 13736 0
-13678 13737 0
-13679 13738 0
-1304 -13621 13681 0
-1304 -13622 13682 0
-1304 -13623 13683 0
-1304 -13624 13684 0
-1304 -13625 13685 0
-1304 -13626 13686 0
-1304 -13627 13687 0
-1304 -13628 13688 0
-1304 -13629 13689 0
-1304 -13630 13690 0
-1304 -13631 13691 0
-1304 -13632 13692 0
-1304 -13633 13693 0
-1304 -13634 13694 0
-1304 -13635 13695 0
-1304 -13636 13696 0
-1304 -13637 13697 0
-1304 -13638 13698 0
-1304 -13639 13699 0
-1304 -13640 13700 0
-1304 -13641 13701 0
-1304 -13642 13702 0
-1304 -13643 13703 0
-1304 -13644 13704 0
-1304 -13645 13705 0
-1304 -13646 13706 0
-1304 -13647 13707 0
-1304 -13648 13708 0
-1304 -13649 13709 0
-1304 -13650 13710 0
-1304 -13651 13711 0
-1304 -13652 13712 0
-1304 -13653 13713 0
-1304 -13654 13714 0
-1304 -13655 13715 0
-1304 -13656 13716 0
-1304 -13657 13717 0
-1304 -13658 13718 0
-1304 -13659 13719 0
-1304 -13660 13720 0
-1304 -13661 13721 0
-1304 -13662 13722 0
-1304 -13663 13723 0
-1304 -13664 13724 0
-1304 -13665 13725 0
-1304 -13666 13726 0
-1304 -13667 13727 0
-1304 -13668 13728 0
-1304 -13669 13729 0
-1304 -13670 13730 0
-1304 -13671 13731 0
-1304 -13672 13732 0
-1304 -13673 13733 0
-1304 -13674 13734 0
-1304 -13675 13735 0
-1304 -13676 13736 0
-1304 -13677 13737 0
-1304 -13678 13738 0
-1304 -13679 0
-13680 13739 0
-13681 13740 0
-13682 13741 0
-13683 13742 0
-13684 13743 0
-13685 13744 0
-13686 13745 0
-13687 13746 0
-13688 13747 0
-13689 13748 0
-13690 13749 0
-13691 13750 0
-13692 13751 0
-13693 13752 0
-13694 13753 0
-13695 13754 0
-13696 13755 0
-13697 13756 0
-13698 13757 0
-13699 13758 0
-13700 13759 0
-13701 13760 0
-13702 13761 0
-13703 13762 0
-13704 13763 0
-13705 13764 0
-13706 13765 0
-13707 13766 0
-13708 13767 0
-13709 13768 0
-13710 13769 0
-13711 13770 0
-13712 13771 0
-13713 13772 0
-13714 13773 0
-13715 13774 0
-13716 13775 0
-13717 13776 0
-13718 13777 0
-13719 13778 0
-13720 13779 0
-13721 13780 0
-13722 13781 0
-13723 13782 0
-13724 13783 0
-13725 13784 0
-13726 13785 0
-13727 13786 0
-13728 13787 0
-13729 13788 0
-13730 13789 0
-13731 13790 0
-13732 13791 0
-13733 13792 0
-13734 13793 0
-13735 13794 0
-13736 13795 0
-13737 13796 0
-13738 13797 0
-1306 -13680 13740 0
-1306 -13681 13741 0
-1306 -13682 13742 0
-1306 -13683 13743 0
-1306 -13684 13744 0
-1306 -13685 13745 0
-1306 -13686 13746 0
-1306 -13687 13747 0
-1306 -13688 13748 0
-1306 -13689 13749 0
-1306 -13690 13750 0
-1306 -13691 13751 0
-1306 -13692 13752 0
-1306 -13693 13753 0
-1306 -13694 13754 0
-1306 -13695 13755 0
-1306 -13696 13756 0
-1306 -13697 13757 0
-1306 -13698 13758 0
-1306 -13699 13759 0
-1306 -13700 13760 0
-1306 -13701 13761 0
-1306 -13702 13762 0
-1306 -13703 13763 0
-1306 -13704 13764 0
-1306 -13705 13765 0
-1306 -13706 13766 0
-1306 -13707 13767 0
-1306 -13708 13768 0
-1306 -13709 13769 0
-1306 -13710 13770 0
-1306 -13711 13771 0
-1306 -13712 13772 0
-1306 -13713 13773 0
-1306 -13714 13774 0
-1306 -13715 13775 0
-1306 -13716 13776 0
-1306 -13717 13777 0
-1306 -13718 13778 0
-1306 -13719 13779 0
-1306 -13720 13780 0
-1306 -13721 13781 0
-1306 -13722 13782 0
-1306 -13723 13783 0
-1306 -13724 13784 0
-1306 -13725 13785 0
-1306 -13726 13786 0
-1306 -13727 13787 0
-1306 -13728 13788 0
-1306 -13729 13789 0
-1306 -13730 13790 0
-1306 -13731 13791 0
-1306 -13732 13792 0
-1306 -13733 13793 0
-1306 -13734 13794 0
-1306 -13735 13795 0
-1306 -13736 13796 0
-1306 -13737 13797 0
-1306 -13738 0
-13739 13798 0
-13740 13799 0
-13741 13800 0
-13742 13801 0
-13743 13802 0
-13744 13803 0
-13745 13804 0
-13746 13805 0
-13747 13806 0
-13748 13807 0
-13749 13808 0
-13750 13809 0
-13751 13810 0
-13752 13811 0
-13753 13812 0
-13754 13813 0
-13755 13814 0
-13756 13815 0
-13757 13816 0
-13758 13817 0
-13759 13818 0
-13760 13819 0
-13761 13820 0
-13762 13821 0
-13763 13822 0
-13764 13823 0
-13765 13824 0
-13766 13825 0
-13767 13826 0
-13768 13827 0
-13769 13828 0
-13770 13829 0
-13771 13830 0
-13772 13831 0
-13773 13832 0
-13774 13833 0
-13775 13834 0
-13776 13835 0
-13777 13836 0
-13778 13837 0
-13779 13838 0
-13780 13839 0
-13781 13840 0
-13782 13841 0
-13783 13842 0
-13784 13843 0
-13785 13844 0
-13786 13845 0
-13787 13846 0
-13788 13847 0
-13789 13848 0
-13790 13849 0
-13791 13850 0
-13792 13851 0
-13793 13852 0
-13794 13853 0
-13795 13854 0
-13796 13855 0
-13797 13856 0
-1308 -13739 13799 0
-1308 -13740 13800 0
-1308 -13741 13801 0
-1308 -13742 13802 0
-1308 -13743 13803 0
-1308 -13744 13804 0
-1308 -13745 13805 0
-1308 -13746 13806 0
-1308 -13747 13807 0
-1308 -13748 13808 0
-1308 -13749 13809 0
-1308 -13750 13810 0
-1308 -13751 13811 0
-1308 -13752 13812 0
-1308 -13753 13813 0
-1308 -13754 13814 0
-1308 -13755 13815 0
-1308 -13756 13816 0
-1308 -13757 13817 0
-1308 -13758 13818 0
-1308 -13759 13819 0
-1308 -13760 13820 0
-1308 -13761 13821 0
-1308 -13762 13822 0
-1308 -13763 13823 0
-1308 -13764 13824 0
-1308 -13765 13825 0
-1308 -13766 13826 0
-1308 -13767 13827 0
-1308 -13768 13828 0
-1308 -13769 13829 0
-1308 -13770 13830 0
-1308 -13771 13831 0
-1308 -13772 13832 0
-1308 -13773 13833 0
-1308 -13774 13834 0
-1308 -13775 13835 0
-1308 -13776 13836 0
-1308 -13777 13837 0
-1308 -13778 13838 0
-1308 -13779 13839 0
-1308 -13780 13840 0
-1308 -13781 13841 0
-1308 -13782 13842 0
-1308 -13783 13843 0
-1308 -13784 13844 0
-1308 -13785 13845 0
-1308 -13786 13846 0
-1308 -13787 13847 0
-1308 -13788 13848 0
-1308 -13789 13849 0
-1308 -13790 13850 0
-1308 -13791 13851 0
-1308 -13792 13852 0
-1308 -13793 13853 0
-1308 -13794 13854 0
-1308 -13795 13855 0
-1308 -13796 13856 0
-1308 -13797 0
-13798 13857 0
-13799 13858 0
-13800 13859 0
-13801 13860 0
-13802 13861 0
-13803 13862 0
-13804 13863 0
-13805 13864 0
-13806 13865 0
-13807 13866 0
-13808 13867 0
-13809 13868 0
-13810 13869 0
-13811 13870 0
-13812 13871 0
-13813 13872 0
-13814 13873 0
-13815 13874 0
-13816 13875 0
-13817 13876 0
-13818 13877 0
-13819 13878 0
-13820 13879 0
-13821 13880 0
-13822 13881 0
-13823 13882 0
-13824 13883 0
-13825 13884 0
-13826 13885 0
-13827 13886 0
-13828 13887 0
-13829 13888 0
-13830 13889 0
-13831 13890 0
-13832 13891 0
-13833 13892 0
-13834 13893 0
-13835 13894 0
-13836 13895 0
-13837 13896 0
-13838 13897 0
-13839 13898 0
-13840 13899 0
-13841 13900 0
-13842 13901 0
-13843 13902 0
-13844 13903 0
-13845 13904 0
-13846 13905 0
-13847 13906 0
-13848 13907 0
-13849 13908 0
-13850 13909 0
-13851 13910 0
-13852 13911 0
-13853 13912 0
-13854 13913 0
-13855 13914 0
-13856 13915 0
-1310 -13798 13858 0
-1310 -13799 13859 0
-1310 -13800 13860 0
-1310 -13801 13861 0
-1310 -13802 13862 0
-1310 -13803 13863 0
-1310 -13804 13864 0
-1310 -13805 13865 0
-1310 -13806 13866 0
-1310 -13807 13867 0
-1310 -13808 13868 0
-1310 -13809 13869 0
-1310 -13810 13870 0
-1310 -13811 13871 0
-1310 -13812 13872 0
-1310 -13813 13873 0
-1310 -13814 13874 0
-1310 -13815 13875 0
-1310 -13816 13876 0
-1310 -13817 13877 0
-1310 -13818 13878 0
-1310 -13819 13879 0
-1310 -13820 13880 0
-1310 -13821 13881 0
-1310 -13822 13882 0
-1310 -13823 13883 0
-1310 -13824 13884 0
-1310 -13825 13885 0
-1310 -13826 13886 0
-1310 -13827 13887 0
-1310 -13828 13888 0
-1310 -13829 13889 0
-1310 -13830 13890 0
-1310 -13831 13891 0
-1310 -13832 13892 0
-1310 -13833 13893 0
-1310 -13834 13894 0
-1310 -13835 13895 0
-1310 -13836 13896 0
-1310 -13837 13897 0
-1310 -13838 13898 0
-1310 -13839 13899 0
-1310 -13840 13900 0
-1310 -13841 13901 0
-1310 -13842 13902 0
-1310 -13843 13903 0
-1310 -13844 13904 0
-1310 -13845 13905 0
-1310 -13846 13906 0
-1310 -13847 13907 0
-1310 -13848 13908 0
-1310 -13849 13909 0
-1310 -13850 13910 0
-1310 -13851 13911 0
-1310 -13852 13912 0
-1310 -13853 13913 0
-1310 -13854 13914 0
-1310 -13855 13915 0
-1310 -13856 0
-13857 13916 0
-13858 13917 0
-13859 13918 0
-13860 13919 0
-13861 13920 0
-13862 13921 0
-13863 13922 0
-13864 13923 0
-13865 13924 0
-13866 13925 0
-13867 13926 0
-13868 13927 0
-13869 13928 0
-13870 13929 0
-13871 13930 0
-13872 13931 0
-13873 13932 0
-13874 13933 0
-13875 13934 0
-13876 13935 0
-13877 13936 0
-13878 13937 0
-13879 13938 0
-13880 13939 0
-13881 13940 0
-13882 13941 0
-13883 13942 0
-13884 13943 0
-13885 13944 0
-13886 13945 0
-13887 13946 0
-13888 13947 0
-13889 13948 0
-13890 13949 0
-13891 13950 0
-13892 13951 0
-13893 13952 0
-13894 13953 0
-13895 13954 0
-13896 13955 0
-13897 13956 0
-13898 13957 0
-13899 13958 0
-13900 13959 0
-13901 13960 0
-13902 13961 0
-13903 13962 0
-13904 13963 0
-13905 13964 0
-13906 13965 0
-13907 13966 0
-13908 13967 0
-13909 13968 0
-13910 13969 0
-13911 13970 0
-13912 13971 0
-13913 13972 0
-13914 13973 0
-13915 13974 0
-1312 -13857 13917 0
-1312 -13858 13918 0
-1312 -13859 13919 0
-1312 -13860 13920 0
-1312 -13861 13921 0
-1312 -13862 13922 0
-1312 -13863 13923 0
-1312 -13864 13924 0
-1312 -13865 13925 0
-1312 -13866 13926 0
-1312 -13867 13927 0
-1312 -13868 13928 0
-1312 -13869 13929 0
-1312 -13870 13930 0
-1312 -13871 13931 0
-1312 -13872 13932 0
-1312 -13873 13933 0
-1312 -13874 13934 0
-1312 -13875 13935 0
-1312 -13876 13936 0
-1312 -13877 13937 0
-1312 -13878 13938 0
-1312 -13879 13939 0
-1312 -13880 13940 0
-1312 -13881 13941 0
-1312 -13882 13942 0
-1312 -13883 13943 0
-1312 -13884 13944 0
-1312 -13885 13945 0
-1312 -13886 13946 0
-1312 -13887 13947 0
-1312 -13888 13948 0
-1312 -13889 13949 0
-1312 -13890 13950 0
-1312 -13891 13951 0
-1312 -13892 13952 0
-1312 -13893 13953 0
-1312 -13894 13954 0
-1312 -13895 13955 0
-1312 -13896 13956 0
-1312 -13897 13957 0
-1312 -13898 13958 0
-1312 -13899 13959 0
-1312 -13900 13960 0
-1312 -13901 13961 0
-1312 -13902 13962 0
-1312 -13903 13963 0
-1312 -13904 13964 0
-1312 -13905 13965 0
-1312 -13906 13966 0
-1312 -13907 13967 0
-1312 -13908 13968 0
-1312 -13909 13969 0
-1312 -13910 13970 0
-1312 -13911 13971 0
-1312 -13912 13972 0
-1312 -13913 13973 0
-1312 -13914 13974 0
-1312 -13915 0
-13916 13975 0
-13917 13976 0
-13918 13977 0
-13919 13978 0
-13920 13979 0
-13921 13980 0
-13922 13981 0
-13923 13982 0
-13924 13983 0
-13925 13984 0
-13926 13985 0
-13927 13986 0
-13928 13987 0
-13929 13988 0
-13930 13989 0
-13931 13990 0
-13932 13991 0
-13933 13992 0
-13934 13993 0
-13935 13994 0
-13936 13995 0
-13937 13996 0
-13938 13997 0
-13939 13998 0
-13940 13999 0
-13941 14000 0
-13942 14001 0
-13943 14002 0
-13944 14003 0
-13945 14004 0
-13946 14005 0
-13947 14006 0
-13948 14007 0
-13949 14008 0
-13950 14009 0
-13951 14010 0
-13952 14011 0
-13953 14012 0
-13954 14013 0
-13955 14014 0
-13956 14015 0
-13957 14016 0
-13958 14017 0
-13959 14018 0
-13960 14019 0
-13961 14020 0
-13962 14021 0
-13963 14022 0
-13964 14023 0
-13965 14024 0
-13966 14025 0
-13967 14026 0
-13968 14027 0
-13969 14028 0
-13970 14029 0
-13971 14030 0
-13972 14031 0
-13973 14032 0
-13974 14033 0
-1314 -13916 13976 0
-1314 -13917 13977 0
-1314 -13918 13978 0
-1314 -13919 13979 0
-1314 -13920 13980 0
-1314 -13921 13981 0
-1314 -13922 13982 0
-1314 -13923 13983 0
-1314 -13924 13984 0
-1314 -13925 13985 0
-1314 -13926 13986 0
-1314 -13927 13987 0
-1314 -13928 13988 0
-1314 -13929 13989 0
-1314 -13930 13990 0
-1314 -13931 13991 0
-1314 -13932 13992 0
-1314 -13933 13993 0
-1314 -13934 13994 0
-1314 -13935 13995 0
-1314 -13936 13996 0
-1314 -13937 13997 0
-1314 -13938 13998 0
-1314 -13939 13999 0
-1314 -13940 14000 0
-1314 -13941 14001 0
-1314 -13942 14002 0
-1314 -13943 14003 0
-1314 -13944 14004 0
-1314 -13945 14005 0
-1314 -13946 14006 0
-1314 -13947 14007 0
-1314 -13948 14008 0
-1314 -13949 14009 0
-1314 -13950 14010 0
-1314 -13951 14011 0
-1314 -13952 14012 0
-1314 -13953 14013 0
-1314 -13954 14014 0
-1314 -13955 14015 0
-1314 -13956 14016 0
-1314 -13957 14017 0
-1314 -13958 14018 0
-1314 -13959 14019 0
-1314 -13960 14020 0
-1314 -13961 14021 0
-1314 -13962 14022 0
-1314 -13963 14023 0
-1314 -13964 14024 0
-1314 -13965 14025 0
-1314 -13966 14026 0
-1314 -13967 14027 0
-1314 -13968 14028 0
-1314 -13969 14029 0
-1314 -13970 14030 0
-1314 -13971 14031 0
-1314 -13972 14032 0
-1314 -13973 14033 0
-1314 -13974 0
-13975 14034 0
-13976 14035 0
-13977 14036 0
-13978 14037 0
-13979 14038 0
-13980 14039 0
-13981 14040 0
-13982 14041 0
-13983 14042 0
-13984 14043 0
-13985 14044 0
-13986 14045 0
-13987 14046 0
-13988 14047 0
-13989 14048 0
-13990 14049 0
-13991 14050 0
-13992 14051 0
-13993 14052 0
-13994 14053 0
-13995 14054 0
-13996 14055 0
-13997 14056 0
-13998 14057 0
-13999 14058 0
-14000 14059 0
-14001 14060 0
-14002 14061 0
-14003 14062 0
-14004 14063 0
-14005 14064 0
-14006 14065 0
-14007 14066 0
-14008 14067 0
-14009 14068 0
-14010 14069 0
-14011 14070 0
-14012 14071 0
-14013 14072 0
-14014 14073 0
-14015 14074 0
-14016 14075 0
-14017 14076 0
-14018 14077 0
-14019 14078 0
-14020 14079 0
-14021 14080 0
-14022 14081 0
-14023 14082 0
-14024 14083 0
-14025 14084 0
-14026 14085 0
-14027 14086 0
-14028 14087 0
-14029 14088 0
-14030 14089 0
-14031 14090 0
-14032 14091 0
-14033 14092 0
-1316 -13975 14035 0
-1316 -13976 14036 0
-1316 -13977 14037 0
-1316 -13978 14038 0
-1316 -13979 14039 0
-1316 -13980 14040 0
-1316 -13981 14041 0
-1316 -13982 14042 0
-1316 -13983 14043 0
-1316 -13984 14044 0
-1316 -13985 14045 0
-1316 -13986 14046 0
-1316 -13987 14047 0
-1316 -13988 14048 0
-1316 -13989 14049 0
-1316 -13990 14050 0
-1316 -13991 14051 0
-1316 -13992 14052 0
-1316 -13993 14053 0
-1316 -13994 14054 0
-1316 -13995 14055 0
-1316 -13996 14056 0
-1316 -13997 14057 0
-1316 -13998 14058 0
-1316 -13999 14059 0
-1316 -14000 14060 0
-1316 -14001 14061 0
-1316 -14002 14062 0
-1316 -14003 14063 0
-1316 -14004 14064 0
-1316 -14005 14065 0
-1316 -14006 14066 0
-1316 -14007 14067 0
-1316 -14008 14068 0
-1316 -14009 14069 0
-1316 -14010 14070 0
-1316 -14011 14071 0
-1316 -14012 14072 0
-1316 -14013 14073 0
-1316 -14014 14074 0
-1316 -14015 14075 0
-1316 -14016 14076 0
-1316 -14017 14077 0
-1316 -14018 14078 0
-1316 -14019 14079 0
-1316 -14020 14080 0
-1316 -14021 14081 0
-1316 -14022 14082 0
-1316 -14023 14083 0
-1316 -14024 14084 0
-1316 -14025 14085 0
-1316 -14026 14086 0
-1316 -14027 14087 0
-1316 -14028 14088 0
-1316 -14029 14089 0
-1316 -14030 14090 0
-1316 -14031 14091 0
-1316 -14032 14092 0
-1316 -14033 0
-14034 14093 0
-14035 14094 0
-14036 14095 0
-14037 14096 0
-14038 14097 0
-14039 14098 0
-14040 14099 0
-14041 14100 0
-14042 14101 0
-14043 14102 0
-14044 14103 0
-14045 14104 0
-14046 14105 0
-14047 14106 0
-14048 14107 0
-14049 14108 0
-14050 14109 0
-14051 14110 0
-14052 14111 0
-14053 14112 0
-14054 14113 0
-14055 14114 0
-14056 14115 0
-14057 14116 0
-14058 14117 0
-14059 14118 0
-14060 14119 0
-14061 14120 0
-14062 14121 0
-14063 14122 0
-14064 14123 0
-14065 14124 0
-14066 14125 0
-14067 14126 0
-14068 14127 0
-14069 14128 0
-14070 14129 0
-14071 14130 0
-14072 14131 0
-14073 14132 0
-14074 14133 0
-14075 14134 0
-14076 14135 0
-14077 14136 0
-14078 14137 0
-14079 14138 0
-14080 14139 0
-14081 14140 0
-14082 14141 0
-14083 14142 0
-14084 14143 0
-14085 14144 0
-14086 14145 0
-14087 14146 0
-14088 14147 0
-14089 14148 0
-14090 14149 0
-14091 14150 0
-14092 14151 0
-1318 -14034 14094 0
-1318 -14035 14095 0
-1318 -14036 14096 0
-1318 -14037 14097 0
-1318 -14038 14098 0
-1318 -14039 14099 0
-1318 -14040 14100 0
-1318 -14041 14101 0
-1318 -14042 14102 0
-1318 -14043 14103 0
-1318 -14044 14104 0
-1318 -14045 14105 0
-1318 -14046 14106 0
-1318 -14047 14107 0
-1318 -14048 14108 0
-1318 -14049 14109 0
-1318 -14050 14110 0
-1318 -14051 14111 0
-1318 -14052 14112 0
-1318 -14053 14113 0
-1318 -14054 14114 0
-1318 -14055 14115 0
-1318 -14056 14116 0
-1318 -14057 14117 0
-1318 -14058 14118 0
-1318 -14059 14119 0
-1318 -14060 14120 0
-1318 -14061 14121 0
-1318 -14062 14122 0
-1318 -14063 14123 0
-1318 -14064 14124 0
-1318 -14065 14125 0
-1318 -14066 14126 0
-1318 -14067 14127 0
-1318 -14068 14128 0
-1318 -14069 14129 0
-1318 -14070 14130 0
-1318 -14071 14131 0
-1318 -14072 14132 0
-1318 -14073 14133 0
-1318 -14074 14134 0
-1318 -14075 14135 0
-1318 -14076 14136 0
-1318 -14077 14137 0
-1318 -14078 14138 0
-1318 -14079 14139 0
-1318 -14080 14140 0
-1318 -14081 14141 0
-1318 -14082 14142 0
-1318 -14083 14143 0
-1318 -14084 14144 0
-1318 -14085 14145 0
-1318 -14086 14146 0
-1318 -14087 14147 0
-1318 -14088 14148 0
-1318 -14089 14149 0
-1318 -14090 14150 0
-1318 -14091 14151 0
-1318 -14092 0
-14093 14152 0
-14094 14153 0
-14095 14154 0
-14096 14155 0
-14097 14156 0
-14098 14157 0
-14099 14158 0
-14100 14159 0
-14101 14160 0
-14102 14161 0
-14103 14162 0
-14104 14163 0
-14105 14164 0
-14106 14165 0
-14107 14166 0
-14108 14167 0
-14109 14168 0
-14110 14169 0
-14111 14170 0
-14112 14171 0
-14113 14172 0
-14114 14173 0
-14115 14174 0
-14116 14175 0
-14117 14176 0
-14118 14177 0
-14119 14178 0
-14120 14179 0
-14121 14180 0
-14122 14181 0
-14123 14182 0
-14124 14183 0
-14125 14184 0
-14126 14185 0
-14127 14186 0
-14128 14187 0
-14129 14188 0
-14130 14189 0
-14131 14190 0
-14132 14191 0
-14133 14192 0
-14134 14193 0
-14135 14194 0
-14136 14195 0
-14137 14196 0
-14138 14197 0
-14139 14198 0
-14140 14199 0
-14141 14200 0
-14142 14201 0
-14143 14202 0
-14144 14203 0
-14145 14204 0
-14146 14205 0
-14147 14206 0
-14148 14207 0
-14149 14208 0
-14150 14209 0
-14151 14210 0
-1320 -14093 14153 0
-1320 -14094 14154 0
-1320 -14095 14155 0
-1320 -14096 14156 0
-1320 -14097 14157 0
-1320 -14098 14158 0
-1320 -14099 14159 0
-1320 -14100 14160 0
-1320 -14101 14161 0
-1320 -14102 14162 0
-1320 -14103 14163 0
-1320 -14104 14164 0
-1320 -14105 14165 0
-1320 -14106 14166 0
-1320 -14107 14167 0
-1320 -14108 14168 0
-1320 -14109 14169 0
-1320 -14110 14170 0
-1320 -14111 14171 0
-1320 -14112 14172 0
-1320 -14113 14173 0
-1320 -14114 14174 0
-1320 -14115 14175 0
-1320 -14116 14176 0
-1320 -14117 14177 0
-1320 -14118 14178 0
-1320 -14119 14179 0
-1320 -14120 14180 0
-1320 -14121 14181 0
-1320 -14122 14182 0
-1320 -14123 14183 0
-1320 -14124 14184 0
-1320 -14125 14185 0
-1320 -14126 14186 0
-1320 -14127 14187 0
-1320 -14128 14188 0
-1320 -14129 14189 0
-1320 -14130 14190 0
-1320 -14131 14191 0
-1320 -14132 14192 0
-1320 -14133 14193 0
-1320 -14134 14194 0
-1320 -14135 14195 0
-1320 -14136 14196 0
-1320 -14137 14197 0
-1320 -14138 14198 0
-1320 -14139 14199 0
-1320 -14140 14200 0
-1320 -14141 14201 0
-1320 -14142 14202 0
-1320 -14143 14203 0
-1320 -14144 14204 0
-1320 -14145 14205 0
-1320 -14146 14206 0
-1320 -14147 14207 0
-1320 -14148 14208 0
-1320 -14149 14209 0
-1320 -14150 14210 0
-1320 -14151 0
-14152 14211 0
-14153 14212 0
-14154 14213 0
-14155 14214 0
-14156 14215 0
-14157 14216 0
-14158 14217 0
-14159 14218 0
-14160 14219 0
-14161 14220 0
-14162 14221 0
-14163 14222 0
-14164 14223 0
-14165 14224 0
-14166 14225 0
-14167 14226 0
-14168 14227 0
-14169 14228 0
-14170 14229 0
-14171 14230 0
-14172 14231 0
-14173 14232 0
-14174 14233 0
-14175 14234 0
-14176 14235 0
-14177 14236 0
-14178 14237 0
-14179 14238 0
-14180 14239 0
-14181 14240 0
-14182 14241 0
-14183 14242 0
-14184 14243 0
-14185 14244 0
-14186 14245 0
-14187 14246 0
-14188 14247 0
-14189 14248 0
-14190 14249 0
-14191 14250 0
-14192 14251 0
-14193 14252 0
-14194 14253 0
-14195 14254 0
-14196 14255 0
-14197 14256 0
-14198 14257 0
-14199 14258 0
-14200 14259 0
-14201 14260 0
-14202 14261 0
-14203 14262 0
-14204 14263 0
-14205 14264 0
-14206 14265 0
-14207 14266 0
-14208 14267 0
-14209 14268 0
-14210 14269 0
-1322 -14152 14212 0
-1322 -14153 14213 0
-1322 -14154 14214 0
-1322 -14155 14215 0
-1322 -14156 14216 0
-1322 -14157 14217 0
-1322 -14158 14218 0
-1322 -14159 14219 0
-1322 -14160 14220 0
-1322 -14161 14221 0
-1322 -14162 14222 0
-1322 -14163 14223 0
-1322 -14164 14224 0
-1322 -14165 14225 0
-1322 -14166 14226 0
-1322 -14167 14227 0
-1322 -14168 14228 0
-1322 -14169 14229 0
-1322 -14170 14230 0
-1322 -14171 14231 0
-1322 -14172 14232 0
-1322 -14173 14233 0
-1322 -14174 14234 0
-1322 -14175 14235 0
-1322 -14176 14236 0
-1322 -14177 14237 0
-1322 -14178 14238 0
-1322 -14179 14239 0
-1322 -14180 14240 0
-1322 -14181 14241 0
-1322 -14182 14242 0
-1322 -14183 14243 0
-1322 -14184 14244 0
-1322 -14185 14245 0
-1322 -14186 14246 0
-1322 -14187 14247 0
-1322 -14188 14248 0
-1322 -14189 14249 0
-1322 -14190 14250 0
-1322 -14191 14251 0
-1322 -14192 14252 0
-1322 -14193 14253 0
-1322 -14194 14254 0
-1322 -14195 14255 0
-1322 -14196 14256 0
-1322 -14197 14257 0
-1322 -14198 14258 0
-1322 -14199 14259 0
-1322 -14200 14260 0
-1322 -14201 14261 0
-1322 -14202 14262 0
-1322 -14203 14263 0
-1322 -14204 14264 0
-1322 -14205 14265 0
-1322 -14206 14266 0
-1322 -14207 14267 0
-1322 -14208 14268 0
-1322 -14209 14269 0
-1322 -14210 0
-14211 14270 0
-14212 14271 0
-14213 14272 0
-14214 14273 0
-14215 14274 0
-14216 14275 0
-14217 14276 0
-14218 14277 0
-14219 14278 0
-14220 14279 0
-14221 14280 0
-14222 14281 0
-14223 14282 0
-14224 14283 0
-14225 14284 0
-14226 14285 0
-14227 14286 0
-14228 14287 0
-14229 14288 0
-14230 14289 0
-14231 14290 0
-14232 14291 0
-14233 14292 0
-14234 14293 0
-14235 14294 0
-14236 14295 0
-14237 14296 0
-14238 14297 0
-14239 14298 0
-14240 14299 0
-14241 14300 0
-14242 14301 0
-14243 14302 0
-14244 14303 0
-14245 14304 0
-14246 14305 0
-14247 14306 0
-14248 14307 0
-14249 14308 0
-14250 14309 0
-14251 14310 0
-14252 14311 0
-14253 14312 0
-14254 14313 0
-14255 14314 0
-14256 14315 0
-14257 14316 0
-14258 14317 0
-14259 14318 0
-14260 14319 0
-14261 14320 0
-14262 14321 0
-14263 14322 0
-14264 14323 0
-14265 14324 0
-14266 14325 0
-14267 14326 0
-14268 14327 0
-14269 14328 0
-1324 -14211 14271 0
-1324 -14212 14272 0
-1324 -14213 14273 0
-1324 -14214 14274 0
-1324 -14215 14275 0
-1324 -14216 14276 0
-1324 -14217 14277 0
-1324 -14218 14278 0
-1324 -14219 14279 0
-1324 -14220 14280 0
-1324 -14221 14281 0
-1324 -14222 14282 0
-1324 -14223 14283 0
-1324 -14224 14284 0
-1324 -14225 14285 0
-1324 -14226 14286 0
-1324 -14227 14287 0
-1324 -14228 14288 0
-1324 -14229 14289 0
-1324 -14230 14290 0
-1324 -14231 14291 0
-1324 -14232 14292 0
-1324 -14233 14293 0
-1324 -14234 14294 0
-1324 -14235 14295 0
-1324 -14236 14296 0
-1324 -14237 14297 0
-1324 -14238 14298 0
-1324 -14239 14299 0
-1324 -14240 14300 0
-1324 -14241 14301 0
-1324 -14242 14302 0
-1324 -14243 14303 0
-1324 -14244 14304 0
-1324 -14245 14305 0
-1324 -14246 14306 0
-1324 -14247 14307 0
-1324 -14248 14308 0
-1324 -14249 14309 0
-1324 -14250 14310 0
-1324 -14251 14311 0
-1324 -14252 14312 0
-1324 -14253 14313 0
-1324 -14254 14314 0
-1324 -14255 14315 0
-1324 -14256 14316 0
-1324 -14257 14317 0
-1324 -14258 14318 0
-1324 -14259 14319 0
-1324 -14260 14320 0
-1324 -14261 14321 0
-1324 -14262 14322 0
-1324 -14263 14323 0
-1324 -14264 14324 0
-1324 -14265 14325 0
-1324 -14266 14326 0
-1324 -14267 14327 0
-1324 -14268 14328 0
-1324 -14269 0
-14270 14329 0
-14271 14330 0
-14272 14331 0
-14273 14332 0
-14274 14333 0
-14275 14334 0
-14276 14335 0
-14277 14336 0
-14278 14337 0
-14279 14338 0
-14280 14339 0
-14281 14340 0
-14282 14341 0
-14283 14342 0
-14284 14343 0
-14285 14344 0
-14286 14345 0
-14287 14346 0
-14288 14347 0
-14289 14348 0
-14290 14349 0
-14291 14350 0
-14292 14351 0
-14293 14352 0
-14294 14353 0
-14295 14354 0
-14296 14355 0
-14297 14356 0
-14298 14357 0
-14299 14358 0
-14300 14359 0
-14301 14360 0
-14302 14361 0
-14303 14362 0
-14304 14363 0
-14305 14364 0
-14306 14365 0
-14307 14366 0
-14308 14367 0
-14309 14368 0
-14310 14369 0
-14311 14370 0
-14312 14371 0
-14313 14372 0
-14314 14373 0
-14315 14374 0
-14316 14375 0
-14317 14376 0
-14318 14377 0
-14319 14378 0
-14320 14379 0
-14321 14380 0
-14322 14381 0
-14323 14382 0
-14324 14383 0
-14325 14384 0
-14326 14385 0
-14327 14386 0
-14328 14387 0
-1326 -14270 14330 0
-1326 -14271 14331 0
-1326 -14272 14332 0
-1326 -14273 14333 0
-1326 -14274 14334 0
-1326 -14275 14335 0
-1326 -14276 14336 0
-1326 -14277 14337 0
-1326 -14278 14338 0
-1326 -14279 14339 0
-1326 -14280 14340 0
-1326 -14281 14341 0
-1326 -14282 14342 0
-1326 -14283 14343 0
-1326 -14284 14344 0
-1326 -14285 14345 0
-1326 -14286 14346 0
-1326 -14287 14347 0
-1326 -14288 14348 0
-1326 -14289 14349 0
-1326 -14290 14350 0
-1326 -14291 14351 0
-1326 -14292 14352 0
-1326 -14293 14353 0
-1326 -14294 14354 0
-1326 -14295 14355 0
-1326 -14296 14356 0
-1326 -14297 14357 0
-1326 -14298 14358 0
-1326 -14299 14359 0
-1326 -14300 14360 0
-1326 -14301 14361 0
-1326 -14302 14362 0
-1326 -14303 14363 0
-1326 -14304 14364 0
-1326 -14305 14365 0
-1326 -14306 14366 0
-1326 -14307 14367 0
-1326 -14308 14368 0
-1326 -14309 14369 0
-1326 -14310 14370 0
-1326 -14311 14371 0
-1326 -14312 14372 0
-1326 -14313 14373 0
-1326 -14314 14374 0
-1326 -14315 14375 0
-1326 -14316 14376 0
-1326 -14317 14377 0
-1326 -14318 14378 0
-1326 -14319 14379 0
-1326 -14320 14380 0
-1326 -14321 14381 0
-1326 -14322 14382 0
-1326 -14323 14383 0
-1326 -14324 14384 0
-1326 -14325 14385 0
-1326 -14326 14386 0
-1326 -14327 14387 0
-1326 -14328 0
-14329 14388 0
-14330 14389 0
-14331 14390 0
-14332 14391 0
-14333 14392 0
-14334 14393 0
-14335 14394 0
-14336 14395 0
-14337 14396 0
-14338 14397 0
-14339 14398 0
-14340 14399 0
-14341 14400 0
-14342 14401 0
-14343 14402 0
-14344 14403 0
-14345 14404 0
-14346 14405 0
-14347 14406 0
-14348 14407 0
-14349 14408 0
-14350 14409 0
-14351 14410 0
-14352 14411 0
-14353 14412 0
-14354 14413 0
-14355 14414 0
-14356 14415 0
-14357 14416 0
-14358 14417 0
-14359 14418 0
-14360 14419 0
-14361 14420 0
-14362 14421 0
-14363 14422 0
-14364 14423 0
-14365 14424 0
-14366 14425 0
-14367 14426 0
-14368 14427 0
-14369 14428 0
-14370 14429 0
-14371 14430 0
-14372 14431 0
-14373 14432 0
-14374 14433 0
-14375 14434 0
-14376 14435 0
-14377 14436 0
-14378 14437 0
-14379 14438 0
-14380 14439 0
-14381 14440 0
-14382 14441 0
-14383 14442 0
-14384 14443 0
-14385 14444 0
-14386 14445 0
-14387 14446 0
-1328 -14329 14389 0
-1328 -14330 14390 0
-1328 -14331 14391 0
-1328 -14332 14392 0
-1328 -14333 14393 0
-1328 -14334 14394 0
-1328 -14335 14395 0
-1328 -14336 14396 0
-1328 -14337 14397 0
-1328 -14338 14398 0
-1328 -14339 14399 0
-1328 -14340 14400 0
-1328 -14341 14401 0
-1328 -14342 14402 0
-1328 -14343 14403 0
-1328 -14344 14404 0
-1328 -14345 14405 0
-1328 -14346 14406 0
-1328 -14347 14407 0
-1328 -14348 14408 0
-1328 -14349 14409 0
-1328 -14350 14410 0
-1328 -14351 14411 0
-1328 -14352 14412 0
-1328 -14353 14413 0
-1328 -14354 14414 0
-1328 -14355 14415 0
-1328 -14356 14416 0
-1328 -14357 14417 0
-1328 -14358 14418 0
-1328 -14359 14419 0
-1328 -14360 14420 0
-1328 -14361 14421 0
-1328 -14362 14422 0
-1328 -14363 14423 0
-1328 -14364 14424 0
-1328 -14365 14425 0
-1328 -14366 14426 0
-1328 -14367 14427 0
-1328 -14368 14428 0
-1328 -14369 14429 0
-1328 -14370 14430 0
-1328 -14371 14431 0
-1328 -14372 14432 0
-1328 -14373 14433 0
-1328 -14374 14434 0
-1328 -14375 14435 0
-1328 -14376 14436 0
-1328 -14377 14437 0
-1328 -14378 14438 0
-1328 -14379 14439 0
-1328 -14380 14440 0
-1328 -14381 14441 0
-1328 -14382 14442 0
-1328 -14383 14443 0
-1328 -14384 14444 0
-1328 -14385 14445 0
-1328 -14386 14446 0
-1328 -14387 0
-14388 14447 0
-14389 14448 0
-14390 14449 0
-14391 14450 0
-14392 14451 0
-14393 14452 0
-14394 14453 0
-14395 14454 0
-14396 14455 0
-14397 14456 0
-14398 14457 0
-14399 14458 0
-14400 14459 0
-14401 14460 0
-14402 14461 0
-14403 14462 0
-14404 14463 0
-14405 14464 0
-14406 14465 0
-14407 14466 0
-14408 14467 0
-14409 14468 0
-14410 14469 0
-14411 14470 0
-14412 14471 0
-14413 14472 0
-14414 14473 0
-14415 14474 0
-14416 14475 0
-14417 14476 0
-14418 14477 0
-14419 14478 0
-14420 14479 0
-14421 14480 0
-14422 14481 0
-14423 14482 0
-14424 14483 0
-14425 14484 0
-14426 14485 0
-14427 14486 0
-14428 14487 0
-14429 14488 0
-14430 14489 0
-14431 14490 0
-14432 14491 0
-14433 14492 0
-14434 14493 0
-14435 14494 0
-14436 14495 0
-14437 14496 0
-14438 14497 0
-14439 14498 0
-14440 14499 0
-14441 14500 0
-14442 14501 0
-14443 14502 0
-14444 14503 0
-14445 14504 0
-14446 14505 0
-1330 -14388 14448 0
-1330 -14389 14449 0
-1330 -14390 14450 0
-1330 -14391 14451 0
-1330 -14392 14452 0
-1330 -14393 14453 0
-1330 -14394 14454 0
-1330 -14395 14455 0
-1330 -14396 14456 0
-1330 -14397 14457 0
-1330 -14398 14458 0
-1330 -14399 14459 0
-1330 -14400 14460 0
-1330 -14401 14461 0
-1330 -14402 14462 0
-1330 -14403 14463 0
-1330 -14404 14464 0
-1330 -14405 14465 0
-1330 -14406 14466 0
-1330 -14407 14467 0
-1330 -14408 14468 0
-1330 -14409 14469 0
-1330 -14410 14470 0
-1330 -14411 14471 0
-1330 -14412 14472 0
-1330 -14413 14473 0
-1330 -14414 14474 0
-1330 -14415 14475 0
-1330 -14416 14476 0
-1330 -14417 14477 0
-1330 -14418 14478 0
-1330 -14419 14479 0
-1330 -14420 14480 0
-1330 -14421 14481 0
-1330 -14422 14482 0
-1330 -14423 14483 0
-1330 -14424 14484 0
-1330 -14425 14485 0
-1330 -14426 14486 0
-1330 -14427 14487 0
-1330 -14428 14488 0
-1330 -14429 14489 0
-1330 -14430 14490 0
-1330 -14431 14491 0
-1330 -14432 14492 0
-1330 -14433 14493 0
-1330 -14434 14494 0
-1330 -14435 14495 0
-1330 -14436 14496 0
-1330 -14437 14497 0
-1330 -14438 14498 0
-1330 -14439 14499 0
-1330 -14440 14500 0
-1330 -14441 14501 0
-1330 -14442 14502 0
-1330 -14443 14503 0
-1330 -14444 14504 0
-1330 -14445 14505 0
-1330 -14446 0
-14447 14506 0
-14448 14507 0
-14449 14508 0
-14450 14509 0
-14451 14510 0
-14452 14511 0
-14453 14512 0
-14454 14513 0
-14455 14514 0
-14456 14515 0
-14457 14516 0
-14458 14517 0
-14459 14518 0
-14460 14519 0
-14461 14520 0
-14462 14521 0
-14463 14522 0
-14464 14523 0
-14465 14524 0
-14466 14525 0
-14467 14526 0
-14468 14527 0
-14469 14528 0
-14470 14529 0
-14471 14530 0
-14472 14531 0
-14473 14532 0
-14474 14533 0
-14475 14534 0
-14476 14535 0
-14477 14536 0
-14478 14537 0
-14479 14538 0
-14480 14539 0
-14481 14540 0
-14482 14541 0
-14483 14542 0
-14484 14543 0
-14485 14544 0
-14486 14545 0
-14487 14546 0
-14488 14547 0
-14489 14548 0
-14490 14549 0
-14491 14550 0
-14492 14551 0
-14493 14552 0
-14494 14553 0
-14495 14554 0
-14496 14555 0
-14497 14556 0
-14498 14557 0
-14499 14558 0
-14500 14559 0
-14501 14560 0
-14502 14561 0
-14503 14562 0
-14504 14563 0
-14505 14564 0
-1332 -14447 14507 0
-1332 -14448 14508 0
-1332 -14449 14509 0
-1332 -14450 14510 0
-1332 -14451 14511 0
-1332 -14452 14512 0
-1332 -14453 14513 0
-1332 -14454 14514 0
-1332 -14455 14515 0
-1332 -14456 14516 0
-1332 -14457 14517 0
-1332 -14458 14518 0
-1332 -14459 14519 0
-1332 -14460 14520 0
-1332 -14461 14521 0
-1332 -14462 14522 0
-1332 -14463 14523 0
-1332 -14464 14524 0
-1332 -14465 14525 0
-1332 -14466 14526 0
-1332 -14467 14527 0
-1332 -14468 14528 0
-1332 -14469 14529 0
-1332 -14470 14530 0
-1332 -14471 14531 0
-1332 -14472 14532 0
-1332 -14473 14533 0
-1332 -14474 14534 0
-1332 -14475 14535 0
-1332 -14476 14536 0
-1332 -14477 14537 0
-1332 -14478 14538 0
-1332 -14479 14539 0
-1332 -14480 14540 0
-1332 -14481 14541 0
-1332 -14482 14542 0
-1332 -14483 14543 0
-1332 -14484 14544 0
-1332 -14485 14545 0
-1332 -14486 14546 0
-1332 -14487 14547 0
-1332 -14488 14548 0
-1332 -14489 14549 0
-1332 -14490 14550 0
-1332 -14491 14551 0
-1332 -14492 14552 0
-1332 -14493 14553 0
-1332 -14494 14554 0
-1332 -14495 14555 0
-1332 -14496 14556 0
-1332 -14497 14557 0
-1332 -14498 14558 0
-1332 -14499 14559 0
-1332 -14500 14560 0
-1332 -14501 14561 0
-1332 -14502 14562 0
-1332 -14503 14563 0
-1332 -14504 14564 0
-1332 -14505 0
-14506 14565 0
-14507 14566 0
-14508 14567 0
-14509 14568 0
-14510 14569 0
-14511 14570 0
-14512 14571 0
-14513 14572 0
-14514 14573 0
-14515 14574 0
-14516 14575 0
-14517 14576 0
-14518 14577 0
-14519 14578 0
-14520 14579 0
-14521 14580 0
-14522 14581 0
-14523 14582 0
-14524 14583 0
-14525 14584 0
-14526 14585 0
-14527 14586 0
-14528 14587 0
-14529 14588 0
-14530 14589 0
-14531 14590 0
-14532 14591 0
-14533 14592 0
-14534 14593 0
-14535 14594 0
-14536 14595 0
-14537 14596 0
-14538 14597 0
-14539 14598 0
-14540 14599 0
-14541 14600 0
-14542 14601 0
-14543 14602 0
-14544 14603 0
-14545 14604 0
-14546 14605 0
-14547 14606 0
-14548 14607 0
-14549 14608 0
-14550 14609 0
-14551 14610 0
-14552 14611 0
-14553 14612 0
-14554 14613 0
-14555 14614 0
-14556 14615 0
-14557 14616 0
-14558 14617 0
-14559 14618 0
-14560 14619 0
-14561 14620 0
-14562 14621 0
-14563 14622 0
-14564 14623 0
-1334 -14506 14566 0
-1334 -14507 14567 0
-1334 -14508 14568 0
-1334 -14509 14569 0
-1334 -14510 14570 0
-1334 -14511 14571 0
-1334 -14512 14572 0
-1334 -14513 14573 0
-1334 -14514 14574 0
-1334 -14515 14575 0
-1334 -14516 14576 0
-1334 -14517 14577 0
-1334 -14518 14578 0
-1334 -14519 14579 0
-1334 -14520 14580 0
-1334 -14521 14581 0
-1334 -14522 14582 0
-1334 -14523 14583 0
-1334 -14524 14584 0
-1334 -14525 14585 0
-1334 -14526 14586 0
-1334 -14527 14587 0
-1334 -14528 14588 0
-1334 -14529 14589 0
-1334 -14530 14590 0
-1334 -14531 14591 0
-1334 -14532 14592 0
-1334 -14533 14593 0
-1334 -14534 14594 0
-1334 -14535 14595 0
-1334 -14536 14596 0
-1334 -14537 14597 0
-1334 -14538 14598 0
-1334 -14539 14599 0
-1334 -14540 14600 0
-1334 -14541 14601 0
-1334 -14542 14602 0
-1334 -14543 14603 0
-1334 -14544 14604 0
-1334 -14545 14605 0
-1334 -14546 14606 0
-1334 -14547 14607 0
-1334 -14548 14608 0
-1334 -14549 14609 0
-1334 -14550 14610 0
-1334 -14551 14611 0
-1334 -14552 14612 0
-1334 -14553 14613 0
-1334 -14554 14614 0
-1334 -14555 14615 0
-1334 -14556 14616 0
-1334 -14557 14617 0
-1334 -14558 14618 0
-1334 -14559 14619 0
-1334 -14560 14620 0
-1334 -14561 14621 0
-1334 -14562 14622 0
-1334 -14563 14623 0
-1334 -14564 0
-14565 14624 0
-14566 14625 0
-14567 14626 0
-14568 14627 0
-14569 14628 0
-14570 14629 0
-14571 14630 0
-14572 14631 0
-14573 14632 0
-14574 14633 0
-14575 14634 0
-14576 14635 0
-14577 14636 0
-14578 14637 0
-14579 14638 0
-14580 14639 0
-14581 14640 0
-14582 14641 0
-14583 14642 0
-14584 14643 0
-14585 14644 0
-14586 14645 0
-14587 14646 0
-14588 14647 0
-14589 14648 0
-14590 14649 0
-14591 14650 0
-14592 14651 0
-14593 14652 0
-14594 14653 0
-14595 14654 0
-14596 14655 0
-14597 14656 0
-14598 14657 0
-14599 14658 0
-14600 14659 0
-14601 14660 0
-14602 14661 0
-14603 14662 0
-14604 14663 0
-14605 14664 0
-14606 14665 0
-14607 14666 0
-14608 14667 0
-14609 14668 0
-14610 14669 0
-14611 14670 0
-14612 14671 0
-14613 14672 0
-14614 14673 0
-14615 14674 0
-14616 14675 0
-14617 14676 0
-14618 14677 0
-14619 14678 0
-14620 14679 0
-14621 14680 0
-14622 14681 0
-14623 14682 0
-1336 -14565 14625 0
-1336 -14566 14626 0
-1336 -14567 14627 0
-1336 -14568 14628 0
-1336 -14569 14629 0
-1336 -14570 14630 0
-1336 -14571 14631 0
-1336 -14572 14632 0
-1336 -14573 14633 0
-1336 -14574 14634 0
-1336 -14575 14635 0
-1336 -14576 14636 0
-1336 -14577 14637 0
-1336 -14578 14638 0
-1336 -14579 14639 0
-1336 -14580 14640 0
-1336 -14581 14641 0
-1336 -14582 14642 0
-1336 -14583 14643 0
-1336 -14584 14644 0
-1336 -14585 14645 0
-1336 -14586 14646 0
-1336 -14587 14647 0
-1336 -14588 14648 0
-1336 -14589 14649 0
-1336 -14590 14650 0
-1336 -14591 14651 0
-1336 -14592 14652 0
-1336 -14593 14653 0
-1336 -14594 14654 0
-1336 -14595 14655 0
-1336 -14596 14656 0
-1336 -14597 14657 0
-1336 -14598 14658 0
-1336 -14599 14659 0
-1336 -14600 14660 0
-1336 -14601 14661 0
-1336 -14602 14662 0
-1336 -14603 14663 0
-1336 -14604 14664 0
-1336 -14605 14665 0
-1336 -14606 14666 0
-1336 -14607 14667 0
-1336 -14608 14668 0
-1336 -14609 14669 0
-1336 -14610 14670 0
-1336 -14611 14671 0
-1336 -14612 14672 0
-1336 -14613 14673 0
-1336 -14614 14674 0
-1336 -14615 14675 0
-1336 -14616 14676 0
-1336 -14617 14677 0
-1336 -14618 14678 0
-1336 -14619 14679 0
-1336 -14620 14680 0
-1336 -14621 14681 0
-1336 -14622 14682 0
-1336 -14623 0
-14624 14683 0
-14625 14684 0
-14626 14685 0
-14627 14686 0
-14628 14687 0
-14629 14688 0
-14630 14689 0
-14631 14690 0
-14632 14691 0
-14633 14692 0
-14634 14693 0
-14635 14694 0
-14636 14695 0
-14637 14696 0
-14638 14697 0
-14639 14698 0
-14640 14699 0
-14641 14700 0
-14642 14701 0
-14643 14702 0
-14644 14703 0
-14645 14704 0
-14646 14705 0
-14647 14706 0
-14648 14707 0
-14649 14708 0
-14650 14709 0
-14651 14710 0
-14652 14711 0
-14653 14712 0
-14654 14713 0
-14655 14714 0
-14656 14715 0
-14657 14716 0
-14658 14717 0
-14659 14718 0
-14660 14719 0
-14661 14720 0
-14662 14721 0
-14663 14722 0
-14664 14723 0
-14665 14724 0
-14666 14725 0
-14667 14726 0
-14668 14727 0
-14669 14728 0
-14670 14729 0
-14671 14730 0
-14672 14731 0
-14673 14732 0
-14674 14733 0
-14675 14734 0
-14676 14735 0
-14677 14736 0
-14678 14737 0
-14679 14738 0
-14680 14739 0
-14681 14740 0
-14682 14741 0
-1338 -14624 14684 0
-1338 -14625 14685 0
-1338 -14626 14686 0
-1338 -14627 14687 0
-1338 -14628 14688 0
-1338 -14629 14689 0
-1338 -14630 14690 0
-1338 -14631 14691 0
-1338 -14632 14692 0
-1338 -14633 14693 0
-1338 -14634 14694 0
-1338 -14635 14695 0
-1338 -14636 14696 0
-1338 -14637 14697 0
-1338 -14638 14698 0
-1338 -14639 14699 0
-1338 -14640 14700 0
-1338 -14641 14701 0
-1338 -14642 14702 0
-1338 -14643 14703 0
-1338 -14644 14704 0
-1338 -14645 14705 0
-1338 -14646 14706 0
-1338 -14647 14707 0
-1338 -14648 14708 0
-1338 -14649 14709 0
-1338 -14650 14710 0
-1338 -14651 14711 0
-1338 -14652 14712 0
-1338 -14653 14713 0
-1338 -14654 14714 0
-1338 -14655 14715 0
-1338 -14656 14716 0
-1338 -14657 14717 0
-1338 -14658 14718 0
-1338 -14659 14719 0
-1338 -14660 14720 0
-1338 -14661 14721 0
-1338 -14662 14722 0
-1338 -14663 14723 0
-1338 -14664 14724 0
-1338 -14665 14725 0
-1338 -14666 14726 0
-1338 -14667 14727 0
-1338 -14668 14728 0
-1338 -14669 14729 0
-1338 -14670 14730 0
-1338 -14671 14731 0
-1338 -14672 14732 0
-1338 -14673 14733 0
-1338 -14674 14734 0
-1338 -14675 14735 0
-1338 -14676 14736 0
-1338 -14677 14737 0
-1338 -14678 14738 0
-1338 -14679 14739 0
-1338 -14680 14740 0
-1338 -14681 14741 0
-1338 -14682 0
-14683 14742 0
-14684 14743 0
-14685 14744 0
-14686 14745 0
-14687 14746 0
-14688 14747 0
-14689 14748 0
-14690 14749 0
-14691 14750 0
-14692 14751 0
-14693 14752 0
-14694 14753 0
-14695 14754 0
-14696 14755 0
-14697 14756 0
-14698 14757 0
-14699 14758 0
-14700 14759 0
-14701 14760 0
-14702 14761 0
-14703 14762 0
-14704 14763 0
-14705 14764 0
-14706 14765 0
-14707 14766 0
-14708 14767 0
-14709 14768 0
-14710 14769 0
-14711 14770 0
-14712 14771 0
-14713 14772 0
-14714 14773 0
-14715 14774 0
-14716 14775 0
-14717 14776 0
-14718 14777 0
-14719 14778 0
-14720 14779 0
-14721 14780 0
-14722 14781 0
-14723 14782 0
-14724 14783 0
-14725 14784 0
-14726 14785 0
-14727 14786 0
-14728 14787 0
-14729 14788 0
-14730 14789 0
-14731 14790 0
-14732 14791 0
-14733 14792 0
-14734 14793 0
-14735 14794 0
-14736 14795 0
-14737 14796 0
-14738 14797 0
-14739 14798 0
-14740 14799 0
-14741 14800 0
-1340 -14683 14743 0
-1340 -14684 14744 0
-1340 -14685 14745 0
-1340 -14686 14746 0
-1340 -14687 14747 0
-1340 -14688 14748 0
-1340 -14689 14749 0
-1340 -14690 14750 0
-1340 -14691 14751 0
-1340 -14692 14752 0
-1340 -14693 14753 0
-1340 -14694 14754 0
-1340 -14695 14755 0
-1340 -14696 14756 0
-1340 -14697 14757 0
-1340 -14698 14758 0
-1340 -14699 14759 0
-1340 -14700 14760 0
-1340 -14701 14761 0
-1340 -14702 14762 0
-1340 -14703 14763 0
-1340 -14704 14764 0
-1340 -14705 14765 0
-1340 -14706 14766 0
-1340 -14707 14767 0
-1340 -14708 14768 0
-1340 -14709 14769 0
-1340 -14710 14770 0
-1340 -14711 14771 0
-1340 -14712 14772 0
-1340 -14713 14773 0
-1340 -14714 14774 0
-1340 -14715 14775 0
-1340 -14716 14776 0
-1340 -14717 14777 0
-1340 -14718 14778 0
-1340 -14719 14779 0
-1340 -14720 14780 0
-1340 -14721 14781 0
-1340 -14722 14782 0
-1340 -14723 14783 0
-1340 -14724 14784 0
-1340 -14725 14785 0
-1340 -14726 14786 0
-1340 -14727 14787 0
-1340 -14728 14788 0
-1340 -14729 14789 0
-1340 -14730 14790 0
-1340 -14731 14791 0
-1340 -14732 14792 0
-1340 -14733 14793 0
-1340 -14734 14794 0
-1340 -14735 14795 0
-1340 -14736 14796 0
-1340 -14737 14797 0
-1340 -14738 14798 0
-1340 -14739 14799 0
-1340 -14740 14800 0
-1340 -14741 0
-14742 14801 0
-14743 14802 0
-14744 14803 0
-14745 14804 0
-14746 14805 0
-14747 14806 0
-14748 14807 0
-14749 14808 0
-14750 14809 0
-14751 14810 0
-14752 14811 0
-14753 14812 0
-14754 14813 0
-14755 14814 0
-14756 14815 0
-14757 14816 0
-14758 14817 0
-14759 14818 0
-14760 14819 0
-14761 14820 0
-14762 14821 0
-14763 14822 0
-14764 14823 0
-14765 14824 0
-14766 14825 0
-14767 14826 0
-14768 14827 0
-14769 14828 0
-14770 14829 0
-14771 14830 0
-14772 14831 0
-14773 14832 0
-14774 14833 0
-14775 14834 0
-14776 14835 0
-14777 14836 0
-14778 14837 0
-14779 14838 0
-14780 14839 0
-14781 14840 0
-14782 14841 0
-14783 14842 0
-14784 14843 0
-14785 14844 0
-14786 14845 0
-14787 14846 0
-14788 14847 0
-14789 14848 0
-14790 14849 0
-14791 14850 0
-14792 14851 0
-14793 14852 0
-14794 14853 0
-14795 14854 0
-14796 14855 0
-14797 14856 0
-14798 14857 0
-14799 14858 0
-14800 14859 0
-1342 -14742 14802 0
-1342 -14743 14803 0
-1342 -14744 14804 0
-1342 -14745 14805 0
-1342 -14746 14806 0
-1342 -14747 14807 0
-1342 -14748 14808 0
-1342 -14749 14809 0
-1342 -14750 14810 0
-1342 -14751 14811 0
-1342 -14752 14812 0
-1342 -14753 14813 0
-1342 -14754 14814 0
-1342 -14755 14815 0
-1342 -14756 14816 0
-1342 -14757 14817 0
-1342 -14758 14818 0
-1342 -14759 14819 0
-1342 -14760 14820 0
-1342 -14761 14821 0
-1342 -14762 14822 0
-1342 -14763 14823 0
-1342 -14764 14824 0
-1342 -14765 14825 0
-1342 -14766 14826 0
-1342 -14767 14827 0
-1342 -14768 14828 0
-1342 -14769 14829 0
-1342 -14770 14830 0
-1342 -14771 14831 0
-1342 -14772 14832 0
-1342 -14773 14833 0
-1342 -14774 14834 0
-1342 -14775 14835 0
-1342 -14776 14836 0
-1342 -14777 14837 0
-1342 -14778 14838 0
-1342 -14779 14839 0
-1342 -14780 14840 0
-1342 -14781 14841 0
-1342 -14782 14842 0
-1342 -14783 14843 0
-1342 -14784 14844 0
-1342 -14785 14845 0
-1342 -14786 14846 0
-1342 -14787 14847 0
-1342 -14788 14848 0
-1342 -14789 14849 0
-1342 -14790 14850 0
-1342 -14791 14851 0
-1342 -14792 14852 0
-1342 -14793 14853 0
-1342 -14794 14854 0
-1342 -14795 14855 0
-1342 -14796 14856 0
-1342 -14797 14857 0
-1342 -14798 14858 0
-1342 -14799 14859 0
-1342 -14800 0
-14801 14860 0
-14802 14861 0
-14803 14862 0
-14804 14863 0
-14805 14864 0
-14806 14865 0
-14807 14866 0
-14808 14867 0
-14809 14868 0
-14810 14869 0
-14811 14870 0
-14812 14871 0
-14813 14872 0
-14814 14873 0
-14815 14874 0
-14816 14875 0
-14817 14876 0
-14818 14877 0
-14819 14878 0
-14820 14879 0
-14821 14880 0
-14822 14881 0
-14823 14882 0
-14824 14883 0
-14825 14884 0
-14826 14885 0
-14827 14886 0
-14828 14887 0
-14829 14888 0
-14830 14889 0
-14831 14890 0
-14832 14891 0
-14833 14892 0
-14834 14893 0
-14835 14894 0
-14836 14895 0
-14837 14896 0
-14838 14897 0
-14839 14898 0
-14840 14899 0
-14841 14900 0
-14842 14901 0
-14843 14902 0
-14844 14903 0
-14845 14904 0
-14846 14905 0
-14847 14906 0
-14848 14907 0
-14849 14908 0
-14850 14909 0
-14851 14910 0
-14852 14911 0
-14853 14912 0
-14854 14913 0
-14855 14914 0
-14856 14915 0
-14857 14916 0
-14858 14917 0
-14859 14918 0
-1344 -14801 14861 0
-1344 -14802 14862 0
-1344 -14803 14863 0
-1344 -14804 14864 0
-1344 -14805 14865 0
-1344 -14806 14866 0
-1344 -14807 14867 0
-1344 -14808 14868 0
-1344 -14809 14869 0
-1344 -14810 14870 0
-1344 -14811 14871 0
-1344 -14812 14872 0
-1344 -14813 14873 0
-1344 -14814 14874 0
-1344 -14815 14875 0
-1344 -14816 14876 0
-1344 -14817 14877 0
-1344 -14818 14878 0
-1344 -14819 14879 0
-1344 -14820 14880 0
-1344 -14821 14881 0
-1344 -14822 14882 0
-1344 -14823 14883 0
-1344 -14824 14884 0
-1344 -14825 14885 0
-1344 -14826 14886 0
-1344 -14827 14887 0
-1344 -14828 14888 0
-1344 -14829 14889 0
-1344 -14830 14890 0
-1344 -14831 14891 0
-1344 -14832 14892 0
-1344 -14833 14893 0
-1344 -14834 14894 0
-1344 -14835 14895 0
-1344 -14836 14896 0
-1344 -14837 14897 0
-1344 -14838 14898 0
-1344 -14839 14899 0
-1344 -14840 14900 0
-1344 -14841 14901 0
-1344 -14842 14902 0
-1344 -14843 14903 0
-1344 -14844 14904 0
-1344 -14845 14905 0
-1344 -14846 14906 0
-1344 -14847 14907 0
-1344 -14848 14908 0
-1344 -14849 14909 0
-1344 -14850 14910 0
-1344 -14851 14911 0
-1344 -14852 14912 0
-1344 -14853 14913 0
-1344 -14854 14914 0
-1344 -14855 14915 0
-1344 -14856 14916 0
-1344 -14857 14917 0
-1344 -14858 14918 0
-1344 -14859 0
-14860 14919 0
-14861 14920 0
-14862 14921 0
-14863 14922 0
-14864 14923 0
-14865 14924 0
-14866 14925 0
-14867 14926 0
-14868 14927 0
-14869 14928 0
-14870 14929 0
-14871 14930 0
-14872 14931 0
-14873 14932 0
-14874 14933 0
-14875 14934 0
-14876 14935 0
-14877 14936 0
-14878 14937 0
-14879 14938 0
-14880 14939 0
-14881 14940 0
-14882 14941 0
-14883 14942 0
-14884 14943 0
-14885 14944 0
-14886 14945 0
-14887 14946 0
-14888 14947 0
-14889 14948 0
-14890 14949 0
-14891 14950 0
-14892 14951 0
-14893 14952 0
-14894 14953 0
-14895 14954 0
-14896 14955 0
-14897 14956 0
-14898 14957 0
-14899 14958 0
-14900 14959 0
-14901 14960 0
-14902 14961 0
-14903 14962 0
-14904 14963 0
-14905 14964 0
-14906 14965 0
-14907 14966 0
-14908 14967 0
-14909 14968 0
-14910 14969 0
-14911 14970 0
-14912 14971 0
-14913 14972 0
-14914 14973 0
-14915 14974 0
-14916 14975 0
-14917 14976 0
-14918 14977 0
-1346 -14860 14920 0
-1346 -14861 14921 0
-1346 -14862 14922 0
-1346 -14863 14923 0
-1346 -14864 14924 0
-1346 -14865 14925 0
-1346 -14866 14926 0
-1346 -14867 14927 0
-1346 -14868 14928 0
-1346 -14869 14929 0
-1346 -14870 14930 0
-1346 -14871 14931 0
-1346 -14872 14932 0
-1346 -14873 14933 0
-1346 -14874 14934 0
-1346 -14875 14935 0
-1346 -14876 14936 0
-1346 -14877 14937 0
-1346 -14878 14938 0
-1346 -14879 14939 0
-1346 -14880 14940 0
-1346 -14881 14941 0
-1346 -14882 14942 0
-1346 -14883 14943 0
-1346 -14884 14944 0
-1346 -14885 14945 0
-1346 -14886 14946 0
-1346 -14887 14947 0
-1346 -14888 14948 0
-1346 -14889 14949 0
-1346 -14890 14950 0
-1346 -14891 14951 0
-1346 -14892 14952 0
-1346 -14893 14953 0
-1346 -14894 14954 0
-1346 -14895 14955 0
-1346 -14896 14956 0
-1346 -14897 14957 0
-1346 -14898 14958 0
-1346 -14899 14959 0
-1346 -14900 14960 0
-1346 -14901 14961 0
-1346 -14902 14962 0
-1346 -14903 14963 0
-1346 -14904 14964 0
-1346 -14905 14965 0
-1346 -14906 14966 0
-1346 -14907 14967 0
-1346 -14908 14968 0
-1346 -14909 14969 0
-1346 -14910 14970 0
-1346 -14911 14971 0
-1346 -14912 14972 0
-1346 -14913 14973 0
-1346 -14914 14974 0
-1346 -14915 14975 0
-1346 -14916 14976 0
-1346 -14917 14977 0
-1346 -14918 0
-14919 14978 0
-14920 14979 0
-14921 14980 0
-14922 14981 0
-14923 14982 0
-14924 14983 0
-14925 14984 0
-14926 14985 0
-14927 14986 0
-14928 14987 0
-14929 14988 0
-14930 14989 0
-14931 14990 0
-14932 14991 0
-14933 14992 0
-14934 14993 0
-14935 14994 0
-14936 14995 0
-14937 14996 0
-14938 14997 0
-14939 14998 0
-14940 14999 0
-14941 15000 0
-14942 15001 0
-14943 15002 0
-14944 15003 0
-14945 15004 0
-14946 15005 0
-14947 15006 0
-14948 15007 0
-14949 15008 0
-14950 15009 0
-14951 15010 0
-14952 15011 0
-14953 15012 0
-14954 15013 0
-14955 15014 0
-14956 15015 0
-14957 15016 0
-14958 15017 0
-14959 15018 0
-14960 15019 0
-14961 15020 0
-14962 15021 0
-14963 15022 0
-14964 15023 0
-14965 15024 0
-14966 15025 0
-14967 15026 0
-14968 15027 0
-14969 15028 0
-14970 15029 0
-14971 15030 0
-14972 15031 0
-14973 15032 0
-14974 15033 0
-14975 15034 0
-14976 15035 0
-14977 15036 0
-1348 -14919 14979 0
-1348 -14920 14980 0
-1348 -14921 14981 0
-1348 -14922 14982 0
-1348 -14923 14983 0
-1348 -14924 14984 0
-1348 -14925 14985 0
-1348 -14926 14986 0
-1348 -14927 14987 0
-1348 -14928 14988 0
-1348 -14929 14989 0
-1348 -14930 14990 0
-1348 -14931 14991 0
-1348 -14932 14992 0
-1348 -14933 14993 0
-1348 -14934 14994 0
-1348 -14935 14995 0
-1348 -14936 14996 0
-1348 -14937 14997 0
-1348 -14938 14998 0
-1348 -14939 14999 0
-1348 -14940 15000 0
-1348 -14941 15001 0
-1348 -14942 15002 0
-1348 -14943 15003 0
-1348 -14944 15004 0
-1348 -14945 15005 0
-1348 -14946 15006 0
-1348 -14947 15007 0
-1348 -14948 15008 0
-1348 -14949 15009 0
-1348 -14950 15010 0
-1348 -14951 15011 0
-1348 -14952 15012 0
-1348 -14953 15013 0
-1348 -14954 15014 0
-1348 -14955 15015 0
-1348 -14956 15016 0
-1348 -14957 15017 0
-1348 -14958 15018 0
-1348 -14959 15019 0
-1348 -14960 15020 0
-1348 -14961 15021 0
-1348 -14962 15022 0
-1348 -14963 15023 0
-1348 -14964 15024 0
-1348 -14965 15025 0
-1348 -14966 15026 0
-1348 -14967 15027 0
-1348 -14968 15028 0
-1348 -14969 15029 0
-1348 -14970 15030 0
-1348 -14971 15031 0
-1348 -14972 15032 0
-1348 -14973 15033 0
-1348 -14974 15034 0
-1348 -14975 15035 0
-1348 -14976 15036 0
-1348 -14977 0
-14978 15037 0
-14979 15038 0
-14980 15039 0
-14981 15040 0
-14982 15041 0
-14983 15042 0
-14984 15043 0
-14985 15044 0
-14986 15045 0
-14987 15046 0
-14988 15047 0
-14989 15048 0
-14990 15049 0
-14991 15050 0
-14992 15051 0
-14993 15052 0
-14994 15053 0
-14995 15054 0
-14996 15055 0
-14997 15056 0
-14998 15057 0
-14999 15058 0
-15000 15059 0
-15001 15060 0
-15002 15061 0
-15003 15062 0
-15004 15063 0
-15005 15064 0
-15006 15065 0
-15007 15066 0
-15008 15067 0
-15009 15068 0
-15010 15069 0
-15011 15070 0
-15012 15071 0
-15013 15072 0
-15014 15073 0
-15015 15074 0
-15016 15075 0
-15017 15076 0
-15018 15077 0
-15019 15078 0
-15020 15079 0
-15021 15080 0
-15022 15081 0
-15023 15082 0
-15024 15083 0
-15025 15084 0
-15026 15085 0
-15027 15086 0
-15028 15087 0
-15029 15088 0
-15030 15089 0
-15031 15090 0
-15032 15091 0
-15033 15092 0
-15034 15093 0
-15035 15094 0
-15036 15095 0
-1350 -14978 15038 0
-1350 -14979 15039 0
-1350 -14980 15040 0
-1350 -14981 15041 0
-1350 -14982 15042 0
-1350 -14983 15043 0
-1350 -14984 15044 0
-1350 -14985 15045 0
-1350 -14986 15046 0
-1350 -14987 15047 0
-1350 -14988 15048 0
-1350 -14989 15049 0
-1350 -14990 15050 0
-1350 -14991 15051 0
-1350 -14992 15052 0
-1350 -14993 15053 0
-1350 -14994 15054 0
-1350 -14995 15055 0
-1350 -14996 15056 0
-1350 -14997 15057 0
-1350 -14998 15058 0
-1350 -14999 15059 0
-1350 -15000 15060 0
-1350 -15001 15061 0
-1350 -15002 15062 0
-1350 -15003 15063 0
-1350 -15004 15064 0
-1350 -15005 15065 0
-1350 -15006 15066 0
-1350 -15007 15067 0
-1350 -15008 15068 0
-1350 -15009 15069 0
-1350 -15010 15070 0
-1350 -15011 15071 0
-1350 -15012 15072 0
-1350 -15013 15073 0
-1350 -15014 15074 0
-1350 -15015 15075 0
-1350 -15016 15076 0
-1350 -15017 15077 0
-1350 -15018 15078 0
-1350 -15019 15079 0
-1350 -15020 15080 0
-1350 -15021 15081 0
-1350 -15022 15082 0
-1350 -15023 15083 0
-1350 -15024 15084 0
-1350 -15025 15085 0
-1350 -15026 15086 0
-1350 -15027 15087 0
-1350 -15028 15088 0
-1350 -15029 15089 0
-1350 -15030 15090 0
-1350 -15031 15091 0
-1350 -15032 15092 0
-1350 -15033 15093 0
-1350 -15034 15094 0
-1350 -15035 15095 0
-1350 -15036 0
-15037 15096 0
-15038 15097 0
-15039 15098 0
-15040 15099 0
-15041 15100 0
-15042 15101 0
-15043 15102 0
-15044 15103 0
-15045 15104 0
-15046 15105 0
-15047 15106 0
-15048 15107 0
-15049 15108 0
-15050 15109 0
-15051 15110 0
-15052 15111 0
-15053 15112 0
-15054 15113 0
-15055 15114 0
-15056 15115 0
-15057 15116 0
-15058 15117 0
-15059 15118 0
-15060 15119 0
-15061 15120 0
-15062 15121 0
-15063 15122 0
-15064 15123 0
-15065 15124 0
-15066 15125 0
-15067 15126 0
-15068 15127 0
-15069 15128 0
-15070 15129 0
-15071 15130 0
-15072 15131 0
-15073 15132 0
-15074 15133 0
-15075 15134 0
-15076 15135 0
-15077 15136 0
-15078 15137 0
-15079 15138 0
-15080 15139 0
-15081 15140 0
-15082 15141 0
-15083 15142 0
-15084 15143 0
-15085 15144 0
-15086 15145 0
-15087 15146 0
-15088 15147 0
-15089 15148 0
-15090 15149 0
-15091 15150 0
-15092 15151 0
-15093 15152 0
-15094 15153 0
-15095 15154 0
-1352 -15037 15097 0
-1352 -15038 15098 0
-1352 -15039 15099 0
-1352 -15040 15100 0
-1352 -15041 15101 0
-1352 -15042 15102 0
-1352 -15043 15103 0
-1352 -15044 15104 0
-1352 -15045 15105 0
-1352 -15046 15106 0
-1352 -15047 15107 0
-1352 -15048 15108 0
-1352 -15049 15109 0
-1352 -15050 15110 0
-1352 -15051 15111 0
-1352 -15052 15112 0
-1352 -15053 15113 0
-1352 -15054 15114 0
-1352 -15055 15115 0
-1352 -15056 15116 0
-1352 -15057 15117 0
-1352 -15058 15118 0
-1352 -15059 15119 0
-1352 -15060 15120 0
-1352 -15061 15121 0
-1352 -15062 15122 0
-1352 -15063 15123 0
-1352 -15064 15124 0
-1352 -15065 15125 0
-1352 -15066 15126 0
-1352 -15067 15127 0
-1352 -15068 15128 0
-1352 -15069 15129 0
-1352 -15070 15130 0
-1352 -15071 15131 0
-1352 -15072 15132 0
-1352 -15073 15133 0
-1352 -15074 15134 0
-1352 -15075 15135 0
-1352 -15076 15136 0
-1352 -15077 15137 0
-1352 -15078 15138 0
-1352 -15079 15139 0
-1352 -15080 15140 0
-1352 -15081 15141 0
-1352 -15082 15142 0
-1352 -15083 15143 0
-1352 -15084 15144 0
-1352 -15085 15145 0
-1352 -15086 15146 0
-1352 -15087 15147 0
-1352 -15088 15148 0
-1352 -15089 15149 0
-1352 -15090 15150 0
-1352 -15091 15151 0
-1352 -15092 15152 0
-1352 -15093 15153 0
-1352 -15094 15154 0
-1352 -15095 0
-15096 15155 0
-15097 15156 0
-15098 15157 0
-15099 15158 0
-15100 15159 0
-15101 15160 0
-15102 15161 0
-15103 15162 0
-15104 15163 0
-15105 15164 0
-15106 15165 0
-15107 15166 0
-15108 15167 0
-15109 15168 0
-15110 15169 0
-15111 15170 0
-15112 15171 0
-15113 15172 0
-15114 15173 0
-15115 15174 0
-15116 15175 0
-15117 15176 0
-15118 15177 0
-15119 15178 0
-15120 15179 0
-15121 15180 0
-15122 15181 0
-15123 15182 0
-15124 15183 0
-15125 15184 0
-15126 15185 0
-15127 15186 0
-15128 15187 0
-15129 15188 0
-15130 15189 0
-15131 15190 0
-15132 15191 0
-15133 15192 0
-15134 15193 0
-15135 15194 0
-15136 15195 0
-15137 15196 0
-15138 15197 0
-15139 15198 0
-15140 15199 0
-15141 15200 0
-15142 15201 0
-15143 15202 0
-15144 15203 0
-15145 15204 0
-15146 15205 0
-15147 15206 0
-15148 15207 0
-15149 15208 0
-15150 15209 0
-15151 15210 0
-15152 15211 0
-15153 15212 0
-15154 15213 0
-1354 -15096 15156 0
-1354 -15097 15157 0
-1354 -15098 15158 0
-1354 -15099 15159 0
-1354 -15100 15160 0
-1354 -15101 15161 0
-1354 -15102 15162 0
-1354 -15103 15163 0
-1354 -15104 15164 0
-1354 -15105 15165 0
-1354 -15106 15166 0
-1354 -15107 15167 0
-1354 -15108 15168 0
-1354 -15109 15169 0
-1354 -15110 15170 0
-1354 -15111 15171 0
-1354 -15112 15172 0
-1354 -15113 15173 0
-1354 -15114 15174 0
-1354 -15115 15175 0
-1354 -15116 15176 0
-1354 -15117 15177 0
-1354 -15118 15178 0
-1354 -15119 15179 0
-1354 -15120 15180 0
-1354 -15121 15181 0
-1354 -15122 15182 0
-1354 -15123 15183 0
-1354 -15124 15184 0
-1354 -15125 15185 0
-1354 -15126 15186 0
-1354 -15127 15187 0
-1354 -15128 15188 0
-1354 -15129 15189 0
-1354 -15130 15190 0
-1354 -15131 15191 0
-1354 -15132 15192 0
-1354 -15133 15193 0
-1354 -15134 15194 0
-1354 -15135 15195 0
-1354 -15136 15196 0
-1354 -15137 15197 0
-1354 -15138 15198 0
-1354 -15139 15199 0
-1354 -15140 15200 0
-1354 -15141 15201 0
-1354 -15142 15202 0
-1354 -15143 15203 0
-1354 -15144 15204 0
-1354 -15145 15205 0
-1354 -15146 15206 0
-1354 -15147 15207 0
-1354 -15148 15208 0
-1354 -15149 15209 0
-1354 -15150 15210 0
-1354 -15151 15211 0
-1354 -15152 15212 0
-1354 -15153 15213 0
-1354 -15154 0
-15155 15214 0
-15156 15215 0
-15157 15216 0
-15158 15217 0
-15159 15218 0
-15160 15219 0
-15161 15220 0
-15162 15221 0
-15163 15222 0
-15164 15223 0
-15165 15224 0
-15166 15225 0
-15167 15226 0
-15168 15227 0
-15169 15228 0
-15170 15229 0
-15171 15230 0
-15172 15231 0
-15173 15232 0
-15174 15233 0
-15175 15234 0
-15176 15235 0
-15177 15236 0
-15178 15237 0
-15179 15238 0
-15180 15239 0
-15181 15240 0
-15182 15241 0
-15183 15242 0
-15184 15243 0
-15185 15244 0
-15186 15245 0
-15187 15246 0
-15188 15247 0
-15189 15248 0
-15190 15249 0
-15191 15250 0
-15192 15251 0
-15193 15252 0
-15194 15253 0
-15195 15254 0
-15196 15255 0
-15197 15256 0
-15198 15257 0
-15199 15258 0
-15200 15259 0
-15201 15260 0
-15202 15261 0
-15203 15262 0
-15204 15263 0
-15205 15264 0
-15206 15265 0
-15207 15266 0
-15208 15267 0
-15209 15268 0
-15210 15269 0
-15211 15270 0
-15212 15271 0
-15213 15272 0
-1356 -15155 15215 0
-1356 -15156 15216 0
-1356 -15157 15217 0
-1356 -15158 15218 0
-1356 -15159 15219 0
-1356 -15160 15220 0
-1356 -15161 15221 0
-1356 -15162 15222 0
-1356 -15163 15223 0
-1356 -15164 15224 0
-1356 -15165 15225 0
-1356 -15166 15226 0
-1356 -15167 15227 0
-1356 -15168 15228 0
-1356 -15169 15229 0
-1356 -15170 15230 0
-1356 -15171 15231 0
-1356 -15172 15232 0
-1356 -15173 15233 0
-1356 -15174 15234 0
-1356 -15175 15235 0
-1356 -15176 15236 0
-1356 -15177 15237 0
-1356 -15178 15238 0
-1356 -15179 15239 0
-1356 -15180 15240 0
-1356 -15181 15241 0
-1356 -15182 15242 0
-1356 -15183 15243 0
-1356 -15184 15244 0
-1356 -15185 15245 0
-1356 -15186 15246 0
-1356 -15187 15247 0
-1356 -15188 15248 0
-1356 -15189 15249 0
-1356 -15190 15250 0
-1356 -15191 15251 0
-1356 -15192 15252 0
-1356 -15193 15253 0
-1356 -15194 15254 0
-1356 -15195 15255 0
-1356 -15196 15256 0
-1356 -15197 15257 0
-1356 -15198 15258 0
-1356 -15199 15259 0
-1356 -15200 15260 0
-1356 -15201 15261 0
-1356 -15202 15262 0
-1356 -15203 15263 0
-1356 -15204 15264 0
-1356 -15205 15265 0
-1356 -15206 15266 0
-1356 -15207 15267 0
-1356 -15208 15268 0
-1356 -15209 15269 0
-1356 -15210 15270 0
-1356 -15211 15271 0
-1356 -15212 15272 0
-1356 -15213 0
-15214 15273 0
-15215 15274 0
-15216 15275 0
-15217 15276 0
-15218 15277 0
-15219 15278 0
-15220 15279 0
-15221 15280 0
-15222 15281 0
-15223 15282 0
-15224 15283 0
-15225 15284 0
-15226 15285 0
-15227 15286 0
-15228 15287 0
-15229 15288 0
-15230 15289 0
-15231 15290 0
-15232 15291 0
-15233 15292 0
-15234 15293 0
-15235 15294 0
-15236 15295 0
-15237 15296 0
-15238 15297 0
-15239 15298 0
-15240 15299 0
-15241 15300 0
-15242 15301 0
-15243 15302 0
-15244 15303 0
-15245 15304 0
-15246 15305 0
-15247 15306 0
-15248 15307 0
-15249 15308 0
-15250 15309 0
-15251 15310 0
-15252 15311 0
-15253 15312 0
-15254 15313 0
-15255 15314 0
-15256 15315 0
-15257 15316 0
-15258 15317 0
-15259 15318 0
-15260 15319 0
-15261 15320 0
-15262 15321 0
-15263 15322 0
-15264 15323 0
-15265 15324 0
-15266 15325 0
-15267 15326 0
-15268 15327 0
-15269 15328 0
-15270 15329 0
-15271 15330 0
-15272 15331 0
-1358 -15214 15274 0
-1358 -15215 15275 0
-1358 -15216 15276 0
-1358 -15217 15277 0
-1358 -15218 15278 0
-1358 -15219 15279 0
-1358 -15220 15280 0
-1358 -15221 15281 0
-1358 -15222 15282 0
-1358 -15223 15283 0
-1358 -15224 15284 0
-1358 -15225 15285 0
-1358 -15226 15286 0
-1358 -15227 15287 0
-1358 -15228 15288 0
-1358 -15229 15289 0
-1358 -15230 15290 0
-1358 -15231 15291 0
-1358 -15232 15292 0
-1358 -15233 15293 0
-1358 -15234 15294 0
-1358 -15235 15295 0
-1358 -15236 15296 0
-1358 -15237 15297 0
-1358 -15238 15298 0
-1358 -15239 15299 0
-1358 -15240 15300 0
-1358 -15241 15301 0
-1358 -15242 15302 0
-1358 -15243 15303 0
-1358 -15244 15304 0
-1358 -15245 15305 0
-1358 -15246 15306 0
-1358 -15247 15307 0
-1358 -15248 15308 0
-1358 -15249 15309 0
-1358 -15250 15310 0
-1358 -15251 15311 0
-1358 -15252 15312 0
-1358 -15253 15313 0
-1358 -15254 15314 0
-1358 -15255 15315 0
-1358 -15256 15316 0
-1358 -15257 15317 0
-1358 -15258 15318 0
-1358 -15259 15319 0
-1358 -15260 15320 0
-1358 -15261 15321 0
-1358 -15262 15322 0
-1358 -15263 15323 0
-1358 -15264 15324 0
-1358 -15265 15325 0
-1358 -15266 15326 0
-1358 -15267 15327 0
-1358 -15268 15328 0
-1358 -15269 15329 0
-1358 -15270 15330 0
-1358 -15271 15331 0
-1358 -15272 0
-15273 15332 0
-15274 15333 0
-15275 15334 0
-15276 15335 0
-15277 15336 0
-15278 15337 0
-15279 15338 0
-15280 15339 0
-15281 15340 0
-15282 15341 0
-15283 15342 0
-15284 15343 0
-15285 15344 0
-15286 15345 0
-15287 15346 0
-15288 15347 0
-15289 15348 0
-15290 15349 0
-15291 15350 0
-15292 15351 0
-15293 15352 0
-15294 15353 0
-15295 15354 0
-15296 15355 0
-15297 15356 0
-15298 15357 0
-15299 15358 0
-15300 15359 0
-15301 15360 0
-15302 15361 0
-15303 15362 0
-15304 15363 0
-15305 15364 0
-15306 15365 0
-15307 15366 0
-15308 15367 0
-15309 15368 0
-15310 15369 0
-15311 15370 0
-15312 15371 0
-15313 15372 0
-15314 15373 0
-15315 15374 0
-15316 15375 0
-15317 15376 0
-15318 15377 0
-15319 15378 0
-15320 15379 0
-15321 15380 0
-15322 15381 0
-15323 15382 0
-15324 15383 0
-15325 15384 0
-15326 15385 0
-15327 15386 0
-15328 15387 0
-15329 15388 0
-15330 15389 0
-15331 15390 0
-1360 -15273 15333 0
-1360 -15274 15334 0
-1360 -15275 15335 0
-1360 -15276 15336 0
-1360 -15277 15337 0
-1360 -15278 15338 0
-1360 -15279 15339 0
-1360 -15280 15340 0
-1360 -15281 15341 0
-1360 -15282 15342 0
-1360 -15283 15343 0
-1360 -15284 15344 0
-1360 -15285 15345 0
-1360 -15286 15346 0
-1360 -15287 15347 0
-1360 -15288 15348 0
-1360 -15289 15349 0
-1360 -15290 15350 0
-1360 -15291 15351 0
-1360 -15292 15352 0
-1360 -15293 15353 0
-1360 -15294 15354 0
-1360 -15295 15355 0
-1360 -15296 15356 0
-1360 -15297 15357 0
-1360 -15298 15358 0
-1360 -15299 15359 0
-1360 -15300 15360 0
-1360 -15301 15361 0
-1360 -15302 15362 0
-1360 -15303 15363 0
-1360 -15304 15364 0
-1360 -15305 15365 0
-1360 -15306 15366 0
-1360 -15307 15367 0
-1360 -15308 15368 0
-1360 -15309 15369 0
-1360 -15310 15370 0
-1360 -15311 15371 0
-1360 -15312 15372 0
-1360 -15313 15373 0
-1360 -15314 15374 0
-1360 -15315 15375 0
-1360 -15316 15376 0
-1360 -15317 15377 0
-1360 -15318 15378 0
-1360 -15319 15379 0
-1360 -15320 15380 0
-1360 -15321 15381 0
-1360 -15322 15382 0
-1360 -15323 15383 0
-1360 -15324 15384 0
-1360 -15325 15385 0
-1360 -15326 15386 0
-1360 -15327 15387 0
-1360 -15328 15388 0
-1360 -15329 15389 0
-1360 -15330 15390 0
-1360 -15331 0
-15332 15391 0
-15333 15392 0
-15334 15393 0
-15335 15394 0
-15336 15395 0
-15337 15396 0
-15338 15397 0
-15339 15398 0
-15340 15399 0
-15341 15400 0
-15342 15401 0
-15343 15402 0
-15344 15403 0
-15345 15404 0
-15346 15405 0
-15347 15406 0
-15348 15407 0
-15349 15408 0
-15350 15409 0
-15351 15410 0
-15352 15411 0
-15353 15412 0
-15354 15413 0
-15355 15414 0
-15356 15415 0
-15357 15416 0
-15358 15417 0
-15359 15418 0
-15360 15419 0
-15361 15420 0
-15362 15421 0
-15363 15422 0
-15364 15423 0
-15365 15424 0
-15366 15425 0
-15367 15426 0
-15368 15427 0
-15369 15428 0
-15370 15429 0
-15371 15430 0
-15372 15431 0
-15373 15432 0
-15374 15433 0
-15375 15434 0
-15376 15435 0
-15377 15436 0
-15378 15437 0
-15379 15438 0
-15380 15439 0
-15381 15440 0
-15382 15441 0
-15383 15442 0
-15384 15443 0
-15385 15444 0
-15386 15445 0
-15387 15446 0
-15388 15447 0
-15389 15448 0
-15390 15449 0
-1362 -15332 15392 0
-1362 -15333 15393 0
-1362 -15334 15394 0
-1362 -15335 15395 0
-1362 -15336 15396 0
-1362 -15337 15397 0
-1362 -15338 15398 0
-1362 -15339 15399 0
-1362 -15340 15400 0
-1362 -15341 15401 0
-1362 -15342 15402 0
-1362 -15343 15403 0
-1362 -15344 15404 0
-1362 -15345 15405 0
-1362 -15346 15406 0
-1362 -15347 15407 0
-1362 -15348 15408 0
-1362 -15349 15409 0
-1362 -15350 15410 0
-1362 -15351 15411 0
-1362 -15352 15412 0
-1362 -15353 15413 0
-1362 -15354 15414 0
-1362 -15355 15415 0
-1362 -15356 15416 0
-1362 -15357 15417 0
-1362 -15358 15418 0
-1362 -15359 15419 0
-1362 -15360 15420 0
-1362 -15361 15421 0
-1362 -15362 15422 0
-1362 -15363 15423 0
-1362 -15364 15424 0
-1362 -15365 15425 0
-1362 -15366 15426 0
-1362 -15367 15427 0
-1362 -15368 15428 0
-1362 -15369 15429 0
-1362 -15370 15430 0
-1362 -15371 15431 0
-1362 -15372 15432 0
-1362 -15373 15433 0
-1362 -15374 15434 0
-1362 -15375 15435 0
-1362 -15376 15436 0
-1362 -15377 15437 0
-1362 -15378 15438 0
-1362 -15379 15439 0
-1362 -15380 15440 0
-1362 -15381 15441 0
-1362 -15382 15442 0
-1362 -15383 15443 0
-1362 -15384 15444 0
-1362 -15385 15445 0
-1362 -15386 15446 0
-1362 -15387 15447 0
-1362 -15388 15448 0
-1362 -15389 15449 0
-1362 -15390 0
-15391 15450 0
-15392 15451 0
-15393 15452 0
-15394 15453 0
-15395 15454 0
-15396 15455 0
-15397 15456 0
-15398 15457 0
-15399 15458 0
-15400 15459 0
-15401 15460 0
-15402 15461 0
-15403 15462 0
-15404 15463 0
-15405 15464 0
-15406 15465 0
-15407 15466 0
-15408 15467 0
-15409 15468 0
-15410 15469 0
-15411 15470 0
-15412 15471 0
-15413 15472 0
-15414 15473 0
-15415 15474 0
-15416 15475 0
-15417 15476 0
-15418 15477 0
-15419 15478 0
-15420 15479 0
-15421 15480 0
-15422 15481 0
-15423 15482 0
-15424 15483 0
-15425 15484 0
-15426 15485 0
-15427 15486 0
-15428 15487 0
-15429 15488 0
-15430 15489 0
-15431 15490 0
-15432 15491 0
-15433 15492 0
-15434 15493 0
-15435 15494 0
-15436 15495 0
-15437 15496 0
-15438 15497 0
-15439 15498 0
-15440 15499 0
-15441 15500 0
-15442 15501 0
-15443 15502 0
-15444 15503 0
-15445 15504 0
-15446 15505 0
-15447 15506 0
-15448 15507 0
-15449 15508 0
-1364 -15391 15451 0
-1364 -15392 15452 0
-1364 -15393 15453 0
-1364 -15394 15454 0
-1364 -15395 15455 0
-1364 -15396 15456 0
-1364 -15397 15457 0
-1364 -15398 15458 0
-1364 -15399 15459 0
-1364 -15400 15460 0
-1364 -15401 15461 0
-1364 -15402 15462 0
-1364 -15403 15463 0
-1364 -15404 15464 0
-1364 -15405 15465 0
-1364 -15406 15466 0
-1364 -15407 15467 0
-1364 -15408 15468 0
-1364 -15409 15469 0
-1364 -15410 15470 0
-1364 -15411 15471 0
-1364 -15412 15472 0
-1364 -15413 15473 0
-1364 -15414 15474 0
-1364 -15415 15475 0
-1364 -15416 15476 0
-1364 -15417 15477 0
-1364 -15418 15478 0
-1364 -15419 15479 0
-1364 -15420 15480 0
-1364 -15421 15481 0
-1364 -15422 15482 0
-1364 -15423 15483 0
-1364 -15424 15484 0
-1364 -15425 15485 0
-1364 -15426 15486 0
-1364 -15427 15487 0
-1364 -15428 15488 0
-1364 -15429 15489 0
-1364 -15430 15490 0
-1364 -15431 15491 0
-1364 -15432 15492 0
-1364 -15433 15493 0
-1364 -15434 15494 0
-1364 -15435 15495 0
-1364 -15436 15496 0
-1364 -15437 15497 0
-1364 -15438 15498 0
-1364 -15439 15499 0
-1364 -15440 15500 0
-1364 -15441 15501 0
-1364 -15442 15502 0
-1364 -15443 15503 0
-1364 -15444 15504 0
-1364 -15445 15505 0
-1364 -15446 15506 0
-1364 -15447 15507 0
-1364 -15448 15508 0
-1364 -15449 0
-15450 15509 0
-15451 15510 0
-15452 15511 0
-15453 15512 0
-15454 15513 0
-15455 15514 0
-15456 15515 0
-15457 15516 0
-15458 15517 0
-15459 15518 0
-15460 15519 0
-15461 15520 0
-15462 15521 0
-15463 15522 0
-15464 15523 0
-15465 15524 0
-15466 15525 0
-15467 15526 0
-15468 15527 0
-15469 15528 0
-15470 15529 0
-15471 15530 0
-15472 15531 0
-15473 15532 0
-15474 15533 0
-15475 15534 0
-15476 15535 0
-15477 15536 0
-15478 15537 0
-15479 15538 0
-15480 15539 0
-15481 15540 0
-15482 15541 0
-15483 15542 0
-15484 15543 0
-15485 15544 0
-15486 15545 0
-15487 15546 0
-15488 15547 0
-15489 15548 0
-15490 15549 0
-15491 15550 0
-15492 15551 0
-15493 15552 0
-15494 15553 0
-15495 15554 0
-15496 15555 0
-15497 15556 0
-15498 15557 0
-15499 15558 0
-15500 15559 0
-15501 15560 0
-15502 15561 0
-15503 15562 0
-15504 15563 0
-15505 15564 0
-15506 15565 0
-15507 15566 0
-15508 15567 0
-1366 -15450 15510 0
-1366 -15451 15511 0
-1366 -15452 15512 0
-1366 -15453 15513 0
-1366 -15454 15514 0
-1366 -15455 15515 0
-1366 -15456 15516 0
-1366 -15457 15517 0
-1366 -15458 15518 0
-1366 -15459 15519 0
-1366 -15460 15520 0
-1366 -15461 15521 0
-1366 -15462 15522 0
-1366 -15463 15523 0
-1366 -15464 15524 0
-1366 -15465 15525 0
-1366 -15466 15526 0
-1366 -15467 15527 0
-1366 -15468 15528 0
-1366 -15469 15529 0
-1366 -15470 15530 0
-1366 -15471 15531 0
-1366 -15472 15532 0
-1366 -15473 15533 0
-1366 -15474 15534 0
-1366 -15475 15535 0
-1366 -15476 15536 0
-1366 -15477 15537 0
-1366 -15478 15538 0
-1366 -15479 15539 0
-1366 -15480 15540 0
-1366 -15481 15541 0
-1366 -15482 15542 0
-1366 -15483 15543 0
-1366 -15484 15544 0
-1366 -15485 15545 0
-1366 -15486 15546 0
-1366 -15487 15547 0
-1366 -15488 15548 0
-1366 -15489 15549 0
-1366 -15490 15550 0
-1366 -15491 15551 0
-1366 -15492 15552 0
-1366 -15493 15553 0
-1366 -15494 15554 0
-1366 -15495 15555 0
-1366 -15496 15556 0
-1366 -15497 15557 0
-1366 -15498 15558 0
-1366 -15499 15559 0
-1366 -15500 15560 0
-1366 -15501 15561 0
-1366 -15502 15562 0
-1366 -15503 15563 0
-1366 -15504 15564 0
-1366 -15505 15565 0
-1366 -15506 15566 0
-1366 -15507 15567 0
-1366 -15508 0
-15509 15568 0
-15510 15569 0
-15511 15570 0
-15512 15571 0
-15513 15572 0
-15514 15573 0
-15515 15574 0
-15516 15575 0
-15517 15576 0
-15518 15577 0
-15519 15578 0
-15520 15579 0
-15521 15580 0
-15522 15581 0
-15523 15582 0
-15524 15583 0
-15525 15584 0
-15526 15585 0
-15527 15586 0
-15528 15587 0
-15529 15588 0
-15530 15589 0
-15531 15590 0
-15532 15591 0
-15533 15592 0
-15534 15593 0
-15535 15594 0
-15536 15595 0
-15537 15596 0
-15538 15597 0
-15539 15598 0
-15540 15599 0
-15541 15600 0
-15542 15601 0
-15543 15602 0
-15544 15603 0
-15545 15604 0
-15546 15605 0
-15547 15606 0
-15548 15607 0
-15549 15608 0
-15550 15609 0
-15551 15610 0
-15552 15611 0
-15553 15612 0
-15554 15613 0
-15555 15614 0
-15556 15615 0
-15557 15616 0
-15558 15617 0
-15559 15618 0
-15560 15619 0
-15561 15620 0
-15562 15621 0
-15563 15622 0
-15564 15623 0
-15565 15624 0
-15566 15625 0
-15567 15626 0
-1368 -15509 15569 0
-1368 -15510 15570 0
-1368 -15511 15571 0
-1368 -15512 15572 0
-1368 -15513 15573 0
-1368 -15514 15574 0
-1368 -15515 15575 0
-1368 -15516 15576 0
-1368 -15517 15577 0
-1368 -15518 15578 0
-1368 -15519 15579 0
-1368 -15520 15580 0
-1368 -15521 15581 0
-1368 -15522 15582 0
-1368 -15523 15583 0
-1368 -15524 15584 0
-1368 -15525 15585 0
-1368 -15526 15586 0
-1368 -15527 15587 0
-1368 -15528 15588 0
-1368 -15529 15589 0
-1368 -15530 15590 0
-1368 -15531 15591 0
-1368 -15532 15592 0
-1368 -15533 15593 0
-1368 -15534 15594 0
-1368 -15535 15595 0
-1368 -15536 15596 0
-1368 -15537 15597 0
-1368 -15538 15598 0
-1368 -15539 15599 0
-1368 -15540 15600 0
-1368 -15541 15601 0
-1368 -15542 15602 0
-1368 -15543 15603 0
-1368 -15544 15604 0
-1368 -15545 15605 0
-1368 -15546 15606 0
-1368 -15547 15607 0
-1368 -15548 15608 0
-1368 -15549 15609 0
-1368 -15550 15610 0
-1368 -15551 15611 0
-1368 -15552 15612 0
-1368 -15553 15613 0
-1368 -15554 15614 0
-1368 -15555 15615 0
-1368 -15556 15616 0
-1368 -15557 15617 0
-1368 -15558 15618 0
-1368 -15559 15619 0
-1368 -15560 15620 0
-1368 -15561 15621 0
-1368 -15562 15622 0
-1368 -15563 15623 0
-1368 -15564 15624 0
-1368 -15565 15625 0
-1368 -15566 15626 0
-1368 -15567 0
-15568 15627 0
-15569 15628 0
-15570 15629 0
-15571 15630 0
-15572 15631 0
-15573 15632 0
-15574 15633 0
-15575 15634 0
-15576 15635 0
-15577 15636 0
-15578 15637 0
-15579 15638 0
-15580 15639 0
-15581 15640 0
-15582 15641 0
-15583 15642 0
-15584 15643 0
-15585 15644 0
-15586 15645 0
-15587 15646 0
-15588 15647 0
-15589 15648 0
-15590 15649 0
-15591 15650 0
-15592 15651 0
-15593 15652 0
-15594 15653 0
-15595 15654 0
-15596 15655 0
-15597 15656 0
-15598 15657 0
-15599 15658 0
-15600 15659 0
-15601 15660 0
-15602 15661 0
-15603 15662 0
-15604 15663 0
-15605 15664 0
-15606 15665 0
-15607 15666 0
-15608 15667 0
-15609 15668 0
-15610 15669 0
-15611 15670 0
-15612 15671 0
-15613 15672 0
-15614 15673 0
-15615 15674 0
-15616 15675 0
-15617 15676 0
-15618 15677 0
-15619 15678 0
-15620 15679 0
-15621 15680 0
-15622 15681 0
-15623 15682 0
-15624 15683 0
-15625 15684 0
-15626 15685 0
-1370 -15568 15628 0
-1370 -15569 15629 0
-1370 -15570 15630 0
-1370 -15571 15631 0
-1370 -15572 15632 0
-1370 -15573 15633 0
-1370 -15574 15634 0
-1370 -15575 15635 0
-1370 -15576 15636 0
-1370 -15577 15637 0
-1370 -15578 15638 0
-1370 -15579 15639 0
-1370 -15580 15640 0
-1370 -15581 15641 0
-1370 -15582 15642 0
-1370 -15583 15643 0
-1370 -15584 15644 0
-1370 -15585 15645 0
-1370 -15586 15646 0
-1370 -15587 15647 0
-1370 -15588 15648 0
-1370 -15589 15649 0
-1370 -15590 15650 0
-1370 -15591 15651 0
-1370 -15592 15652 0
-1370 -15593 15653 0
-1370 -15594 15654 0
-1370 -15595 15655 0
-1370 -15596 15656 0
-1370 -15597 15657 0
-1370 -15598 15658 0
-1370 -15599 15659 0
-1370 -15600 15660 0
-1370 -15601 15661 0
-1370 -15602 15662 0
-1370 -15603 15663 0
-1370 -15604 15664 0
-1370 -15605 15665 0
-1370 -15606 15666 0
-1370 -15607 15667 0
-1370 -15608 15668 0
-1370 -15609 15669 0
-1370 -15610 15670 0
-1370 -15611 15671 0
-1370 -15612 15672 0
-1370 -15613 15673 0
-1370 -15614 15674 0
-1370 -15615 15675 0
-1370 -15616 15676 0
-1370 -15617 15677 0
-1370 -15618 15678 0
-1370 -15619 15679 0
-1370 -15620 15680 0
-1370 -15621 15681 0
-1370 -15622 15682 0
-1370 -15623 15683 0
-1370 -15624 15684 0
-1370 -15625 15685 0
-1370 -15626 0
-15627 15686 0
-15628 15687 0
-15629 15688 0
-15630 15689 0
-15631 15690 0
-15632 15691 0
-15633 15692 0
-15634 15693 0
-15635 15694 0
-15636 15695 0
-15637 15696 0
-15638 15697 0
-15639 15698 0
-15640 15699 0
-15641 15700 0
-15642 15701 0
-15643 15702 0
-15644 15703 0
-15645 15704 0
-15646 15705 0
-15647 15706 0
-15648 15707 0
-15649 15708 0
-15650 15709 0
-15651 15710 0
-15652 15711 0
-15653 15712 0
-15654 15713 0
-15655 15714 0
-15656 15715 0
-15657 15716 0
-15658 15717 0
-15659 15718 0
-15660 15719 0
-15661 15720 0
-15662 15721 0
-15663 15722 0
-15664 15723 0
-15665 15724 0
-15666 15725 0
-15667 15726 0
-15668 15727 0
-15669 15728 0
-15670 15729 0
-15671 15730 0
-15672 15731 0
-15673 15732 0
-15674 15733 0
-15675 15734 0
-15676 15735 0
-15677 15736 0
-15678 15737 0
-15679 15738 0
-15680 15739 0
-15681 15740 0
-15682 15741 0
-15683 15742 0
-15684 15743 0
-15685 15744 0
-1372 -15627 15687 0
-1372 -15628 15688 0
-1372 -15629 15689 0
-1372 -15630 15690 0
-1372 -15631 15691 0
-1372 -15632 15692 0
-1372 -15633 15693 0
-1372 -15634 15694 0
-1372 -15635 15695 0
-1372 -15636 15696 0
-1372 -15637 15697 0
-1372 -15638 15698 0
-1372 -15639 15699 0
-1372 -15640 15700 0
-1372 -15641 15701 0
-1372 -15642 15702 0
-1372 -15643 15703 0
-1372 -15644 15704 0
-1372 -15645 15705 0
-1372 -15646 15706 0
-1372 -15647 15707 0
-1372 -15648 15708 0
-1372 -15649 15709 0
-1372 -15650 15710 0
-1372 -15651 15711 0
-1372 -15652 15712 0
-1372 -15653 15713 0
-1372 -15654 15714 0
-1372 -15655 15715 0
-1372 -15656 15716 0
-1372 -15657 15717 0
-1372 -15658 15718 0
-1372 -15659 15719 0
-1372 -15660 15720 0
-1372 -15661 15721 0
-1372 -15662 15722 0
-1372 -15663 15723 0
-1372 -15664 15724 0
-1372 -15665 15725 0
-1372 -15666 15726 0
-1372 -15667 15727 0
-1372 -15668 15728 0
-1372 -15669 15729 0
-1372 -15670 15730 0
-1372 -15671 15731 0
-1372 -15672 15732 0
-1372 -15673 15733 0
-1372 -15674 15734 0
-1372 -15675 15735 0
-1372 -15676 15736 0
-1372 -15677 15737 0
-1372 -15678 15738 0
-1372 -15679 15739 0
-1372 -15680 15740 0
-1372 -15681 15741 0
-1372 -15682 15742 0
-1372 -15683 15743 0
-1372 -15684 15744 0
-1372 -15685 0
-15686 15745 0
-15687 15746 0
-15688 15747 0
-15689 15748 0
-15690 15749 0
-15691 15750 0
-15692 15751 0
-15693 15752 0
-15694 15753 0
-15695 15754 0
-15696 15755 0
-15697 15756 0
-15698 15757 0
-15699 15758 0
-15700 15759 0
-15701 15760 0
-15702 15761 0
-15703 15762 0
-15704 15763 0
-15705 15764 0
-15706 15765 0
-15707 15766 0
-15708 15767 0
-15709 15768 0
-15710 15769 0
-15711 15770 0
-15712 15771 0
-15713 15772 0
-15714 15773 0
-15715 15774 0
-15716 15775 0
-15717 15776 0
-15718 15777 0
-15719 15778 0
-15720 15779 0
-15721 15780 0
-15722 15781 0
-15723 15782 0
-15724 15783 0
-15725 15784 0
-15726 15785 0
-15727 15786 0
-15728 15787 0
-15729 15788 0
-15730 15789 0
-15731 15790 0
-15732 15791 0
-15733 15792 0
-15734 15793 0
-15735 15794 0
-15736 15795 0
-15737 15796 0
-15738 15797 0
-15739 15798 0
-15740 15799 0
-15741 15800 0
-15742 15801 0
-15743 15802 0
-15744 15803 0
-1374 -15686 15746 0
-1374 -15687 15747 0
-1374 -15688 15748 0
-1374 -15689 15749 0
-1374 -15690 15750 0
-1374 -15691 15751 0
-1374 -15692 15752 0
-1374 -15693 15753 0
-1374 -15694 15754 0
-1374 -15695 15755 0
-1374 -15696 15756 0
-1374 -15697 15757 0
-1374 -15698 15758 0
-1374 -15699 15759 0
-1374 -15700 15760 0
-1374 -15701 15761 0
-1374 -15702 15762 0
-1374 -15703 15763 0
-1374 -15704 15764 0
-1374 -15705 15765 0
-1374 -15706 15766 0
-1374 -15707 15767 0
-1374 -15708 15768 0
-1374 -15709 15769 0
-1374 -15710 15770 0
-1374 -15711 15771 0
-1374 -15712 15772 0
-1374 -15713 15773 0
-1374 -15714 15774 0
-1374 -15715 15775 0
-1374 -15716 15776 0
-1374 -15717 15777 0
-1374 -15718 15778 0
-1374 -15719 15779 0
-1374 -15720 15780 0
-1374 -15721 15781 0
-1374 -15722 15782 0
-1374 -15723 15783 0
-1374 -15724 15784 0
-1374 -15725 15785 0
-1374 -15726 15786 0
-1374 -15727 15787 0
-1374 -15728 15788 0
-1374 -15729 15789 0
-1374 -15730 15790 0
-1374 -15731 15791 0
-1374 -15732 15792 0
-1374 -15733 15793 0
-1374 -15734 15794 0
-1374 -15735 15795 0
-1374 -15736 15796 0
-1374 -15737 15797 0
-1374 -15738 15798 0
-1374 -15739 15799 0
-1374 -15740 15800 0
-1374 -15741 15801 0
-1374 -15742 15802 0
-1374 -15743 15803 0
-1374 -15744 0
-15745 15804 0
-15746 15805 0
-15747 15806 0
-15748 15807 0
-15749 15808 0
-15750 15809 0
-15751 15810 0
-15752 15811 0
-15753 15812 0
-15754 15813 0
-15755 15814 0
-15756 15815 0
-15757 15816 0
-15758 15817 0
-15759 15818 0
-15760 15819 0
-15761 15820 0
-15762 15821 0
-15763 15822 0
-15764 15823 0
-15765 15824 0
-15766 15825 0
-15767 15826 0
-15768 15827 0
-15769 15828 0
-15770 15829 0
-15771 15830 0
-15772 15831 0
-15773 15832 0
-15774 15833 0
-15775 15834 0
-15776 15835 0
-15777 15836 0
-15778 15837 0
-15779 15838 0
-15780 15839 0
-15781 15840 0
-15782 15841 0
-15783 15842 0
-15784 15843 0
-15785 15844 0
-15786 15845 0
-15787 15846 0
-15788 15847 0
-15789 15848 0
-15790 15849 0
-15791 15850 0
-15792 15851 0
-15793 15852 0
-15794 15853 0
-15795 15854 0
-15796 15855 0
-15797 15856 0
-15798 15857 0
-15799 15858 0
-15800 15859 0
-15801 15860 0
-15802 15861 0
-15803 15862 0
-1376 -15745 15805 0
-1376 -15746 15806 0
-1376 -15747 15807 0
-1376 -15748 15808 0
-1376 -15749 15809 0
-1376 -15750 15810 0
-1376 -15751 15811 0
-1376 -15752 15812 0
-1376 -15753 15813 0
-1376 -15754 15814 0
-1376 -15755 15815 0
-1376 -15756 15816 0
-1376 -15757 15817 0
-1376 -15758 15818 0
-1376 -15759 15819 0
-1376 -15760 15820 0
-1376 -15761 15821 0
-1376 -15762 15822 0
-1376 -15763 15823 0
-1376 -15764 15824 0
-1376 -15765 15825 0
-1376 -15766 15826 0
-1376 -15767 15827 0
-1376 -15768 15828 0
-1376 -15769 15829 0
-1376 -15770 15830 0
-1376 -15771 15831 0
-1376 -15772 15832 0
-1376 -15773 15833 0
-1376 -15774 15834 0
-1376 -15775 15835 0
-1376 -15776 15836 0
-1376 -15777 15837 0
-1376 -15778 15838 0
-1376 -15779 15839 0
-1376 -15780 15840 0
-1376 -15781 15841 0
-1376 -15782 15842 0
-1376 -15783 15843 0
-1376 -15784 15844 0
-1376 -15785 15845 0
-1376 -15786 15846 0
-1376 -15787 15847 0
-1376 -15788 15848 0
-1376 -15789 15849 0
-1376 -15790 15850 0
-1376 -15791 15851 0
-1376 -15792 15852 0
-1376 -15793 15853 0
-1376 -15794 15854 0
-1376 -15795 15855 0
-1376 -15796 15856 0
-1376 -15797 15857 0
-1376 -15798 15858 0
-1376 -15799 15859 0
-1376 -15800 15860 0
-1376 -15801 15861 0
-1376 -15802 15862 0
-1376 -15803 0
-15804 15863 0
-15805 15864 0
-15806 15865 0
-15807 15866 0
-15808 15867 0
-15809 15868 0
-15810 15869 0
-15811 15870 0
-15812 15871 0
-15813 15872 0
-15814 15873 0
-15815 15874 0
-15816 15875 0
-15817 15876 0
-15818 15877 0
-15819 15878 0
-15820 15879 0
-15821 15880 0
-15822 15881 0
-15823 15882 0
-15824 15883 0
-15825 15884 0
-15826 15885 0
-15827 15886 0
-15828 15887 0
-15829 15888 0
-15830 15889 0
-15831 15890 0
-15832 15891 0
-15833 15892 0
-15834 15893 0
-15835 15894 0
-15836 15895 0
-15837 15896 0
-15838 15897 0
-15839 15898 0
-15840 15899 0
-15841 15900 0
-15842 15901 0
-15843 15902 0
-15844 15903 0
-15845 15904 0
-15846 15905 0
-15847 15906 0
-15848 15907 0
-15849 15908 0
-15850 15909 0
-15851 15910 0
-15852 15911 0
-15853 15912 0
-15854 15913 0
-15855 15914 0
-15856 15915 0
-15857 15916 0
-15858 15917 0
-15859 15918 0
-15860 15919 0
-15861 15920 0
-15862 15921 0
-1378 -15804 15864 0
-1378 -15805 15865 0
-1378 -15806 15866 0
-1378 -15807 15867 0
-1378 -15808 15868 0
-1378 -15809 15869 0
-1378 -15810 15870 0
-1378 -15811 15871 0
-1378 -15812 15872 0
-1378 -15813 15873 0
-1378 -15814 15874 0
-1378 -15815 15875 0
-1378 -15816 15876 0
-1378 -15817 15877 0
-1378 -15818 15878 0
-1378 -15819 15879 0
-1378 -15820 15880 0
-1378 -15821 15881 0
-1378 -15822 15882 0
-1378 -15823 15883 0
-1378 -15824 15884 0
-1378 -15825 15885 0
-1378 -15826 15886 0
-1378 -15827 15887 0
-1378 -15828 15888 0
-1378 -15829 15889 0
-1378 -15830 15890 0
-1378 -15831 15891 0
-1378 -15832 15892 0
-1378 -15833 15893 0
-1378 -15834 15894 0
-1378 -15835 15895 0
-1378 -15836 15896 0
-1378 -15837 15897 0
-1378 -15838 15898 0
-1378 -15839 15899 0
-1378 -15840 15900 0
-1378 -15841 15901 0
-1378 -15842 15902 0
-1378 -15843 15903 0
-1378 -15844 15904 0
-1378 -15845 15905 0
-1378 -15846 15906 0
-1378 -15847 15907 0
-1378 -15848 15908 0
-1378 -15849 15909 0
-1378 -15850 15910 0
-1378 -15851 15911 0
-1378 -15852 15912 0
-1378 -15853 15913 0
-1378 -15854 15914 0
-1378 -15855 15915 0
-1378 -15856 15916 0
-1378 -15857 15917 0
-1378 -15858 15918 0
-1378 -15859 15919 0
-1378 -15860 15920 0
-1378 -15861 15921 0
-1378 -15862 0
-15863 15922 0
-15864 15923 0
-15865 15924 0
-15866 15925 0
-15867 15926 0
-15868 15927 0
-15869 15928 0
-15870 15929 0
-15871 15930 0
-15872 15931 0
-15873 15932 0
-15874 15933 0
-15875 15934 0
-15876 15935 0
-15877 15936 0
-15878 15937 0
-15879 15938 0
-15880 15939 0
-15881 15940 0
-15882 15941 0
-15883 15942 0
-15884 15943 0
-15885 15944 0
-15886 15945 0
-15887 15946 0
-15888 15947 0
-15889 15948 0
-15890 15949 0
-15891 15950 0
-15892 15951 0
-15893 15952 0
-15894 15953 0
-15895 15954 0
-15896 15955 0
-15897 15956 0
-15898 15957 0
-15899 15958 0
-15900 15959 0
-15901 15960 0
-15902 15961 0
-15903 15962 0
-15904 15963 0
-15905 15964 0
-15906 15965 0
-15907 15966 0
-15908 15967 0
-15909 15968 0
-15910 15969 0
-15911 15970 0
-15912 15971 0
-15913 15972 0
-15914 15973 0
-15915 15974 0
-15916 15975 0
-15917 15976 0
-15918 15977 0
-15919 15978 0
-15920 15979 0
-15921 15980 0
-1380 -15863 15923 0
-1380 -15864 15924 0
-1380 -15865 15925 0
-1380 -15866 15926 0
-1380 -15867 15927 0
-1380 -15868 15928 0
-1380 -15869 15929 0
-1380 -15870 15930 0
-1380 -15871 15931 0
-1380 -15872 15932 0
-1380 -15873 15933 0
-1380 -15874 15934 0
-1380 -15875 15935 0
-1380 -15876 15936 0
-1380 -15877 15937 0
-1380 -15878 15938 0
-1380 -15879 15939 0
-1380 -15880 15940 0
-1380 -15881 15941 0
-1380 -15882 15942 0
-1380 -15883 15943 0
-1380 -15884 15944 0
-1380 -15885 15945 0
-1380 -15886 15946 0
-1380 -15887 15947 0
-1380 -15888 15948 0
-1380 -15889 15949 0
-1380 -15890 15950 0
-1380 -15891 15951 0
-1380 -15892 15952 0
-1380 -15893 15953 0
-1380 -15894 15954 0
-1380 -15895 15955 0
-1380 -15896 15956 0
-1380 -15897 15957 0
-1380 -15898 15958 0
-1380 -15899 15959 0
-1380 -15900 15960 0
-1380 -15901 15961 0
-1380 -15902 15962 0
-1380 -15903 15963 0
-1380 -15904 15964 0
-1380 -15905 15965 0
-1380 -15906 15966 0
-1380 -15907 15967 0
-1380 -15908 15968 0
-1380 -15909 15969 0
-1380 -15910 15970 0
-1380 -15911 15971 0
-1380 -15912 15972 0
-1380 -15913 15973 0
-1380 -15914 15974 0
-1380 -15915 15975 0
-1380 -15916 15976 0
-1380 -15917 15977 0
-1380 -15918 15978 0
-1380 -15919 15979 0
-1380 -15920 15980 0
-1380 -15921 0
-15922 15981 0
-15923 15982 0
-15924 15983 0
-15925 15984 0
-15926 15985 0
-15927 15986 0
-15928 15987 0
-15929 15988 0
-15930 15989 0
-15931 15990 0
-15932 15991 0
-15933 15992 0
-15934 15993 0
-15935 15994 0
-15936 15995 0
-15937 15996 0
-15938 15997 0
-15939 15998 0
-15940 15999 0
-15941 16000 0
-15942 16001 0
-15943 16002 0
-15944 16003 0
-15945 16004 0
-15946 16005 0
-15947 16006 0
-15948 16007 0
-15949 16008 0
-15950 16009 0
-15951 16010 0
-15952 16011 0
-15953 16012 0
-15954 16013 0
-15955 16014 0
-15956 16015 0
-15957 16016 0
-15958 16017 0
-15959 16018 0
-15960 16019 0
-15961 16020 0
-15962 16021 0
-15963 16022 0
-15964 16023 0
-15965 16024 0
-15966 16025 0
-15967 16026 0
-15968 16027 0
-15969 16028 0
-15970 16029 0
-15971 16030 0
-15972 16031 0
-15973 16032 0
-15974 16033 0
-15975 16034 0
-15976 16035 0
-15977 16036 0
-15978 16037 0
-15979 16038 0
-15980 16039 0
-1382 -15922 15982 0
-1382 -15923 15983 0
-1382 -15924 15984 0
-1382 -15925 15985 0
-1382 -15926 15986 0
-1382 -15927 15987 0
-1382 -15928 15988 0
-1382 -15929 15989 0
-1382 -15930 15990 0
-1382 -15931 15991 0
-1382 -15932 15992 0
-1382 -15933 15993 0
-1382 -15934 15994 0
-1382 -15935 15995 0
-1382 -15936 15996 0
-1382 -15937 15997 0
-1382 -15938 15998 0
-1382 -15939 15999 0
-1382 -15940 16000 0
-1382 -15941 16001 0
-1382 -15942 16002 0
-1382 -15943 16003 0
-1382 -15944 16004 0
-1382 -15945 16005 0
-1382 -15946 16006 0
-1382 -15947 16007 0
-1382 -15948 16008 0
-1382 -15949 16009 0
-1382 -15950 16010 0
-1382 -15951 16011 0
-1382 -15952 16012 0
-1382 -15953 16013 0
-1382 -15954 16014 0
-1382 -15955 16015 0
-1382 -15956 16016 0
-1382 -15957 16017 0
-1382 -15958 16018 0
-1382 -15959 16019 0
-1382 -15960 16020 0
-1382 -15961 16021 0
-1382 -15962 16022 0
-1382 -15963 16023 0
-1382 -15964 16024 0
-1382 -15965 16025 0
-1382 -15966 16026 0
-1382 -15967 16027 0
-1382 -15968 16028 0
-1382 -15969 16029 0
-1382 -15970 16030 0
-1382 -15971 16031 0
-1382 -15972 16032 0
-1382 -15973 16033 0
-1382 -15974 16034 0
-1382 -15975 16035 0
-1382 -15976 16036 0
-1382 -15977 16037 0
-1382 -15978 16038 0
-1382 -15979 16039 0
-1382 -15980 0
-15981 16040 0
-15982 16041 0
-15983 16042 0
-15984 16043 0
-15985 16044 0
-15986 16045 0
-15987 16046 0
-15988 16047 0
-15989 16048 0
-15990 16049 0
-15991 16050 0
-15992 16051 0
-15993 16052 0
-15994 16053 0
-15995 16054 0
-15996 16055 0
-15997 16056 0
-15998 16057 0
-15999 16058 0
-16000 16059 0
-16001 16060 0
-16002 16061 0
-16003 16062 0
-16004 16063 0
-16005 16064 0
-16006 16065 0
-16007 16066 0
-16008 16067 0
-16009 16068 0
-16010 16069 0
-16011 16070 0
-16012 16071 0
-16013 16072 0
-16014 16073 0
-16015 16074 0
-16016 16075 0
-16017 16076 0
-16018 16077 0
-16019 16078 0
-16020 16079 0
-16021 16080 0
-16022 16081 0
-16023 16082 0
-16024 16083 0
-16025 16084 0
-16026 16085 0
-16027 16086 0
-16028 16087 0
-16029 16088 0
-16030 16089 0
-16031 16090 0
-16032 16091 0
-16033 16092 0
-16034 16093 0
-16035 16094 0
-16036 16095 0
-16037 16096 0
-16038 16097 0
-16039 16098 0
-1384 -15981 16041 0
-1384 -15982 16042 0
-1384 -15983 16043 0
-1384 -15984 16044 0
-1384 -15985 16045 0
-1384 -15986 16046 0
-1384 -15987 16047 0
-1384 -15988 16048 0
-1384 -15989 16049 0
-1384 -15990 16050 0
-1384 -15991 16051 0
-1384 -15992 16052 0
-1384 -15993 16053 0
-1384 -15994 16054 0
-1384 -15995 16055 0
-1384 -15996 16056 0
-1384 -15997 16057 0
-1384 -15998 16058 0
-1384 -15999 16059 0
-1384 -16000 16060 0
-1384 -16001 16061 0
-1384 -16002 16062 0
-1384 -16003 16063 0
-1384 -16004 16064 0
-1384 -16005 16065 0
-1384 -16006 16066 0
-1384 -16007 16067 0
-1384 -16008 16068 0
-1384 -16009 16069 0
-1384 -16010 16070 0
-1384 -16011 16071 0
-1384 -16012 16072 0
-1384 -16013 16073 0
-1384 -16014 16074 0
-1384 -16015 16075 0
-1384 -16016 16076 0
-1384 -16017 16077 0
-1384 -16018 16078 0
-1384 -16019 16079 0
-1384 -16020 16080 0
-1384 -16021 16081 0
-1384 -16022 16082 0
-1384 -16023 16083 0
-1384 -16024 16084 0
-1384 -16025 16085 0
-1384 -16026 16086 0
-1384 -16027 16087 0
-1384 -16028 16088 0
-1384 -16029 16089 0
-1384 -16030 16090 0
-1384 -16031 16091 0
-1384 -16032 16092 0
-1384 -16033 16093 0
-1384 -16034 16094 0
-1384 -16035 16095 0
-1384 -16036 16096 0
-1384 -16037 16097 0
-1384 -16038 16098 0
-1384 -16039 0
-16040 16099 0
-16041 16100 0
-16042 16101 0
-16043 16102 0
-16044 16103 0
-16045 16104 0
-16046 16105 0
-16047 16106 0
-16048 16107 0
-16049 16108 0
-16050 16109 0
-16051 16110 0
-16052 16111 0
-16053 16112 0
-16054 16113 0
-16055 16114 0
-16056 16115 0
-16057 16116 0
-16058 16117 0
-16059 16118 0
-16060 16119 0
-16061 16120 0
-16062 16121 0
-16063 16122 0
-16064 16123 0
-16065 16124 0
-16066 16125 0
-16067 16126 0
-16068 16127 0
-16069 16128 0
-16070 16129 0
-16071 16130 0
-16072 16131 0
-16073 16132 0
-16074 16133 0
-16075 16134 0
-16076 16135 0
-16077 16136 0
-16078 16137 0
-16079 16138 0
-16080 16139 0
-16081 16140 0
-16082 16141 0
-16083 16142 0
-16084 16143 0
-16085 16144 0
-16086 16145 0
-16087 16146 0
-16088 16147 0
-16089 16148 0
-16090 16149 0
-16091 16150 0
-16092 16151 0
-16093 16152 0
-16094 16153 0
-16095 16154 0
-16096 16155 0
-16097 16156 0
-16098 16157 0
-1386 -16040 16100 0
-1386 -16041 16101 0
-1386 -16042 16102 0
-1386 -16043 16103 0
-1386 -16044 16104 0
-1386 -16045 16105 0
-1386 -16046 16106 0
-1386 -16047 16107 0
-1386 -16048 16108 0
-1386 -16049 16109 0
-1386 -16050 16110 0
-1386 -16051 16111 0
-1386 -16052 16112 0
-1386 -16053 16113 0
-1386 -16054 16114 0
-1386 -16055 16115 0
-1386 -16056 16116 0
-1386 -16057 16117 0
-1386 -16058 16118 0
-1386 -16059 16119 0
-1386 -16060 16120 0
-1386 -16061 16121 0
-1386 -16062 16122 0
-1386 -16063 16123 0
-1386 -16064 16124 0
-1386 -16065 16125 0
-1386 -16066 16126 0
-1386 -16067 16127 0
-1386 -16068 16128 0
-1386 -16069 16129 0
-1386 -16070 16130 0
-1386 -16071 16131 0
-1386 -16072 16132 0
-1386 -16073 16133 0
-1386 -16074 16134 0
-1386 -16075 16135 0
-1386 -16076 16136 0
-1386 -16077 16137 0
-1386 -16078 16138 0
-1386 -16079 16139 0
-1386 -16080 16140 0
-1386 -16081 16141 0
-1386 -16082 16142 0
-1386 -16083 16143 0
-1386 -16084 16144 0
-1386 -16085 16145 0
-1386 -16086 16146 0
-1386 -16087 16147 0
-1386 -16088 16148 0
-1386 -16089 16149 0
-1386 -16090 16150 0
-1386 -16091 16151 0
-1386 -16092 16152 0
-1386 -16093 16153 0
-1386 -16094 16154 0
-1386 -16095 16155 0
-1386 -16096 16156 0
-1386 -16097 16157 0
-1386 -16098 0
-16099 16158 0
-16100 16159 0
-16101 16160 0
-16102 16161 0
-16103 16162 0
-16104 16163 0
-16105 16164 0
-16106 16165 0
-16107 16166 0
-16108 16167 0
-16109 16168 0
-16110 16169 0
-16111 16170 0
-16112 16171 0
-16113 16172 0
-16114 16173 0
-16115 16174 0
-16116 16175 0
-16117 16176 0
-16118 16177 0
-16119 16178 0
-16120 16179 0
-16121 16180 0
-16122 16181 0
-16123 16182 0
-16124 16183 0
-16125 16184 0
-16126 16185 0
-16127 16186 0
-16128 16187 0
-16129 16188 0
-16130 16189 0
-16131 16190 0
-16132 16191 0
-16133 16192 0
-16134 16193 0
-16135 16194 0
-16136 16195 0
-16137 16196 0
-16138 16197 0
-16139 16198 0
-16140 16199 0
-16141 16200 0
-16142 16201 0
-16143 16202 0
-16144 16203 0
-16145 16204 0
-16146 16205 0
-16147 16206 0
-16148 16207 0
-16149 16208 0
-16150 16209 0
-16151 16210 0
-16152 16211 0
-16153 16212 0
-16154 16213 0
-16155 16214 0
-16156 16215 0
-16157 16216 0
-1388 -16099 16159 0
-1388 -16100 16160 0
-1388 -16101 16161 0
-1388 -16102 16162 0
-1388 -16103 16163 0
-1388 -16104 16164 0
-1388 -16105 16165 0
-1388 -16106 16166 0
-1388 -16107 16167 0
-1388 -16108 16168 0
-1388 -16109 16169 0
-1388 -16110 16170 0
-1388 -16111 16171 0
-1388 -16112 16172 0
-1388 -16113 16173 0
-1388 -16114 16174 0
-1388 -16115 16175 0
-1388 -16116 16176 0
-1388 -16117 16177 0
-1388 -16118 16178 0
-1388 -16119 16179 0
-1388 -16120 16180 0
-1388 -16121 16181 0
-1388 -16122 16182 0
-1388 -16123 16183 0
-1388 -16124 16184 0
-1388 -16125 16185 0
-1388 -16126 16186 0
-1388 -16127 16187 0
-1388 -16128 16188 0
-1388 -16129 16189 0
-1388 -16130 16190 0
-1388 -16131 16191 0
-1388 -16132 16192 0
-1388 -16133 16193 0
-1388 -16134 16194 0
-1388 -16135 16195 0
-1388 -16136 16196 0
-1388 -16137 16197 0
-1388 -16138 16198 0
-1388 -16139 16199 0
-1388 -16140 16200 0
-1388 -16141 16201 0
-1388 -16142 16202 0
-1388 -16143 16203 0
-1388 -16144 16204 0
-1388 -16145 16205 0
-1388 -16146 16206 0
-1388 -16147 16207 0
-1388 -16148 16208 0
-1388 -16149 16209 0
-1388 -16150 16210 0
-1388 -16151 16211 0
-1388 -16152 16212 0
-1388 -16153 16213 0
-1388 -16154 16214 0
-1388 -16155 16215 0
-1388 -16156 16216 0
-1388 -16157 0
-16158 16217 0
-16159 16218 0
-16160 16219 0
-16161 16220 0
-16162 16221 0
-16163 16222 0
-16164 16223 0
-16165 16224 0
-16166 16225 0
-16167 16226 0
-16168 16227 0
-16169 16228 0
-16170 16229 0
-16171 16230 0
-16172 16231 0
-16173 16232 0
-16174 16233 0
-16175 16234 0
-16176 16235 0
-16177 16236 0
-16178 16237 0
-16179 16238 0
-16180 16239 0
-16181 16240 0
-16182 16241 0
-16183 16242 0
-16184 16243 0
-16185 16244 0
-16186 16245 0
-16187 16246 0
-16188 16247 0
-16189 16248 0
-16190 16249 0
-16191 16250 0
-16192 16251 0
-16193 16252 0
-16194 16253 0
-16195 16254 0
-16196 16255 0
-16197 16256 0
-16198 16257 0
-16199 16258 0
-16200 16259 0
-16201 16260 0
-16202 16261 0
-16203 16262 0
-16204 16263 0
-16205 16264 0
-16206 16265 0
-16207 16266 0
-16208 16267 0
-16209 16268 0
-16210 16269 0
-16211 16270 0
-16212 16271 0
-16213 16272 0
-16214 16273 0
-16215 16274 0
-16216 16275 0
-1390 -16158 16218 0
-1390 -16159 16219 0
-1390 -16160 16220 0
-1390 -16161 16221 0
-1390 -16162 16222 0
-1390 -16163 16223 0
-1390 -16164 16224 0
-1390 -16165 16225 0
-1390 -16166 16226 0
-1390 -16167 16227 0
-1390 -16168 16228 0
-1390 -16169 16229 0
-1390 -16170 16230 0
-1390 -16171 16231 0
-1390 -16172 16232 0
-1390 -16173 16233 0
-1390 -16174 16234 0
-1390 -16175 16235 0
-1390 -16176 16236 0
-1390 -16177 16237 0
-1390 -16178 16238 0
-1390 -16179 16239 0
-1390 -16180 16240 0
-1390 -16181 16241 0
-1390 -16182 16242 0
-1390 -16183 16243 0
-1390 -16184 16244 0
-1390 -16185 16245 0
-1390 -16186 16246 0
-1390 -16187 16247 0
-1390 -16188 16248 0
-1390 -16189 16249 0
-1390 -16190 16250 0
-1390 -16191 16251 0
-1390 -16192 16252 0
-1390 -16193 16253 0
-1390 -16194 16254 0
-1390 -16195 16255 0
-1390 -16196 16256 0
-1390 -16197 16257 0
-1390 -16198 16258 0
-1390 -16199 16259 0
-1390 -16200 16260 0
-1390 -16201 16261 0
-1390 -16202 16262 0
-1390 -16203 16263 0
-1390 -16204 16264 0
-1390 -16205 16265 0
-1390 -16206 16266 0
-1390 -16207 16267 0
-1390 -16208 16268 0
-1390 -16209 16269 0
-1390 -16210 16270 0
-1390 -16211 16271 0
-1390 -16212 16272 0
-1390 -16213 16273 0
-1390 -16214 16274 0
-1390 -16215 16275 0
-1390 -16216 0
-16217 16276 0
-16218 16277 0
-16219 16278 0
-16220 16279 0
-16221 16280 0
-16222 16281 0
-16223 16282 0
-16224 16283 0
-16225 16284 0
-16226 16285 0
-16227 16286 0
-16228 16287 0
-16229 16288 0
-16230 16289 0
-16231 16290 0
-16232 16291 0
-16233 16292 0
-16234 16293 0
-16235 16294 0
-16236 16295 0
-16237 16296 0
-16238 16297 0
-16239 16298 0
-16240 16299 0
-16241 16300 0
-16242 16301 0
-16243 16302 0
-16244 16303 0
-16245 16304 0
-16246 16305 0
-16247 16306 0
-16248 16307 0
-16249 16308 0
-16250 16309 0
-16251 16310 0
-16252 16311 0
-16253 16312 0
-16254 16313 0
-16255 16314 0
-16256 16315 0
-16257 16316 0
-16258 16317 0
-16259 16318 0
-16260 16319 0
-16261 16320 0
-16262 16321 0
-16263 16322 0
-16264 16323 0
-16265 16324 0
-16266 16325 0
-16267 16326 0
-16268 16327 0
-16269 16328 0
-16270 16329 0
-16271 16330 0
-16272 16331 0
-16273 16332 0
-16274 16333 0
-16275 16334 0
-1392 -16217 16277 0
-1392 -16218 16278 0
-1392 -16219 16279 0
-1392 -16220 16280 0
-1392 -16221 16281 0
-1392 -16222 16282 0
-1392 -16223 16283 0
-1392 -16224 16284 0
-1392 -16225 16285 0
-1392 -16226 16286 0
-1392 -16227 16287 0
-1392 -16228 16288 0
-1392 -16229 16289 0
-1392 -16230 16290 0
-1392 -16231 16291 0
-1392 -16232 16292 0
-1392 -16233 16293 0
-1392 -16234 16294 0
-1392 -16235 16295 0
-1392 -16236 16296 0
-1392 -16237 16297 0
-1392 -16238 16298 0
-1392 -16239 16299 0
-1392 -16240 16300 0
-1392 -16241 16301 0
-1392 -16242 16302 0
-1392 -16243 16303 0
-1392 -16244 16304 0
-1392 -16245 16305 0
-1392 -16246 16306 0
-1392 -16247 16307 0
-1392 -16248 16308 0
-1392 -16249 16309 0
-1392 -16250 16310 0
-1392 -16251 16311 0
-1392 -16252 16312 0
-1392 -16253 16313 0
-1392 -16254 16314 0
-1392 -16255 16315 0
-1392 -16256 16316 0
-1392 -16257 16317 0
-1392 -16258 16318 0
-1392 -16259 16319 0
-1392 -16260 16320 0
-1392 -16261 16321 0
-1392 -16262 16322 0
-1392 -16263 16323 0
-1392 -16264 16324 0
-1392 -16265 16325 0
-1392 -16266 16326 0
-1392 -16267 16327 0
-1392 -16268 16328 0
-1392 -16269 16329 0
-1392 -16270 16330 0
-1392 -16271 16331 0
-1392 -16272 16332 0
-1392 -16273 16333 0
-1392 -16274 16334 0
-1392 -16275 0
-16276 16335 0
-16277 16336 0
-16278 16337 0
-16279 16338 0
-16280 16339 0
-16281 16340 0
-16282 16341 0
-16283 16342 0
-16284 16343 0
-16285 16344 0
-16286 16345 0
-16287 16346 0
-16288 16347 0
-16289 16348 0
-16290 16349 0
-16291 16350 0
-16292 16351 0
-16293 16352 0
-16294 16353 0
-16295 16354 0
-16296 16355 0
-16297 16356 0
-16298 16357 0
-16299 16358 0
-16300 16359 0
-16301 16360 0
-16302 16361 0
-16303 16362 0
-16304 16363 0
-16305 16364 0
-16306 16365 0
-16307 16366 0
-16308 16367 0
-16309 16368 0
-16310 16369 0
-16311 16370 0
-16312 16371 0
-16313 16372 0
-16314 16373 0
-16315 16374 0
-16316 16375 0
-16317 16376 0
-16318 16377 0
-16319 16378 0
-16320 16379 0
-16321 16380 0
-16322 16381 0
-16323 16382 0
-16324 16383 0
-16325 16384 0
-16326 16385 0
-16327 16386 0
-16328 16387 0
-16329 16388 0
-16330 16389 0
-16331 16390 0
-16332 16391 0
-16333 16392 0
-16334 16393 0
-1394 -16276 16336 0
-1394 -16277 16337 0
-1394 -16278 16338 0
-1394 -16279 16339 0
-1394 -16280 16340 0
-1394 -16281 16341 0
-1394 -16282 16342 0
-1394 -16283 16343 0
-1394 -16284 16344 0
-1394 -16285 16345 0
-1394 -16286 16346 0
-1394 -16287 16347 0
-1394 -16288 16348 0
-1394 -16289 16349 0
-1394 -16290 16350 0
-1394 -16291 16351 0
-1394 -16292 16352 0
-1394 -16293 16353 0
-1394 -16294 16354 0
-1394 -16295 16355 0
-1394 -16296 16356 0
-1394 -16297 16357 0
-1394 -16298 16358 0
-1394 -16299 16359 0
-1394 -16300 16360 0
-1394 -16301 16361 0
-1394 -16302 16362 0
-1394 -16303 16363 0
-1394 -16304 16364 0
-1394 -16305 16365 0
-1394 -16306 16366 0
-1394 -16307 16367 0
-1394 -16308 16368 0
-1394 -16309 16369 0
-1394 -16310 16370 0
-1394 -16311 16371 0
-1394 -16312 16372 0
-1394 -16313 16373 0
-1394 -16314 16374 0
-1394 -16315 16375 0
-1394 -16316 16376 0
-1394 -16317 16377 0
-1394 -16318 16378 0
-1394 -16319 16379 0
-1394 -16320 16380 0
-1394 -16321 16381 0
-1394 -16322 16382 0
-1394 -16323 16383 0
-1394 -16324 16384 0
-1394 -16325 16385 0
-1394 -16326 16386 0
-1394 -16327 16387 0
-1394 -16328 16388 0
-1394 -16329 16389 0
-1394 -16330 16390 0
-1394 -16331 16391 0
-1394 -16332 16392 0
-1394 -16333 16393 0
-1394 -16334 0
-16335 16394 0
-16336 16395 0
-16337 16396 0
-16338 16397 0
-16339 16398 0
-16340 16399 0
-16341 16400 0
-16342 16401 0
-16343 16402 0
-16344 16403 0
-16345 16404 0
-16346 16405 0
-16347 16406 0
-16348 16407 0
-16349 16408 0
-16350 16409 0
-16351 16410 0
-16352 16411 0
-16353 16412 0
-16354 16413 0
-16355 16414 0
-16356 16415 0
-16357 16416 0
-16358 16417 0
-16359 16418 0
-16360 16419 0
-16361 16420 0
-16362 16421 0
-16363 16422 0
-16364 16423 0
-16365 16424 0
-16366 16425 0
-16367 16426 0
-16368 16427 0
-16369 16428 0
-16370 16429 0
-16371 16430 0
-16372 16431 0
-16373 16432 0
-16374 16433 0
-16375 16434 0
-16376 16435 0
-16377 16436 0
-16378 16437 0
-16379 16438 0
-16380 16439 0
-16381 16440 0
-16382 16441 0
-16383 16442 0
-16384 16443 0
-16385 16444 0
-16386 16445 0
-16387 16446 0
-16388 16447 0
-16389 16448 0
-16390 16449 0
-16391 16450 0
-16392 16451 0
-16393 16452 0
-1396 -16335 16395 0
-1396 -16336 16396 0
-1396 -16337 16397 0
-1396 -16338 16398 0
-1396 -16339 16399 0
-1396 -16340 16400 0
-1396 -16341 16401 0
-1396 -16342 16402 0
-1396 -16343 16403 0
-1396 -16344 16404 0
-1396 -16345 16405 0
-1396 -16346 16406 0
-1396 -16347 16407 0
-1396 -16348 16408 0
-1396 -16349 16409 0
-1396 -16350 16410 0
-1396 -16351 16411 0
-1396 -16352 16412 0
-1396 -16353 16413 0
-1396 -16354 16414 0
-1396 -16355 16415 0
-1396 -16356 16416 0
-1396 -16357 16417 0
-1396 -16358 16418 0
-1396 -16359 16419 0
-1396 -16360 16420 0
-1396 -16361 16421 0
-1396 -16362 16422 0
-1396 -16363 16423 0
-1396 -16364 16424 0
-1396 -16365 16425 0
-1396 -16366 16426 0
-1396 -16367 16427 0
-1396 -16368 16428 0
-1396 -16369 16429 0
-1396 -16370 16430 0
-1396 -16371 16431 0
-1396 -16372 16432 0
-1396 -16373 16433 0
-1396 -16374 16434 0
-1396 -16375 16435 0
-1396 -16376 16436 0
-1396 -16377 16437 0
-1396 -16378 16438 0
-1396 -16379 16439 0
-1396 -16380 16440 0
-1396 -16381 16441 0
-1396 -16382 16442 0
-1396 -16383 16443 0
-1396 -16384 16444 0
-1396 -16385 16445 0
-1396 -16386 16446 0
-1396 -16387 16447 0
-1396 -16388 16448 0
-1396 -16389 16449 0
-1396 -16390 16450 0
-1396 -16391 16451 0
-1396 -16392 16452 0
-1396 -16393 0
-16394 16453 0
-16395 16454 0
-16396 16455 0
-16397 16456 0
-16398 16457 0
-16399 16458 0
-16400 16459 0
-16401 16460 0
-16402 16461 0
-16403 16462 0
-16404 16463 0
-16405 16464 0
-16406 16465 0
-16407 16466 0
-16408 16467 0
-16409 16468 0
-16410 16469 0
-16411 16470 0
-16412 16471 0
-16413 16472 0
-16414 16473 0
-16415 16474 0
-16416 16475 0
-16417 16476 0
-16418 16477 0
-16419 16478 0
-16420 16479 0
-16421 16480 0
-16422 16481 0
-16423 16482 0
-16424 16483 0
-16425 16484 0
-16426 16485 0
-16427 16486 0
-16428 16487 0
-16429 16488 0
-16430 16489 0
-16431 16490 0
-16432 16491 0
-16433 16492 0
-16434 16493 0
-16435 16494 0
-16436 16495 0
-16437 16496 0
-16438 16497 0
-16439 16498 0
-16440 16499 0
-16441 16500 0
-16442 16501 0
-16443 16502 0
-16444 16503 0
-16445 16504 0
-16446 16505 0
-16447 16506 0
-16448 16507 0
-16449 16508 0
-16450 16509 0
-16451 16510 0
-16452 16511 0
-1398 -16394 16454 0
-1398 -16395 16455 0
-1398 -16396 16456 0
-1398 -16397 16457 0
-1398 -16398 16458 0
-1398 -16399 16459 0
-1398 -16400 16460 0
-1398 -16401 16461 0
-1398 -16402 16462 0
-1398 -16403 16463 0
-1398 -16404 16464 0
-1398 -16405 16465 0
-1398 -16406 16466 0
-1398 -16407 16467 0
-1398 -16408 16468 0
-1398 -16409 16469 0
-1398 -16410 16470 0
-1398 -16411 16471 0
-1398 -16412 16472 0
-1398 -16413 16473 0
-1398 -16414 16474 0
-1398 -16415 16475 0
-1398 -16416 16476 0
-1398 -16417 16477 0
-1398 -16418 16478 0
-1398 -16419 16479 0
-1398 -16420 16480 0
-1398 -16421 16481 0
-1398 -16422 16482 0
-1398 -16423 16483 0
-1398 -16424 16484 0
-1398 -16425 16485 0
-1398 -16426 16486 0
-1398 -16427 16487 0
-1398 -16428 16488 0
-1398 -16429 16489 0
-1398 -16430 16490 0
-1398 -16431 16491 0
-1398 -16432 16492 0
-1398 -16433 16493 0
-1398 -16434 16494 0
-1398 -16435 16495 0
-1398 -16436 16496 0
-1398 -16437 16497 0
-1398 -16438 16498 0
-1398 -16439 16499 0
-1398 -16440 16500 0
-1398 -16441 16501 0
-1398 -16442 16502 0
-1398 -16443 16503 0
-1398 -16444 16504 0
-1398 -16445 16505 0
-1398 -16446 16506 0
-1398 -16447 16507 0
-1398 -16448 16508 0
-1398 -16449 16509 0
-1398 -16450 16510 0
-1398 -16451 16511 0
-1398 -16452 0
-16453 16512 0
-16454 16513 0
-16455 16514 0
-16456 16515 0
-16457 16516 0
-16458 16517 0
-16459 16518 0
-16460 16519 0
-16461 16520 0
-16462 16521 0
-16463 16522 0
-16464 16523 0
-16465 16524 0
-16466 16525 0
-16467 16526 0
-16468 16527 0
-16469 16528 0
-16470 16529 0
-16471 16530 0
-16472 16531 0
-16473 16532 0
-16474 16533 0
-16475 16534 0
-16476 16535 0
-16477 16536 0
-16478 16537 0
-16479 16538 0
-16480 16539 0
-16481 16540 0
-16482 16541 0
-16483 16542 0
-16484 16543 0
-16485 16544 0
-16486 16545 0
-16487 16546 0
-16488 16547 0
-16489 16548 0
-16490 16549 0
-16491 16550 0
-16492 16551 0
-16493 16552 0
-16494 16553 0
-16495 16554 0
-16496 16555 0
-16497 16556 0
-16498 16557 0
-16499 16558 0
-16500 16559 0
-16501 16560 0
-16502 16561 0
-16503 16562 0
-16504 16563 0
-16505 16564 0
-16506 16565 0
-16507 16566 0
-16508 16567 0
-16509 16568 0
-16510 16569 0
-16511 16570 0
-1400 -16453 16513 0
-1400 -16454 16514 0
-1400 -16455 16515 0
-1400 -16456 16516 0
-1400 -16457 16517 0
-1400 -16458 16518 0
-1400 -16459 16519 0
-1400 -16460 16520 0
-1400 -16461 16521 0
-1400 -16462 16522 0
-1400 -16463 16523 0
-1400 -16464 16524 0
-1400 -16465 16525 0
-1400 -16466 16526 0
-1400 -16467 16527 0
-1400 -16468 16528 0
-1400 -16469 16529 0
-1400 -16470 16530 0
-1400 -16471 16531 0
-1400 -16472 16532 0
-1400 -16473 16533 0
-1400 -16474 16534 0
-1400 -16475 16535 0
-1400 -16476 16536 0
-1400 -16477 16537 0
-1400 -16478 16538 0
-1400 -16479 16539 0
-1400 -16480 16540 0
-1400 -16481 16541 0
-1400 -16482 16542 0
-1400 -16483 16543 0
-1400 -16484 16544 0
-1400 -16485 16545 0
-1400 -16486 16546 0
-1400 -16487 16547 0
-1400 -16488 16548 0
-1400 -16489 16549 0
-1400 -16490 16550 0
-1400 -16491 16551 0
-1400 -16492 16552 0
-1400 -16493 16553 0
-1400 -16494 16554 0
-1400 -16495 16555 0
-1400 -16496 16556 0
-1400 -16497 16557 0
-1400 -16498 16558 0
-1400 -16499 16559 0
-1400 -16500 16560 0
-1400 -16501 16561 0
-1400 -16502 16562 0
-1400 -16503 16563 0
-1400 -16504 16564 0
-1400 -16505 16565 0
-1400 -16506 16566 0
-1400 -16507 16567 0
-1400 -16508 16568 0
-1400 -16509 16569 0
-1400 -16510 16570 0
-1400 -16511 0
-16512 16571 0
-16513 16572 0
-16514 16573 0
-16515 16574 0
-16516 16575 0
-16517 16576 0
-16518 16577 0
-16519 16578 0
-16520 16579 0
-16521 16580 0
-16522 16581 0
-16523 16582 0
-16524 16583 0
-16525 16584 0
-16526 16585 0
-16527 16586 0
-16528 16587 0
-16529 16588 0
-16530 16589 0
-16531 16590 0
-16532 16591 0
-16533 16592 0
-16534 16593 0
-16535 16594 0
-16536 16595 0
-16537 16596 0
-16538 16597 0
-16539 16598 0
-16540 16599 0
-16541 16600 0
-16542 16601 0
-16543 16602 0
-16544 16603 0
-16545 16604 0
-16546 16605 0
-16547 16606 0
-16548 16607 0
-16549 16608 0
-16550 16609 0
-16551 16610 0
-16552 16611 0
-16553 16612 0
-16554 16613 0
-16555 16614 0
-16556 16615 0
-16557 16616 0
-16558 16617 0
-16559 16618 0
-16560 16619 0
-16561 16620 0
-16562 16621 0
-16563 16622 0
-16564 16623 0
-16565 16624 0
-16566 16625 0
-16567 16626 0
-16568 16627 0
-16569 16628 0
-16570 16629 0
-1402 -16512 16572 0
-1402 -16513 16573 0
-1402 -16514 16574 0
-1402 -16515 16575 0
-1402 -16516 16576 0
-1402 -16517 16577 0
-1402 -16518 16578 0
-1402 -16519 16579 0
-1402 -16520 16580 0
-1402 -16521 16581 0
-1402 -16522 16582 0
-1402 -16523 16583 0
-1402 -16524 16584 0
-1402 -16525 16585 0
-1402 -16526 16586 0
-1402 -16527 16587 0
-1402 -16528 16588 0
-1402 -16529 16589 0
-1402 -16530 16590 0
-1402 -16531 16591 0
-1402 -16532 16592 0
-1402 -16533 16593 0
-1402 -16534 16594 0
-1402 -16535 16595 0
-1402 -16536 16596 0
-1402 -16537 16597 0
-1402 -16538 16598 0
-1402 -16539 16599 0
-1402 -16540 16600 0
-1402 -16541 16601 0
-1402 -16542 16602 0
-1402 -16543 16603 0
-1402 -16544 16604 0
-1402 -16545 16605 0
-1402 -16546 16606 0
-1402 -16547 16607 0
-1402 -16548 16608 0
-1402 -16549 16609 0
-1402 -16550 16610 0
-1402 -16551 16611 0
-1402 -16552 16612 0
-1402 -16553 16613 0
-1402 -16554 16614 0
-1402 -16555 16615 0
-1402 -16556 16616 0
-1402 -16557 16617 0
-1402 -16558 16618 0
-1402 -16559 16619 0
-1402 -16560 16620 0
-1402 -16561 16621 0
-1402 -16562 16622 0
-1402 -16563 16623 0
-1402 -16564 16624 0
-1402 -16565 16625 0
-1402 -16566 16626 0
-1402 -16567 16627 0
-1402 -16568 16628 0
-1402 -16569 16629 0
-1402 -16570 0
-16571 16630 0
-16572 16631 0
-16573 16632 0
-16574 16633 0
-16575 16634 0
-16576 16635 0
-16577 16636 0
-16578 16637 0
-16579 16638 0
-16580 16639 0
-16581 16640 0
-16582 16641 0
-16583 16642 0
-16584 16643 0
-16585 16644 0
-16586 16645 0
-16587 16646 0
-16588 16647 0
-16589 16648 0
-16590 16649 0
-16591 16650 0
-16592 16651 0
-16593 16652 0
-16594 16653 0
-16595 16654 0
-16596 16655 0
-16597 16656 0
-16598 16657 0
-16599 16658 0
-16600 16659 0
-16601 16660 0
-16602 16661 0
-16603 16662 0
-16604 16663 0
-16605 16664 0
-16606 16665 0
-16607 16666 0
-16608 16667 0
-16609 16668 0
-16610 16669 0
-16611 16670 0
-16612 16671 0
-16613 16672 0
-16614 16673 0
-16615 16674 0
-16616 16675 0
-16617 16676 0
-16618 16677 0
-16619 16678 0
-16620 16679 0
-16621 16680 0
-16622 16681 0
-16623 16682 0
-16624 16683 0
-16625 16684 0
-16626 16685 0
-16627 16686 0
-16628 16687 0
-16629 16688 0
-1404 -16571 16631 0
-1404 -16572 16632 0
-1404 -16573 16633 0
-1404 -16574 16634 0
-1404 -16575 16635 0
-1404 -16576 16636 0
-1404 -16577 16637 0
-1404 -16578 16638 0
-1404 -16579 16639 0
-1404 -16580 16640 0
-1404 -16581 16641 0
-1404 -16582 16642 0
-1404 -16583 16643 0
-1404 -16584 16644 0
-1404 -16585 16645 0
-1404 -16586 16646 0
-1404 -16587 16647 0
-1404 -16588 16648 0
-1404 -16589 16649 0
-1404 -16590 16650 0
-1404 -16591 16651 0
-1404 -16592 16652 0
-1404 -16593 16653 0
-1404 -16594 16654 0
-1404 -16595 16655 0
-1404 -16596 16656 0
-1404 -16597 16657 0
-1404 -16598 16658 0
-1404 -16599 16659 0
-1404 -16600 16660 0
-1404 -16601 16661 0
-1404 -16602 16662 0
-1404 -16603 16663 0
-1404 -16604 16664 0
-1404 -16605 16665 0
-1404 -16606 16666 0
-1404 -16607 16667 0
-1404 -16608 16668 0
-1404 -16609 16669 0
-1404 -16610 16670 0
-1404 -16611 16671 0
-1404 -16612 16672 0
-1404 -16613 16673 0
-1404 -16614 16674 0
-1404 -16615 16675 0
-1404 -16616 16676 0
-1404 -16617 16677 0
-1404 -16618 16678 0
-1404 -16619 16679 0
-1404 -16620 16680 0
-1404 -16621 16681 0
-1404 -16622 16682 0
-1404 -16623 16683 0
-1404 -16624 16684 0
-1404 -16625 16685 0
-1404 -16626 16686 0
-1404 -16627 16687 0
-1404 -16628 16688 0
-1404 -16629 0
-16630 16689 0
-16631 16690 0
-16632 16691 0
-16633 16692 0
-16634 16693 0
-16635 16694 0
-16636 16695 0
-16637 16696 0
-16638 16697 0
-16639 16698 0
-16640 16699 0
-16641 16700 0
-16642 16701 0
-16643 16702 0
-16644 16703 0
-16645 16704 0
-16646 16705 0
-16647 16706 0
-16648 16707 0
-16649 16708 0
-16650 16709 0
-16651 16710 0
-16652 16711 0
-16653 16712 0
-16654 16713 0
-16655 16714 0
-16656 16715 0
-16657 16716 0
-16658 16717 0
-16659 16718 0
-16660 16719 0
-16661 16720 0
-16662 16721 0
-16663 16722 0
-16664 16723 0
-16665 16724 0
-16666 16725 0
-16667 16726 0
-16668 16727 0
-16669 16728 0
-16670 16729 0
-16671 16730 0
-16672 16731 0
-16673 16732 0
-16674 16733 0
-16675 16734 0
-16676 16735 0
-16677 16736 0
-16678 16737 0
-16679 16738 0
-16680 16739 0
-16681 16740 0
-16682 16741 0
-16683 16742 0
-16684 16743 0
-16685 16744 0
-16686 16745 0
-16687 16746 0
-16688 16747 0
-1406 -16630 16690 0
-1406 -16631 16691 0
-1406 -16632 16692 0
-1406 -16633 16693 0
-1406 -16634 16694 0
-1406 -16635 16695 0
-1406 -16636 16696 0
-1406 -16637 16697 0
-1406 -16638 16698 0
-1406 -16639 16699 0
-1406 -16640 16700 0
-1406 -16641 16701 0
-1406 -16642 16702 0
-1406 -16643 16703 0
-1406 -16644 16704 0
-1406 -16645 16705 0
-1406 -16646 16706 0
-1406 -16647 16707 0
-1406 -16648 16708 0
-1406 -16649 16709 0
-1406 -16650 16710 0
-1406 -16651 16711 0
-1406 -16652 16712 0
-1406 -16653 16713 0
-1406 -16654 16714 0
-1406 -16655 16715 0
-1406 -16656 16716 0
-1406 -16657 16717 0
-1406 -16658 16718 0
-1406 -16659 16719 0
-1406 -16660 16720 0
-1406 -16661 16721 0
-1406 -16662 16722 0
-1406 -16663 16723 0
-1406 -16664 16724 0
-1406 -16665 16725 0
-1406 -16666 16726 0
-1406 -16667 16727 0
-1406 -16668 16728 0
-1406 -16669 16729 0
-1406 -16670 16730 0
-1406 -16671 16731 0
-1406 -16672 16732 0
-1406 -16673 16733 0
-1406 -16674 16734 0
-1406 -16675 16735 0
-1406 -16676 16736 0
-1406 -16677 16737 0
-1406 -16678 16738 0
-1406 -16679 16739 0
-1406 -16680 16740 0
-1406 -16681 16741 0
-1406 -16682 16742 0
-1406 -16683 16743 0
-1406 -16684 16744 0
-1406 -16685 16745 0
-1406 -16686 16746 0
-1406 -16687 16747 0
-1406 -16688 0
-16689 16748 0
-16690 16749 0
-16691 16750 0
-16692 16751 0
-16693 16752 0
-16694 16753 0
-16695 16754 0
-16696 16755 0
-16697 16756 0
-16698 16757 0
-16699 16758 0
-16700 16759 0
-16701 16760 0
-16702 16761 0
-16703 16762 0
-16704 16763 0
-16705 16764 0
-16706 16765 0
-16707 16766 0
-16708 16767 0
-16709 16768 0
-16710 16769 0
-16711 16770 0
-16712 16771 0
-16713 16772 0
-16714 16773 0
-16715 16774 0
-16716 16775 0
-16717 16776 0
-16718 16777 0
-16719 16778 0
-16720 16779 0
-16721 16780 0
-16722 16781 0
-16723 16782 0
-16724 16783 0
-16725 16784 0
-16726 16785 0
-16727 16786 0
-16728 16787 0
-16729 16788 0
-16730 16789 0
-16731 16790 0
-16732 16791 0
-16733 16792 0
-16734 16793 0
-16735 16794 0
-16736 16795 0
-16737 16796 0
-16738 16797 0
-16739 16798 0
-16740 16799 0
-16741 16800 0
-16742 16801 0
-16743 16802 0
-16744 16803 0
-16745 16804 0
-16746 16805 0
-16747 16806 0
-1408 -16689 16749 0
-1408 -16690 16750 0
-1408 -16691 16751 0
-1408 -16692 16752 0
-1408 -16693 16753 0
-1408 -16694 16754 0
-1408 -16695 16755 0
-1408 -16696 16756 0
-1408 -16697 16757 0
-1408 -16698 16758 0
-1408 -16699 16759 0
-1408 -16700 16760 0
-1408 -16701 16761 0
-1408 -16702 16762 0
-1408 -16703 16763 0
-1408 -16704 16764 0
-1408 -16705 16765 0
-1408 -16706 16766 0
-1408 -16707 16767 0
-1408 -16708 16768 0
-1408 -16709 16769 0
-1408 -16710 16770 0
-1408 -16711 16771 0
-1408 -16712 16772 0
-1408 -16713 16773 0
-1408 -16714 16774 0
-1408 -16715 16775 0
-1408 -16716 16776 0
-1408 -16717 16777 0
-1408 -16718 16778 0
-1408 -16719 16779 0
-1408 -16720 16780 0
-1408 -16721 16781 0
-1408 -16722 16782 0
-1408 -16723 16783 0
-1408 -16724 16784 0
-1408 -16725 16785 0
-1408 -16726 16786 0
-1408 -16727 16787 0
-1408 -16728 16788 0
-1408 -16729 16789 0
-1408 -16730 16790 0
-1408 -16731 16791 0
-1408 -16732 16792 0
-1408 -16733 16793 0
-1408 -16734 16794 0
-1408 -16735 16795 0
-1408 -16736 16796 0
-1408 -16737 16797 0
-1408 -16738 16798 0
-1408 -16739 16799 0
-1408 -16740 16800 0
-1408 -16741 16801 0
-1408 -16742 16802 0
-1408 -16743 16803 0
-1408 -16744 16804 0
-1408 -16745 16805 0
-1408 -16746 16806 0
-1408 -16747 0
-16748 16807 0
-16749 16808 0
-16750 16809 0
-16751 16810 0
-16752 16811 0
-16753 16812 0
-16754 16813 0
-16755 16814 0
-16756 16815 0
-16757 16816 0
-16758 16817 0
-16759 16818 0
-16760 16819 0
-16761 16820 0
-16762 16821 0
-16763 16822 0
-16764 16823 0
-16765 16824 0
-16766 16825 0
-16767 16826 0
-16768 16827 0
-16769 16828 0
-16770 16829 0
-16771 16830 0
-16772 16831 0
-16773 16832 0
-16774 16833 0
-16775 16834 0
-16776 16835 0
-16777 16836 0
-16778 16837 0
-16779 16838 0
-16780 16839 0
-16781 16840 0
-16782 16841 0
-16783 16842 0
-16784 16843 0
-16785 16844 0
-16786 16845 0
-16787 16846 0
-16788 16847 0
-16789 16848 0
-16790 16849 0
-16791 16850 0
-16792 16851 0
-16793 16852 0
-16794 16853 0
-16795 16854 0
-16796 16855 0
-16797 16856 0
-16798 16857 0
-16799 16858 0
-16800 16859 0
-16801 16860 0
-16802 16861 0
-16803 16862 0
-16804 16863 0
-16805 16864 0
-16806 16865 0
-1410 -16748 16808 0
-1410 -16749 16809 0
-1410 -16750 16810 0
-1410 -16751 16811 0
-1410 -16752 16812 0
-1410 -16753 16813 0
-1410 -16754 16814 0
-1410 -16755 16815 0
-1410 -16756 16816 0
-1410 -16757 16817 0
-1410 -16758 16818 0
-1410 -16759 16819 0
-1410 -16760 16820 0
-1410 -16761 16821 0
-1410 -16762 16822 0
-1410 -16763 16823 0
-1410 -16764 16824 0
-1410 -16765 16825 0
-1410 -16766 16826 0
-1410 -16767 16827 0
-1410 -16768 16828 0
-1410 -16769 16829 0
-1410 -16770 16830 0
-1410 -16771 16831 0
-1410 -16772 16832 0
-1410 -16773 16833 0
-1410 -16774 16834 0
-1410 -16775 16835 0
-1410 -16776 16836 0
-1410 -16777 16837 0
-1410 -16778 16838 0
-1410 -16779 16839 0
-1410 -16780 16840 0
-1410 -16781 16841 0
-1410 -16782 16842 0
-1410 -16783 16843 0
-1410 -16784 16844 0
-1410 -16785 16845 0
-1410 -16786 16846 0
-1410 -16787 16847 0
-1410 -16788 16848 0
-1410 -16789 16849 0
-1410 -16790 16850 0
-1410 -16791 16851 0
-1410 -16792 16852 0
-1410 -16793 16853 0
-1410 -16794 16854 0
-1410 -16795 16855 0
-1410 -16796 16856 0
-1410 -16797 16857 0
-1410 -16798 16858 0
-1410 -16799 16859 0
-1410 -16800 16860 0
-1410 -16801 16861 0
-1410 -16802 16862 0
-1410 -16803 16863 0
-1410 -16804 16864 0
-1410 -16805 16865 0
-1410 -16806 0
-16807 16866 0
-16808 16867 0
-16809 16868 0
-16810 16869 0
-16811 16870 0
-16812 16871 0
-16813 16872 0
-16814 16873 0
-16815 16874 0
-16816 16875 0
-16817 16876 0
-16818 16877 0
-16819 16878 0
-16820 16879 0
-16821 16880 0
-16822 16881 0
-16823 16882 0
-16824 16883 0
-16825 16884 0
-16826 16885 0
-16827 16886 0
-16828 16887 0
-16829 16888 0
-16830 16889 0
-16831 16890 0
-16832 16891 0
-16833 16892 0
-16834 16893 0
-16835 16894 0
-16836 16895 0
-16837 16896 0
-16838 16897 0
-16839 16898 0
-16840 16899 0
-16841 16900 0
-16842 16901 0
-16843 16902 0
-16844 16903 0
-16845 16904 0
-16846 16905 0
-16847 16906 0
-16848 16907 0
-16849 16908 0
-16850 16909 0
-16851 16910 0
-16852 16911 0
-16853 16912 0
-16854 16913 0
-16855 16914 0
-16856 16915 0
-16857 16916 0
-16858 16917 0
-16859 16918 0
-16860 16919 0
-16861 16920 0
-16862 16921 0
-16863 16922 0
-16864 16923 0
-16865 16924 0
-1412 -16807 16867 0
-1412 -16808 16868 0
-1412 -16809 16869 0
-1412 -16810 16870 0
-1412 -16811 16871 0
-1412 -16812 16872 0
-1412 -16813 16873 0
-1412 -16814 16874 0
-1412 -16815 16875 0
-1412 -16816 16876 0
-1412 -16817 16877 0
-1412 -16818 16878 0
-1412 -16819 16879 0
-1412 -16820 16880 0
-1412 -16821 16881 0
-1412 -16822 16882 0
-1412 -16823 16883 0
-1412 -16824 16884 0
-1412 -16825 16885 0
-1412 -16826 16886 0
-1412 -16827 16887 0
-1412 -16828 16888 0
-1412 -16829 16889 0
-1412 -16830 16890 0
-1412 -16831 16891 0
-1412 -16832 16892 0
-1412 -16833 16893 0
-1412 -16834 16894 0
-1412 -16835 16895 0
-1412 -16836 16896 0
-1412 -16837 16897 0
-1412 -16838 16898 0
-1412 -16839 16899 0
-1412 -16840 16900 0
-1412 -16841 16901 0
-1412 -16842 16902 0
-1412 -16843 16903 0
-1412 -16844 16904 0
-1412 -16845 16905 0
-1412 -16846 16906 0
-1412 -16847 16907 0
-1412 -16848 16908 0
-1412 -16849 16909 0
-1412 -16850 16910 0
-1412 -16851 16911 0
-1412 -16852 16912 0
-1412 -16853 16913 0
-1412 -16854 16914 0
-1412 -16855 16915 0
-1412 -16856 16916 0
-1412 -16857 16917 0
-1412 -16858 16918 0
-1412 -16859 16919 0
-1412 -16860 16920 0
-1412 -16861 16921 0
-1412 -16862 16922 0
-1412 -16863 16923 0
-1412 -16864 16924 0
-1412 -16865 0
-16866 16925 0
-16867 16926 0
-16868 16927 0
-16869 16928 0
-16870 16929 0
-16871 16930 0
-16872 16931 0
-16873 16932 0
-16874 16933 0
-16875 16934 0
-16876 16935 0
-16877 16936 0
-16878 16937 0
-16879 16938 0
-16880 16939 0
-16881 16940 0
-16882 16941 0
-16883 16942 0
-16884 16943 0
-16885 16944 0
-16886 16945 0
-16887 16946 0
-16888 16947 0
-16889 16948 0
-16890 16949 0
-16891 16950 0
-16892 16951 0
-16893 16952 0
-16894 16953 0
-16895 16954 0
-16896 16955 0
-16897 16956 0
-16898 16957 0
-16899 16958 0
-16900 16959 0
-16901 16960 0
-16902 16961 0
-16903 16962 0
-16904 16963 0
-16905 16964 0
-16906 16965 0
-16907 16966 0
-16908 16967 0
-16909 16968 0
-16910 16969 0
-16911 16970 0
-16912 16971 0
-16913 16972 0
-16914 16973 0
-16915 16974 0
-16916 16975 0
-16917 16976 0
-16918 16977 0
-16919 16978 0
-16920 16979 0
-16921 16980 0
-16922 16981 0
-16923 16982 0
-16924 16983 0
-1414 -16866 16926 0
-1414 -16867 16927 0
-1414 -16868 16928 0
-1414 -16869 16929 0
-1414 -16870 16930 0
-1414 -16871 16931 0
-1414 -16872 16932 0
-1414 -16873 16933 0
-1414 -16874 16934 0
-1414 -16875 16935 0
-1414 -16876 16936 0
-1414 -16877 16937 0
-1414 -16878 16938 0
-1414 -16879 16939 0
-1414 -16880 16940 0
-1414 -16881 16941 0
-1414 -16882 16942 0
-1414 -16883 16943 0
-1414 -16884 16944 0
-1414 -16885 16945 0
-1414 -16886 16946 0
-1414 -16887 16947 0
-1414 -16888 16948 0
-1414 -16889 16949 0
-1414 -16890 16950 0
-1414 -16891 16951 0
-1414 -16892 16952 0
-1414 -16893 16953 0
-1414 -16894 16954 0
-1414 -16895 16955 0
-1414 -16896 16956 0
-1414 -16897 16957 0
-1414 -16898 16958 0
-1414 -16899 16959 0
-1414 -16900 16960 0
-1414 -16901 16961 0
-1414 -16902 16962 0
-1414 -16903 16963 0
-1414 -16904 16964 0
-1414 -16905 16965 0
-1414 -16906 16966 0
-1414 -16907 16967 0
-1414 -16908 16968 0
-1414 -16909 16969 0
-1414 -16910 16970 0
-1414 -16911 16971 0
-1414 -16912 16972 0
-1414 -16913 16973 0
-1414 -16914 16974 0
-1414 -16915 16975 0
-1414 -16916 16976 0
-1414 -16917 16977 0
-1414 -16918 16978 0
-1414 -16919 16979 0
-1414 -16920 16980 0
-1414 -16921 16981 0
-1414 -16922 16982 0
-1414 -16923 16983 0
-1414 -16924 0
-16925 16984 0
-16926 16985 0
-16927 16986 0
-16928 16987 0
-16929 16988 0
-16930 16989 0
-16931 16990 0
-16932 16991 0
-16933 16992 0
-16934 16993 0
-16935 16994 0
-16936 16995 0
-16937 16996 0
-16938 16997 0
-16939 16998 0
-16940 16999 0
-16941 17000 0
-16942 17001 0
-16943 17002 0
-16944 17003 0
-16945 17004 0
-16946 17005 0
-16947 17006 0
-16948 17007 0
-16949 17008 0
-16950 17009 0
-16951 17010 0
-16952 17011 0
-16953 17012 0
-16954 17013 0
-16955 17014 0
-16956 17015 0
-16957 17016 0
-16958 17017 0
-16959 17018 0
-16960 17019 0
-16961 17020 0
-16962 17021 0
-16963 17022 0
-16964 17023 0
-16965 17024 0
-16966 17025 0
-16967 17026 0
-16968 17027 0
-16969 17028 0
-16970 17029 0
-16971 17030 0
-16972 17031 0
-16973 17032 0
-16974 17033 0
-16975 17034 0
-16976 17035 0
-16977 17036 0
-16978 17037 0
-16979 17038 0
-16980 17039 0
-16981 17040 0
-16982 17041 0
-16983 17042 0
-1416 -16925 16985 0
-1416 -16926 16986 0
-1416 -16927 16987 0
-1416 -16928 16988 0
-1416 -16929 16989 0
-1416 -16930 16990 0
-1416 -16931 16991 0
-1416 -16932 16992 0
-1416 -16933 16993 0
-1416 -16934 16994 0
-1416 -16935 16995 0
-1416 -16936 16996 0
-1416 -16937 16997 0
-1416 -16938 16998 0
-1416 -16939 16999 0
-1416 -16940 17000 0
-1416 -16941 17001 0
-1416 -16942 17002 0
-1416 -16943 17003 0
-1416 -16944 17004 0
-1416 -16945 17005 0
-1416 -16946 17006 0
-1416 -16947 17007 0
-1416 -16948 17008 0
-1416 -16949 17009 0
-1416 -16950 17010 0
-1416 -16951 17011 0
-1416 -16952 17012 0
-1416 -16953 17013 0
-1416 -16954 17014 0
-1416 -16955 17015 0
-1416 -16956 17016 0
-1416 -16957 17017 0
-1416 -16958 17018 0
-1416 -16959 17019 0
-1416 -16960 17020 0
-1416 -16961 17021 0
-1416 -16962 17022 0
-1416 -16963 17023 0
-1416 -16964 17024 0
-1416 -16965 17025 0
-1416 -16966 17026 0
-1416 -16967 17027 0
-1416 -16968 17028 0
-1416 -16969 17029 0
-1416 -16970 17030 0
-1416 -16971 17031 0
-1416 -16972 17032 0
-1416 -16973 17033 0
-1416 -16974 17034 0
-1416 -16975 17035 0
-1416 -16976 17036 0
-1416 -16977 17037 0
-1416 -16978 17038 0
-1416 -16979 17039 0
-1416 -16980 17040 0
-1416 -16981 17041 0
-1416 -16982 17042 0
-1416 -16983 0
-16984 17043 0
-16985 17044 0
-16986 17045 0
-16987 17046 0
-16988 17047 0
-16989 17048 0
-16990 17049 0
-16991 17050 0
-16992 17051 0
-16993 17052 0
-16994 17053 0
-16995 17054 0
-16996 17055 0
-16997 17056 0
-16998 17057 0
-16999 17058 0
-17000 17059 0
-17001 17060 0
-17002 17061 0
-17003 17062 0
-17004 17063 0
-17005 17064 0
-17006 17065 0
-17007 17066 0
-17008 17067 0
-17009 17068 0
-17010 17069 0
-17011 17070 0
-17012 17071 0
-17013 17072 0
-17014 17073 0
-17015 17074 0
-17016 17075 0
-17017 17076 0
-17018 17077 0
-17019 17078 0
-17020 17079 0
-17021 17080 0
-17022 17081 0
-17023 17082 0
-17024 17083 0
-17025 17084 0
-17026 17085 0
-17027 17086 0
-17028 17087 0
-17029 17088 0
-17030 17089 0
-17031 17090 0
-17032 17091 0
-17033 17092 0
-17034 17093 0
-17035 17094 0
-17036 17095 0
-17037 17096 0
-17038 17097 0
-17039 17098 0
-17040 17099 0
-17041 17100 0
-17042 17101 0
-1418 -16984 17044 0
-1418 -16985 17045 0
-1418 -16986 17046 0
-1418 -16987 17047 0
-1418 -16988 17048 0
-1418 -16989 17049 0
-1418 -16990 17050 0
-1418 -16991 17051 0
-1418 -16992 17052 0
-1418 -16993 17053 0
-1418 -16994 17054 0
-1418 -16995 17055 0
-1418 -16996 17056 0
-1418 -16997 17057 0
-1418 -16998 17058 0
-1418 -16999 17059 0
-1418 -17000 17060 0
-1418 -17001 17061 0
-1418 -17002 17062 0
-1418 -17003 17063 0
-1418 -17004 17064 0
-1418 -17005 17065 0
-1418 -17006 17066 0
-1418 -17007 17067 0
-1418 -17008 17068 0
-1418 -17009 17069 0
-1418 -17010 17070 0
-1418 -17011 17071 0
-1418 -17012 17072 0
-1418 -17013 17073 0
-1418 -17014 17074 0
-1418 -17015 17075 0
-1418 -17016 17076 0
-1418 -17017 17077 0
-1418 -17018 17078 0
-1418 -17019 17079 0
-1418 -17020 17080 0
-1418 -17021 17081 0
-1418 -17022 17082 0
-1418 -17023 17083 0
-1418 -17024 17084 0
-1418 -17025 17085 0
-1418 -17026 17086 0
-1418 -17027 17087 0
-1418 -17028 17088 0
-1418 -17029 17089 0
-1418 -17030 17090 0
-1418 -17031 17091 0
-1418 -17032 17092 0
-1418 -17033 17093 0
-1418 -17034 17094 0
-1418 -17035 17095 0
-1418 -17036 17096 0
-1418 -17037 17097 0
-1418 -17038 17098 0
-1418 -17039 17099 0
-1418 -17040 17100 0
-1418 -17041 17101 0
-1418 -17042 0
-17043 17102 0
-17044 17103 0
-17045 17104 0
-17046 17105 0
-17047 17106 0
-17048 17107 0
-17049 17108 0
-17050 17109 0
-17051 17110 0
-17052 17111 0
-17053 17112 0
-17054 17113 0
-17055 17114 0
-17056 17115 0
-17057 17116 0
-17058 17117 0
-17059 17118 0
-17060 17119 0
-17061 17120 0
-17062 17121 0
-17063 17122 0
-17064 17123 0
-17065 17124 0
-17066 17125 0
-17067 17126 0
-17068 17127 0
-17069 17128 0
-17070 17129 0
-17071 17130 0
-17072 17131 0
-17073 17132 0
-17074 17133 0
-17075 17134 0
-17076 17135 0
-17077 17136 0
-17078 17137 0
-17079 17138 0
-17080 17139 0
-17081 17140 0
-17082 17141 0
-17083 17142 0
-17084 17143 0
-17085 17144 0
-17086 17145 0
-17087 17146 0
-17088 17147 0
-17089 17148 0
-17090 17149 0
-17091 17150 0
-17092 17151 0
-17093 17152 0
-17094 17153 0
-17095 17154 0
-17096 17155 0
-17097 17156 0
-17098 17157 0
-17099 17158 0
-17100 17159 0
-17101 17160 0
-1420 -17043 17103 0
-1420 -17044 17104 0
-1420 -17045 17105 0
-1420 -17046 17106 0
-1420 -17047 17107 0
-1420 -17048 17108 0
-1420 -17049 17109 0
-1420 -17050 17110 0
-1420 -17051 17111 0
-1420 -17052 17112 0
-1420 -17053 17113 0
-1420 -17054 17114 0
-1420 -17055 17115 0
-1420 -17056 17116 0
-1420 -17057 17117 0
-1420 -17058 17118 0
-1420 -17059 17119 0
-1420 -17060 17120 0
-1420 -17061 17121 0
-1420 -17062 17122 0
-1420 -17063 17123 0
-1420 -17064 17124 0
-1420 -17065 17125 0
-1420 -17066 17126 0
-1420 -17067 17127 0
-1420 -17068 17128 0
-1420 -17069 17129 0
-1420 -17070 17130 0
-1420 -17071 17131 0
-1420 -17072 17132 0
-1420 -17073 17133 0
-1420 -17074 17134 0
-1420 -17075 17135 0
-1420 -17076 17136 0
-1420 -17077 17137 0
-1420 -17078 17138 0
-1420 -17079 17139 0
-1420 -17080 17140 0
-1420 -17081 17141 0
-1420 -17082 17142 0
-1420 -17083 17143 0
-1420 -17084 17144 0
-1420 -17085 17145 0
-1420 -17086 17146 0
-1420 -17087 17147 0
-1420 -17088 17148 0
-1420 -17089 17149 0
-1420 -17090 17150 0
-1420 -17091 17151 0
-1420 -17092 17152 0
-1420 -17093 17153 0
-1420 -17094 17154 0
-1420 -17095 17155 0
-1420 -17096 17156 0
-1420 -17097 17157 0
-1420 -17098 17158 0
-1420 -17099 17159 0
-1420 -17100 17160 0
-1420 -17101 0
-17102 17161 0
-17103 17162 0
-17104 17163 0
-17105 17164 0
-17106 17165 0
-17107 17166 0
-17108 17167 0
-17109 17168 0
-17110 17169 0
-17111 17170 0
-17112 17171 0
-17113 17172 0
-17114 17173 0
-17115 17174 0
-17116 17175 0
-17117 17176 0
-17118 17177 0
-17119 17178 0
-17120 17179 0
-17121 17180 0
-17122 17181 0
-17123 17182 0
-17124 17183 0
-17125 17184 0
-17126 17185 0
-17127 17186 0
-17128 17187 0
-17129 17188 0
-17130 17189 0
-17131 17190 0
-17132 17191 0
-17133 17192 0
-17134 17193 0
-17135 17194 0
-17136 17195 0
-17137 17196 0
-17138 17197 0
-17139 17198 0
-17140 17199 0
-17141 17200 0
-17142 17201 0
-17143 17202 0
-17144 17203 0
-17145 17204 0
-17146 17205 0
-17147 17206 0
-17148 17207 0
-17149 17208 0
-17150 17209 0
-17151 17210 0
-17152 17211 0
-17153 17212 0
-17154 17213 0
-17155 17214 0
-17156 17215 0
-17157 17216 0
-17158 17217 0
-17159 17218 0
-17160 17219 0
-1422 -17102 17162 0
-1422 -17103 17163 0
-1422 -17104 17164 0
-1422 -17105 17165 0
-1422 -17106 17166 0
-1422 -17107 17167 0
-1422 -17108 17168 0
-1422 -17109 17169 0
-1422 -17110 17170 0
-1422 -17111 17171 0
-1422 -17112 17172 0
-1422 -17113 17173 0
-1422 -17114 17174 0
-1422 -17115 17175 0
-1422 -17116 17176 0
-1422 -17117 17177 0
-1422 -17118 17178 0
-1422 -17119 17179 0
-1422 -17120 17180 0
-1422 -17121 17181 0
-1422 -17122 17182 0
-1422 -17123 17183 0
-1422 -17124 17184 0
-1422 -17125 17185 0
-1422 -17126 17186 0
-1422 -17127 17187 0
-1422 -17128 17188 0
-1422 -17129 17189 0
-1422 -17130 17190 0
-1422 -17131 17191 0
-1422 -17132 17192 0
-1422 -17133 17193 0
-1422 -17134 17194 0
-1422 -17135 17195 0
-1422 -17136 17196 0
-1422 -17137 17197 0
-1422 -17138 17198 0
-1422 -17139 17199 0
-1422 -17140 17200 0
-1422 -17141 17201 0
-1422 -17142 17202 0
-1422 -17143 17203 0
-1422 -17144 17204 0
-1422 -17145 17205 0
-1422 -17146 17206 0
-1422 -17147 17207 0
-1422 -17148 17208 0
-1422 -17149 17209 0
-1422 -17150 17210 0
-1422 -17151 17211 0
-1422 -17152 17212 0
-1422 -17153 17213 0
-1422 -17154 17214 0
-1422 -17155 17215 0
-1422 -17156 17216 0
-1422 -17157 17217 0
-1422 -17158 17218 0
-1422 -17159 17219 0
-1422 -17160 0
-17161 17220 0
-17162 17221 0
-17163 17222 0
-17164 17223 0
-17165 17224 0
-17166 17225 0
-17167 17226 0
-17168 17227 0
-17169 17228 0
-17170 17229 0
-17171 17230 0
-17172 17231 0
-17173 17232 0
-17174 17233 0
-17175 17234 0
-17176 17235 0
-17177 17236 0
-17178 17237 0
-17179 17238 0
-17180 17239 0
-17181 17240 0
-17182 17241 0
-17183 17242 0
-17184 17243 0
-17185 17244 0
-17186 17245 0
-17187 17246 0
-17188 17247 0
-17189 17248 0
-17190 17249 0
-17191 17250 0
-17192 17251 0
-17193 17252 0
-17194 17253 0
-17195 17254 0
-17196 17255 0
-17197 17256 0
-17198 17257 0
-17199 17258 0
-17200 17259 0
-17201 17260 0
-17202 17261 0
-17203 17262 0
-17204 17263 0
-17205 17264 0
-17206 17265 0
-17207 17266 0
-17208 17267 0
-17209 17268 0
-17210 17269 0
-17211 17270 0
-17212 17271 0
-17213 17272 0
-17214 17273 0
-17215 17274 0
-17216 17275 0
-17217 17276 0
-17218 17277 0
-17219 17278 0
-1424 -17161 17221 0
-1424 -17162 17222 0
-1424 -17163 17223 0
-1424 -17164 17224 0
-1424 -17165 17225 0
-1424 -17166 17226 0
-1424 -17167 17227 0
-1424 -17168 17228 0
-1424 -17169 17229 0
-1424 -17170 17230 0
-1424 -17171 17231 0
-1424 -17172 17232 0
-1424 -17173 17233 0
-1424 -17174 17234 0
-1424 -17175 17235 0
-1424 -17176 17236 0
-1424 -17177 17237 0
-1424 -17178 17238 0
-1424 -17179 17239 0
-1424 -17180 17240 0
-1424 -17181 17241 0
-1424 -17182 17242 0
-1424 -17183 17243 0
-1424 -17184 17244 0
-1424 -17185 17245 0
-1424 -17186 17246 0
-1424 -17187 17247 0
-1424 -17188 17248 0
-1424 -17189 17249 0
-1424 -17190 17250 0
-1424 -17191 17251 0
-1424 -17192 17252 0
-1424 -17193 17253 0
-1424 -17194 17254 0
-1424 -17195 17255 0
-1424 -17196 17256 0
-1424 -17197 17257 0
-1424 -17198 17258 0
-1424 -17199 17259 0
-1424 -17200 17260 0
-1424 -17201 17261 0
-1424 -17202 17262 0
-1424 -17203 17263 0
-1424 -17204 17264 0
-1424 -17205 17265 0
-1424 -17206 17266 0
-1424 -17207 17267 0
-1424 -17208 17268 0
-1424 -17209 17269 0
-1424 -17210 17270 0
-1424 -17211 17271 0
-1424 -17212 17272 0
-1424 -17213 17273 0
-1424 -17214 17274 0
-1424 -17215 17275 0
-1424 -17216 17276 0
-1424 -17217 17277 0
-1424 -17218 17278 0
-1424 -17219 0
-17220 17279 0
-17221 17280 0
-17222 17281 0
-17223 17282 0
-17224 17283 0
-17225 17284 0
-17226 17285 0
-17227 17286 0
-17228 17287 0
-17229 17288 0
-17230 17289 0
-17231 17290 0
-17232 17291 0
-17233 17292 0
-17234 17293 0
-17235 17294 0
-17236 17295 0
-17237 17296 0
-17238 17297 0
-17239 17298 0
-17240 17299 0
-17241 17300 0
-17242 17301 0
-17243 17302 0
-17244 17303 0
-17245 17304 0
-17246 17305 0
-17247 17306 0
-17248 17307 0
-17249 17308 0
-17250 17309 0
-17251 17310 0
-17252 17311 0
-17253 17312 0
-17254 17313 0
-17255 17314 0
-17256 17315 0
-17257 17316 0
-17258 17317 0
-17259 17318 0
-17260 17319 0
-17261 17320 0
-17262 17321 0
-17263 17322 0
-17264 17323 0
-17265 17324 0
-17266 17325 0
-17267 17326 0
-17268 17327 0
-17269 17328 0
-17270 17329 0
-17271 17330 0
-17272 17331 0
-17273 17332 0
-17274 17333 0
-17275 17334 0
-17276 17335 0
-17277 17336 0
-17278 17337 0
-1426 -17220 17280 0
-1426 -17221 17281 0
-1426 -17222 17282 0
-1426 -17223 17283 0
-1426 -17224 17284 0
-1426 -17225 17285 0
-1426 -17226 17286 0
-1426 -17227 17287 0
-1426 -17228 17288 0
-1426 -17229 17289 0
-1426 -17230 17290 0
-1426 -17231 17291 0
-1426 -17232 17292 0
-1426 -17233 17293 0
-1426 -17234 17294 0
-1426 -17235 17295 0
-1426 -17236 17296 0
-1426 -17237 17297 0
-1426 -17238 17298 0
-1426 -17239 17299 0
-1426 -17240 17300 0
-1426 -17241 17301 0
-1426 -17242 17302 0
-1426 -17243 17303 0
-1426 -17244 17304 0
-1426 -17245 17305 0
-1426 -17246 17306 0
-1426 -17247 17307 0
-1426 -17248 17308 0
-1426 -17249 17309 0
-1426 -17250 17310 0
-1426 -17251 17311 0
-1426 -17252 17312 0
-1426 -17253 17313 0
-1426 -17254 17314 0
-1426 -17255 17315 0
-1426 -17256 17316 0
-1426 -17257 17317 0
-1426 -17258 17318 0
-1426 -17259 17319 0
-1426 -17260 17320 0
-1426 -17261 17321 0
-1426 -17262 17322 0
-1426 -17263 17323 0
-1426 -17264 17324 0
-1426 -17265 17325 0
-1426 -17266 17326 0
-1426 -17267 17327 0
-1426 -17268 17328 0
-1426 -17269 17329 0
-1426 -17270 17330 0
-1426 -17271 17331 0
-1426 -17272 17332 0
-1426 -17273 17333 0
-1426 -17274 17334 0
-1426 -17275 17335 0
-1426 -17276 17336 0
-1426 -17277 17337 0
-1426 -17278 0
-17279 17338 0
-17280 17339 0
-17281 17340 0
-17282 17341 0
-17283 17342 0
-17284 17343 0
-17285 17344 0
-17286 17345 0
-17287 17346 0
-17288 17347 0
-17289 17348 0
-17290 17349 0
-17291 17350 0
-17292 17351 0
-17293 17352 0
-17294 17353 0
-17295 17354 0
-17296 17355 0
-17297 17356 0
-17298 17357 0
-17299 17358 0
-17300 17359 0
-17301 17360 0
-17302 17361 0
-17303 17362 0
-17304 17363 0
-17305 17364 0
-17306 17365 0
-17307 17366 0
-17308 17367 0
-17309 17368 0
-17310 17369 0
-17311 17370 0
-17312 17371 0
-17313 17372 0
-17314 17373 0
-17315 17374 0
-17316 17375 0
-17317 17376 0
-17318 17377 0
-17319 17378 0
-17320 17379 0
-17321 17380 0
-17322 17381 0
-17323 17382 0
-17324 17383 0
-17325 17384 0
-17326 17385 0
-17327 17386 0
-17328 17387 0
-17329 17388 0
-17330 17389 0
-17331 17390 0
-17332 17391 0
-17333 17392 0
-17334 17393 0
-17335 17394 0
-17336 17395 0
-17337 17396 0
-1428 -17279 17339 0
-1428 -17280 17340 0
-1428 -17281 17341 0
-1428 -17282 17342 0
-1428 -17283 17343 0
-1428 -17284 17344 0
-1428 -17285 17345 0
-1428 -17286 17346 0
-1428 -17287 17347 0
-1428 -17288 17348 0
-1428 -17289 17349 0
-1428 -17290 17350 0
-1428 -17291 17351 0
-1428 -17292 17352 0
-1428 -17293 17353 0
-1428 -17294 17354 0
-1428 -17295 17355 0
-1428 -17296 17356 0
-1428 -17297 17357 0
-1428 -17298 17358 0
-1428 -17299 17359 0
-1428 -17300 17360 0
-1428 -17301 17361 0
-1428 -17302 17362 0
-1428 -17303 17363 0
-1428 -17304 17364 0
-1428 -17305 17365 0
-1428 -17306 17366 0
-1428 -17307 17367 0
-1428 -17308 17368 0
-1428 -17309 17369 0
-1428 -17310 17370 0
-1428 -17311 17371 0
-1428 -17312 17372 0
-1428 -17313 17373 0
-1428 -17314 17374 0
-1428 -17315 17375 0
-1428 -17316 17376 0
-1428 -17317 17377 0
-1428 -17318 17378 0
-1428 -17319 17379 0
-1428 -17320 17380 0
-1428 -17321 17381 0
-1428 -17322 17382 0
-1428 -17323 17383 0
-1428 -17324 17384 0
-1428 -17325 17385 0
-1428 -17326 17386 0
-1428 -17327 17387 0
-1428 -17328 17388 0
-1428 -17329 17389 0
-1428 -17330 17390 0
-1428 -17331 17391 0
-1428 -17332 17392 0
-1428 -17333 17393 0
-1428 -17334 17394 0
-1428 -17335 17395 0
-1428 -17336 17396 0
-1428 -17337 0
-17338 17397 0
-17339 17398 0
-17340 17399 0
-17341 17400 0
-17342 17401 0
-17343 17402 0
-17344 17403 0
-17345 17404 0
-17346 17405 0
-17347 17406 0
-17348 17407 0
-17349 17408 0
-17350 17409 0
-17351 17410 0
-17352 17411 0
-17353 17412 0
-17354 17413 0
-17355 17414 0
-17356 17415 0
-17357 17416 0
-17358 17417 0
-17359 17418 0
-17360 17419 0
-17361 17420 0
-17362 17421 0
-17363 17422 0
-17364 17423 0
-17365 17424 0
-17366 17425 0
-17367 17426 0
-17368 17427 0
-17369 17428 0
-17370 17429 0
-17371 17430 0
-17372 17431 0
-17373 17432 0
-17374 17433 0
-17375 17434 0
-17376 17435 0
-17377 17436 0
-17378 17437 0
-17379 17438 0
-17380 17439 0
-17381 17440 0
-17382 17441 0
-17383 17442 0
-17384 17443 0
-17385 17444 0
-17386 17445 0
-17387 17446 0
-17388 17447 0
-17389 17448 0
-17390 17449 0
-17391 17450 0
-17392 17451 0
-17393 17452 0
-17394 17453 0
-17395 17454 0
-17396 17455 0
-1430 -17338 17398 0
-1430 -17339 17399 0
-1430 -17340 17400 0
-1430 -17341 17401 0
-1430 -17342 17402 0
-1430 -17343 17403 0
-1430 -17344 17404 0
-1430 -17345 17405 0
-1430 -17346 17406 0
-1430 -17347 17407 0
-1430 -17348 17408 0
-1430 -17349 17409 0
-1430 -17350 17410 0
-1430 -17351 17411 0
-1430 -17352 17412 0
-1430 -17353 17413 0
-1430 -17354 17414 0
-1430 -17355 17415 0
-1430 -17356 17416 0
-1430 -17357 17417 0
-1430 -17358 17418 0
-1430 -17359 17419 0
-1430 -17360 17420 0
-1430 -17361 17421 0
-1430 -17362 17422 0
-1430 -17363 17423 0
-1430 -17364 17424 0
-1430 -17365 17425 0
-1430 -17366 17426 0
-1430 -17367 17427 0
-1430 -17368 17428 0
-1430 -17369 17429 0
-1430 -17370 17430 0
-1430 -17371 17431 0
-1430 -17372 17432 0
-1430 -17373 17433 0
-1430 -17374 17434 0
-1430 -17375 17435 0
-1430 -17376 17436 0
-1430 -17377 17437 0
-1430 -17378 17438 0
-1430 -17379 17439 0
-1430 -17380 17440 0
-1430 -17381 17441 0
-1430 -17382 17442 0
-1430 -17383 17443 0
-1430 -17384 17444 0
-1430 -17385 17445 0
-1430 -17386 17446 0
-1430 -17387 17447 0
-1430 -17388 17448 0
-1430 -17389 17449 0
-1430 -17390 17450 0
-1430 -17391 17451 0
-1430 -17392 17452 0
-1430 -17393 17453 0
-1430 -17394 17454 0
-1430 -17395 17455 0
-1430 -17396 0
-17397 17456 0
-17398 17457 0
-17399 17458 0
-17400 17459 0
-17401 17460 0
-17402 17461 0
-17403 17462 0
-17404 17463 0
-17405 17464 0
-17406 17465 0
-17407 17466 0
-17408 17467 0
-17409 17468 0
-17410 17469 0
-17411 17470 0
-17412 17471 0
-17413 17472 0
-17414 17473 0
-17415 17474 0
-17416 17475 0
-17417 17476 0
-17418 17477 0
-17419 17478 0
-17420 17479 0
-17421 17480 0
-17422 17481 0
-17423 17482 0
-17424 17483 0
-17425 17484 0
-17426 17485 0
-17427 17486 0
-17428 17487 0
-17429 17488 0
-17430 17489 0
-17431 17490 0
-17432 17491 0
-17433 17492 0
-17434 17493 0
-17435 17494 0
-17436 17495 0
-17437 17496 0
-17438 17497 0
-17439 17498 0
-17440 17499 0
-17441 17500 0
-17442 17501 0
-17443 17502 0
-17444 17503 0
-17445 17504 0
-17446 17505 0
-17447 17506 0
-17448 17507 0
-17449 17508 0
-17450 17509 0
-17451 17510 0
-17452 17511 0
-17453 17512 0
-17454 17513 0
-17455 17514 0
-1432 -17397 17457 0
-1432 -17398 17458 0
-1432 -17399 17459 0
-1432 -17400 17460 0
-1432 -17401 17461 0
-1432 -17402 17462 0
-1432 -17403 17463 0
-1432 -17404 17464 0
-1432 -17405 17465 0
-1432 -17406 17466 0
-1432 -17407 17467 0
-1432 -17408 17468 0
-1432 -17409 17469 0
-1432 -17410 17470 0
-1432 -17411 17471 0
-1432 -17412 17472 0
-1432 -17413 17473 0
-1432 -17414 17474 0
-1432 -17415 17475 0
-1432 -17416 17476 0
-1432 -17417 17477 0
-1432 -17418 17478 0
-1432 -17419 17479 0
-1432 -17420 17480 0
-1432 -17421 17481 0
-1432 -17422 17482 0
-1432 -17423 17483 0
-1432 -17424 17484 0
-1432 -17425 17485 0
-1432 -17426 17486 0
-1432 -17427 17487 0
-1432 -17428 17488 0
-1432 -17429 17489 0
-1432 -17430 17490 0
-1432 -17431 17491 0
-1432 -17432 17492 0
-1432 -17433 17493 0
-1432 -17434 17494 0
-1432 -17435 17495 0
-1432 -17436 17496 0
-1432 -17437 17497 0
-1432 -17438 17498 0
-1432 -17439 17499 0
-1432 -17440 17500 0
-1432 -17441 17501 0
-1432 -17442 17502 0
-1432 -17443 17503 0
-1432 -17444 17504 0
-1432 -17445 17505 0
-1432 -17446 17506 0
-1432 -17447 17507 0
-1432 -17448 17508 0
-1432 -17449 17509 0
-1432 -17450 17510 0
-1432 -17451 17511 0
-1432 -17452 17512 0
-1432 -17453 17513 0
-1432 -17454 17514 0
-1432 -17455 0
-17456 17515 0
-17457 17516 0
-17458 17517 0
-17459 17518 0
-17460 17519 0
-17461 17520 0
-17462 17521 0
-17463 17522 0
-17464 17523 0
-17465 17524 0
-17466 17525 0
-17467 17526 0
-17468 17527 0
-17469 17528 0
-17470 17529 0
-17471 17530 0
-17472 17531 0
-17473 17532 0
-17474 17533 0
-17475 17534 0
-17476 17535 0
-17477 17536 0
-17478 17537 0
-17479 17538 0
-17480 17539 0
-17481 17540 0
-17482 17541 0
-17483 17542 0
-17484 17543 0
-17485 17544 0
-17486 17545 0
-17487 17546 0
-17488 17547 0
-17489 17548 0
-17490 17549 0
-17491 17550 0
-17492 17551 0
-17493 17552 0
-17494 17553 0
-17495 17554 0
-17496 17555 0
-17497 17556 0
-17498 17557 0
-17499 17558 0
-17500 17559 0
-17501 17560 0
-17502 17561 0
-17503 17562 0
-17504 17563 0
-17505 17564 0
-17506 17565 0
-17507 17566 0
-17508 17567 0
-17509 17568 0
-17510 17569 0
-17511 17570 0
-17512 17571 0
-17513 17572 0
-17514 17573 0
-1434 -17456 17516 0
-1434 -17457 17517 0
-1434 -17458 17518 0
-1434 -17459 17519 0
-1434 -17460 17520 0
-1434 -17461 17521 0
-1434 -17462 17522 0
-1434 -17463 17523 0
-1434 -17464 17524 0
-1434 -17465 17525 0
-1434 -17466 17526 0
-1434 -17467 17527 0
-1434 -17468 17528 0
-1434 -17469 17529 0
-1434 -17470 17530 0
-1434 -17471 17531 0
-1434 -17472 17532 0
-1434 -17473 17533 0
-1434 -17474 17534 0
-1434 -17475 17535 0
-1434 -17476 17536 0
-1434 -17477 17537 0
-1434 -17478 17538 0
-1434 -17479 17539 0
-1434 -17480 17540 0
-1434 -17481 17541 0
-1434 -17482 17542 0
-1434 -17483 17543 0
-1434 -17484 17544 0
-1434 -17485 17545 0
-1434 -17486 17546 0
-1434 -17487 17547 0
-1434 -17488 17548 0
-1434 -17489 17549 0
-1434 -17490 17550 0
-1434 -17491 17551 0
-1434 -17492 17552 0
-1434 -17493 17553 0
-1434 -17494 17554 0
-1434 -17495 17555 0
-1434 -17496 17556 0
-1434 -17497 17557 0
-1434 -17498 17558 0
-1434 -17499 17559 0
-1434 -17500 17560 0
-1434 -17501 17561 0
-1434 -17502 17562 0
-1434 -17503 17563 0
-1434 -17504 17564 0
-1434 -17505 17565 0
-1434 -17506 17566 0
-1434 -17507 17567 0
-1434 -17508 17568 0
-1434 -17509 17569 0
-1434 -17510 17570 0
-1434 -17511 17571 0
-1434 -17512 17572 0
-1434 -17513 17573 0
-1434 -17514 0
-17515 17574 0
-17516 17575 0
-17517 17576 0
-17518 17577 0
-17519 17578 0
-17520 17579 0
-17521 17580 0
-17522 17581 0
-17523 17582 0
-17524 17583 0
-17525 17584 0
-17526 17585 0
-17527 17586 0
-17528 17587 0
-17529 17588 0
-17530 17589 0
-17531 17590 0
-17532 17591 0
-17533 17592 0
-17534 17593 0
-17535 17594 0
-17536 17595 0
-17537 17596 0
-17538 17597 0
-17539 17598 0
-17540 17599 0
-17541 17600 0
-17542 17601 0
-17543 17602 0
-17544 17603 0
-17545 17604 0
-17546 17605 0
-17547 17606 0
-17548 17607 0
-17549 17608 0
-17550 17609 0
-17551 17610 0
-17552 17611 0
-17553 17612 0
-17554 17613 0
-17555 17614 0
-17556 17615 0
-17557 17616 0
-17558 17617 0
-17559 17618 0
-17560 17619 0
-17561 17620 0
-17562 17621 0
-17563 17622 0
-17564 17623 0
-17565 17624 0
-17566 17625 0
-17567 17626 0
-17568 17627 0
-17569 17628 0
-17570 17629 0
-17571 17630 0
-17572 17631 0
-17573 17632 0
-1436 -17515 17575 0
-1436 -17516 17576 0
-1436 -17517 17577 0
-1436 -17518 17578 0
-1436 -17519 17579 0
-1436 -17520 17580 0
-1436 -17521 17581 0
-1436 -17522 17582 0
-1436 -17523 17583 0
-1436 -17524 17584 0
-1436 -17525 17585 0
-1436 -17526 17586 0
-1436 -17527 17587 0
-1436 -17528 17588 0
-1436 -17529 17589 0
-1436 -17530 17590 0
-1436 -17531 17591 0
-1436 -17532 17592 0
-1436 -17533 17593 0
-1436 -17534 17594 0
-1436 -17535 17595 0
-1436 -17536 17596 0
-1436 -17537 17597 0
-1436 -17538 17598 0
-1436 -17539 17599 0
-1436 -17540 17600 0
-1436 -17541 17601 0
-1436 -17542 17602 0
-1436 -17543 17603 0
-1436 -17544 17604 0
-1436 -17545 17605 0
-1436 -17546 17606 0
-1436 -17547 17607 0
-1436 -17548 17608 0
-1436 -17549 17609 0
-1436 -17550 17610 0
-1436 -17551 17611 0
-1436 -17552 17612 0
-1436 -17553 17613 0
-1436 -17554 17614 0
-1436 -17555 17615 0
-1436 -17556 17616 0
-1436 -17557 17617 0
-1436 -17558 17618 0
-1436 -17559 17619 0
-1436 -17560 17620 0
-1436 -17561 17621 0
-1436 -17562 17622 0
-1436 -17563 17623 0
-1436 -17564 17624 0
-1436 -17565 17625 0
-1436 -17566 17626 0
-1436 -17567 17627 0
-1436 -17568 17628 0
-1436 -17569 17629 0
-1436 -17570 17630 0
-1436 -17571 17631 0
-1436 -17572 17632 0
-1436 -17573 0
-17574 17633 0
-17575 17634 0
-17576 17635 0
-17577 17636 0
-17578 17637 0
-17579 17638 0
-17580 17639 0
-17581 17640 0
-17582 17641 0
-17583 17642 0
-17584 17643 0
-17585 17644 0
-17586 17645 0
-17587 17646 0
-17588 17647 0
-17589 17648 0
-17590 17649 0
-17591 17650 0
-17592 17651 0
-17593 17652 0
-17594 17653 0
-17595 17654 0
-17596 17655 0
-17597 17656 0
-17598 17657 0
-17599 17658 0
-17600 17659 0
-17601 17660 0
-17602 17661 0
-17603 17662 0
-17604 17663 0
-17605 17664 0
-17606 17665 0
-17607 17666 0
-17608 17667 0
-17609 17668 0
-17610 17669 0
-17611 17670 0
-17612 17671 0
-17613 17672 0
-17614 17673 0
-17615 17674 0
-17616 17675 0
-17617 17676 0
-17618 17677 0
-17619 17678 0
-17620 17679 0
-17621 17680 0
-17622 17681 0
-17623 17682 0
-17624 17683 0
-17625 17684 0
-17626 17685 0
-17627 17686 0
-17628 17687 0
-17629 17688 0
-17630 17689 0
-17631 17690 0
-17632 17691 0
-1438 -17574 17634 0
-1438 -17575 17635 0
-1438 -17576 17636 0
-1438 -17577 17637 0
-1438 -17578 17638 0
-1438 -17579 17639 0
-1438 -17580 17640 0
-1438 -17581 17641 0
-1438 -17582 17642 0
-1438 -17583 17643 0
-1438 -17584 17644 0
-1438 -17585 17645 0
-1438 -17586 17646 0
-1438 -17587 17647 0
-1438 -17588 17648 0
-1438 -17589 17649 0
-1438 -17590 17650 0
-1438 -17591 17651 0
-1438 -17592 17652 0
-1438 -17593 17653 0
-1438 -17594 17654 0
-1438 -17595 17655 0
-1438 -17596 17656 0
-1438 -17597 17657 0
-1438 -17598 17658 0
-1438 -17599 17659 0
-1438 -17600 17660 0
-1438 -17601 17661 0
-1438 -17602 17662 0
-1438 -17603 17663 0
-1438 -17604 17664 0
-1438 -17605 17665 0
-1438 -17606 17666 0
-1438 -17607 17667 0
-1438 -17608 17668 0
-1438 -17609 17669 0
-1438 -17610 17670 0
-1438 -17611 17671 0
-1438 -17612 17672 0
-1438 -17613 17673 0
-1438 -17614 17674 0
-1438 -17615 17675 0
-1438 -17616 17676 0
-1438 -17617 17677 0
-1438 -17618 17678 0
-1438 -17619 17679 0
-1438 -17620 17680 0
-1438 -17621 17681 0
-1438 -17622 17682 0
-1438 -17623 17683 0
-1438 -17624 17684 0
-1438 -17625 17685 0
-1438 -17626 17686 0
-1438 -17627 17687 0
-1438 -17628 17688 0
-1438 -17629 17689 0
-1438 -17630 17690 0
-1438 -17631 17691 0
-1438 -17632 0
-17633 17692 0
-17634 17693 0
-17635 17694 0
-17636 17695 0
-17637 17696 0
-17638 17697 0
-17639 17698 0
-17640 17699 0
-17641 17700 0
-17642 17701 0
-17643 17702 0
-17644 17703 0
-17645 17704 0
-17646 17705 0
-17647 17706 0
-17648 17707 0
-17649 17708 0
-17650 17709 0
-17651 17710 0
-17652 17711 0
-17653 17712 0
-17654 17713 0
-17655 17714 0
-17656 17715 0
-17657 17716 0
-17658 17717 0
-17659 17718 0
-17660 17719 0
-17661 17720 0
-17662 17721 0
-17663 17722 0
-17664 17723 0
-17665 17724 0
-17666 17725 0
-17667 17726 0
-17668 17727 0
-17669 17728 0
-17670 17729 0
-17671 17730 0
-17672 17731 0
-17673 17732 0
-17674 17733 0
-17675 17734 0
-17676 17735 0
-17677 17736 0
-17678 17737 0
-17679 17738 0
-17680 17739 0
-17681 17740 0
-17682 17741 0
-17683 17742 0
-17684 17743 0
-17685 17744 0
-17686 17745 0
-17687 17746 0
-17688 17747 0
-17689 17748 0
-17690 17749 0
-17691 17750 0
-1440 -17633 17693 0
-1440 -17634 17694 0
-1440 -17635 17695 0
-1440 -17636 17696 0
-1440 -17637 17697 0
-1440 -17638 17698 0
-1440 -17639 17699 0
-1440 -17640 17700 0
-1440 -17641 17701 0
-1440 -17642 17702 0
-1440 -17643 17703 0
-1440 -17644 17704 0
-1440 -17645 17705 0
-1440 -17646 17706 0
-1440 -17647 17707 0
-1440 -17648 17708 0
-1440 -17649 17709 0
-1440 -17650 17710 0
-1440 -17651 17711 0
-1440 -17652 17712 0
-1440 -17653 17713 0
-1440 -17654 17714 0
-1440 -17655 17715 0
-1440 -17656 17716 0
-1440 -17657 17717 0
-1440 -17658 17718 0
-1440 -17659 17719 0
-1440 -17660 17720 0
-1440 -17661 17721 0
-1440 -17662 17722 0
-1440 -17663 17723 0
-1440 -17664 17724 0
-1440 -17665 17725 0
-1440 -17666 17726 0
-1440 -17667 17727 0
-1440 -17668 17728 0
-1440 -17669 17729 0
-1440 -17670 17730 0
-1440 -17671 17731 0
-1440 -17672 17732 0
-1440 -17673 17733 0
-1440 -17674 17734 0
-1440 -17675 17735 0
-1440 -17676 17736 0
-1440 -17677 17737 0
-1440 -17678 17738 0
-1440 -17679 17739 0
-1440 -17680 17740 0
-1440 -17681 17741 0
-1440 -17682 17742 0
-1440 -17683 17743 0
-1440 -17684 17744 0
-1440 -17685 17745 0
-1440 -17686 17746 0
-1440 -17687 17747 0
-1440 -17688 17748 0
-1440 -17689 17749 0
-1440 -17690 17750 0
-1440 -17691 0
-17692 17751 0
-17693 17752 0
-17694 17753 0
-17695 17754 0
-17696 17755 0
-17697 17756 0
-17698 17757 0
-17699 17758 0
-17700 17759 0
-17701 17760 0
-17702 17761 0
-17703 17762 0
-17704 17763 0
-17705 17764 0
-17706 17765 0
-17707 17766 0
-17708 17767 0
-17709 17768 0
-17710 17769 0
-17711 17770 0
-17712 17771 0
-17713 17772 0
-17714 17773 0
-17715 17774 0
-17716 17775 0
-17717 17776 0
-17718 17777 0
-17719 17778 0
-17720 17779 0
-17721 17780 0
-17722 17781 0
-17723 17782 0
-17724 17783 0
-17725 17784 0
-17726 17785 0
-17727 17786 0
-17728 17787 0
-17729 17788 0
-17730 17789 0
-17731 17790 0
-17732 17791 0
-17733 17792 0
-17734 17793 0
-17735 17794 0
-17736 17795 0
-17737 17796 0
-17738 17797 0
-17739 17798 0
-17740 17799 0
-17741 17800 0
-17742 17801 0
-17743 17802 0
-17744 17803 0
-17745 17804 0
-17746 17805 0
-17747 17806 0
-17748 17807 0
-17749 17808 0
-17750 17809 0
-1442 -17692 17752 0
-1442 -17693 17753 0
-1442 -17694 17754 0
-1442 -17695 17755 0
-1442 -17696 17756 0
-1442 -17697 17757 0
-1442 -17698 17758 0
-1442 -17699 17759 0
-1442 -17700 17760 0
-1442 -17701 17761 0
-1442 -17702 17762 0
-1442 -17703 17763 0
-1442 -17704 17764 0
-1442 -17705 17765 0
-1442 -17706 17766 0
-1442 -17707 17767 0
-1442 -17708 17768 0
-1442 -17709 17769 0
-1442 -17710 17770 0
-1442 -17711 17771 0
-1442 -17712 17772 0
-1442 -17713 17773 0
-1442 -17714 17774 0
-1442 -17715 17775 0
-1442 -17716 17776 0
-1442 -17717 17777 0
-1442 -17718 17778 0
-1442 -17719 17779 0
-1442 -17720 17780 0
-1442 -17721 17781 0
-1442 -17722 17782 0
-1442 -17723 17783 0
-1442 -17724 17784 0
-1442 -17725 17785 0
-1442 -17726 17786 0
-1442 -17727 17787 0
-1442 -17728 17788 0
-1442 -17729 17789 0
-1442 -17730 17790 0
-1442 -17731 17791 0
-1442 -17732 17792 0
-1442 -17733 17793 0
-1442 -17734 17794 0
-1442 -17735 17795 0
-1442 -17736 17796 0
-1442 -17737 17797 0
-1442 -17738 17798 0
-1442 -17739 17799 0
-1442 -17740 17800 0
-1442 -17741 17801 0
-1442 -17742 17802 0
-1442 -17743 17803 0
-1442 -17744 17804 0
-1442 -17745 17805 0
-1442 -17746 17806 0
-1442 -17747 17807 0
-1442 -17748 17808 0
-1442 -17749 17809 0
-1442 -17750 0
-17751 17810 0
-17752 17811 0
-17753 17812 0
-17754 17813 0
-17755 17814 0
-17756 17815 0
-17757 17816 0
-17758 17817 0
-17759 17818 0
-17760 17819 0
-17761 17820 0
-17762 17821 0
-17763 17822 0
-17764 17823 0
-17765 17824 0
-17766 17825 0
-17767 17826 0
-17768 17827 0
-17769 17828 0
-17770 17829 0
-17771 17830 0
-17772 17831 0
-17773 17832 0
-17774 17833 0
-17775 17834 0
-17776 17835 0
-17777 17836 0
-17778 17837 0
-17779 17838 0
-17780 17839 0
-17781 17840 0
-17782 17841 0
-17783 17842 0
-17784 17843 0
-17785 17844 0
-17786 17845 0
-17787 17846 0
-17788 17847 0
-17789 17848 0
-17790 17849 0
-17791 17850 0
-17792 17851 0
-17793 17852 0
-17794 17853 0
-17795 17854 0
-17796 17855 0
-17797 17856 0
-17798 17857 0
-17799 17858 0
-17800 17859 0
-17801 17860 0
-17802 17861 0
-17803 17862 0
-17804 17863 0
-17805 17864 0
-17806 17865 0
-17807 17866 0
-17808 17867 0
-17809 17868 0
-1444 -17751 17811 0
-1444 -17752 17812 0
-1444 -17753 17813 0
-1444 -17754 17814 0
-1444 -17755 17815 0
-1444 -17756 17816 0
-1444 -17757 17817 0
-1444 -17758 17818 0
-1444 -17759 17819 0
-1444 -17760 17820 0
-1444 -17761 17821 0
-1444 -17762 17822 0
-1444 -17763 17823 0
-1444 -17764 17824 0
-1444 -17765 17825 0
-1444 -17766 17826 0
-1444 -17767 17827 0
-1444 -17768 17828 0
-1444 -17769 17829 0
-1444 -17770 17830 0
-1444 -17771 17831 0
-1444 -17772 17832 0
-1444 -17773 17833 0
-1444 -17774 17834 0
-1444 -17775 17835 0
-1444 -17776 17836 0
-1444 -17777 17837 0
-1444 -17778 17838 0
-1444 -17779 17839 0
-1444 -17780 17840 0
-1444 -17781 17841 0
-1444 -17782 17842 0
-1444 -17783 17843 0
-1444 -17784 17844 0
-1444 -17785 17845 0
-1444 -17786 17846 0
-1444 -17787 17847 0
-1444 -17788 17848 0
-1444 -17789 17849 0
-1444 -17790 17850 0
-1444 -17791 17851 0
-1444 -17792 17852 0
-1444 -17793 17853 0
-1444 -17794 17854 0
-1444 -17795 17855 0
-1444 -17796 17856 0
-1444 -17797 17857 0
-1444 -17798 17858 0
-1444 -17799 17859 0
-1444 -17800 17860 0
-1444 -17801 17861 0
-1444 -17802 17862 0
-1444 -17803 17863 0
-1444 -17804 17864 0
-1444 -17805 17865 0
-1444 -17806 17866 0
-1444 -17807 17867 0
-1444 -17808 17868 0
-1444 -17809 0
-17810 17869 0
-17811 17870 0
-17812 17871 0
-17813 17872 0
-17814 17873 0
-17815 17874 0
-17816 17875 0
-17817 17876 0
-17818 17877 0
-17819 17878 0
-17820 17879 0
-17821 17880 0
-17822 17881 0
-17823 17882 0
-17824 17883 0
-17825 17884 0
-17826 17885 0
-17827 17886 0
-17828 17887 0
-17829 17888 0
-17830 17889 0
-17831 17890 0
-17832 17891 0
-17833 17892 0
-17834 17893 0
-17835 17894 0
-17836 17895 0
-17837 17896 0
-17838 17897 0
-17839 17898 0
-17840 17899 0
-17841 17900 0
-17842 17901 0
-17843 17902 0
-17844 17903 0
-17845 17904 0
-17846 17905 0
-17847 17906 0
-17848 17907 0
-17849 17908 0
-17850 17909 0
-17851 17910 0
-17852 17911 0
-17853 17912 0
-17854 17913 0
-17855 17914 0
-17856 17915 0
-17857 17916 0
-17858 17917 0
-17859 17918 0
-17860 17919 0
-17861 17920 0
-17862 17921 0
-17863 17922 0
-17864 17923 0
-17865 17924 0
-17866 17925 0
-17867 17926 0
-17868 17927 0
-1446 -17810 17870 0
-1446 -17811 17871 0
-1446 -17812 17872 0
-1446 -17813 17873 0
-1446 -17814 17874 0
-1446 -17815 17875 0
-1446 -17816 17876 0
-1446 -17817 17877 0
-1446 -17818 17878 0
-1446 -17819 17879 0
-1446 -17820 17880 0
-1446 -17821 17881 0
-1446 -17822 17882 0
-1446 -17823 17883 0
-1446 -17824 17884 0
-1446 -17825 17885 0
-1446 -17826 17886 0
-1446 -17827 17887 0
-1446 -17828 17888 0
-1446 -17829 17889 0
-1446 -17830 17890 0
-1446 -17831 17891 0
-1446 -17832 17892 0
-1446 -17833 17893 0
-1446 -17834 17894 0
-1446 -17835 17895 0
-1446 -17836 17896 0
-1446 -17837 17897 0
-1446 -17838 17898 0
-1446 -17839 17899 0
-1446 -17840 17900 0
-1446 -17841 17901 0
-1446 -17842 17902 0
-1446 -17843 17903 0
-1446 -17844 17904 0
-1446 -17845 17905 0
-1446 -17846 17906 0
-1446 -17847 17907 0
-1446 -17848 17908 0
-1446 -17849 17909 0
-1446 -17850 17910 0
-1446 -17851 17911 0
-1446 -17852 17912 0
-1446 -17853 17913 0
-1446 -17854 17914 0
-1446 -17855 17915 0
-1446 -17856 17916 0
-1446 -17857 17917 0
-1446 -17858 17918 0
-1446 -17859 17919 0
-1446 -17860 17920 0
-1446 -17861 17921 0
-1446 -17862 17922 0
-1446 -17863 17923 0
-1446 -17864 17924 0
-1446 -17865 17925 0
-1446 -17866 17926 0
-1446 -17867 17927 0
-1446 -17868 0
-17869 17928 0
-17870 17929 0
-17871 17930 0
-17872 17931 0
-17873 17932 0
-17874 17933 0
-17875 17934 0
-17876 17935 0
-17877 17936 0
-17878 17937 0
-17879 17938 0
-17880 17939 0
-17881 17940 0
-17882 17941 0
-17883 17942 0
-17884 17943 0
-17885 17944 0
-17886 17945 0
-17887 17946 0
-17888 17947 0
-17889 17948 0
-17890 17949 0
-17891 17950 0
-17892 17951 0
-17893 17952 0
-17894 17953 0
-17895 17954 0
-17896 17955 0
-17897 17956 0
-17898 17957 0
-17899 17958 0
-17900 17959 0
-17901 17960 0
-17902 17961 0
-17903 17962 0
-17904 17963 0
-17905 17964 0
-17906 17965 0
-17907 17966 0
-17908 17967 0
-17909 17968 0
-17910 17969 0
-17911 17970 0
-17912 17971 0
-17913 17972 0
-17914 17973 0
-17915 17974 0
-17916 17975 0
-17917 17976 0
-17918 17977 0
-17919 17978 0
-17920 17979 0
-17921 17980 0
-17922 17981 0
-17923 17982 0
-17924 17983 0
-17925 17984 0
-17926 17985 0
-17927 17986 0
-1448 -17869 17929 0
-1448 -17870 17930 0
-1448 -17871 17931 0
-1448 -17872 17932 0
-1448 -17873 17933 0
-1448 -17874 17934 0
-1448 -17875 17935 0
-1448 -17876 17936 0
-1448 -17877 17937 0
-1448 -17878 17938 0
-1448 -17879 17939 0
-1448 -17880 17940 0
-1448 -17881 17941 0
-1448 -17882 17942 0
-1448 -17883 17943 0
-1448 -17884 17944 0
-1448 -17885 17945 0
-1448 -17886 17946 0
-1448 -17887 17947 0
-1448 -17888 17948 0
-1448 -17889 17949 0
-1448 -17890 17950 0
-1448 -17891 17951 0
-1448 -17892 17952 0
-1448 -17893 17953 0
-1448 -17894 17954 0
-1448 -17895 17955 0
-1448 -17896 17956 0
-1448 -17897 17957 0
-1448 -17898 17958 0
-1448 -17899 17959 0
-1448 -17900 17960 0
-1448 -17901 17961 0
-1448 -17902 17962 0
-1448 -17903 17963 0
-1448 -17904 17964 0
-1448 -17905 17965 0
-1448 -17906 17966 0
-1448 -17907 17967 0
-1448 -17908 17968 0
-1448 -17909 17969 0
-1448 -17910 17970 0
-1448 -17911 17971 0
-1448 -17912 17972 0
-1448 -17913 17973 0
-1448 -17914 17974 0
-1448 -17915 17975 0
-1448 -17916 17976 0
-1448 -17917 17977 0
-1448 -17918 17978 0
-1448 -17919 17979 0
-1448 -17920 17980 0
-1448 -17921 17981 0
-1448 -17922 17982 0
-1448 -17923 17983 0
-1448 -17924 17984 0
-1448 -17925 17985 0
-1448 -17926 17986 0
-1448 -17927 0
-17928 17987 0
-17929 17988 0
-17930 17989 0
-17931 17990 0
-17932 17991 0
-17933 17992 0
-17934 17993 0
-17935 17994 0
-17936 17995 0
-17937 17996 0
-17938 17997 0
-17939 17998 0
-17940 17999 0
-17941 18000 0
-17942 18001 0
-17943 18002 0
-17944 18003 0
-17945 18004 0
-17946 18005 0
-17947 18006 0
-17948 18007 0
-17949 18008 0
-17950 18009 0
-17951 18010 0
-17952 18011 0
-17953 18012 0
-17954 18013 0
-17955 18014 0
-17956 18015 0
-17957 18016 0
-17958 18017 0
-17959 18018 0
-17960 18019 0
-17961 18020 0
-17962 18021 0
-17963 18022 0
-17964 18023 0
-17965 18024 0
-17966 18025 0
-17967 18026 0
-17968 18027 0
-17969 18028 0
-17970 18029 0
-17971 18030 0
-17972 18031 0
-17973 18032 0
-17974 18033 0
-17975 18034 0
-17976 18035 0
-17977 18036 0
-17978 18037 0
-17979 18038 0
-17980 18039 0
-17981 18040 0
-17982 18041 0
-17983 18042 0
-17984 18043 0
-17985 18044 0
-17986 18045 0
-1450 -17928 17988 0
-1450 -17929 17989 0
-1450 -17930 17990 0
-1450 -17931 17991 0
-1450 -17932 17992 0
-1450 -17933 17993 0
-1450 -17934 17994 0
-1450 -17935 17995 0
-1450 -17936 17996 0
-1450 -17937 17997 0
-1450 -17938 17998 0
-1450 -17939 17999 0
-1450 -17940 18000 0
-1450 -17941 18001 0
-1450 -17942 18002 0
-1450 -17943 18003 0
-1450 -17944 18004 0
-1450 -17945 18005 0
-1450 -17946 18006 0
-1450 -17947 18007 0
-1450 -17948 18008 0
-1450 -17949 18009 0
-1450 -17950 18010 0
-1450 -17951 18011 0
-1450 -17952 18012 0
-1450 -17953 18013 0
-1450 -17954 18014 0
-1450 -17955 18015 0
-1450 -17956 18016 0
-1450 -17957 18017 0
-1450 -17958 18018 0
-1450 -17959 18019 0
-1450 -17960 18020 0
-1450 -17961 18021 0
-1450 -17962 18022 0
-1450 -17963 18023 0
-1450 -17964 18024 0
-1450 -17965 18025 0
-1450 -17966 18026 0
-1450 -17967 18027 0
-1450 -17968 18028 0
-1450 -17969 18029 0
-1450 -17970 18030 0
-1450 -17971 18031 0
-1450 -17972 18032 0
-1450 -17973 18033 0
-1450 -17974 18034 0
-1450 -17975 18035 0
-1450 -17976 18036 0
-1450 -17977 18037 0
-1450 -17978 18038 0
-1450 -17979 18039 0
-1450 -17980 18040 0
-1450 -17981 18041 0
-1450 -17982 18042 0
-1450 -17983 18043 0
-1450 -17984 18044 0
-1450 -17985 18045 0
-1450 -17986 0
-17987 18046 0
-17988 18047 0
-17989 18048 0
-17990 18049 0
-17991 18050 0
-17992 18051 0
-17993 18052 0
-17994 18053 0
-17995 18054 0
-17996 18055 0
-17997 18056 0
-17998 18057 0
-17999 18058 0
-18000 18059 0
-18001 18060 0
-18002 18061 0
-18003 18062 0
-18004 18063 0
-18005 18064 0
-18006 18065 0
-18007 18066 0
-18008 18067 0
-18009 18068 0
-18010 18069 0
-18011 18070 0
-18012 18071 0
-18013 18072 0
-18014 18073 0
-18015 18074 0
-18016 18075 0
-18017 18076 0
-18018 18077 0
-18019 18078 0
-18020 18079 0
-18021 18080 0
-18022 18081 0
-18023 18082 0
-18024 18083 0
-18025 18084 0
-18026 18085 0
-18027 18086 0
-18028 18087 0
-18029 18088 0
-18030 18089 0
-18031 18090 0
-18032 18091 0
-18033 18092 0
-18034 18093 0
-18035 18094 0
-18036 18095 0
-18037 18096 0
-18038 18097 0
-18039 18098 0
-18040 18099 0
-18041 18100 0
-18042 18101 0
-18043 18102 0
-18044 18103 0
-18045 18104 0
-1452 -17987 18047 0
-1452 -17988 18048 0
-1452 -17989 18049 0
-1452 -17990 18050 0
-1452 -17991 18051 0
-1452 -17992 18052 0
-1452 -17993 18053 0
-1452 -17994 18054 0
-1452 -17995 18055 0
-1452 -17996 18056 0
-1452 -17997 18057 0
-1452 -17998 18058 0
-1452 -17999 18059 0
-1452 -18000 18060 0
-1452 -18001 18061 0
-1452 -18002 18062 0
-1452 -18003 18063 0
-1452 -18004 18064 0
-1452 -18005 18065 0
-1452 -18006 18066 0
-1452 -18007 18067 0
-1452 -18008 18068 0
-1452 -18009 18069 0
-1452 -18010 18070 0
-1452 -18011 18071 0
-1452 -18012 18072 0
-1452 -18013 18073 0
-1452 -18014 18074 0
-1452 -18015 18075 0
-1452 -18016 18076 0
-1452 -18017 18077 0
-1452 -18018 18078 0
-1452 -18019 18079 0
-1452 -18020 18080 0
-1452 -18021 18081 0
-1452 -18022 18082 0
-1452 -18023 18083 0
-1452 -18024 18084 0
-1452 -18025 18085 0
-1452 -18026 18086 0
-1452 -18027 18087 0
-1452 -18028 18088 0
-1452 -18029 18089 0
-1452 -18030 18090 0
-1452 -18031 18091 0
-1452 -18032 18092 0
-1452 -18033 18093 0
-1452 -18034 18094 0
-1452 -18035 18095 0
-1452 -18036 18096 0
-1452 -18037 18097 0
-1452 -18038 18098 0
-1452 -18039 18099 0
-1452 -18040 18100 0
-1452 -18041 18101 0
-1452 -18042 18102 0
-1452 -18043 18103 0
-1452 -18044 18104 0
-1452 -18045 0
-18046 18105 0
-18047 18106 0
-18048 18107 0
-18049 18108 0
-18050 18109 0
-18051 18110 0
-18052 18111 0
-18053 18112 0
-18054 18113 0
-18055 18114 0
-18056 18115 0
-18057 18116 0
-18058 18117 0
-18059 18118 0
-18060 18119 0
-18061 18120 0
-18062 18121 0
-18063 18122 0
-18064 18123 0
-18065 18124 0
-18066 18125 0
-18067 18126 0
-18068 18127 0
-18069 18128 0
-18070 18129 0
-18071 18130 0
-18072 18131 0
-18073 18132 0
-18074 18133 0
-18075 18134 0
-18076 18135 0
-18077 18136 0
-18078 18137 0
-18079 18138 0
-18080 18139 0
-18081 18140 0
-18082 18141 0
-18083 18142 0
-18084 18143 0
-18085 18144 0
-18086 18145 0
-18087 18146 0
-18088 18147 0
-18089 18148 0
-18090 18149 0
-18091 18150 0
-18092 18151 0
-18093 18152 0
-18094 18153 0
-18095 18154 0
-18096 18155 0
-18097 18156 0
-18098 18157 0
-18099 18158 0
-18100 18159 0
-18101 18160 0
-18102 18161 0
-18103 18162 0
-18104 18163 0
-1454 -18046 18106 0
-1454 -18047 18107 0
-1454 -18048 18108 0
-1454 -18049 18109 0
-1454 -18050 18110 0
-1454 -18051 18111 0
-1454 -18052 18112 0
-1454 -18053 18113 0
-1454 -18054 18114 0
-1454 -18055 18115 0
-1454 -18056 18116 0
-1454 -18057 18117 0
-1454 -18058 18118 0
-1454 -18059 18119 0
-1454 -18060 18120 0
-1454 -18061 18121 0
-1454 -18062 18122 0
-1454 -18063 18123 0
-1454 -18064 18124 0
-1454 -18065 18125 0
-1454 -18066 18126 0
-1454 -18067 18127 0
-1454 -18068 18128 0
-1454 -18069 18129 0
-1454 -18070 18130 0
-1454 -18071 18131 0
-1454 -18072 18132 0
-1454 -18073 18133 0
-1454 -18074 18134 0
-1454 -18075 18135 0
-1454 -18076 18136 0
-1454 -18077 18137 0
-1454 -18078 18138 0
-1454 -18079 18139 0
-1454 -18080 18140 0
-1454 -18081 18141 0
-1454 -18082 18142 0
-1454 -18083 18143 0
-1454 -18084 18144 0
-1454 -18085 18145 0
-1454 -18086 18146 0
-1454 -18087 18147 0
-1454 -18088 18148 0
-1454 -18089 18149 0
-1454 -18090 18150 0
-1454 -18091 18151 0
-1454 -18092 18152 0
-1454 -18093 18153 0
-1454 -18094 18154 0
-1454 -18095 18155 0
-1454 -18096 18156 0
-1454 -18097 18157 0
-1454 -18098 18158 0
-1454 -18099 18159 0
-1454 -18100 18160 0
-1454 -18101 18161 0
-1454 -18102 18162 0
-1454 -18103 18163 0
-1454 -18104 0
-18105 18164 0
-18106 18165 0
-18107 18166 0
-18108 18167 0
-18109 18168 0
-18110 18169 0
-18111 18170 0
-18112 18171 0
-18113 18172 0
-18114 18173 0
-18115 18174 0
-18116 18175 0
-18117 18176 0
-18118 18177 0
-18119 18178 0
-18120 18179 0
-18121 18180 0
-18122 18181 0
-18123 18182 0
-18124 18183 0
-18125 18184 0
-18126 18185 0
-18127 18186 0
-18128 18187 0
-18129 18188 0
-18130 18189 0
-18131 18190 0
-18132 18191 0
-18133 18192 0
-18134 18193 0
-18135 18194 0
-18136 18195 0
-18137 18196 0
-18138 18197 0
-18139 18198 0
-18140 18199 0
-18141 18200 0
-18142 18201 0
-18143 18202 0
-18144 18203 0
-18145 18204 0
-18146 18205 0
-18147 18206 0
-18148 18207 0
-18149 18208 0
-18150 18209 0
-18151 18210 0
-18152 18211 0
-18153 18212 0
-18154 18213 0
-18155 18214 0
-18156 18215 0
-18157 18216 0
-18158 18217 0
-18159 18218 0
-18160 18219 0
-18161 18220 0
-18162 18221 0
-18163 18222 0
-1456 -18105 18165 0
-1456 -18106 18166 0
-1456 -18107 18167 0
-1456 -18108 18168 0
-1456 -18109 18169 0
-1456 -18110 18170 0
-1456 -18111 18171 0
-1456 -18112 18172 0
-1456 -18113 18173 0
-1456 -18114 18174 0
-1456 -18115 18175 0
-1456 -18116 18176 0
-1456 -18117 18177 0
-1456 -18118 18178 0
-1456 -18119 18179 0
-1456 -18120 18180 0
-1456 -18121 18181 0
-1456 -18122 18182 0
-1456 -18123 18183 0
-1456 -18124 18184 0
-1456 -18125 18185 0
-1456 -18126 18186 0
-1456 -18127 18187 0
-1456 -18128 18188 0
-1456 -18129 18189 0
-1456 -18130 18190 0
-1456 -18131 18191 0
-1456 -18132 18192 0
-1456 -18133 18193 0
-1456 -18134 18194 0
-1456 -18135 18195 0
-1456 -18136 18196 0
-1456 -18137 18197 0
-1456 -18138 18198 0
-1456 -18139 18199 0
-1456 -18140 18200 0
-1456 -18141 18201 0
-1456 -18142 18202 0
-1456 -18143 18203 0
-1456 -18144 18204 0
-1456 -18145 18205 0
-1456 -18146 18206 0
-1456 -18147 18207 0
-1456 -18148 18208 0
-1456 -18149 18209 0
-1456 -18150 18210 0
-1456 -18151 18211 0
-1456 -18152 18212 0
-1456 -18153 18213 0
-1456 -18154 18214 0
-1456 -18155 18215 0
-1456 -18156 18216 0
-1456 -18157 18217 0
-1456 -18158 18218 0
-1456 -18159 18219 0
-1456 -18160 18220 0
-1456 -18161 18221 0
-1456 -18162 18222 0
-1456 -18163 0
-18164 18223 0
-18165 18224 0
-18166 18225 0
-18167 18226 0
-18168 18227 0
-18169 18228 0
-18170 18229 0
-18171 18230 0
-18172 18231 0
-18173 18232 0
-18174 18233 0
-18175 18234 0
-18176 18235 0
-18177 18236 0
-18178 18237 0
-18179 18238 0
-18180 18239 0
-18181 18240 0
-18182 18241 0
-18183 18242 0
-18184 18243 0
-18185 18244 0
-18186 18245 0
-18187 18246 0
-18188 18247 0
-18189 18248 0
-18190 18249 0
-18191 18250 0
-18192 18251 0
-18193 18252 0
-18194 18253 0
-18195 18254 0
-18196 18255 0
-18197 18256 0
-18198 18257 0
-18199 18258 0
-18200 18259 0
-18201 18260 0
-18202 18261 0
-18203 18262 0
-18204 18263 0
-18205 18264 0
-18206 18265 0
-18207 18266 0
-18208 18267 0
-18209 18268 0
-18210 18269 0
-18211 18270 0
-18212 18271 0
-18213 18272 0
-18214 18273 0
-18215 18274 0
-18216 18275 0
-18217 18276 0
-18218 18277 0
-18219 18278 0
-18220 18279 0
-18221 18280 0
-18222 18281 0
-1458 -18164 18224 0
-1458 -18165 18225 0
-1458 -18166 18226 0
-1458 -18167 18227 0
-1458 -18168 18228 0
-1458 -18169 18229 0
-1458 -18170 18230 0
-1458 -18171 18231 0
-1458 -18172 18232 0
-1458 -18173 18233 0
-1458 -18174 18234 0
-1458 -18175 18235 0
-1458 -18176 18236 0
-1458 -18177 18237 0
-1458 -18178 18238 0
-1458 -18179 18239 0
-1458 -18180 18240 0
-1458 -18181 18241 0
-1458 -18182 18242 0
-1458 -18183 18243 0
-1458 -18184 18244 0
-1458 -18185 18245 0
-1458 -18186 18246 0
-1458 -18187 18247 0
-1458 -18188 18248 0
-1458 -18189 18249 0
-1458 -18190 18250 0
-1458 -18191 18251 0
-1458 -18192 18252 0
-1458 -18193 18253 0
-1458 -18194 18254 0
-1458 -18195 18255 0
-1458 -18196 18256 0
-1458 -18197 18257 0
-1458 -18198 18258 0
-1458 -18199 18259 0
-1458 -18200 18260 0
-1458 -18201 18261 0
-1458 -18202 18262 0
-1458 -18203 18263 0
-1458 -18204 18264 0
-1458 -18205 18265 0
-1458 -18206 18266 0
-1458 -18207 18267 0
-1458 -18208 18268 0
-1458 -18209 18269 0
-1458 -18210 18270 0
-1458 -18211 18271 0
-1458 -18212 18272 0
-1458 -18213 18273 0
-1458 -18214 18274 0
-1458 -18215 18275 0
-1458 -18216 18276 0
-1458 -18217 18277 0
-1458 -18218 18278 0
-1458 -18219 18279 0
-1458 -18220 18280 0
-1458 -18221 18281 0
-1458 -18222 0
-18223 18282 0
-18224 18283 0
-18225 18284 0
-18226 18285 0
-18227 18286 0
-18228 18287 0
-18229 18288 0
-18230 18289 0
-18231 18290 0
-18232 18291 0
-18233 18292 0
-18234 18293 0
-18235 18294 0
-18236 18295 0
-18237 18296 0
-18238 18297 0
-18239 18298 0
-18240 18299 0
-18241 18300 0
-18242 18301 0
-18243 18302 0
-18244 18303 0
-18245 18304 0
-18246 18305 0
-18247 18306 0
-18248 18307 0
-18249 18308 0
-18250 18309 0
-18251 18310 0
-18252 18311 0
-18253 18312 0
-18254 18313 0
-18255 18314 0
-18256 18315 0
-18257 18316 0
-18258 18317 0
-18259 18318 0
-18260 18319 0
-18261 18320 0
-18262 18321 0
-18263 18322 0
-18264 18323 0
-18265 18324 0
-18266 18325 0
-18267 18326 0
-18268 18327 0
-18269 18328 0
-18270 18329 0
-18271 18330 0
-18272 18331 0
-18273 18332 0
-18274 18333 0
-18275 18334 0
-18276 18335 0
-18277 18336 0
-18278 18337 0
-18279 18338 0
-18280 18339 0
-18281 18340 0
-1460 -18223 18283 0
-1460 -18224 18284 0
-1460 -18225 18285 0
-1460 -18226 18286 0
-1460 -18227 18287 0
-1460 -18228 18288 0
-1460 -18229 18289 0
-1460 -18230 18290 0
-1460 -18231 18291 0
-1460 -18232 18292 0
-1460 -18233 18293 0
-1460 -18234 18294 0
-1460 -18235 18295 0
-1460 -18236 18296 0
-1460 -18237 18297 0
-1460 -18238 18298 0
-1460 -18239 18299 0
-1460 -18240 18300 0
-1460 -18241 18301 0
-1460 -18242 18302 0
-1460 -18243 18303 0
-1460 -18244 18304 0
-1460 -18245 18305 0
-1460 -18246 18306 0
-1460 -18247 18307 0
-1460 -18248 18308 0
-1460 -18249 18309 0
-1460 -18250 18310 0
-1460 -18251 18311 0
-1460 -18252 18312 0
-1460 -18253 18313 0
-1460 -18254 18314 0
-1460 -18255 18315 0
-1460 -18256 18316 0
-1460 -18257 18317 0
-1460 -18258 18318 0
-1460 -18259 18319 0
-1460 -18260 18320 0
-1460 -18261 18321 0
-1460 -18262 18322 0
-1460 -18263 18323 0
-1460 -18264 18324 0
-1460 -18265 18325 0
-1460 -18266 18326 0
-1460 -18267 18327 0
-1460 -18268 18328 0
-1460 -18269 18329 0
-1460 -18270 18330 0
-1460 -18271 18331 0
-1460 -18272 18332 0
-1460 -18273 18333 0
-1460 -18274 18334 0
-1460 -18275 18335 0
-1460 -18276 18336 0
-1460 -18277 18337 0
-1460 -18278 18338 0
-1460 -18279 18339 0
-1460 -18280 18340 0
-1460 -18281 0
-18282 18341 0
-18283 18342 0
-18284 18343 0
-18285 18344 0
-18286 18345 0
-18287 18346 0
-18288 18347 0
-18289 18348 0
-18290 18349 0
-18291 18350 0
-18292 18351 0
-18293 18352 0
-18294 18353 0
-18295 18354 0
-18296 18355 0
-18297 18356 0
-18298 18357 0
-18299 18358 0
-18300 18359 0
-18301 18360 0
-18302 18361 0
-18303 18362 0
-18304 18363 0
-18305 18364 0
-18306 18365 0
-18307 18366 0
-18308 18367 0
-18309 18368 0
-18310 18369 0
-18311 18370 0
-18312 18371 0
-18313 18372 0
-18314 18373 0
-18315 18374 0
-18316 18375 0
-18317 18376 0
-18318 18377 0
-18319 18378 0
-18320 18379 0
-18321 18380 0
-18322 18381 0
-18323 18382 0
-18324 18383 0
-18325 18384 0
-18326 18385 0
-18327 18386 0
-18328 18387 0
-18329 18388 0
-18330 18389 0
-18331 18390 0
-18332 18391 0
-18333 18392 0
-18334 18393 0
-18335 18394 0
-18336 18395 0
-18337 18396 0
-18338 18397 0
-18339 18398 0
-18340 18399 0
-1462 -18282 18342 0
-1462 -18283 18343 0
-1462 -18284 18344 0
-1462 -18285 18345 0
-1462 -18286 18346 0
-1462 -18287 18347 0
-1462 -18288 18348 0
-1462 -18289 18349 0
-1462 -18290 18350 0
-1462 -18291 18351 0
-1462 -18292 18352 0
-1462 -18293 18353 0
-1462 -18294 18354 0
-1462 -18295 18355 0
-1462 -18296 18356 0
-1462 -18297 18357 0
-1462 -18298 18358 0
-1462 -18299 18359 0
-1462 -18300 18360 0
-1462 -18301 18361 0
-1462 -18302 18362 0
-1462 -18303 18363 0
-1462 -18304 18364 0
-1462 -18305 18365 0
-1462 -18306 18366 0
-1462 -18307 18367 0
-1462 -18308 18368 0
-1462 -18309 18369 0
-1462 -18310 18370 0
-1462 -18311 18371 0
-1462 -18312 18372 0
-1462 -18313 18373 0
-1462 -18314 18374 0
-1462 -18315 18375 0
-1462 -18316 18376 0
-1462 -18317 18377 0
-1462 -18318 18378 0
-1462 -18319 18379 0
-1462 -18320 18380 0
-1462 -18321 18381 0
-1462 -18322 18382 0
-1462 -18323 18383 0
-1462 -18324 18384 0
-1462 -18325 18385 0
-1462 -18326 18386 0
-1462 -18327 18387 0
-1462 -18328 18388 0
-1462 -18329 18389 0
-1462 -18330 18390 0
-1462 -18331 18391 0
-1462 -18332 18392 0
-1462 -18333 18393 0
-1462 -18334 18394 0
-1462 -18335 18395 0
-1462 -18336 18396 0
-1462 -18337 18397 0
-1462 -18338 18398 0
-1462 -18339 18399 0
-1462 -18340 0
-18341 18400 0
-18342 18401 0
-18343 18402 0
-18344 18403 0
-18345 18404 0
-18346 18405 0
-18347 18406 0
-18348 18407 0
-18349 18408 0
-18350 18409 0
-18351 18410 0
-18352 18411 0
-18353 18412 0
-18354 18413 0
-18355 18414 0
-18356 18415 0
-18357 18416 0
-18358 18417 0
-18359 18418 0
-18360 18419 0
-18361 18420 0
-18362 18421 0
-18363 18422 0
-18364 18423 0
-18365 18424 0
-18366 18425 0
-18367 18426 0
-18368 18427 0
-18369 18428 0
-18370 18429 0
-18371 18430 0
-18372 18431 0
-18373 18432 0
-18374 18433 0
-18375 18434 0
-18376 18435 0
-18377 18436 0
-18378 18437 0
-18379 18438 0
-18380 18439 0
-18381 18440 0
-18382 18441 0
-18383 18442 0
-18384 18443 0
-18385 18444 0
-18386 18445 0
-18387 18446 0
-18388 18447 0
-18389 18448 0
-18390 18449 0
-18391 18450 0
-18392 18451 0
-18393 18452 0
-18394 18453 0
-18395 18454 0
-18396 18455 0
-18397 18456 0
-18398 18457 0
-18399 18458 0
-1464 -18341 18401 0
-1464 -18342 18402 0
-1464 -18343 18403 0
-1464 -18344 18404 0
-1464 -18345 18405 0
-1464 -18346 18406 0
-1464 -18347 18407 0
-1464 -18348 18408 0
-1464 -18349 18409 0
-1464 -18350 18410 0
-1464 -18351 18411 0
-1464 -18352 18412 0
-1464 -18353 18413 0
-1464 -18354 18414 0
-1464 -18355 18415 0
-1464 -18356 18416 0
-1464 -18357 18417 0
-1464 -18358 18418 0
-1464 -18359 18419 0
-1464 -18360 18420 0
-1464 -18361 18421 0
-1464 -18362 18422 0
-1464 -18363 18423 0
-1464 -18364 18424 0
-1464 -18365 18425 0
-1464 -18366 18426 0
-1464 -18367 18427 0
-1464 -18368 18428 0
-1464 -18369 18429 0
-1464 -18370 18430 0
-1464 -18371 18431 0
-1464 -18372 18432 0
-1464 -18373 18433 0
-1464 -18374 18434 0
-1464 -18375 18435 0
-1464 -18376 18436 0
-1464 -18377 18437 0
-1464 -18378 18438 0
-1464 -18379 18439 0
-1464 -18380 18440 0
-1464 -18381 18441 0
-1464 -18382 18442 0
-1464 -18383 18443 0
-1464 -18384 18444 0
-1464 -18385 18445 0
-1464 -18386 18446 0
-1464 -18387 18447 0
-1464 -18388 18448 0
-1464 -18389 18449 0
-1464 -18390 18450 0
-1464 -18391 18451 0
-1464 -18392 18452 0
-1464 -18393 18453 0
-1464 -18394 18454 0
-1464 -18395 18455 0
-1464 -18396 18456 0
-1464 -18397 18457 0
-1464 -18398 18458 0
-1464 -18399 0
-18400 18459 0
-18401 18460 0
-18402 18461 0
-18403 18462 0
-18404 18463 0
-18405 18464 0
-18406 18465 0
-18407 18466 0
-18408 18467 0
-18409 18468 0
-18410 18469 0
-18411 18470 0
-18412 18471 0
-18413 18472 0
-18414 18473 0
-18415 18474 0
-18416 18475 0
-18417 18476 0
-18418 18477 0
-18419 18478 0
-18420 18479 0
-18421 18480 0
-18422 18481 0
-18423 18482 0
-18424 18483 0
-18425 18484 0
-18426 18485 0
-18427 18486 0
-18428 18487 0
-18429 18488 0
-18430 18489 0
-18431 18490 0
-18432 18491 0
-18433 18492 0
-18434 18493 0
-18435 18494 0
-18436 18495 0
-18437 18496 0
-18438 18497 0
-18439 18498 0
-18440 18499 0
-18441 18500 0
-18442 18501 0
-18443 18502 0
-18444 18503 0
-18445 18504 0
-18446 18505 0
-18447 18506 0
-18448 18507 0
-18449 18508 0
-18450 18509 0
-18451 18510 0
-18452 18511 0
-18453 18512 0
-18454 18513 0
-18455 18514 0
-18456 18515 0
-18457 18516 0
-18458 18517 0
-1466 -18400 18460 0
-1466 -18401 18461 0
-1466 -18402 18462 0
-1466 -18403 18463 0
-1466 -18404 18464 0
-1466 -18405 18465 0
-1466 -18406 18466 0
-1466 -18407 18467 0
-1466 -18408 18468 0
-1466 -18409 18469 0
-1466 -18410 18470 0
-1466 -18411 18471 0
-1466 -18412 18472 0
-1466 -18413 18473 0
-1466 -18414 18474 0
-1466 -18415 18475 0
-1466 -18416 18476 0
-1466 -18417 18477 0
-1466 -18418 18478 0
-1466 -18419 18479 0
-1466 -18420 18480 0
-1466 -18421 18481 0
-1466 -18422 18482 0
-1466 -18423 18483 0
-1466 -18424 18484 0
-1466 -18425 18485 0
-1466 -18426 18486 0
-1466 -18427 18487 0
-1466 -18428 18488 0
-1466 -18429 18489 0
-1466 -18430 18490 0
-1466 -18431 18491 0
-1466 -18432 18492 0
-1466 -18433 18493 0
-1466 -18434 18494 0
-1466 -18435 18495 0
-1466 -18436 18496 0
-1466 -18437 18497 0
-1466 -18438 18498 0
-1466 -18439 18499 0
-1466 -18440 18500 0
-1466 -18441 18501 0
-1466 -18442 18502 0
-1466 -18443 18503 0
-1466 -18444 18504 0
-1466 -18445 18505 0
-1466 -18446 18506 0
-1466 -18447 18507 0
-1466 -18448 18508 0
-1466 -18449 18509 0
-1466 -18450 18510 0
-1466 -18451 18511 0
-1466 -18452 18512 0
-1466 -18453 18513 0
-1466 -18454 18514 0
-1466 -18455 18515 0
-1466 -18456 18516 0
-1466 -18457 18517 0
-1466 -18458 0
-18459 18518 0
-18460 18519 0
-18461 18520 0
-18462 18521 0
-18463 18522 0
-18464 18523 0
-18465 18524 0
-18466 18525 0
-18467 18526 0
-18468 18527 0
-18469 18528 0
-18470 18529 0
-18471 18530 0
-18472 18531 0
-18473 18532 0
-18474 18533 0
-18475 18534 0
-18476 18535 0
-18477 18536 0
-18478 18537 0
-18479 18538 0
-18480 18539 0
-18481 18540 0
-18482 18541 0
-18483 18542 0
-18484 18543 0
-18485 18544 0
-18486 18545 0
-18487 18546 0
-18488 18547 0
-18489 18548 0
-18490 18549 0
-18491 18550 0
-18492 18551 0
-18493 18552 0
-18494 18553 0
-18495 18554 0
-18496 18555 0
-18497 18556 0
-18498 18557 0
-18499 18558 0
-18500 18559 0
-18501 18560 0
-18502 18561 0
-18503 18562 0
-18504 18563 0
-18505 18564 0
-18506 18565 0
-18507 18566 0
-18508 18567 0
-18509 18568 0
-18510 18569 0
-18511 18570 0
-18512 18571 0
-18513 18572 0
-18514 18573 0
-18515 18574 0
-18516 18575 0
-18517 18576 0
-1468 -18459 18519 0
-1468 -18460 18520 0
-1468 -18461 18521 0
-1468 -18462 18522 0
-1468 -18463 18523 0
-1468 -18464 18524 0
-1468 -18465 18525 0
-1468 -18466 18526 0
-1468 -18467 18527 0
-1468 -18468 18528 0
-1468 -18469 18529 0
-1468 -18470 18530 0
-1468 -18471 18531 0
-1468 -18472 18532 0
-1468 -18473 18533 0
-1468 -18474 18534 0
-1468 -18475 18535 0
-1468 -18476 18536 0
-1468 -18477 18537 0
-1468 -18478 18538 0
-1468 -18479 18539 0
-1468 -18480 18540 0
-1468 -18481 18541 0
-1468 -18482 18542 0
-1468 -18483 18543 0
-1468 -18484 18544 0
-1468 -18485 18545 0
-1468 -18486 18546 0
-1468 -18487 18547 0
-1468 -18488 18548 0
-1468 -18489 18549 0
-1468 -18490 18550 0
-1468 -18491 18551 0
-1468 -18492 18552 0
-1468 -18493 18553 0
-1468 -18494 18554 0
-1468 -18495 18555 0
-1468 -18496 18556 0
-1468 -18497 18557 0
-1468 -18498 18558 0
-1468 -18499 18559 0
-1468 -18500 18560 0
-1468 -18501 18561 0
-1468 -18502 18562 0
-1468 -18503 18563 0
-1468 -18504 18564 0
-1468 -18505 18565 0
-1468 -18506 18566 0
-1468 -18507 18567 0
-1468 -18508 18568 0
-1468 -18509 18569 0
-1468 -18510 18570 0
-1468 -18511 18571 0
-1468 -18512 18572 0
-1468 -18513 18573 0
-1468 -18514 18574 0
-1468 -18515 18575 0
-1468 -18516 18576 0
-1468 -18517 0
-18518 18577 0
-18519 18578 0
-18520 18579 0
-18521 18580 0
-18522 18581 0
-18523 18582 0
-18524 18583 0
-18525 18584 0
-18526 18585 0
-18527 18586 0
-18528 18587 0
-18529 18588 0
-18530 18589 0
-18531 18590 0
-18532 18591 0
-18533 18592 0
-18534 18593 0
-18535 18594 0
-18536 18595 0
-18537 18596 0
-18538 18597 0
-18539 18598 0
-18540 18599 0
-18541 18600 0
-18542 18601 0
-18543 18602 0
-18544 18603 0
-18545 18604 0
-18546 18605 0
-18547 18606 0
-18548 18607 0
-18549 18608 0
-18550 18609 0
-18551 18610 0
-18552 18611 0
-18553 18612 0
-18554 18613 0
-18555 18614 0
-18556 18615 0
-18557 18616 0
-18558 18617 0
-18559 18618 0
-18560 18619 0
-18561 18620 0
-18562 18621 0
-18563 18622 0
-18564 18623 0
-18565 18624 0
-18566 18625 0
-18567 18626 0
-18568 18627 0
-18569 18628 0
-18570 18629 0
-18571 18630 0
-18572 18631 0
-18573 18632 0
-18574 18633 0
-18575 18634 0
-18576 18635 0
-1470 -18518 18578 0
-1470 -18519 18579 0
-1470 -18520 18580 0
-1470 -18521 18581 0
-1470 -18522 18582 0
-1470 -18523 18583 0
-1470 -18524 18584 0
-1470 -18525 18585 0
-1470 -18526 18586 0
-1470 -18527 18587 0
-1470 -18528 18588 0
-1470 -18529 18589 0
-1470 -18530 18590 0
-1470 -18531 18591 0
-1470 -18532 18592 0
-1470 -18533 18593 0
-1470 -18534 18594 0
-1470 -18535 18595 0
-1470 -18536 18596 0
-1470 -18537 18597 0
-1470 -18538 18598 0
-1470 -18539 18599 0
-1470 -18540 18600 0
-1470 -18541 18601 0
-1470 -18542 18602 0
-1470 -18543 18603 0
-1470 -18544 18604 0
-1470 -18545 18605 0
-1470 -18546 18606 0
-1470 -18547 18607 0
-1470 -18548 18608 0
-1470 -18549 18609 0
-1470 -18550 18610 0
-1470 -18551 18611 0
-1470 -18552 18612 0
-1470 -18553 18613 0
-1470 -18554 18614 0
-1470 -18555 18615 0
-1470 -18556 18616 0
-1470 -18557 18617 0
-1470 -18558 18618 0
-1470 -18559 18619 0
-1470 -18560 18620 0
-1470 -18561 18621 0
-1470 -18562 18622 0
-1470 -18563 18623 0
-1470 -18564 18624 0
-1470 -18565 18625 0
-1470 -18566 18626 0
-1470 -18567 18627 0
-1470 -18568 18628 0
-1470 -18569 18629 0
-1470 -18570 18630 0
-1470 -18571 18631 0
-1470 -18572 18632 0
-1470 -18573 18633 0
-1470 -18574 18634 0
-1470 -18575 18635 0
-1470 -18576 0
-18577 18636 0
-18578 18637 0
-18579 18638 0
-18580 18639 0
-18581 18640 0
-18582 18641 0
-18583 18642 0
-18584 18643 0
-18585 18644 0
-18586 18645 0
-18587 18646 0
-18588 18647 0
-18589 18648 0
-18590 18649 0
-18591 18650 0
-18592 18651 0
-18593 18652 0
-18594 18653 0
-18595 18654 0
-18596 18655 0
-18597 18656 0
-18598 18657 0
-18599 18658 0
-18600 18659 0
-18601 18660 0
-18602 18661 0
-18603 18662 0
-18604 18663 0
-18605 18664 0
-18606 18665 0
-18607 18666 0
-18608 18667 0
-18609 18668 0
-18610 18669 0
-18611 18670 0
-18612 18671 0
-18613 18672 0
-18614 18673 0
-18615 18674 0
-18616 18675 0
-18617 18676 0
-18618 18677 0
-18619 18678 0
-18620 18679 0
-18621 18680 0
-18622 18681 0
-18623 18682 0
-18624 18683 0
-18625 18684 0
-18626 18685 0
-18627 18686 0
-18628 18687 0
-18629 18688 0
-18630 18689 0
-18631 18690 0
-18632 18691 0
-18633 18692 0
-18634 18693 0
-18635 18694 0
-1472 -18577 18637 0
-1472 -18578 18638 0
-1472 -18579 18639 0
-1472 -18580 18640 0
-1472 -18581 18641 0
-1472 -18582 18642 0
-1472 -18583 18643 0
-1472 -18584 18644 0
-1472 -18585 18645 0
-1472 -18586 18646 0
-1472 -18587 18647 0
-1472 -18588 18648 0
-1472 -18589 18649 0
-1472 -18590 18650 0
-1472 -18591 18651 0
-1472 -18592 18652 0
-1472 -18593 18653 0
-1472 -18594 18654 0
-1472 -18595 18655 0
-1472 -18596 18656 0
-1472 -18597 18657 0
-1472 -18598 18658 0
-1472 -18599 18659 0
-1472 -18600 18660 0
-1472 -18601 18661 0
-1472 -18602 18662 0
-1472 -18603 18663 0
-1472 -18604 18664 0
-1472 -18605 18665 0
-1472 -18606 18666 0
-1472 -18607 18667 0
-1472 -18608 18668 0
-1472 -18609 18669 0
-1472 -18610 18670 0
-1472 -18611 18671 0
-1472 -18612 18672 0
-1472 -18613 18673 0
-1472 -18614 18674 0
-1472 -18615 18675 0
-1472 -18616 18676 0
-1472 -18617 18677 0
-1472 -18618 18678 0
-1472 -18619 18679 0
-1472 -18620 18680 0
-1472 -18621 18681 0
-1472 -18622 18682 0
-1472 -18623 18683 0
-1472 -18624 18684 0
-1472 -18625 18685 0
-1472 -18626 18686 0
-1472 -18627 18687 0
-1472 -18628 18688 0
-1472 -18629 18689 0
-1472 -18630 18690 0
-1472 -18631 18691 0
-1472 -18632 18692 0
-1472 -18633 18693 0
-1472 -18634 18694 0
-1472 -18635 0
-18636 18695 0
-18637 18696 0
-18638 18697 0
-18639 18698 0
-18640 18699 0
-18641 18700 0
-18642 18701 0
-18643 18702 0
-18644 18703 0
-18645 18704 0
-18646 18705 0
-18647 18706 0
-18648 18707 0
-18649 18708 0
-18650 18709 0
-18651 18710 0
-18652 18711 0
-18653 18712 0
-18654 18713 0
-18655 18714 0
-18656 18715 0
-18657 18716 0
-18658 18717 0
-18659 18718 0
-18660 18719 0
-18661 18720 0
-18662 18721 0
-18663 18722 0
-18664 18723 0
-18665 18724 0
-18666 18725 0
-18667 18726 0
-18668 18727 0
-18669 18728 0
-18670 18729 0
-18671 18730 0
-18672 18731 0
-18673 18732 0
-18674 18733 0
-18675 18734 0
-18676 18735 0
-18677 18736 0
-18678 18737 0
-18679 18738 0
-18680 18739 0
-18681 18740 0
-18682 18741 0
-18683 18742 0
-18684 18743 0
-18685 18744 0
-18686 18745 0
-18687 18746 0
-18688 18747 0
-18689 18748 0
-18690 18749 0
-18691 18750 0
-18692 18751 0
-18693 18752 0
-18694 18753 0
-1474 -18636 18696 0
-1474 -18637 18697 0
-1474 -18638 18698 0
-1474 -18639 18699 0
-1474 -18640 18700 0
-1474 -18641 18701 0
-1474 -18642 18702 0
-1474 -18643 18703 0
-1474 -18644 18704 0
-1474 -18645 18705 0
-1474 -18646 18706 0
-1474 -18647 18707 0
-1474 -18648 18708 0
-1474 -18649 18709 0
-1474 -18650 18710 0
-1474 -18651 18711 0
-1474 -18652 18712 0
-1474 -18653 18713 0
-1474 -18654 18714 0
-1474 -18655 18715 0
-1474 -18656 18716 0
-1474 -18657 18717 0
-1474 -18658 18718 0
-1474 -18659 18719 0
-1474 -18660 18720 0
-1474 -18661 18721 0
-1474 -18662 18722 0
-1474 -18663 18723 0
-1474 -18664 18724 0
-1474 -18665 18725 0
-1474 -18666 18726 0
-1474 -18667 18727 0
-1474 -18668 18728 0
-1474 -18669 18729 0
-1474 -18670 18730 0
-1474 -18671 18731 0
-1474 -18672 18732 0
-1474 -18673 18733 0
-1474 -18674 18734 0
-1474 -18675 18735 0
-1474 -18676 18736 0
-1474 -18677 18737 0
-1474 -18678 18738 0
-1474 -18679 18739 0
-1474 -18680 18740 0
-1474 -18681 18741 0
-1474 -18682 18742 0
-1474 -18683 18743 0
-1474 -18684 18744 0
-1474 -18685 18745 0
-1474 -18686 18746 0
-1474 -18687 18747 0
-1474 -18688 18748 0
-1474 -18689 18749 0
-1474 -18690 18750 0
-1474 -18691 18751 0
-1474 -18692 18752 0
-1474 -18693 18753 0
-1474 -18694 0
-18695 18754 0
-18696 18755 0
-18697 18756 0
-18698 18757 0
-18699 18758 0
-18700 18759 0
-18701 18760 0
-18702 18761 0
-18703 18762 0
-18704 18763 0
-18705 18764 0
-18706 18765 0
-18707 18766 0
-18708 18767 0
-18709 18768 0
-18710 18769 0
-18711 18770 0
-18712 18771 0
-18713 18772 0
-18714 18773 0
-18715 18774 0
-18716 18775 0
-18717 18776 0
-18718 18777 0
-18719 18778 0
-18720 18779 0
-18721 18780 0
-18722 18781 0
-18723 18782 0
-18724 18783 0
-18725 18784 0
-18726 18785 0
-18727 18786 0
-18728 18787 0
-18729 18788 0
-18730 18789 0
-18731 18790 0
-18732 18791 0
-18733 18792 0
-18734 18793 0
-18735 18794 0
-18736 18795 0
-18737 18796 0
-18738 18797 0
-18739 18798 0
-18740 18799 0
-18741 18800 0
-18742 18801 0
-18743 18802 0
-18744 18803 0
-18745 18804 0
-18746 18805 0
-18747 18806 0
-18748 18807 0
-18749 18808 0
-18750 18809 0
-18751 18810 0
-18752 18811 0
-18753 18812 0
-1476 -18695 18755 0
-1476 -18696 18756 0
-1476 -18697 18757 0
-1476 -18698 18758 0
-1476 -18699 18759 0
-1476 -18700 18760 0
-1476 -18701 18761 0
-1476 -18702 18762 0
-1476 -18703 18763 0
-1476 -18704 18764 0
-1476 -18705 18765 0
-1476 -18706 18766 0
-1476 -18707 18767 0
-1476 -18708 18768 0
-1476 -18709 18769 0
-1476 -18710 18770 0
-1476 -18711 18771 0
-1476 -18712 18772 0
-1476 -18713 18773 0
-1476 -18714 18774 0
-1476 -18715 18775 0
-1476 -18716 18776 0
-1476 -18717 18777 0
-1476 -18718 18778 0
-1476 -18719 18779 0
-1476 -18720 18780 0
-1476 -18721 18781 0
-1476 -18722 18782 0
-1476 -18723 18783 0
-1476 -18724 18784 0
-1476 -18725 18785 0
-1476 -18726 18786 0
-1476 -18727 18787 0
-1476 -18728 18788 0
-1476 -18729 18789 0
-1476 -18730 18790 0
-1476 -18731 18791 0
-1476 -18732 18792 0
-1476 -18733 18793 0
-1476 -18734 18794 0
-1476 -18735 18795 0
-1476 -18736 18796 0
-1476 -18737 18797 0
-1476 -18738 18798 0
-1476 -18739 18799 0
-1476 -18740 18800 0
-1476 -18741 18801 0
-1476 -18742 18802 0
-1476 -18743 18803 0
-1476 -18744 18804 0
-1476 -18745 18805 0
-1476 -18746 18806 0
-1476 -18747 18807 0
-1476 -18748 18808 0
-1476 -18749 18809 0
-1476 -18750 18810 0
-1476 -18751 18811 0
-1476 -18752 18812 0
-1476 -18753 0
-18754 18813 0
-18755 18814 0
-18756 18815 0
-18757 18816 0
-18758 18817 0
-18759 18818 0
-18760 18819 0
-18761 18820 0
-18762 18821 0
-18763 18822 0
-18764 18823 0
-18765 18824 0
-18766 18825 0
-18767 18826 0
-18768 18827 0
-18769 18828 0
-18770 18829 0
-18771 18830 0
-18772 18831 0
-18773 18832 0
-18774 18833 0
-18775 18834 0
-18776 18835 0
-18777 18836 0
-18778 18837 0
-18779 18838 0
-18780 18839 0
-18781 18840 0
-18782 18841 0
-18783 18842 0
-18784 18843 0
-18785 18844 0
-18786 18845 0
-18787 18846 0
-18788 18847 0
-18789 18848 0
-18790 18849 0
-18791 18850 0
-18792 18851 0
-18793 18852 0
-18794 18853 0
-18795 18854 0
-18796 18855 0
-18797 18856 0
-18798 18857 0
-18799 18858 0
-18800 18859 0
-18801 18860 0
-18802 18861 0
-18803 18862 0
-18804 18863 0
-18805 18864 0
-18806 18865 0
-18807 18866 0
-18808 18867 0
-18809 18868 0
-18810 18869 0
-18811 18870 0
-18812 18871 0
-1478 -18754 18814 0
-1478 -18755 18815 0
-1478 -18756 18816 0
-1478 -18757 18817 0
-1478 -18758 18818 0
-1478 -18759 18819 0
-1478 -18760 18820 0
-1478 -18761 18821 0
-1478 -18762 18822 0
-1478 -18763 18823 0
-1478 -18764 18824 0
-1478 -18765 18825 0
-1478 -18766 18826 0
-1478 -18767 18827 0
-1478 -18768 18828 0
-1478 -18769 18829 0
-1478 -18770 18830 0
-1478 -18771 18831 0
-1478 -18772 18832 0
-1478 -18773 18833 0
-1478 -18774 18834 0
-1478 -18775 18835 0
-1478 -18776 18836 0
-1478 -18777 18837 0
-1478 -18778 18838 0
-1478 -18779 18839 0
-1478 -18780 18840 0
-1478 -18781 18841 0
-1478 -18782 18842 0
-1478 -18783 18843 0
-1478 -18784 18844 0
-1478 -18785 18845 0
-1478 -18786 18846 0
-1478 -18787 18847 0
-1478 -18788 18848 0
-1478 -18789 18849 0
-1478 -18790 18850 0
-1478 -18791 18851 0
-1478 -18792 18852 0
-1478 -18793 18853 0
-1478 -18794 18854 0
-1478 -18795 18855 0
-1478 -18796 18856 0
-1478 -18797 18857 0
-1478 -18798 18858 0
-1478 -18799 18859 0
-1478 -18800 18860 0
-1478 -18801 18861 0
-1478 -18802 18862 0
-1478 -18803 18863 0
-1478 -18804 18864 0
-1478 -18805 18865 0
-1478 -18806 18866 0
-1478 -18807 18867 0
-1478 -18808 18868 0
-1478 -18809 18869 0
-1478 -18810 18870 0
-1478 -18811 18871 0
-1478 -18812 0
-18813 18872 0
-18814 18873 0
-18815 18874 0
-18816 18875 0
-18817 18876 0
-18818 18877 0
-18819 18878 0
-18820 18879 0
-18821 18880 0
-18822 18881 0
-18823 18882 0
-18824 18883 0
-18825 18884 0
-18826 18885 0
-18827 18886 0
-18828 18887 0
-18829 18888 0
-18830 18889 0
-18831 18890 0
-18832 18891 0
-18833 18892 0
-18834 18893 0
-18835 18894 0
-18836 18895 0
-18837 18896 0
-18838 18897 0
-18839 18898 0
-18840 18899 0
-18841 18900 0
-18842 18901 0
-18843 18902 0
-18844 18903 0
-18845 18904 0
-18846 18905 0
-18847 18906 0
-18848 18907 0
-18849 18908 0
-18850 18909 0
-18851 18910 0
-18852 18911 0
-18853 18912 0
-18854 18913 0
-18855 18914 0
-18856 18915 0
-18857 18916 0
-18858 18917 0
-18859 18918 0
-18860 18919 0
-18861 18920 0
-18862 18921 0
-18863 18922 0
-18864 18923 0
-18865 18924 0
-18866 18925 0
-18867 18926 0
-18868 18927 0
-18869 18928 0
-18870 18929 0
-18871 18930 0
-1480 -18813 18873 0
-1480 -18814 18874 0
-1480 -18815 18875 0
-1480 -18816 18876 0
-1480 -18817 18877 0
-1480 -18818 18878 0
-1480 -18819 18879 0
-1480 -18820 18880 0
-1480 -18821 18881 0
-1480 -18822 18882 0
-1480 -18823 18883 0
-1480 -18824 18884 0
-1480 -18825 18885 0
-1480 -18826 18886 0
-1480 -18827 18887 0
-1480 -18828 18888 0
-1480 -18829 18889 0
-1480 -18830 18890 0
-1480 -18831 18891 0
-1480 -18832 18892 0
-1480 -18833 18893 0
-1480 -18834 18894 0
-1480 -18835 18895 0
-1480 -18836 18896 0
-1480 -18837 18897 0
-1480 -18838 18898 0
-1480 -18839 18899 0
-1480 -18840 18900 0
-1480 -18841 18901 0
-1480 -18842 18902 0
-1480 -18843 18903 0
-1480 -18844 18904 0
-1480 -18845 18905 0
-1480 -18846 18906 0
-1480 -18847 18907 0
-1480 -18848 18908 0
-1480 -18849 18909 0
-1480 -18850 18910 0
-1480 -18851 18911 0
-1480 -18852 18912 0
-1480 -18853 18913 0
-1480 -18854 18914 0
-1480 -18855 18915 0
-1480 -18856 18916 0
-1480 -18857 18917 0
-1480 -18858 18918 0
-1480 -18859 18919 0
-1480 -18860 18920 0
-1480 -18861 18921 0
-1480 -18862 18922 0
-1480 -18863 18923 0
-1480 -18864 18924 0
-1480 -18865 18925 0
-1480 -18866 18926 0
-1480 -18867 18927 0
-1480 -18868 18928 0
-1480 -18869 18929 0
-1480 -18870 18930 0
-1480 -18871 0
-18872 18931 0
-18873 18932 0
-18874 18933 0
-18875 18934 0
-18876 18935 0
-18877 18936 0
-18878 18937 0
-18879 18938 0
-18880 18939 0
-18881 18940 0
-18882 18941 0
-18883 18942 0
-18884 18943 0
-18885 18944 0
-18886 18945 0
-18887 18946 0
-18888 18947 0
-18889 18948 0
-18890 18949 0
-18891 18950 0
-18892 18951 0
-18893 18952 0
-18894 18953 0
-18895 18954 0
-18896 18955 0
-18897 18956 0
-18898 18957 0
-18899 18958 0
-18900 18959 0
-18901 18960 0
-18902 18961 0
-18903 18962 0
-18904 18963 0
-18905 18964 0
-18906 18965 0
-18907 18966 0
-18908 18967 0
-18909 18968 0
-18910 18969 0
-18911 18970 0
-18912 18971 0
-18913 18972 0
-18914 18973 0
-18915 18974 0
-18916 18975 0
-18917 18976 0
-18918 18977 0
-18919 18978 0
-18920 18979 0
-18921 18980 0
-18922 18981 0
-18923 18982 0
-18924 18983 0
-18925 18984 0
-18926 18985 0
-18927 18986 0
-18928 18987 0
-18929 18988 0
-18930 18989 0
-1482 -18872 18932 0
-1482 -18873 18933 0
-1482 -18874 18934 0
-1482 -18875 18935 0
-1482 -18876 18936 0
-1482 -18877 18937 0
-1482 -18878 18938 0
-1482 -18879 18939 0
-1482 -18880 18940 0
-1482 -18881 18941 0
-1482 -18882 18942 0
-1482 -18883 18943 0
-1482 -18884 18944 0
-1482 -18885 18945 0
-1482 -18886 18946 0
-1482 -18887 18947 0
-1482 -18888 18948 0
-1482 -18889 18949 0
-1482 -18890 18950 0
-1482 -18891 18951 0
-1482 -18892 18952 0
-1482 -18893 18953 0
-1482 -18894 18954 0
-1482 -18895 18955 0
-1482 -18896 18956 0
-1482 -18897 18957 0
-1482 -18898 18958 0
-1482 -18899 18959 0
-1482 -18900 18960 0
-1482 -18901 18961 0
-1482 -18902 18962 0
-1482 -18903 18963 0
-1482 -18904 18964 0
-1482 -18905 18965 0
-1482 -18906 18966 0
-1482 -18907 18967 0
-1482 -18908 18968 0
-1482 -18909 18969 0
-1482 -18910 18970 0
-1482 -18911 18971 0
-1482 -18912 18972 0
-1482 -18913 18973 0
-1482 -18914 18974 0
-1482 -18915 18975 0
-1482 -18916 18976 0
-1482 -18917 18977 0
-1482 -18918 18978 0
-1482 -18919 18979 0
-1482 -18920 18980 0
-1482 -18921 18981 0
-1482 -18922 18982 0
-1482 -18923 18983 0
-1482 -18924 18984 0
-1482 -18925 18985 0
-1482 -18926 18986 0
-1482 -18927 18987 0
-1482 -18928 18988 0
-1482 -18929 18989 0
-1482 -18930 0
-18931 18990 0
-18932 18991 0
-18933 18992 0
-18934 18993 0
-18935 18994 0
-18936 18995 0
-18937 18996 0
-18938 18997 0
-18939 18998 0
-18940 18999 0
-18941 19000 0
-18942 19001 0
-18943 19002 0
-18944 19003 0
-18945 19004 0
-18946 19005 0
-18947 19006 0
-18948 19007 0
-18949 19008 0
-18950 19009 0
-18951 19010 0
-18952 19011 0
-18953 19012 0
-18954 19013 0
-18955 19014 0
-18956 19015 0
-18957 19016 0
-18958 19017 0
-18959 19018 0
-18960 19019 0
-18961 19020 0
-18962 19021 0
-18963 19022 0
-18964 19023 0
-18965 19024 0
-18966 19025 0
-18967 19026 0
-18968 19027 0
-18969 19028 0
-18970 19029 0
-18971 19030 0
-18972 19031 0
-18973 19032 0
-18974 19033 0
-18975 19034 0
-18976 19035 0
-18977 19036 0
-18978 19037 0
-18979 19038 0
-18980 19039 0
-18981 19040 0
-18982 19041 0
-18983 19042 0
-18984 19043 0
-18985 19044 0
-18986 19045 0
-18987 19046 0
-18988 19047 0
-18989 19048 0
-1484 -18931 18991 0
-1484 -18932 18992 0
-1484 -18933 18993 0
-1484 -18934 18994 0
-1484 -18935 18995 0
-1484 -18936 18996 0
-1484 -18937 18997 0
-1484 -18938 18998 0
-1484 -18939 18999 0
-1484 -18940 19000 0
-1484 -18941 19001 0
-1484 -18942 19002 0
-1484 -18943 19003 0
-1484 -18944 19004 0
-1484 -18945 19005 0
-1484 -18946 19006 0
-1484 -18947 19007 0
-1484 -18948 19008 0
-1484 -18949 19009 0
-1484 -18950 19010 0
-1484 -18951 19011 0
-1484 -18952 19012 0
-1484 -18953 19013 0
-1484 -18954 19014 0
-1484 -18955 19015 0
-1484 -18956 19016 0
-1484 -18957 19017 0
-1484 -18958 19018 0
-1484 -18959 19019 0
-1484 -18960 19020 0
-1484 -18961 19021 0
-1484 -18962 19022 0
-1484 -18963 19023 0
-1484 -18964 19024 0
-1484 -18965 19025 0
-1484 -18966 19026 0
-1484 -18967 19027 0
-1484 -18968 19028 0
-1484 -18969 19029 0
-1484 -18970 19030 0
-1484 -18971 19031 0
-1484 -18972 19032 0
-1484 -18973 19033 0
-1484 -18974 19034 0
-1484 -18975 19035 0
-1484 -18976 19036 0
-1484 -18977 19037 0
-1484 -18978 19038 0
-1484 -18979 19039 0
-1484 -18980 19040 0
-1484 -18981 19041 0
-1484 -18982 19042 0
-1484 -18983 19043 0
-1484 -18984 19044 0
-1484 -18985 19045 0
-1484 -18986 19046 0
-1484 -18987 19047 0
-1484 -18988 19048 0
-1484 -18989 0
-18990 19049 0
-18991 19050 0
-18992 19051 0
-18993 19052 0
-18994 19053 0
-18995 19054 0
-18996 19055 0
-18997 19056 0
-18998 19057 0
-18999 19058 0
-19000 19059 0
-19001 19060 0
-19002 19061 0
-19003 19062 0
-19004 19063 0
-19005 19064 0
-19006 19065 0
-19007 19066 0
-19008 19067 0
-19009 19068 0
-19010 19069 0
-19011 19070 0
-19012 19071 0
-19013 19072 0
-19014 19073 0
-19015 19074 0
-19016 19075 0
-19017 19076 0
-19018 19077 0
-19019 19078 0
-19020 19079 0
-19021 19080 0
-19022 19081 0
-19023 19082 0
-19024 19083 0
-19025 19084 0
-19026 19085 0
-19027 19086 0
-19028 19087 0
-19029 19088 0
-19030 19089 0
-19031 19090 0
-19032 19091 0
-19033 19092 0
-19034 19093 0
-19035 19094 0
-19036 19095 0
-19037 19096 0
-19038 19097 0
-19039 19098 0
-19040 19099 0
-19041 19100 0
-19042 19101 0
-19043 19102 0
-19044 19103 0
-19045 19104 0
-19046 19105 0
-19047 19106 0
-19048 19107 0
-1486 -18990 19050 0
-1486 -18991 19051 0
-1486 -18992 19052 0
-1486 -18993 19053 0
-1486 -18994 19054 0
-1486 -18995 19055 0
-1486 -18996 19056 0
-1486 -18997 19057 0
-1486 -18998 19058 0
-1486 -18999 19059 0
-1486 -19000 19060 0
-1486 -19001 19061 0
-1486 -19002 19062 0
-1486 -19003 19063 0
-1486 -19004 19064 0
-1486 -19005 19065 0
-1486 -19006 19066 0
-1486 -19007 19067 0
-1486 -19008 19068 0
-1486 -19009 19069 0
-1486 -19010 19070 0
-1486 -19011 19071 0
-1486 -19012 19072 0
-1486 -19013 19073 0
-1486 -19014 19074 0
-1486 -19015 19075 0
-1486 -19016 19076 0
-1486 -19017 19077 0
-1486 -19018 19078 0
-1486 -19019 19079 0
-1486 -19020 19080 0
-1486 -19021 19081 0
-1486 -19022 19082 0
-1486 -19023 19083 0
-1486 -19024 19084 0
-1486 -19025 19085 0
-1486 -19026 19086 0
-1486 -19027 19087 0
-1486 -19028 19088 0
-1486 -19029 19089 0
-1486 -19030 19090 0
-1486 -19031 19091 0
-1486 -19032 19092 0
-1486 -19033 19093 0
-1486 -19034 19094 0
-1486 -19035 19095 0
-1486 -19036 19096 0
-1486 -19037 19097 0
-1486 -19038 19098 0
-1486 -19039 19099 0
-1486 -19040 19100 0
-1486 -19041 19101 0
-1486 -19042 19102 0
-1486 -19043 19103 0
-1486 -19044 19104 0
-1486 -19045 19105 0
-1486 -19046 19106 0
-1486 -19047 19107 0
-1486 -19048 0
-19049 19108 0
-19050 19109 0
-19051 19110 0
-19052 19111 0
-19053 19112 0
-19054 19113 0
-19055 19114 0
-19056 19115 0
-19057 19116 0
-19058 19117 0
-19059 19118 0
-19060 19119 0
-19061 19120 0
-19062 19121 0
-19063 19122 0
-19064 19123 0
-19065 19124 0
-19066 19125 0
-19067 19126 0
-19068 19127 0
-19069 19128 0
-19070 19129 0
-19071 19130 0
-19072 19131 0
-19073 19132 0
-19074 19133 0
-19075 19134 0
-19076 19135 0
-19077 19136 0
-19078 19137 0
-19079 19138 0
-19080 19139 0
-19081 19140 0
-19082 19141 0
-19083 19142 0
-19084 19143 0
-19085 19144 0
-19086 19145 0
-19087 19146 0
-19088 19147 0
-19089 19148 0
-19090 19149 0
-19091 19150 0
-19092 19151 0
-19093 19152 0
-19094 19153 0
-19095 19154 0
-19096 19155 0
-19097 19156 0
-19098 19157 0
-19099 19158 0
-19100 19159 0
-19101 19160 0
-19102 19161 0
-19103 19162 0
-19104 19163 0
-19105 19164 0
-19106 19165 0
-19107 19166 0
-1488 -19049 19109 0
-1488 -19050 19110 0
-1488 -19051 19111 0
-1488 -19052 19112 0
-1488 -19053 19113 0
-1488 -19054 19114 0
-1488 -19055 19115 0
-1488 -19056 19116 0
-1488 -19057 19117 0
-1488 -19058 19118 0
-1488 -19059 19119 0
-1488 -19060 19120 0
-1488 -19061 19121 0
-1488 -19062 19122 0
-1488 -19063 19123 0
-1488 -19064 19124 0
-1488 -19065 19125 0
-1488 -19066 19126 0
-1488 -19067 19127 0
-1488 -19068 19128 0
-1488 -19069 19129 0
-1488 -19070 19130 0
-1488 -19071 19131 0
-1488 -19072 19132 0
-1488 -19073 19133 0
-1488 -19074 19134 0
-1488 -19075 19135 0
-1488 -19076 19136 0
-1488 -19077 19137 0
-1488 -19078 19138 0
-1488 -19079 19139 0
-1488 -19080 19140 0
-1488 -19081 19141 0
-1488 -19082 19142 0
-1488 -19083 19143 0
-1488 -19084 19144 0
-1488 -19085 19145 0
-1488 -19086 19146 0
-1488 -19087 19147 0
-1488 -19088 19148 0
-1488 -19089 19149 0
-1488 -19090 19150 0
-1488 -19091 19151 0
-1488 -19092 19152 0
-1488 -19093 19153 0
-1488 -19094 19154 0
-1488 -19095 19155 0
-1488 -19096 19156 0
-1488 -19097 19157 0
-1488 -19098 19158 0
-1488 -19099 19159 0
-1488 -19100 19160 0
-1488 -19101 19161 0
-1488 -19102 19162 0
-1488 -19103 19163 0
-1488 -19104 19164 0
-1488 -19105 19165 0
-1488 -19106 19166 0
-1488 -19107 0
-19108 19167 0
-19109 19168 0
-19110 19169 0
-19111 19170 0
-19112 19171 0
-19113 19172 0
-19114 19173 0
-19115 19174 0
-19116 19175 0
-19117 19176 0
-19118 19177 0
-19119 19178 0
-19120 19179 0
-19121 19180 0
-19122 19181 0
-19123 19182 0
-19124 19183 0
-19125 19184 0
-19126 19185 0
-19127 19186 0
-19128 19187 0
-19129 19188 0
-19130 19189 0
-19131 19190 0
-19132 19191 0
-19133 19192 0
-19134 19193 0
-19135 19194 0
-19136 19195 0
-19137 19196 0
-19138 19197 0
-19139 19198 0
-19140 19199 0
-19141 19200 0
-19142 19201 0
-19143 19202 0
-19144 19203 0
-19145 19204 0
-19146 19205 0
-19147 19206 0
-19148 19207 0
-19149 19208 0
-19150 19209 0
-19151 19210 0
-19152 19211 0
-19153 19212 0
-19154 19213 0
-19155 19214 0
-19156 19215 0
-19157 19216 0
-19158 19217 0
-19159 19218 0
-19160 19219 0
-19161 19220 0
-19162 19221 0
-19163 19222 0
-19164 19223 0
-19165 19224 0
-19166 19225 0
-1490 -19108 19168 0
-1490 -19109 19169 0
-1490 -19110 19170 0
-1490 -19111 19171 0
-1490 -19112 19172 0
-1490 -19113 19173 0
-1490 -19114 19174 0
-1490 -19115 19175 0
-1490 -19116 19176 0
-1490 -19117 19177 0
-1490 -19118 19178 0
-1490 -19119 19179 0
-1490 -19120 19180 0
-1490 -19121 19181 0
-1490 -19122 19182 0
-1490 -19123 19183 0
-1490 -19124 19184 0
-1490 -19125 19185 0
-1490 -19126 19186 0
-1490 -19127 19187 0
-1490 -19128 19188 0
-1490 -19129 19189 0
-1490 -19130 19190 0
-1490 -19131 19191 0
-1490 -19132 19192 0
-1490 -19133 19193 0
-1490 -19134 19194 0
-1490 -19135 19195 0
-1490 -19136 19196 0
-1490 -19137 19197 0
-1490 -19138 19198 0
-1490 -19139 19199 0
-1490 -19140 19200 0
-1490 -19141 19201 0
-1490 -19142 19202 0
-1490 -19143 19203 0
-1490 -19144 19204 0
-1490 -19145 19205 0
-1490 -19146 19206 0
-1490 -19147 19207 0
-1490 -19148 19208 0
-1490 -19149 19209 0
-1490 -19150 19210 0
-1490 -19151 19211 0
-1490 -19152 19212 0
-1490 -19153 19213 0
-1490 -19154 19214 0
-1490 -19155 19215 0
-1490 -19156 19216 0
-1490 -19157 19217 0
-1490 -19158 19218 0
-1490 -19159 19219 0
-1490 -19160 19220 0
-1490 -19161 19221 0
-1490 -19162 19222 0
-1490 -19163 19223 0
-1490 -19164 19224 0
-1490 -19165 19225 0
-1490 -19166 0
-19167 19226 0
-19168 19227 0
-19169 19228 0
-19170 19229 0
-19171 19230 0
-19172 19231 0
-19173 19232 0
-19174 19233 0
-19175 19234 0
-19176 19235 0
-19177 19236 0
-19178 19237 0
-19179 19238 0
-19180 19239 0
-19181 19240 0
-19182 19241 0
-19183 19242 0
-19184 19243 0
-19185 19244 0
-19186 19245 0
-19187 19246 0
-19188 19247 0
-19189 19248 0
-19190 19249 0
-19191 19250 0
-19192 19251 0
-19193 19252 0
-19194 19253 0
-19195 19254 0
-19196 19255 0
-19197 19256 0
-19198 19257 0
-19199 19258 0
-19200 19259 0
-19201 19260 0
-19202 19261 0
-19203 19262 0
-19204 19263 0
-19205 19264 0
-19206 19265 0
-19207 19266 0
-19208 19267 0
-19209 19268 0
-19210 19269 0
-19211 19270 0
-19212 19271 0
-19213 19272 0
-19214 19273 0
-19215 19274 0
-19216 19275 0
-19217 19276 0
-19218 19277 0
-19219 19278 0
-19220 19279 0
-19221 19280 0
-19222 19281 0
-19223 19282 0
-19224 19283 0
-19225 19284 0
-1492 -19167 19227 0
-1492 -19168 19228 0
-1492 -19169 19229 0
-1492 -19170 19230 0
-1492 -19171 19231 0
-1492 -19172 19232 0
-1492 -19173 19233 0
-1492 -19174 19234 0
-1492 -19175 19235 0
-1492 -19176 19236 0
-1492 -19177 19237 0
-1492 -19178 19238 0
-1492 -19179 19239 0
-1492 -19180 19240 0
-1492 -19181 19241 0
-1492 -19182 19242 0
-1492 -19183 19243 0
-1492 -19184 19244 0
-1492 -19185 19245 0
-1492 -19186 19246 0
-1492 -19187 19247 0
-1492 -19188 19248 0
-1492 -19189 19249 0
-1492 -19190 19250 0
-1492 -19191 19251 0
-1492 -19192 19252 0
-1492 -19193 19253 0
-1492 -19194 19254 0
-1492 -19195 19255 0
-1492 -19196 19256 0
-1492 -19197 19257 0
-1492 -19198 19258 0
-1492 -19199 19259 0
-1492 -19200 19260 0
-1492 -19201 19261 0
-1492 -19202 19262 0
-1492 -19203 19263 0
-1492 -19204 19264 0
-1492 -19205 19265 0
-1492 -19206 19266 0
-1492 -19207 19267 0
-1492 -19208 19268 0
-1492 -19209 19269 0
-1492 -19210 19270 0
-1492 -19211 19271 0
-1492 -19212 19272 0
-1492 -19213 19273 0
-1492 -19214 19274 0
-1492 -19215 19275 0
-1492 -19216 19276 0
-1492 -19217 19277 0
-1492 -19218 19278 0
-1492 -19219 19279 0
-1492 -19220 19280 0
-1492 -19221 19281 0
-1492 -19222 19282 0
-1492 -19223 19283 0
-1492 -19224 19284 0
-1492 -19225 0
-19226 19285 0
-19227 19286 0
-19228 19287 0
-19229 19288 0
-19230 19289 0
-19231 19290 0
-19232 19291 0
-19233 19292 0
-19234 19293 0
-19235 19294 0
-19236 19295 0
-19237 19296 0
-19238 19297 0
-19239 19298 0
-19240 19299 0
-19241 19300 0
-19242 19301 0
-19243 19302 0
-19244 19303 0
-19245 19304 0
-19246 19305 0
-19247 19306 0
-19248 19307 0
-19249 19308 0
-19250 19309 0
-19251 19310 0
-19252 19311 0
-19253 19312 0
-19254 19313 0
-19255 19314 0
-19256 19315 0
-19257 19316 0
-19258 19317 0
-19259 19318 0
-19260 19319 0
-19261 19320 0
-19262 19321 0
-19263 19322 0
-19264 19323 0
-19265 19324 0
-19266 19325 0
-19267 19326 0
-19268 19327 0
-19269 19328 0
-19270 19329 0
-19271 19330 0
-19272 19331 0
-19273 19332 0
-19274 19333 0
-19275 19334 0
-19276 19335 0
-19277 19336 0
-19278 19337 0
-19279 19338 0
-19280 19339 0
-19281 19340 0
-19282 19341 0
-19283 19342 0
-19284 19343 0
-1494 -19226 19286 0
-1494 -19227 19287 0
-1494 -19228 19288 0
-1494 -19229 19289 0
-1494 -19230 19290 0
-1494 -19231 19291 0
-1494 -19232 19292 0
-1494 -19233 19293 0
-1494 -19234 19294 0
-1494 -19235 19295 0
-1494 -19236 19296 0
-1494 -19237 19297 0
-1494 -19238 19298 0
-1494 -19239 19299 0
-1494 -19240 19300 0
-1494 -19241 19301 0
-1494 -19242 19302 0
-1494 -19243 19303 0
-1494 -19244 19304 0
-1494 -19245 19305 0
-1494 -19246 19306 0
-1494 -19247 19307 0
-1494 -19248 19308 0
-1494 -19249 19309 0
-1494 -19250 19310 0
-1494 -19251 19311 0
-1494 -19252 19312 0
-1494 -19253 19313 0
-1494 -19254 19314 0
-1494 -19255 19315 0
-1494 -19256 19316 0
-1494 -19257 19317 0
-1494 -19258 19318 0
-1494 -19259 19319 0
-1494 -19260 19320 0
-1494 -19261 19321 0
-1494 -19262 19322 0
-1494 -19263 19323 0
-1494 -19264 19324 0
-1494 -19265 19325 0
-1494 -19266 19326 0
-1494 -19267 19327 0
-1494 -19268 19328 0
-1494 -19269 19329 0
-1494 -19270 19330 0
-1494 -19271 19331 0
-1494 -19272 19332 0
-1494 -19273 19333 0
-1494 -19274 19334 0
-1494 -19275 19335 0
-1494 -19276 19336 0
-1494 -19277 19337 0
-1494 -19278 19338 0
-1494 -19279 19339 0
-1494 -19280 19340 0
-1494 -19281 19341 0
-1494 -19282 19342 0
-1494 -19283 19343 0
-1494 -19284 0
-19285 19344 0
-19286 19345 0
-19287 19346 0
-19288 19347 0
-19289 19348 0
-19290 19349 0
-19291 19350 0
-19292 19351 0
-19293 19352 0
-19294 19353 0
-19295 19354 0
-19296 19355 0
-19297 19356 0
-19298 19357 0
-19299 19358 0
-19300 19359 0
-19301 19360 0
-19302 19361 0
-19303 19362 0
-19304 19363 0
-19305 19364 0
-19306 19365 0
-19307 19366 0
-19308 19367 0
-19309 19368 0
-19310 19369 0
-19311 19370 0
-19312 19371 0
-19313 19372 0
-19314 19373 0
-19315 19374 0
-19316 19375 0
-19317 19376 0
-19318 19377 0
-19319 19378 0
-19320 19379 0
-19321 19380 0
-19322 19381 0
-19323 19382 0
-19324 19383 0
-19325 19384 0
-19326 19385 0
-19327 19386 0
-19328 19387 0
-19329 19388 0
-19330 19389 0
-19331 19390 0
-19332 19391 0
-19333 19392 0
-19334 19393 0
-19335 19394 0
-19336 19395 0
-19337 19396 0
-19338 19397 0
-19339 19398 0
-19340 19399 0
-19341 19400 0
-19342 19401 0
-19343 19402 0
-1496 -19285 19345 0
-1496 -19286 19346 0
-1496 -19287 19347 0
-1496 -19288 19348 0
-1496 -19289 19349 0
-1496 -19290 19350 0
-1496 -19291 19351 0
-1496 -19292 19352 0
-1496 -19293 19353 0
-1496 -19294 19354 0
-1496 -19295 19355 0
-1496 -19296 19356 0
-1496 -19297 19357 0
-1496 -19298 19358 0
-1496 -19299 19359 0
-1496 -19300 19360 0
-1496 -19301 19361 0
-1496 -19302 19362 0
-1496 -19303 19363 0
-1496 -19304 19364 0
-1496 -19305 19365 0
-1496 -19306 19366 0
-1496 -19307 19367 0
-1496 -19308 19368 0
-1496 -19309 19369 0
-1496 -19310 19370 0
-1496 -19311 19371 0
-1496 -19312 19372 0
-1496 -19313 19373 0
-1496 -19314 19374 0
-1496 -19315 19375 0
-1496 -19316 19376 0
-1496 -19317 19377 0
-1496 -19318 19378 0
-1496 -19319 19379 0
-1496 -19320 19380 0
-1496 -19321 19381 0
-1496 -19322 19382 0
-1496 -19323 19383 0
-1496 -19324 19384 0
-1496 -19325 19385 0
-1496 -19326 19386 0
-1496 -19327 19387 0
-1496 -19328 19388 0
-1496 -19329 19389 0
-1496 -19330 19390 0
-1496 -19331 19391 0
-1496 -19332 19392 0
-1496 -19333 19393 0
-1496 -19334 19394 0
-1496 -19335 19395 0
-1496 -19336 19396 0
-1496 -19337 19397 0
-1496 -19338 19398 0
-1496 -19339 19399 0
-1496 -19340 19400 0
-1496 -19341 19401 0
-1496 -19342 19402 0
-1496 -19343 0
-19344 19403 0
-19345 19404 0
-19346 19405 0
-19347 19406 0
-19348 19407 0
-19349 19408 0
-19350 19409 0
-19351 19410 0
-19352 19411 0
-19353 19412 0
-19354 19413 0
-19355 19414 0
-19356 19415 0
-19357 19416 0
-19358 19417 0
-19359 19418 0
-19360 19419 0
-19361 19420 0
-19362 19421 0
-19363 19422 0
-19364 19423 0
-19365 19424 0
-19366 19425 0
-19367 19426 0
-19368 19427 0
-19369 19428 0
-19370 19429 0
-19371 19430 0
-19372 19431 0
-19373 19432 0
-19374 19433 0
-19375 19434 0
-19376 19435 0
-19377 19436 0
-19378 19437 0
-19379 19438 0
-19380 19439 0
-19381 19440 0
-19382 19441 0
-19383 19442 0
-19384 19443 0
-19385 19444 0
-19386 19445 0
-19387 19446 0
-19388 19447 0
-19389 19448 0
-19390 19449 0
-19391 19450 0
-19392 19451 0
-19393 19452 0
-19394 19453 0
-19395 19454 0
-19396 19455 0
-19397 19456 0
-19398 19457 0
-19399 19458 0
-19400 19459 0
-19401 19460 0
-19402 19461 0
-1498 -19344 19404 0
-1498 -19345 19405 0
-1498 -19346 19406 0
-1498 -19347 19407 0
-1498 -19348 19408 0
-1498 -19349 19409 0
-1498 -19350 19410 0
-1498 -19351 19411 0
-1498 -19352 19412 0
-1498 -19353 19413 0
-1498 -19354 19414 0
-1498 -19355 19415 0
-1498 -19356 19416 0
-1498 -19357 19417 0
-1498 -19358 19418 0
-1498 -19359 19419 0
-1498 -19360 19420 0
-1498 -19361 19421 0
-1498 -19362 19422 0
-1498 -19363 19423 0
-1498 -19364 19424 0
-1498 -19365 19425 0
-1498 -19366 19426 0
-1498 -19367 19427 0
-1498 -19368 19428 0
-1498 -19369 19429 0
-1498 -19370 19430 0
-1498 -19371 19431 0
-1498 -19372 19432 0
-1498 -19373 19433 0
-1498 -19374 19434 0
-1498 -19375 19435 0
-1498 -19376 19436 0
-1498 -19377 19437 0
-1498 -19378 19438 0
-1498 -19379 19439 0
-1498 -19380 19440 0
-1498 -19381 19441 0
-1498 -19382 19442 0
-1498 -19383 19443 0
-1498 -19384 19444 0
-1498 -19385 19445 0
-1498 -19386 19446 0
-1498 -19387 19447 0
-1498 -19388 19448 0
-1498 -19389 19449 0
-1498 -19390 19450 0
-1498 -19391 19451 0
-1498 -19392 19452 0
-1498 -19393 19453 0
-1498 -19394 19454 0
-1498 -19395 19455 0
-1498 -19396 19456 0
-1498 -19397 19457 0
-1498 -19398 19458 0
-1498 -19399 19459 0
-1498 -19400 19460 0
-1498 -19401 19461 0
-1498 -19402 0
-19403 19462 0
-19404 19463 0
-19405 19464 0
-19406 19465 0
-19407 19466 0
-19408 19467 0
-19409 19468 0
-19410 19469 0
-19411 19470 0
-19412 19471 0
-19413 19472 0
-19414 19473 0
-19415 19474 0
-19416 19475 0
-19417 19476 0
-19418 19477 0
-19419 19478 0
-19420 19479 0
-19421 19480 0
-19422 19481 0
-19423 19482 0
-19424 19483 0
-19425 19484 0
-19426 19485 0
-19427 19486 0
-19428 19487 0
-19429 19488 0
-19430 19489 0
-19431 19490 0
-19432 19491 0
-19433 19492 0
-19434 19493 0
-19435 19494 0
-19436 19495 0
-19437 19496 0
-19438 19497 0
-19439 19498 0
-19440 19499 0
-19441 19500 0
-19442 19501 0
-19443 19502 0
-19444 19503 0
-19445 19504 0
-19446 19505 0
-19447 19506 0
-19448 19507 0
-19449 19508 0
-19450 19509 0
-19451 19510 0
-19452 19511 0
-19453 19512 0
-19454 19513 0
-19455 19514 0
-19456 19515 0
-19457 19516 0
-19458 19517 0
-19459 19518 0
-19460 19519 0
-19461 19520 0
-1500 -19403 19463 0
-1500 -19404 19464 0
-1500 -19405 19465 0
-1500 -19406 19466 0
-1500 -19407 19467 0
-1500 -19408 19468 0
-1500 -19409 19469 0
-1500 -19410 19470 0
-1500 -19411 19471 0
-1500 -19412 19472 0
-1500 -19413 19473 0
-1500 -19414 19474 0
-1500 -19415 19475 0
-1500 -19416 19476 0
-1500 -19417 19477 0
-1500 -19418 19478 0
-1500 -19419 19479 0
-1500 -19420 19480 0
-1500 -19421 19481 0
-1500 -19422 19482 0
-1500 -19423 19483 0
-1500 -19424 19484 0
-1500 -19425 19485 0
-1500 -19426 19486 0
-1500 -19427 19487 0
-1500 -19428 19488 0
-1500 -19429 19489 0
-1500 -19430 19490 0
-1500 -19431 19491 0
-1500 -19432 19492 0
-1500 -19433 19493 0
-1500 -19434 19494 0
-1500 -19435 19495 0
-1500 -19436 19496 0
-1500 -19437 19497 0
-1500 -19438 19498 0
-1500 -19439 19499 0
-1500 -19440 19500 0
-1500 -19441 19501 0
-1500 -19442 19502 0
-1500 -19443 19503 0
-1500 -19444 19504 0
-1500 -19445 19505 0
-1500 -19446 19506 0
-1500 -19447 19507 0
-1500 -19448 19508 0
-1500 -19449 19509 0
-1500 -19450 19510 0
-1500 -19451 19511 0
-1500 -19452 19512 0
-1500 -19453 19513 0
-1500 -19454 19514 0
-1500 -19455 19515 0
-1500 -19456 19516 0
-1500 -19457 19517 0
-1500 -19458 19518 0
-1500 -19459 19519 0
-1500 -19460 19520 0
-1500 -19461 0
-19462 19521 0
-19463 19522 0
-19464 19523 0
-19465 19524 0
-19466 19525 0
-19467 19526 0
-19468 19527 0
-19469 19528 0
-19470 19529 0
-19471 19530 0
-19472 19531 0
-19473 19532 0
-19474 19533 0
-19475 19534 0
-19476 19535 0
-19477 19536 0
-19478 19537 0
-19479 19538 0
-19480 19539 0
-19481 19540 0
-19482 19541 0
-19483 19542 0
-19484 19543 0
-19485 19544 0
-19486 19545 0
-19487 19546 0
-19488 19547 0
-19489 19548 0
-19490 19549 0
-19491 19550 0
-19492 19551 0
-19493 19552 0
-19494 19553 0
-19495 19554 0
-19496 19555 0
-19497 19556 0
-19498 19557 0
-19499 19558 0
-19500 19559 0
-19501 19560 0
-19502 19561 0
-19503 19562 0
-19504 19563 0
-19505 19564 0
-19506 19565 0
-19507 19566 0
-19508 19567 0
-19509 19568 0
-19510 19569 0
-19511 19570 0
-19512 19571 0
-19513 19572 0
-19514 19573 0
-19515 19574 0
-19516 19575 0
-19517 19576 0
-19518 19577 0
-19519 19578 0
-19520 19579 0
-1502 -19462 19522 0
-1502 -19463 19523 0
-1502 -19464 19524 0
-1502 -19465 19525 0
-1502 -19466 19526 0
-1502 -19467 19527 0
-1502 -19468 19528 0
-1502 -19469 19529 0
-1502 -19470 19530 0
-1502 -19471 19531 0
-1502 -19472 19532 0
-1502 -19473 19533 0
-1502 -19474 19534 0
-1502 -19475 19535 0
-1502 -19476 19536 0
-1502 -19477 19537 0
-1502 -19478 19538 0
-1502 -19479 19539 0
-1502 -19480 19540 0
-1502 -19481 19541 0
-1502 -19482 19542 0
-1502 -19483 19543 0
-1502 -19484 19544 0
-1502 -19485 19545 0
-1502 -19486 19546 0
-1502 -19487 19547 0
-1502 -19488 19548 0
-1502 -19489 19549 0
-1502 -19490 19550 0
-1502 -19491 19551 0
-1502 -19492 19552 0
-1502 -19493 19553 0
-1502 -19494 19554 0
-1502 -19495 19555 0
-1502 -19496 19556 0
-1502 -19497 19557 0
-1502 -19498 19558 0
-1502 -19499 19559 0
-1502 -19500 19560 0
-1502 -19501 19561 0
-1502 -19502 19562 0
-1502 -19503 19563 0
-1502 -19504 19564 0
-1502 -19505 19565 0
-1502 -19506 19566 0
-1502 -19507 19567 0
-1502 -19508 19568 0
-1502 -19509 19569 0
-1502 -19510 19570 0
-1502 -19511 19571 0
-1502 -19512 19572 0
-1502 -19513 19573 0
-1502 -19514 19574 0
-1502 -19515 19575 0
-1502 -19516 19576 0
-1502 -19517 19577 0
-1502 -19518 19578 0
-1502 -19519 19579 0
-1502 -19520 0
-19521 19580 0
-19522 19581 0
-19523 19582 0
-19524 19583 0
-19525 19584 0
-19526 19585 0
-19527 19586 0
-19528 19587 0
-19529 19588 0
-19530 19589 0
-19531 19590 0
-19532 19591 0
-19533 19592 0
-19534 19593 0
-19535 19594 0
-19536 19595 0
-19537 19596 0
-19538 19597 0
-19539 19598 0
-19540 19599 0
-19541 19600 0
-19542 19601 0
-19543 19602 0
-19544 19603 0
-19545 19604 0
-19546 19605 0
-19547 19606 0
-19548 19607 0
-19549 19608 0
-19550 19609 0
-19551 19610 0
-19552 19611 0
-19553 19612 0
-19554 19613 0
-19555 19614 0
-19556 19615 0
-19557 19616 0
-19558 19617 0
-19559 19618 0
-19560 19619 0
-19561 19620 0
-19562 19621 0
-19563 19622 0
-19564 19623 0
-19565 19624 0
-19566 19625 0
-19567 19626 0
-19568 19627 0
-19569 19628 0
-19570 19629 0
-19571 19630 0
-19572 19631 0
-19573 19632 0
-19574 19633 0
-19575 19634 0
-19576 19635 0
-19577 19636 0
-19578 19637 0
-19579 19638 0
-1504 -19521 19581 0
-1504 -19522 19582 0
-1504 -19523 19583 0
-1504 -19524 19584 0
-1504 -19525 19585 0
-1504 -19526 19586 0
-1504 -19527 19587 0
-1504 -19528 19588 0
-1504 -19529 19589 0
-1504 -19530 19590 0
-1504 -19531 19591 0
-1504 -19532 19592 0
-1504 -19533 19593 0
-1504 -19534 19594 0
-1504 -19535 19595 0
-1504 -19536 19596 0
-1504 -19537 19597 0
-1504 -19538 19598 0
-1504 -19539 19599 0
-1504 -19540 19600 0
-1504 -19541 19601 0
-1504 -19542 19602 0
-1504 -19543 19603 0
-1504 -19544 19604 0
-1504 -19545 19605 0
-1504 -19546 19606 0
-1504 -19547 19607 0
-1504 -19548 19608 0
-1504 -19549 19609 0
-1504 -19550 19610 0
-1504 -19551 19611 0
-1504 -19552 19612 0
-1504 -19553 19613 0
-1504 -19554 19614 0
-1504 -19555 19615 0
-1504 -19556 19616 0
-1504 -19557 19617 0
-1504 -19558 19618 0
-1504 -19559 19619 0
-1504 -19560 19620 0
-1504 -19561 19621 0
-1504 -19562 19622 0
-1504 -19563 19623 0
-1504 -19564 19624 0
-1504 -19565 19625 0
-1504 -19566 19626 0
-1504 -19567 19627 0
-1504 -19568 19628 0
-1504 -19569 19629 0
-1504 -19570 19630 0
-1504 -19571 19631 0
-1504 -19572 19632 0
-1504 -19573 19633 0
-1504 -19574 19634 0
-1504 -19575 19635 0
-1504 -19576 19636 0
-1504 -19577 19637 0
-1504 -19578 19638 0
-1504 -19579 0
-19580 19639 0
-19581 19640 0
-19582 19641 0
-19583 19642 0
-19584 19643 0
-19585 19644 0
-19586 19645 0
-19587 19646 0
-19588 19647 0
-19589 19648 0
-19590 19649 0
-19591 19650 0
-19592 19651 0
-19593 19652 0
-19594 19653 0
-19595 19654 0
-19596 19655 0
-19597 19656 0
-19598 19657 0
-19599 19658 0
-19600 19659 0
-19601 19660 0
-19602 19661 0
-19603 19662 0
-19604 19663 0
-19605 19664 0
-19606 19665 0
-19607 19666 0
-19608 19667 0
-19609 19668 0
-19610 19669 0
-19611 19670 0
-19612 19671 0
-19613 19672 0
-19614 19673 0
-19615 19674 0
-19616 19675 0
-19617 19676 0
-19618 19677 0
-19619 19678 0
-19620 19679 0
-19621 19680 0
-19622 19681 0
-19623 19682 0
-19624 19683 0
-19625 19684 0
-19626 19685 0
-19627 19686 0
-19628 19687 0
-19629 19688 0
-19630 19689 0
-19631 19690 0
-19632 19691 0
-19633 19692 0
-19634 19693 0
-19635 19694 0
-19636 19695 0
-19637 19696 0
-19638 19697 0
-1506 -19580 19640 0
-1506 -19581 19641 0
-1506 -19582 19642 0
-1506 -19583 19643 0
-1506 -19584 19644 0
-1506 -19585 19645 0
-1506 -19586 19646 0
-1506 -19587 19647 0
-1506 -19588 19648 0
-1506 -19589 19649 0
-1506 -19590 19650 0
-1506 -19591 19651 0
-1506 -19592 19652 0
-1506 -19593 19653 0
-1506 -19594 19654 0
-1506 -19595 19655 0
-1506 -19596 19656 0
-1506 -19597 19657 0
-1506 -19598 19658 0
-1506 -19599 19659 0
-1506 -19600 19660 0
-1506 -19601 19661 0
-1506 -19602 19662 0
-1506 -19603 19663 0
-1506 -19604 19664 0
-1506 -19605 19665 0
-1506 -19606 19666 0
-1506 -19607 19667 0
-1506 -19608 19668 0
-1506 -19609 19669 0
-1506 -19610 19670 0
-1506 -19611 19671 0
-1506 -19612 19672 0
-1506 -19613 19673 0
-1506 -19614 19674 0
-1506 -19615 19675 0
-1506 -19616 19676 0
-1506 -19617 19677 0
-1506 -19618 19678 0
-1506 -19619 19679 0
-1506 -19620 19680 0
-1506 -19621 19681 0
-1506 -19622 19682 0
-1506 -19623 19683 0
-1506 -19624 19684 0
-1506 -19625 19685 0
-1506 -19626 19686 0
-1506 -19627 19687 0
-1506 -19628 19688 0
-1506 -19629 19689 0
-1506 -19630 19690 0
-1506 -19631 19691 0
-1506 -19632 19692 0
-1506 -19633 19693 0
-1506 -19634 19694 0
-1506 -19635 19695 0
-1506 -19636 19696 0
-1506 -19637 19697 0
-1506 -19638 0
-19639 19698 0
-19640 19699 0
-19641 19700 0
-19642 19701 0
-19643 19702 0
-19644 19703 0
-19645 19704 0
-19646 19705 0
-19647 19706 0
-19648 19707 0
-19649 19708 0
-19650 19709 0
-19651 19710 0
-19652 19711 0
-19653 19712 0
-19654 19713 0
-19655 19714 0
-19656 19715 0
-19657 19716 0
-19658 19717 0
-19659 19718 0
-19660 19719 0
-19661 19720 0
-19662 19721 0
-19663 19722 0
-19664 19723 0
-19665 19724 0
-19666 19725 0
-19667 19726 0
-19668 19727 0
-19669 19728 0
-19670 19729 0
-19671 19730 0
-19672 19731 0
-19673 19732 0
-19674 19733 0
-19675 19734 0
-19676 19735 0
-19677 19736 0
-19678 19737 0
-19679 19738 0
-19680 19739 0
-19681 19740 0
-19682 19741 0
-19683 19742 0
-19684 19743 0
-19685 19744 0
-19686 19745 0
-19687 19746 0
-19688 19747 0
-19689 19748 0
-19690 19749 0
-19691 19750 0
-19692 19751 0
-19693 19752 0
-19694 19753 0
-19695 19754 0
-19696 19755 0
-19697 19756 0
-1508 -19639 19699 0
-1508 -19640 19700 0
-1508 -19641 19701 0
-1508 -19642 19702 0
-1508 -19643 19703 0
-1508 -19644 19704 0
-1508 -19645 19705 0
-1508 -19646 19706 0
-1508 -19647 19707 0
-1508 -19648 19708 0
-1508 -19649 19709 0
-1508 -19650 19710 0
-1508 -19651 19711 0
-1508 -19652 19712 0
-1508 -19653 19713 0
-1508 -19654 19714 0
-1508 -19655 19715 0
-1508 -19656 19716 0
-1508 -19657 19717 0
-1508 -19658 19718 0
-1508 -19659 19719 0
-1508 -19660 19720 0
-1508 -19661 19721 0
-1508 -19662 19722 0
-1508 -19663 19723 0
-1508 -19664 19724 0
-1508 -19665 19725 0
-1508 -19666 19726 0
-1508 -19667 19727 0
-1508 -19668 19728 0
-1508 -19669 19729 0
-1508 -19670 19730 0
-1508 -19671 19731 0
-1508 -19672 19732 0
-1508 -19673 19733 0
-1508 -19674 19734 0
-1508 -19675 19735 0
-1508 -19676 19736 0
-1508 -19677 19737 0
-1508 -19678 19738 0
-1508 -19679 19739 0
-1508 -19680 19740 0
-1508 -19681 19741 0
-1508 -19682 19742 0
-1508 -19683 19743 0
-1508 -19684 19744 0
-1508 -19685 19745 0
-1508 -19686 19746 0
-1508 -19687 19747 0
-1508 -19688 19748 0
-1508 -19689 19749 0
-1508 -19690 19750 0
-1508 -19691 19751 0
-1508 -19692 19752 0
-1508 -19693 19753 0
-1508 -19694 19754 0
-1508 -19695 19755 0
-1508 -19696 19756 0
-1508 -19697 0
-19698 19757 0
-19699 19758 0
-19700 19759 0
-19701 19760 0
-19702 19761 0
-19703 19762 0
-19704 19763 0
-19705 19764 0
-19706 19765 0
-19707 19766 0
-19708 19767 0
-19709 19768 0
-19710 19769 0
-19711 19770 0
-19712 19771 0
-19713 19772 0
-19714 19773 0
-19715 19774 0
-19716 19775 0
-19717 19776 0
-19718 19777 0
-19719 19778 0
-19720 19779 0
-19721 19780 0
-19722 19781 0
-19723 19782 0
-19724 19783 0
-19725 19784 0
-19726 19785 0
-19727 19786 0
-19728 19787 0
-19729 19788 0
-19730 19789 0
-19731 19790 0
-19732 19791 0
-19733 19792 0
-19734 19793 0
-19735 19794 0
-19736 19795 0
-19737 19796 0
-19738 19797 0
-19739 19798 0
-19740 19799 0
-19741 19800 0
-19742 19801 0
-19743 19802 0
-19744 19803 0
-19745 19804 0
-19746 19805 0
-19747 19806 0
-19748 19807 0
-19749 19808 0
-19750 19809 0
-19751 19810 0
-19752 19811 0
-19753 19812 0
-19754 19813 0
-19755 19814 0
-19756 19815 0
-1510 -19698 19758 0
-1510 -19699 19759 0
-1510 -19700 19760 0
-1510 -19701 19761 0
-1510 -19702 19762 0
-1510 -19703 19763 0
-1510 -19704 19764 0
-1510 -19705 19765 0
-1510 -19706 19766 0
-1510 -19707 19767 0
-1510 -19708 19768 0
-1510 -19709 19769 0
-1510 -19710 19770 0
-1510 -19711 19771 0
-1510 -19712 19772 0
-1510 -19713 19773 0
-1510 -19714 19774 0
-1510 -19715 19775 0
-1510 -19716 19776 0
-1510 -19717 19777 0
-1510 -19718 19778 0
-1510 -19719 19779 0
-1510 -19720 19780 0
-1510 -19721 19781 0
-1510 -19722 19782 0
-1510 -19723 19783 0
-1510 -19724 19784 0
-1510 -19725 19785 0
-1510 -19726 19786 0
-1510 -19727 19787 0
-1510 -19728 19788 0
-1510 -19729 19789 0
-1510 -19730 19790 0
-1510 -19731 19791 0
-1510 -19732 19792 0
-1510 -19733 19793 0
-1510 -19734 19794 0
-1510 -19735 19795 0
-1510 -19736 19796 0
-1510 -19737 19797 0
-1510 -19738 19798 0
-1510 -19739 19799 0
-1510 -19740 19800 0
-1510 -19741 19801 0
-1510 -19742 19802 0
-1510 -19743 19803 0
-1510 -19744 19804 0
-1510 -19745 19805 0
-1510 -19746 19806 0
-1510 -19747 19807 0
-1510 -19748 19808 0
-1510 -19749 19809 0
-1510 -19750 19810 0
-1510 -19751 19811 0
-1510 -19752 19812 0
-1510 -19753 19813 0
-1510 -19754 19814 0
-1510 -19755 19815 0
-1510 -19756 0
-19757 19816 0
-19758 19817 0
-19759 19818 0
-19760 19819 0
-19761 19820 0
-19762 19821 0
-19763 19822 0
-19764 19823 0
-19765 19824 0
-19766 19825 0
-19767 19826 0
-19768 19827 0
-19769 19828 0
-19770 19829 0
-19771 19830 0
-19772 19831 0
-19773 19832 0
-19774 19833 0
-19775 19834 0
-19776 19835 0
-19777 19836 0
-19778 19837 0
-19779 19838 0
-19780 19839 0
-19781 19840 0
-19782 19841 0
-19783 19842 0
-19784 19843 0
-19785 19844 0
-19786 19845 0
-19787 19846 0
-19788 19847 0
-19789 19848 0
-19790 19849 0
-19791 19850 0
-19792 19851 0
-19793 19852 0
-19794 19853 0
-19795 19854 0
-19796 19855 0
-19797 19856 0
-19798 19857 0
-19799 19858 0
-19800 19859 0
-19801 19860 0
-19802 19861 0
-19803 19862 0
-19804 19863 0
-19805 19864 0
-19806 19865 0
-19807 19866 0
-19808 19867 0
-19809 19868 0
-19810 19869 0
-19811 19870 0
-19812 19871 0
-19813 19872 0
-19814 19873 0
-19815 19874 0
-1512 -19757 19817 0
-1512 -19758 19818 0
-1512 -19759 19819 0
-1512 -19760 19820 0
-1512 -19761 19821 0
-1512 -19762 19822 0
-1512 -19763 19823 0
-1512 -19764 19824 0
-1512 -19765 19825 0
-1512 -19766 19826 0
-1512 -19767 19827 0
-1512 -19768 19828 0
-1512 -19769 19829 0
-1512 -19770 19830 0
-1512 -19771 19831 0
-1512 -19772 19832 0
-1512 -19773 19833 0
-1512 -19774 19834 0
-1512 -19775 19835 0
-1512 -19776 19836 0
-1512 -19777 19837 0
-1512 -19778 19838 0
-1512 -19779 19839 0
-1512 -19780 19840 0
-1512 -19781 19841 0
-1512 -19782 19842 0
-1512 -19783 19843 0
-1512 -19784 19844 0
-1512 -19785 19845 0
-1512 -19786 19846 0
-1512 -19787 19847 0
-1512 -19788 19848 0
-1512 -19789 19849 0
-1512 -19790 19850 0
-1512 -19791 19851 0
-1512 -19792 19852 0
-1512 -19793 19853 0
-1512 -19794 19854 0
-1512 -19795 19855 0
-1512 -19796 19856 0
-1512 -19797 19857 0
-1512 -19798 19858 0
-1512 -19799 19859 0
-1512 -19800 19860 0
-1512 -19801 19861 0
-1512 -19802 19862 0
-1512 -19803 19863 0
-1512 -19804 19864 0
-1512 -19805 19865 0
-1512 -19806 19866 0
-1512 -19807 19867 0
-1512 -19808 19868 0
-1512 -19809 19869 0
-1512 -19810 19870 0
-1512 -19811 19871 0
-1512 -19812 19872 0
-1512 -19813 19873 0
-1512 -19814 19874 0
-1512 -19815 0
-19816 19875 0
-19817 19876 0
-19818 19877 0
-19819 19878 0
-19820 19879 0
-19821 19880 0
-19822 19881 0
-19823 19882 0
-19824 19883 0
-19825 19884 0
-19826 19885 0
-19827 19886 0
-19828 19887 0
-19829 19888 0
-19830 19889 0
-19831 19890 0
-19832 19891 0
-19833 19892 0
-19834 19893 0
-19835 19894 0
-19836 19895 0
-19837 19896 0
-19838 19897 0
-19839 19898 0
-19840 19899 0
-19841 19900 0
-19842 19901 0
-19843 19902 0
-19844 19903 0
-19845 19904 0
-19846 19905 0
-19847 19906 0
-19848 19907 0
-19849 19908 0
-19850 19909 0
-19851 19910 0
-19852 19911 0
-19853 19912 0
-19854 19913 0
-19855 19914 0
-19856 19915 0
-19857 19916 0
-19858 19917 0
-19859 19918 0
-19860 19919 0
-19861 19920 0
-19862 19921 0
-19863 19922 0
-19864 19923 0
-19865 19924 0
-19866 19925 0
-19867 19926 0
-19868 19927 0
-19869 19928 0
-19870 19929 0
-19871 19930 0
-19872 19931 0
-19873 19932 0
-19874 19933 0
-1514 -19816 19876 0
-1514 -19817 19877 0
-1514 -19818 19878 0
-1514 -19819 19879 0
-1514 -19820 19880 0
-1514 -19821 19881 0
-1514 -19822 19882 0
-1514 -19823 19883 0
-1514 -19824 19884 0
-1514 -19825 19885 0
-1514 -19826 19886 0
-1514 -19827 19887 0
-1514 -19828 19888 0
-1514 -19829 19889 0
-1514 -19830 19890 0
-1514 -19831 19891 0
-1514 -19832 19892 0
-1514 -19833 19893 0
-1514 -19834 19894 0
-1514 -19835 19895 0
-1514 -19836 19896 0
-1514 -19837 19897 0
-1514 -19838 19898 0
-1514 -19839 19899 0
-1514 -19840 19900 0
-1514 -19841 19901 0
-1514 -19842 19902 0
-1514 -19843 19903 0
-1514 -19844 19904 0
-1514 -19845 19905 0
-1514 -19846 19906 0
-1514 -19847 19907 0
-1514 -19848 19908 0
-1514 -19849 19909 0
-1514 -19850 19910 0
-1514 -19851 19911 0
-1514 -19852 19912 0
-1514 -19853 19913 0
-1514 -19854 19914 0
-1514 -19855 19915 0
-1514 -19856 19916 0
-1514 -19857 19917 0
-1514 -19858 19918 0
-1514 -19859 19919 0
-1514 -19860 19920 0
-1514 -19861 19921 0
-1514 -19862 19922 0
-1514 -19863 19923 0
-1514 -19864 19924 0
-1514 -19865 19925 0
-1514 -19866 19926 0
-1514 -19867 19927 0
-1514 -19868 19928 0
-1514 -19869 19929 0
-1514 -19870 19930 0
-1514 -19871 19931 0
-1514 -19872 19932 0
-1514 -19873 19933 0
-1514 -19874 0
-19875 19934 0
-19876 19935 0
-19877 19936 0
-19878 19937 0
-19879 19938 0
-19880 19939 0
-19881 19940 0
-19882 19941 0
-19883 19942 0
-19884 19943 0
-19885 19944 0
-19886 19945 0
-19887 19946 0
-19888 19947 0
-19889 19948 0
-19890 19949 0
-19891 19950 0
-19892 19951 0
-19893 19952 0
-19894 19953 0
-19895 19954 0
-19896 19955 0
-19897 19956 0
-19898 19957 0
-19899 19958 0
-19900 19959 0
-19901 19960 0
-19902 19961 0
-19903 19962 0
-19904 19963 0
-19905 19964 0
-19906 19965 0
-19907 19966 0
-19908 19967 0
-19909 19968 0
-19910 19969 0
-19911 19970 0
-19912 19971 0
-19913 19972 0
-19914 19973 0
-19915 19974 0
-19916 19975 0
-19917 19976 0
-19918 19977 0
-19919 19978 0
-19920 19979 0
-19921 19980 0
-19922 19981 0
-19923 19982 0
-19924 19983 0
-19925 19984 0
-19926 19985 0
-19927 19986 0
-19928 19987 0
-19929 19988 0
-19930 19989 0
-19931 19990 0
-19932 19991 0
-19933 19992 0
-1516 -19875 19935 0
-1516 -19876 19936 0
-1516 -19877 19937 0
-1516 -19878 19938 0
-1516 -19879 19939 0
-1516 -19880 19940 0
-1516 -19881 19941 0
-1516 -19882 19942 0
-1516 -19883 19943 0
-1516 -19884 19944 0
-1516 -19885 19945 0
-1516 -19886 19946 0
-1516 -19887 19947 0
-1516 -19888 19948 0
-1516 -19889 19949 0
-1516 -19890 19950 0
-1516 -19891 19951 0
-1516 -19892 19952 0
-1516 -19893 19953 0
-1516 -19894 19954 0
-1516 -19895 19955 0
-1516 -19896 19956 0
-1516 -19897 19957 0
-1516 -19898 19958 0
-1516 -19899 19959 0
-1516 -19900 19960 0
-1516 -19901 19961 0
-1516 -19902 19962 0
-1516 -19903 19963 0
-1516 -19904 19964 0
-1516 -19905 19965 0
-1516 -19906 19966 0
-1516 -19907 19967 0
-1516 -19908 19968 0
-1516 -19909 19969 0
-1516 -19910 19970 0
-1516 -19911 19971 0
-1516 -19912 19972 0
-1516 -19913 19973 0
-1516 -19914 19974 0
-1516 -19915 19975 0
-1516 -19916 19976 0
-1516 -19917 19977 0
-1516 -19918 19978 0
-1516 -19919 19979 0
-1516 -19920 19980 0
-1516 -19921 19981 0
-1516 -19922 19982 0
-1516 -19923 19983 0
-1516 -19924 19984 0
-1516 -19925 19985 0
-1516 -19926 19986 0
-1516 -19927 19987 0
-1516 -19928 19988 0
-1516 -19929 19989 0
-1516 -19930 19990 0
-1516 -19931 19991 0
-1516 -19932 19992 0
-1516 -19933 0
-19934 19993 0
-19935 19994 0
-19936 19995 0
-19937 19996 0
-19938 19997 0
-19939 19998 0
-19940 19999 0
-19941 20000 0
-19942 20001 0
-19943 20002 0
-19944 20003 0
-19945 20004 0
-19946 20005 0
-19947 20006 0
-19948 20007 0
-19949 20008 0
-19950 20009 0
-19951 20010 0
-19952 20011 0
-19953 20012 0
-19954 20013 0
-19955 20014 0
-19956 20015 0
-19957 20016 0
-19958 20017 0
-19959 20018 0
-19960 20019 0
-19961 20020 0
-19962 20021 0
-19963 20022 0
-19964 20023 0
-19965 20024 0
-19966 20025 0
-19967 20026 0
-19968 20027 0
-19969 20028 0
-19970 20029 0
-19971 20030 0
-19972 20031 0
-19973 20032 0
-19974 20033 0
-19975 20034 0
-19976 20035 0
-19977 20036 0
-19978 20037 0
-19979 20038 0
-19980 20039 0
-19981 20040 0
-19982 20041 0
-19983 20042 0
-19984 20043 0
-19985 20044 0
-19986 20045 0
-19987 20046 0
-19988 20047 0
-19989 20048 0
-19990 20049 0
-19991 20050 0
-19992 20051 0
-1518 -19934 19994 0
-1518 -19935 19995 0
-1518 -19936 19996 0
-1518 -19937 19997 0
-1518 -19938 19998 0
-1518 -19939 19999 0
-1518 -19940 20000 0
-1518 -19941 20001 0
-1518 -19942 20002 0
-1518 -19943 20003 0
-1518 -19944 20004 0
-1518 -19945 20005 0
-1518 -19946 20006 0
-1518 -19947 20007 0
-1518 -19948 20008 0
-1518 -19949 20009 0
-1518 -19950 20010 0
-1518 -19951 20011 0
-1518 -19952 20012 0
-1518 -19953 20013 0
-1518 -19954 20014 0
-1518 -19955 20015 0
-1518 -19956 20016 0
-1518 -19957 20017 0
-1518 -19958 20018 0
-1518 -19959 20019 0
-1518 -19960 20020 0
-1518 -19961 20021 0
-1518 -19962 20022 0
-1518 -19963 20023 0
-1518 -19964 20024 0
-1518 -19965 20025 0
-1518 -19966 20026 0
-1518 -19967 20027 0
-1518 -19968 20028 0
-1518 -19969 20029 0
-1518 -19970 20030 0
-1518 -19971 20031 0
-1518 -19972 20032 0
-1518 -19973 20033 0
-1518 -19974 20034 0
-1518 -19975 20035 0
-1518 -19976 20036 0
-1518 -19977 20037 0
-1518 -19978 20038 0
-1518 -19979 20039 0
-1518 -19980 20040 0
-1518 -19981 20041 0
-1518 -19982 20042 0
-1518 -19983 20043 0
-1518 -19984 20044 0
-1518 -19985 20045 0
-1518 -19986 20046 0
-1518 -19987 20047 0
-1518 -19988 20048 0
-1518 -19989 20049 0
-1518 -19990 20050 0
-1518 -19991 20051 0
-1518 -19992 0
-19993 20052 0
-19994 20053 0
-19995 20054 0
-19996 20055 0
-19997 20056 0
-19998 20057 0
-19999 20058 0
-20000 20059 0
-20001 20060 0
-20002 20061 0
-20003 20062 0
-20004 20063 0
-20005 20064 0
-20006 20065 0
-20007 20066 0
-20008 20067 0
-20009 20068 0
-20010 20069 0
-20011 20070 0
-20012 20071 0
-20013 20072 0
-20014 20073 0
-20015 20074 0
-20016 20075 0
-20017 20076 0
-20018 20077 0
-20019 20078 0
-20020 20079 0
-20021 20080 0
-20022 20081 0
-20023 20082 0
-20024 20083 0
-20025 20084 0
-20026 20085 0
-20027 20086 0
-20028 20087 0
-20029 20088 0
-20030 20089 0
-20031 20090 0
-20032 20091 0
-20033 20092 0
-20034 20093 0
-20035 20094 0
-20036 20095 0
-20037 20096 0
-20038 20097 0
-20039 20098 0
-20040 20099 0
-20041 20100 0
-20042 20101 0
-20043 20102 0
-20044 20103 0
-20045 20104 0
-20046 20105 0
-20047 20106 0
-20048 20107 0
-20049 20108 0
-20050 20109 0
-20051 20110 0
-1520 -19993 20053 0
-1520 -19994 20054 0
-1520 -19995 20055 0
-1520 -19996 20056 0
-1520 -19997 20057 0
-1520 -19998 20058 0
-1520 -19999 20059 0
-1520 -20000 20060 0
-1520 -20001 20061 0
-1520 -20002 20062 0
-1520 -20003 20063 0
-1520 -20004 20064 0
-1520 -20005 20065 0
-1520 -20006 20066 0
-1520 -20007 20067 0
-1520 -20008 20068 0
-1520 -20009 20069 0
-1520 -20010 20070 0
-1520 -20011 20071 0
-1520 -20012 20072 0
-1520 -20013 20073 0
-1520 -20014 20074 0
-1520 -20015 20075 0
-1520 -20016 20076 0
-1520 -20017 20077 0
-1520 -20018 20078 0
-1520 -20019 20079 0
-1520 -20020 20080 0
-1520 -20021 20081 0
-1520 -20022 20082 0
-1520 -20023 20083 0
-1520 -20024 20084 0
-1520 -20025 20085 0
-1520 -20026 20086 0
-1520 -20027 20087 0
-1520 -20028 20088 0
-1520 -20029 20089 0
-1520 -20030 20090 0
-1520 -20031 20091 0
-1520 -20032 20092 0
-1520 -20033 20093 0
-1520 -20034 20094 0
-1520 -20035 20095 0
-1520 -20036 20096 0
-1520 -20037 20097 0
-1520 -20038 20098 0
-1520 -20039 20099 0
-1520 -20040 20100 0
-1520 -20041 20101 0
-1520 -20042 20102 0
-1520 -20043 20103 0
-1520 -20044 20104 0
-1520 -20045 20105 0
-1520 -20046 20106 0
-1520 -20047 20107 0
-1520 -20048 20108 0
-1520 -20049 20109 0
-1520 -20050 20110 0
-1520 -20051 0
-20052 20111 0
-20053 20112 0
-20054 20113 0
-20055 20114 0
-20056 20115 0
-20057 20116 0
-20058 20117 0
-20059 20118 0
-20060 20119 0
-20061 20120 0
-20062 20121 0
-20063 20122 0
-20064 20123 0
-20065 20124 0
-20066 20125 0
-20067 20126 0
-20068 20127 0
-20069 20128 0
-20070 20129 0
-20071 20130 0
-20072 20131 0
-20073 20132 0
-20074 20133 0
-20075 20134 0
-20076 20135 0
-20077 20136 0
-20078 20137 0
-20079 20138 0
-20080 20139 0
-20081 20140 0
-20082 20141 0
-20083 20142 0
-20084 20143 0
-20085 20144 0
-20086 20145 0
-20087 20146 0
-20088 20147 0
-20089 20148 0
-20090 20149 0
-20091 20150 0
-20092 20151 0
-20093 20152 0
-20094 20153 0
-20095 20154 0
-20096 20155 0
-20097 20156 0
-20098 20157 0
-20099 20158 0
-20100 20159 0
-20101 20160 0
-20102 20161 0
-20103 20162 0
-20104 20163 0
-20105 20164 0
-20106 20165 0
-20107 20166 0
-20108 20167 0
-20109 20168 0
-20110 20169 0
-1522 -20052 20112 0
-1522 -20053 20113 0
-1522 -20054 20114 0
-1522 -20055 20115 0
-1522 -20056 20116 0
-1522 -20057 20117 0
-1522 -20058 20118 0
-1522 -20059 20119 0
-1522 -20060 20120 0
-1522 -20061 20121 0
-1522 -20062 20122 0
-1522 -20063 20123 0
-1522 -20064 20124 0
-1522 -20065 20125 0
-1522 -20066 20126 0
-1522 -20067 20127 0
-1522 -20068 20128 0
-1522 -20069 20129 0
-1522 -20070 20130 0
-1522 -20071 20131 0
-1522 -20072 20132 0
-1522 -20073 20133 0
-1522 -20074 20134 0
-1522 -20075 20135 0
-1522 -20076 20136 0
-1522 -20077 20137 0
-1522 -20078 20138 0
-1522 -20079 20139 0
-1522 -20080 20140 0
-1522 -20081 20141 0
-1522 -20082 20142 0
-1522 -20083 20143 0
-1522 -20084 20144 0
-1522 -20085 20145 0
-1522 -20086 20146 0
-1522 -20087 20147 0
-1522 -20088 20148 0
-1522 -20089 20149 0
-1522 -20090 20150 0
-1522 -20091 20151 0
-1522 -20092 20152 0
-1522 -20093 20153 0
-1522 -20094 20154 0
-1522 -20095 20155 0
-1522 -20096 20156 0
-1522 -20097 20157 0
-1522 -20098 20158 0
-1522 -20099 20159 0
-1522 -20100 20160 0
-1522 -20101 20161 0
-1522 -20102 20162 0
-1522 -20103 20163 0
-1522 -20104 20164 0
-1522 -20105 20165 0
-1522 -20106 20166 0
-1522 -20107 20167 0
-1522 -20108 20168 0
-1522 -20109 20169 0
-1522 -20110 0
-20111 20170 0
-20112 20171 0
-20113 20172 0
-20114 20173 0
-20115 20174 0
-20116 20175 0
-20117 20176 0
-20118 20177 0
-20119 20178 0
-20120 20179 0
-20121 20180 0
-20122 20181 0
-20123 20182 0
-20124 20183 0
-20125 20184 0
-20126 20185 0
-20127 20186 0
-20128 20187 0
-20129 20188 0
-20130 20189 0
-20131 20190 0
-20132 20191 0
-20133 20192 0
-20134 20193 0
-20135 20194 0
-20136 20195 0
-20137 20196 0
-20138 20197 0
-20139 20198 0
-20140 20199 0
-20141 20200 0
-20142 20201 0
-20143 20202 0
-20144 20203 0
-20145 20204 0
-20146 20205 0
-20147 20206 0
-20148 20207 0
-20149 20208 0
-20150 20209 0
-20151 20210 0
-20152 20211 0
-20153 20212 0
-20154 20213 0
-20155 20214 0
-20156 20215 0
-20157 20216 0
-20158 20217 0
-20159 20218 0
-20160 20219 0
-20161 20220 0
-20162 20221 0
-20163 20222 0
-20164 20223 0
-20165 20224 0
-20166 20225 0
-20167 20226 0
-20168 20227 0
-20169 20228 0
-1524 -20111 20171 0
-1524 -20112 20172 0
-1524 -20113 20173 0
-1524 -20114 20174 0
-1524 -20115 20175 0
-1524 -20116 20176 0
-1524 -20117 20177 0
-1524 -20118 20178 0
-1524 -20119 20179 0
-1524 -20120 20180 0
-1524 -20121 20181 0
-1524 -20122 20182 0
-1524 -20123 20183 0
-1524 -20124 20184 0
-1524 -20125 20185 0
-1524 -20126 20186 0
-1524 -20127 20187 0
-1524 -20128 20188 0
-1524 -20129 20189 0
-1524 -20130 20190 0
-1524 -20131 20191 0
-1524 -20132 20192 0
-1524 -20133 20193 0
-1524 -20134 20194 0
-1524 -20135 20195 0
-1524 -20136 20196 0
-1524 -20137 20197 0
-1524 -20138 20198 0
-1524 -20139 20199 0
-1524 -20140 20200 0
-1524 -20141 20201 0
-1524 -20142 20202 0
-1524 -20143 20203 0
-1524 -20144 20204 0
-1524 -20145 20205 0
-1524 -20146 20206 0
-1524 -20147 20207 0
-1524 -20148 20208 0
-1524 -20149 20209 0
-1524 -20150 20210 0
-1524 -20151 20211 0
-1524 -20152 20212 0
-1524 -20153 20213 0
-1524 -20154 20214 0
-1524 -20155 20215 0
-1524 -20156 20216 0
-1524 -20157 20217 0
-1524 -20158 20218 0
-1524 -20159 20219 0
-1524 -20160 20220 0
-1524 -20161 20221 0
-1524 -20162 20222 0
-1524 -20163 20223 0
-1524 -20164 20224 0
-1524 -20165 20225 0
-1524 -20166 20226 0
-1524 -20167 20227 0
-1524 -20168 20228 0
-1524 -20169 0
-20170 20229 0
-20171 20230 0
-20172 20231 0
-20173 20232 0
-20174 20233 0
-20175 20234 0
-20176 20235 0
-20177 20236 0
-20178 20237 0
-20179 20238 0
-20180 20239 0
-20181 20240 0
-20182 20241 0
-20183 20242 0
-20184 20243 0
-20185 20244 0
-20186 20245 0
-20187 20246 0
-20188 20247 0
-20189 20248 0
-20190 20249 0
-20191 20250 0
-20192 20251 0
-20193 20252 0
-20194 20253 0
-20195 20254 0
-20196 20255 0
-20197 20256 0
-20198 20257 0
-20199 20258 0
-20200 20259 0
-20201 20260 0
-20202 20261 0
-20203 20262 0
-20204 20263 0
-20205 20264 0
-20206 20265 0
-20207 20266 0
-20208 20267 0
-20209 20268 0
-20210 20269 0
-20211 20270 0
-20212 20271 0
-20213 20272 0
-20214 20273 0
-20215 20274 0
-20216 20275 0
-20217 20276 0
-20218 20277 0
-20219 20278 0
-20220 20279 0
-20221 20280 0
-20222 20281 0
-20223 20282 0
-20224 20283 0
-20225 20284 0
-20226 20285 0
-20227 20286 0
-20228 20287 0
-1526 -20170 20230 0
-1526 -20171 20231 0
-1526 -20172 20232 0
-1526 -20173 20233 0
-1526 -20174 20234 0
-1526 -20175 20235 0
-1526 -20176 20236 0
-1526 -20177 20237 0
-1526 -20178 20238 0
-1526 -20179 20239 0
-1526 -20180 20240 0
-1526 -20181 20241 0
-1526 -20182 20242 0
-1526 -20183 20243 0
-1526 -20184 20244 0
-1526 -20185 20245 0
-1526 -20186 20246 0
-1526 -20187 20247 0
-1526 -20188 20248 0
-1526 -20189 20249 0
-1526 -20190 20250 0
-1526 -20191 20251 0
-1526 -20192 20252 0
-1526 -20193 20253 0
-1526 -20194 20254 0
-1526 -20195 20255 0
-1526 -20196 20256 0
-1526 -20197 20257 0
-1526 -20198 20258 0
-1526 -20199 20259 0
-1526 -20200 20260 0
-1526 -20201 20261 0
-1526 -20202 20262 0
-1526 -20203 20263 0
-1526 -20204 20264 0
-1526 -20205 20265 0
-1526 -20206 20266 0
-1526 -20207 20267 0
-1526 -20208 20268 0
-1526 -20209 20269 0
-1526 -20210 20270 0
-1526 -20211 20271 0
-1526 -20212 20272 0
-1526 -20213 20273 0
-1526 -20214 20274 0
-1526 -20215 20275 0
-1526 -20216 20276 0
-1526 -20217 20277 0
-1526 -20218 20278 0
-1526 -20219 20279 0
-1526 -20220 20280 0
-1526 -20221 20281 0
-1526 -20222 20282 0
-1526 -20223 20283 0
-1526 -20224 20284 0
-1526 -20225 20285 0
-1526 -20226 20286 0
-1526 -20227 20287 0
-1526 -20228 0
-20229 20288 0
-20230 20289 0
-20231 20290 0
-20232 20291 0
-20233 20292 0
-20234 20293 0
-20235 20294 0
-20236 20295 0
-20237 20296 0
-20238 20297 0
-20239 20298 0
-20240 20299 0
-20241 20300 0
-20242 20301 0
-20243 20302 0
-20244 20303 0
-20245 20304 0
-20246 20305 0
-20247 20306 0
-20248 20307 0
-20249 20308 0
-20250 20309 0
-20251 20310 0
-20252 20311 0
-20253 20312 0
-20254 20313 0
-20255 20314 0
-20256 20315 0
-20257 20316 0
-20258 20317 0
-20259 20318 0
-20260 20319 0
-20261 20320 0
-20262 20321 0
-20263 20322 0
-20264 20323 0
-20265 20324 0
-20266 20325 0
-20267 20326 0
-20268 20327 0
-20269 20328 0
-20270 20329 0
-20271 20330 0
-20272 20331 0
-20273 20332 0
-20274 20333 0
-20275 20334 0
-20276 20335 0
-20277 20336 0
-20278 20337 0
-20279 20338 0
-20280 20339 0
-20281 20340 0
-20282 20341 0
-20283 20342 0
-20284 20343 0
-20285 20344 0
-20286 20345 0
-20287 20346 0
-1528 -20229 20289 0
-1528 -20230 20290 0
-1528 -20231 20291 0
-1528 -20232 20292 0
-1528 -20233 20293 0
-1528 -20234 20294 0
-1528 -20235 20295 0
-1528 -20236 20296 0
-1528 -20237 20297 0
-1528 -20238 20298 0
-1528 -20239 20299 0
-1528 -20240 20300 0
-1528 -20241 20301 0
-1528 -20242 20302 0
-1528 -20243 20303 0
-1528 -20244 20304 0
-1528 -20245 20305 0
-1528 -20246 20306 0
-1528 -20247 20307 0
-1528 -20248 20308 0
-1528 -20249 20309 0
-1528 -20250 20310 0
-1528 -20251 20311 0
-1528 -20252 20312 0
-1528 -20253 20313 0
-1528 -20254 20314 0
-1528 -20255 20315 0
-1528 -20256 20316 0
-1528 -20257 20317 0
-1528 -20258 20318 0
-1528 -20259 20319 0
-1528 -20260 20320 0
-1528 -20261 20321 0
-1528 -20262 20322 0
-1528 -20263 20323 0
-1528 -20264 20324 0
-1528 -20265 20325 0
-1528 -20266 20326 0
-1528 -20267 20327 0
-1528 -20268 20328 0
-1528 -20269 20329 0
-1528 -20270 20330 0
-1528 -20271 20331 0
-1528 -20272 20332 0
-1528 -20273 20333 0
-1528 -20274 20334 0
-1528 -20275 20335 0
-1528 -20276 20336 0
-1528 -20277 20337 0
-1528 -20278 20338 0
-1528 -20279 20339 0
-1528 -20280 20340 0
-1528 -20281 20341 0
-1528 -20282 20342 0
-1528 -20283 20343 0
-1528 -20284 20344 0
-1528 -20285 20345 0
-1528 -20286 20346 0
-1528 -20287 0
-20288 20347 0
-20289 20348 0
-20290 20349 0
-20291 20350 0
-20292 20351 0
-20293 20352 0
-20294 20353 0
-20295 20354 0
-20296 20355 0
-20297 20356 0
-20298 20357 0
-20299 20358 0
-20300 20359 0
-20301 20360 0
-20302 20361 0
-20303 20362 0
-20304 20363 0
-20305 20364 0
-20306 20365 0
-20307 20366 0
-20308 20367 0
-20309 20368 0
-20310 20369 0
-20311 20370 0
-20312 20371 0
-20313 20372 0
-20314 20373 0
-20315 20374 0
-20316 20375 0
-20317 20376 0
-20318 20377 0
-20319 20378 0
-20320 20379 0
-20321 20380 0
-20322 20381 0
-20323 20382 0
-20324 20383 0
-20325 20384 0
-20326 20385 0
-20327 20386 0
-20328 20387 0
-20329 20388 0
-20330 20389 0
-20331 20390 0
-20332 20391 0
-20333 20392 0
-20334 20393 0
-20335 20394 0
-20336 20395 0
-20337 20396 0
-20338 20397 0
-20339 20398 0
-20340 20399 0
-20341 20400 0
-20342 20401 0
-20343 20402 0
-20344 20403 0
-20345 20404 0
-20346 20405 0
-1530 -20288 20348 0
-1530 -20289 20349 0
-1530 -20290 20350 0
-1530 -20291 20351 0
-1530 -20292 20352 0
-1530 -20293 20353 0
-1530 -20294 20354 0
-1530 -20295 20355 0
-1530 -20296 20356 0
-1530 -20297 20357 0
-1530 -20298 20358 0
-1530 -20299 20359 0
-1530 -20300 20360 0
-1530 -20301 20361 0
-1530 -20302 20362 0
-1530 -20303 20363 0
-1530 -20304 20364 0
-1530 -20305 20365 0
-1530 -20306 20366 0
-1530 -20307 20367 0
-1530 -20308 20368 0
-1530 -20309 20369 0
-1530 -20310 20370 0
-1530 -20311 20371 0
-1530 -20312 20372 0
-1530 -20313 20373 0
-1530 -20314 20374 0
-1530 -20315 20375 0
-1530 -20316 20376 0
-1530 -20317 20377 0
-1530 -20318 20378 0
-1530 -20319 20379 0
-1530 -20320 20380 0
-1530 -20321 20381 0
-1530 -20322 20382 0
-1530 -20323 20383 0
-1530 -20324 20384 0
-1530 -20325 20385 0
-1530 -20326 20386 0
-1530 -20327 20387 0
-1530 -20328 20388 0
-1530 -20329 20389 0
-1530 -20330 20390 0
-1530 -20331 20391 0
-1530 -20332 20392 0
-1530 -20333 20393 0
-1530 -20334 20394 0
-1530 -20335 20395 0
-1530 -20336 20396 0
-1530 -20337 20397 0
-1530 -20338 20398 0
-1530 -20339 20399 0
-1530 -20340 20400 0
-1530 -20341 20401 0
-1530 -20342 20402 0
-1530 -20343 20403 0
-1530 -20344 20404 0
-1530 -20345 20405 0
-1530 -20346 0
-20347 20406 0
-20348 20407 0
-20349 20408 0
-20350 20409 0
-20351 20410 0
-20352 20411 0
-20353 20412 0
-20354 20413 0
-20355 20414 0
-20356 20415 0
-20357 20416 0
-20358 20417 0
-20359 20418 0
-20360 20419 0
-20361 20420 0
-20362 20421 0
-20363 20422 0
-20364 20423 0
-20365 20424 0
-20366 20425 0
-20367 20426 0
-20368 20427 0
-20369 20428 0
-20370 20429 0
-20371 20430 0
-20372 20431 0
-20373 20432 0
-20374 20433 0
-20375 20434 0
-20376 20435 0
-20377 20436 0
-20378 20437 0
-20379 20438 0
-20380 20439 0
-20381 20440 0
-20382 20441 0
-20383 20442 0
-20384 20443 0
-20385 20444 0
-20386 20445 0
-20387 20446 0
-20388 20447 0
-20389 20448 0
-20390 20449 0
-20391 20450 0
-20392 20451 0
-20393 20452 0
-20394 20453 0
-20395 20454 0
-20396 20455 0
-20397 20456 0
-20398 20457 0
-20399 20458 0
-20400 20459 0
-20401 20460 0
-20402 20461 0
-20403 20462 0
-20404 20463 0
-20405 20464 0
-1532 -20347 20407 0
-1532 -20348 20408 0
-1532 -20349 20409 0
-1532 -20350 20410 0
-1532 -20351 20411 0
-1532 -20352 20412 0
-1532 -20353 20413 0
-1532 -20354 20414 0
-1532 -20355 20415 0
-1532 -20356 20416 0
-1532 -20357 20417 0
-1532 -20358 20418 0
-1532 -20359 20419 0
-1532 -20360 20420 0
-1532 -20361 20421 0
-1532 -20362 20422 0
-1532 -20363 20423 0
-1532 -20364 20424 0
-1532 -20365 20425 0
-1532 -20366 20426 0
-1532 -20367 20427 0
-1532 -20368 20428 0
-1532 -20369 20429 0
-1532 -20370 20430 0
-1532 -20371 20431 0
-1532 -20372 20432 0
-1532 -20373 20433 0
-1532 -20374 20434 0
-1532 -20375 20435 0
-1532 -20376 20436 0
-1532 -20377 20437 0
-1532 -20378 20438 0
-1532 -20379 20439 0
-1532 -20380 20440 0
-1532 -20381 20441 0
-1532 -20382 20442 0
-1532 -20383 20443 0
-1532 -20384 20444 0
-1532 -20385 20445 0
-1532 -20386 20446 0
-1532 -20387 20447 0
-1532 -20388 20448 0
-1532 -20389 20449 0
-1532 -20390 20450 0
-1532 -20391 20451 0
-1532 -20392 20452 0
-1532 -20393 20453 0
-1532 -20394 20454 0
-1532 -20395 20455 0
-1532 -20396 20456 0
-1532 -20397 20457 0
-1532 -20398 20458 0
-1532 -20399 20459 0
-1532 -20400 20460 0
-1532 -20401 20461 0
-1532 -20402 20462 0
-1532 -20403 20463 0
-1532 -20404 20464 0
-1532 -20405 0
-20406 20465 0
-20407 20466 0
-20408 20467 0
-20409 20468 0
-20410 20469 0
-20411 20470 0
-20412 20471 0
-20413 20472 0
-20414 20473 0
-20415 20474 0
-20416 20475 0
-20417 20476 0
-20418 20477 0
-20419 20478 0
-20420 20479 0
-20421 20480 0
-20422 20481 0
-20423 20482 0
-20424 20483 0
-20425 20484 0
-20426 20485 0
-20427 20486 0
-20428 20487 0
-20429 20488 0
-20430 20489 0
-20431 20490 0
-20432 20491 0
-20433 20492 0
-20434 20493 0
-20435 20494 0
-20436 20495 0
-20437 20496 0
-20438 20497 0
-20439 20498 0
-20440 20499 0
-20441 20500 0
-20442 20501 0
-20443 20502 0
-20444 20503 0
-20445 20504 0
-20446 20505 0
-20447 20506 0
-20448 20507 0
-20449 20508 0
-20450 20509 0
-20451 20510 0
-20452 20511 0
-20453 20512 0
-20454 20513 0
-20455 20514 0
-20456 20515 0
-20457 20516 0
-20458 20517 0
-20459 20518 0
-20460 20519 0
-20461 20520 0
-20462 20521 0
-20463 20522 0
-20464 20523 0
-1534 -20406 20466 0
-1534 -20407 20467 0
-1534 -20408 20468 0
-1534 -20409 20469 0
-1534 -20410 20470 0
-1534 -20411 20471 0
-1534 -20412 20472 0
-1534 -20413 20473 0
-1534 -20414 20474 0
-1534 -20415 20475 0
-1534 -20416 20476 0
-1534 -20417 20477 0
-1534 -20418 20478 0
-1534 -20419 20479 0
-1534 -20420 20480 0
-1534 -20421 20481 0
-1534 -20422 20482 0
-1534 -20423 20483 0
-1534 -20424 20484 0
-1534 -20425 20485 0
-1534 -20426 20486 0
-1534 -20427 20487 0
-1534 -20428 20488 0
-1534 -20429 20489 0
-1534 -20430 20490 0
-1534 -20431 20491 0
-1534 -20432 20492 0
-1534 -20433 20493 0
-1534 -20434 20494 0
-1534 -20435 20495 0
-1534 -20436 20496 0
-1534 -20437 20497 0
-1534 -20438 20498 0
-1534 -20439 20499 0
-1534 -20440 20500 0
-1534 -20441 20501 0
-1534 -20442 20502 0
-1534 -20443 20503 0
-1534 -20444 20504 0
-1534 -20445 20505 0
-1534 -20446 20506 0
-1534 -20447 20507 0
-1534 -20448 20508 0
-1534 -20449 20509 0
-1534 -20450 20510 0
-1534 -20451 20511 0
-1534 -20452 20512 0
-1534 -20453 20513 0
-1534 -20454 20514 0
-1534 -20455 20515 0
-1534 -20456 20516 0
-1534 -20457 20517 0
-1534 -20458 20518 0
-1534 -20459 20519 0
-1534 -20460 20520 0
-1534 -20461 20521 0
-1534 -20462 20522 0
-1534 -20463 20523 0
-1534 -20464 0
-20465 20524 0
-20466 20525 0
-20467 20526 0
-20468 20527 0
-20469 20528 0
-20470 20529 0
-20471 20530 0
-20472 20531 0
-20473 20532 0
-20474 20533 0
-20475 20534 0
-20476 20535 0
-20477 20536 0
-20478 20537 0
-20479 20538 0
-20480 20539 0
-20481 20540 0
-20482 20541 0
-20483 20542 0
-20484 20543 0
-20485 20544 0
-20486 20545 0
-20487 20546 0
-20488 20547 0
-20489 20548 0
-20490 20549 0
-20491 20550 0
-20492 20551 0
-20493 20552 0
-20494 20553 0
-20495 20554 0
-20496 20555 0
-20497 20556 0
-20498 20557 0
-20499 20558 0
-20500 20559 0
-20501 20560 0
-20502 20561 0
-20503 20562 0
-20504 20563 0
-20505 20564 0
-20506 20565 0
-20507 20566 0
-20508 20567 0
-20509 20568 0
-20510 20569 0
-20511 20570 0
-20512 20571 0
-20513 20572 0
-20514 20573 0
-20515 20574 0
-20516 20575 0
-20517 20576 0
-20518 20577 0
-20519 20578 0
-20520 20579 0
-20521 20580 0
-20522 20581 0
-20523 20582 0
-1536 -20465 20525 0
-1536 -20466 20526 0
-1536 -20467 20527 0
-1536 -20468 20528 0
-1536 -20469 20529 0
-1536 -20470 20530 0
-1536 -20471 20531 0
-1536 -20472 20532 0
-1536 -20473 20533 0
-1536 -20474 20534 0
-1536 -20475 20535 0
-1536 -20476 20536 0
-1536 -20477 20537 0
-1536 -20478 20538 0
-1536 -20479 20539 0
-1536 -20480 20540 0
-1536 -20481 20541 0
-1536 -20482 20542 0
-1536 -20483 20543 0
-1536 -20484 20544 0
-1536 -20485 20545 0
-1536 -20486 20546 0
-1536 -20487 20547 0
-1536 -20488 20548 0
-1536 -20489 20549 0
-1536 -20490 20550 0
-1536 -20491 20551 0
-1536 -20492 20552 0
-1536 -20493 20553 0
-1536 -20494 20554 0
-1536 -20495 20555 0
-1536 -20496 20556 0
-1536 -20497 20557 0
-1536 -20498 20558 0
-1536 -20499 20559 0
-1536 -20500 20560 0
-1536 -20501 20561 0
-1536 -20502 20562 0
-1536 -20503 20563 0
-1536 -20504 20564 0
-1536 -20505 20565 0
-1536 -20506 20566 0
-1536 -20507 20567 0
-1536 -20508 20568 0
-1536 -20509 20569 0
-1536 -20510 20570 0
-1536 -20511 20571 0
-1536 -20512 20572 0
-1536 -20513 20573 0
-1536 -20514 20574 0
-1536 -20515 20575 0
-1536 -20516 20576 0
-1536 -20517 20577 0
-1536 -20518 20578 0
-1536 -20519 20579 0
-1536 -20520 20580 0
-1536 -20521 20581 0
-1536 -20522 20582 0
-1536 -20523 0
-20524 20583 0
-20525 20584 0
-20526 20585 0
-20527 20586 0
-20528 20587 0
-20529 20588 0
-20530 20589 0
-20531 20590 0
-20532 20591 0
-20533 20592 0
-20534 20593 0
-20535 20594 0
-20536 20595 0
-20537 20596 0
-20538 20597 0
-20539 20598 0
-20540 20599 0
-20541 20600 0
-20542 20601 0
-20543 20602 0
-20544 20603 0
-20545 20604 0
-20546 20605 0
-20547 20606 0
-20548 20607 0
-20549 20608 0
-20550 20609 0
-20551 20610 0
-20552 20611 0
-20553 20612 0
-20554 20613 0
-20555 20614 0
-20556 20615 0
-20557 20616 0
-20558 20617 0
-20559 20618 0
-20560 20619 0
-20561 20620 0
-20562 20621 0
-20563 20622 0
-20564 20623 0
-20565 20624 0
-20566 20625 0
-20567 20626 0
-20568 20627 0
-20569 20628 0
-20570 20629 0
-20571 20630 0
-20572 20631 0
-20573 20632 0
-20574 20633 0
-20575 20634 0
-20576 20635 0
-20577 20636 0
-20578 20637 0
-20579 20638 0
-20580 20639 0
-20581 20640 0
-20582 20641 0
-1538 -20524 20584 0
-1538 -20525 20585 0
-1538 -20526 20586 0
-1538 -20527 20587 0
-1538 -20528 20588 0
-1538 -20529 20589 0
-1538 -20530 20590 0
-1538 -20531 20591 0
-1538 -20532 20592 0
-1538 -20533 20593 0
-1538 -20534 20594 0
-1538 -20535 20595 0
-1538 -20536 20596 0
-1538 -20537 20597 0
-1538 -20538 20598 0
-1538 -20539 20599 0
-1538 -20540 20600 0
-1538 -20541 20601 0
-1538 -20542 20602 0
-1538 -20543 20603 0
-1538 -20544 20604 0
-1538 -20545 20605 0
-1538 -20546 20606 0
-1538 -20547 20607 0
-1538 -20548 20608 0
-1538 -20549 20609 0
-1538 -20550 20610 0
-1538 -20551 20611 0
-1538 -20552 20612 0
-1538 -20553 20613 0
-1538 -20554 20614 0
-1538 -20555 20615 0
-1538 -20556 20616 0
-1538 -20557 20617 0
-1538 -20558 20618 0
-1538 -20559 20619 0
-1538 -20560 20620 0
-1538 -20561 20621 0
-1538 -20562 20622 0
-1538 -20563 20623 0
-1538 -20564 20624 0
-1538 -20565 20625 0
-1538 -20566 20626 0
-1538 -20567 20627 0
-1538 -20568 20628 0
-1538 -20569 20629 0
-1538 -20570 20630 0
-1538 -20571 20631 0
-1538 -20572 20632 0
-1538 -20573 20633 0
-1538 -20574 20634 0
-1538 -20575 20635 0
-1538 -20576 20636 0
-1538 -20577 20637 0
-1538 -20578 20638 0
-1538 -20579 20639 0
-1538 -20580 20640 0
-1538 -20581 20641 0
-1538 -20582 0
-20583 20642 0
-20584 20643 0
-20585 20644 0
-20586 20645 0
-20587 20646 0
-20588 20647 0
-20589 20648 0
-20590 20649 0
-20591 20650 0
-20592 20651 0
-20593 20652 0
-20594 20653 0
-20595 20654 0
-20596 20655 0
-20597 20656 0
-20598 20657 0
-20599 20658 0
-20600 20659 0
-20601 20660 0
-20602 20661 0
-20603 20662 0
-20604 20663 0
-20605 20664 0
-20606 20665 0
-20607 20666 0
-20608 20667 0
-20609 20668 0
-20610 20669 0
-20611 20670 0
-20612 20671 0
-20613 20672 0
-20614 20673 0
-20615 20674 0
-20616 20675 0
-20617 20676 0
-20618 20677 0
-20619 20678 0
-20620 20679 0
-20621 20680 0
-20622 20681 0
-20623 20682 0
-20624 20683 0
-20625 20684 0
-20626 20685 0
-20627 20686 0
-20628 20687 0
-20629 20688 0
-20630 20689 0
-20631 20690 0
-20632 20691 0
-20633 20692 0
-20634 20693 0
-20635 20694 0
-20636 20695 0
-20637 20696 0
-20638 20697 0
-20639 20698 0
-20640 20699 0
-20641 20700 0
-1540 -20583 20643 0
-1540 -20584 20644 0
-1540 -20585 20645 0
-1540 -20586 20646 0
-1540 -20587 20647 0
-1540 -20588 20648 0
-1540 -20589 20649 0
-1540 -20590 20650 0
-1540 -20591 20651 0
-1540 -20592 20652 0
-1540 -20593 20653 0
-1540 -20594 20654 0
-1540 -20595 20655 0
-1540 -20596 20656 0
-1540 -20597 20657 0
-1540 -20598 20658 0
-1540 -20599 20659 0
-1540 -20600 20660 0
-1540 -20601 20661 0
-1540 -20602 20662 0
-1540 -20603 20663 0
-1540 -20604 20664 0
-1540 -20605 20665 0
-1540 -20606 20666 0
-1540 -20607 20667 0
-1540 -20608 20668 0
-1540 -20609 20669 0
-1540 -20610 20670 0
-1540 -20611 20671 0
-1540 -20612 20672 0
-1540 -20613 20673 0
-1540 -20614 20674 0
-1540 -20615 20675 0
-1540 -20616 20676 0
-1540 -20617 20677 0
-1540 -20618 20678 0
-1540 -20619 20679 0
-1540 -20620 20680 0
-1540 -20621 20681 0
-1540 -20622 20682 0
-1540 -20623 20683 0
-1540 -20624 20684 0
-1540 -20625 20685 0
-1540 -20626 20686 0
-1540 -20627 20687 0
-1540 -20628 20688 0
-1540 -20629 20689 0
-1540 -20630 20690 0
-1540 -20631 20691 0
-1540 -20632 20692 0
-1540 -20633 20693 0
-1540 -20634 20694 0
-1540 -20635 20695 0
-1540 -20636 20696 0
-1540 -20637 20697 0
-1540 -20638 20698 0
-1540 -20639 20699 0
-1540 -20640 20700 0
-1540 -20641 0
-20642 20701 0
-20643 20702 0
-20644 20703 0
-20645 20704 0
-20646 20705 0
-20647 20706 0
-20648 20707 0
-20649 20708 0
-20650 20709 0
-20651 20710 0
-20652 20711 0
-20653 20712 0
-20654 20713 0
-20655 20714 0
-20656 20715 0
-20657 20716 0
-20658 20717 0
-20659 20718 0
-20660 20719 0
-20661 20720 0
-20662 20721 0
-20663 20722 0
-20664 20723 0
-20665 20724 0
-20666 20725 0
-20667 20726 0
-20668 20727 0
-20669 20728 0
-20670 20729 0
-20671 20730 0
-20672 20731 0
-20673 20732 0
-20674 20733 0
-20675 20734 0
-20676 20735 0
-20677 20736 0
-20678 20737 0
-20679 20738 0
-20680 20739 0
-20681 20740 0
-20682 20741 0
-20683 20742 0
-20684 20743 0
-20685 20744 0
-20686 20745 0
-20687 20746 0
-20688 20747 0
-20689 20748 0
-20690 20749 0
-20691 20750 0
-20692 20751 0
-20693 20752 0
-20694 20753 0
-20695 20754 0
-20696 20755 0
-20697 20756 0
-20698 20757 0
-20699 20758 0
-20700 20759 0
-1542 -20642 20702 0
-1542 -20643 20703 0
-1542 -20644 20704 0
-1542 -20645 20705 0
-1542 -20646 20706 0
-1542 -20647 20707 0
-1542 -20648 20708 0
-1542 -20649 20709 0
-1542 -20650 20710 0
-1542 -20651 20711 0
-1542 -20652 20712 0
-1542 -20653 20713 0
-1542 -20654 20714 0
-1542 -20655 20715 0
-1542 -20656 20716 0
-1542 -20657 20717 0
-1542 -20658 20718 0
-1542 -20659 20719 0
-1542 -20660 20720 0
-1542 -20661 20721 0
-1542 -20662 20722 0
-1542 -20663 20723 0
-1542 -20664 20724 0
-1542 -20665 20725 0
-1542 -20666 20726 0
-1542 -20667 20727 0
-1542 -20668 20728 0
-1542 -20669 20729 0
-1542 -20670 20730 0
-1542 -20671 20731 0
-1542 -20672 20732 0
-1542 -20673 20733 0
-1542 -20674 20734 0
-1542 -20675 20735 0
-1542 -20676 20736 0
-1542 -20677 20737 0
-1542 -20678 20738 0
-1542 -20679 20739 0
-1542 -20680 20740 0
-1542 -20681 20741 0
-1542 -20682 20742 0
-1542 -20683 20743 0
-1542 -20684 20744 0
-1542 -20685 20745 0
-1542 -20686 20746 0
-1542 -20687 20747 0
-1542 -20688 20748 0
-1542 -20689 20749 0
-1542 -20690 20750 0
-1542 -20691 20751 0
-1542 -20692 20752 0
-1542 -20693 20753 0
-1542 -20694 20754 0
-1542 -20695 20755 0
-1542 -20696 20756 0
-1542 -20697 20757 0
-1542 -20698 20758 0
-1542 -20699 20759 0
-1542 -20700 0
-20701 20760 0
-20702 20761 0
-20703 20762 0
-20704 20763 0
-20705 20764 0
-20706 20765 0
-20707 20766 0
-20708 20767 0
-20709 20768 0
-20710 20769 0
-20711 20770 0
-20712 20771 0
-20713 20772 0
-20714 20773 0
-20715 20774 0
-20716 20775 0
-20717 20776 0
-20718 20777 0
-20719 20778 0
-20720 20779 0
-20721 20780 0
-20722 20781 0
-20723 20782 0
-20724 20783 0
-20725 20784 0
-20726 20785 0
-20727 20786 0
-20728 20787 0
-20729 20788 0
-20730 20789 0
-20731 20790 0
-20732 20791 0
-20733 20792 0
-20734 20793 0
-20735 20794 0
-20736 20795 0
-20737 20796 0
-20738 20797 0
-20739 20798 0
-20740 20799 0
-20741 20800 0
-20742 20801 0
-20743 20802 0
-20744 20803 0
-20745 20804 0
-20746 20805 0
-20747 20806 0
-20748 20807 0
-20749 20808 0
-20750 20809 0
-20751 20810 0
-20752 20811 0
-20753 20812 0
-20754 20813 0
-20755 20814 0
-20756 20815 0
-20757 20816 0
-20758 20817 0
-20759 20818 0
-1544 -20701 20761 0
-1544 -20702 20762 0
-1544 -20703 20763 0
-1544 -20704 20764 0
-1544 -20705 20765 0
-1544 -20706 20766 0
-1544 -20707 20767 0
-1544 -20708 20768 0
-1544 -20709 20769 0
-1544 -20710 20770 0
-1544 -20711 20771 0
-1544 -20712 20772 0
-1544 -20713 20773 0
-1544 -20714 20774 0
-1544 -20715 20775 0
-1544 -20716 20776 0
-1544 -20717 20777 0
-1544 -20718 20778 0
-1544 -20719 20779 0
-1544 -20720 20780 0
-1544 -20721 20781 0
-1544 -20722 20782 0
-1544 -20723 20783 0
-1544 -20724 20784 0
-1544 -20725 20785 0
-1544 -20726 20786 0
-1544 -20727 20787 0
-1544 -20728 20788 0
-1544 -20729 20789 0
-1544 -20730 20790 0
-1544 -20731 20791 0
-1544 -20732 20792 0
-1544 -20733 20793 0
-1544 -20734 20794 0
-1544 -20735 20795 0
-1544 -20736 20796 0
-1544 -20737 20797 0
-1544 -20738 20798 0
-1544 -20739 20799 0
-1544 -20740 20800 0
-1544 -20741 20801 0
-1544 -20742 20802 0
-1544 -20743 20803 0
-1544 -20744 20804 0
-1544 -20745 20805 0
-1544 -20746 20806 0
-1544 -20747 20807 0
-1544 -20748 20808 0
-1544 -20749 20809 0
-1544 -20750 20810 0
-1544 -20751 20811 0
-1544 -20752 20812 0
-1544 -20753 20813 0
-1544 -20754 20814 0
-1544 -20755 20815 0
-1544 -20756 20816 0
-1544 -20757 20817 0
-1544 -20758 20818 0
-1544 -20759 0
-20760 20819 0
-20761 20820 0
-20762 20821 0
-20763 20822 0
-20764 20823 0
-20765 20824 0
-20766 20825 0
-20767 20826 0
-20768 20827 0
-20769 20828 0
-20770 20829 0
-20771 20830 0
-20772 20831 0
-20773 20832 0
-20774 20833 0
-20775 20834 0
-20776 20835 0
-20777 20836 0
-20778 20837 0
-20779 20838 0
-20780 20839 0
-20781 20840 0
-20782 20841 0
-20783 20842 0
-20784 20843 0
-20785 20844 0
-20786 20845 0
-20787 20846 0
-20788 20847 0
-20789 20848 0
-20790 20849 0
-20791 20850 0
-20792 20851 0
-20793 20852 0
-20794 20853 0
-20795 20854 0
-20796 20855 0
-20797 20856 0
-20798 20857 0
-20799 20858 0
-20800 20859 0
-20801 20860 0
-20802 20861 0
-20803 20862 0
-20804 20863 0
-20805 20864 0
-20806 20865 0
-20807 20866 0
-20808 20867 0
-20809 20868 0
-20810 20869 0
-20811 20870 0
-20812 20871 0
-20813 20872 0
-20814 20873 0
-20815 20874 0
-20816 20875 0
-20817 20876 0
-20818 20877 0
-1546 -20760 20820 0
-1546 -20761 20821 0
-1546 -20762 20822 0
-1546 -20763 20823 0
-1546 -20764 20824 0
-1546 -20765 20825 0
-1546 -20766 20826 0
-1546 -20767 20827 0
-1546 -20768 20828 0
-1546 -20769 20829 0
-1546 -20770 20830 0
-1546 -20771 20831 0
-1546 -20772 20832 0
-1546 -20773 20833 0
-1546 -20774 20834 0
-1546 -20775 20835 0
-1546 -20776 20836 0
-1546 -20777 20837 0
-1546 -20778 20838 0
-1546 -20779 20839 0
-1546 -20780 20840 0
-1546 -20781 20841 0
-1546 -20782 20842 0
-1546 -20783 20843 0
-1546 -20784 20844 0
-1546 -20785 20845 0
-1546 -20786 20846 0
-1546 -20787 20847 0
-1546 -20788 20848 0
-1546 -20789 20849 0
-1546 -20790 20850 0
-1546 -20791 20851 0
-1546 -20792 20852 0
-1546 -20793 20853 0
-1546 -20794 20854 0
-1546 -20795 20855 0
-1546 -20796 20856 0
-1546 -20797 20857 0
-1546 -20798 20858 0
-1546 -20799 20859 0
-1546 -20800 20860 0
-1546 -20801 20861 0
-1546 -20802 20862 0
-1546 -20803 20863 0
-1546 -20804 20864 0
-1546 -20805 20865 0
-1546 -20806 20866 0
-1546 -20807 20867 0
-1546 -20808 20868 0
-1546 -20809 20869 0
-1546 -20810 20870 0
-1546 -20811 20871 0
-1546 -20812 20872 0
-1546 -20813 20873 0
-1546 -20814 20874 0
-1546 -20815 20875 0
-1546 -20816 20876 0
-1546 -20817 20877 0
-1546 -20818 0
-20819 20878 0
-20820 20879 0
-20821 20880 0
-20822 20881 0
-20823 20882 0
-20824 20883 0
-20825 20884 0
-20826 20885 0
-20827 20886 0
-20828 20887 0
-20829 20888 0
-20830 20889 0
-20831 20890 0
-20832 20891 0
-20833 20892 0
-20834 20893 0
-20835 20894 0
-20836 20895 0
-20837 20896 0
-20838 20897 0
-20839 20898 0
-20840 20899 0
-20841 20900 0
-20842 20901 0
-20843 20902 0
-20844 20903 0
-20845 20904 0
-20846 20905 0
-20847 20906 0
-20848 20907 0
-20849 20908 0
-20850 20909 0
-20851 20910 0
-20852 20911 0
-20853 20912 0
-20854 20913 0
-20855 20914 0
-20856 20915 0
-20857 20916 0
-20858 20917 0
-20859 20918 0
-20860 20919 0
-20861 20920 0
-20862 20921 0
-20863 20922 0
-20864 20923 0
-20865 20924 0
-20866 20925 0
-20867 20926 0
-20868 20927 0
-20869 20928 0
-20870 20929 0
-20871 20930 0
-20872 20931 0
-20873 20932 0
-20874 20933 0
-20875 20934 0
-20876 20935 0
-20877 20936 0
-1548 -20819 20879 0
-1548 -20820 20880 0
-1548 -20821 20881 0
-1548 -20822 20882 0
-1548 -20823 20883 0
-1548 -20824 20884 0
-1548 -20825 20885 0
-1548 -20826 20886 0
-1548 -20827 20887 0
-1548 -20828 20888 0
-1548 -20829 20889 0
-1548 -20830 20890 0
-1548 -20831 20891 0
-1548 -20832 20892 0
-1548 -20833 20893 0
-1548 -20834 20894 0
-1548 -20835 20895 0
-1548 -20836 20896 0
-1548 -20837 20897 0
-1548 -20838 20898 0
-1548 -20839 20899 0
-1548 -20840 20900 0
-1548 -20841 20901 0
-1548 -20842 20902 0
-1548 -20843 20903 0
-1548 -20844 20904 0
-1548 -20845 20905 0
-1548 -20846 20906 0
-1548 -20847 20907 0
-1548 -20848 20908 0
-1548 -20849 20909 0
-1548 -20850 20910 0
-1548 -20851 20911 0
-1548 -20852 20912 0
-1548 -20853 20913 0
-1548 -20854 20914 0
-1548 -20855 20915 0
-1548 -20856 20916 0
-1548 -20857 20917 0
-1548 -20858 20918 0
-1548 -20859 20919 0
-1548 -20860 20920 0
-1548 -20861 20921 0
-1548 -20862 20922 0
-1548 -20863 20923 0
-1548 -20864 20924 0
-1548 -20865 20925 0
-1548 -20866 20926 0
-1548 -20867 20927 0
-1548 -20868 20928 0
-1548 -20869 20929 0
-1548 -20870 20930 0
-1548 -20871 20931 0
-1548 -20872 20932 0
-1548 -20873 20933 0
-1548 -20874 20934 0
-1548 -20875 20935 0
-1548 -20876 20936 0
-1548 -20877 0
-20878 20937 0
-20879 20938 0
-20880 20939 0
-20881 20940 0
-20882 20941 0
-20883 20942 0
-20884 20943 0
-20885 20944 0
-20886 20945 0
-20887 20946 0
-20888 20947 0
-20889 20948 0
-20890 20949 0
-20891 20950 0
-20892 20951 0
-20893 20952 0
-20894 20953 0
-20895 20954 0
-20896 20955 0
-20897 20956 0
-20898 20957 0
-20899 20958 0
-20900 20959 0
-20901 20960 0
-20902 20961 0
-20903 20962 0
-20904 20963 0
-20905 20964 0
-20906 20965 0
-20907 20966 0
-20908 20967 0
-20909 20968 0
-20910 20969 0
-20911 20970 0
-20912 20971 0
-20913 20972 0
-20914 20973 0
-20915 20974 0
-20916 20975 0
-20917 20976 0
-20918 20977 0
-20919 20978 0
-20920 20979 0
-20921 20980 0
-20922 20981 0
-20923 20982 0
-20924 20983 0
-20925 20984 0
-20926 20985 0
-20927 20986 0
-20928 20987 0
-20929 20988 0
-20930 20989 0
-20931 20990 0
-20932 20991 0
-20933 20992 0
-20934 20993 0
-20935 20994 0
-20936 20995 0
-1550 -20878 20938 0
-1550 -20879 20939 0
-1550 -20880 20940 0
-1550 -20881 20941 0
-1550 -20882 20942 0
-1550 -20883 20943 0
-1550 -20884 20944 0
-1550 -20885 20945 0
-1550 -20886 20946 0
-1550 -20887 20947 0
-1550 -20888 20948 0
-1550 -20889 20949 0
-1550 -20890 20950 0
-1550 -20891 20951 0
-1550 -20892 20952 0
-1550 -20893 20953 0
-1550 -20894 20954 0
-1550 -20895 20955 0
-1550 -20896 20956 0
-1550 -20897 20957 0
-1550 -20898 20958 0
-1550 -20899 20959 0
-1550 -20900 20960 0
-1550 -20901 20961 0
-1550 -20902 20962 0
-1550 -20903 20963 0
-1550 -20904 20964 0
-1550 -20905 20965 0
-1550 -20906 20966 0
-1550 -20907 20967 0
-1550 -20908 20968 0
-1550 -20909 20969 0
-1550 -20910 20970 0
-1550 -20911 20971 0
-1550 -20912 20972 0
-1550 -20913 20973 0
-1550 -20914 20974 0
-1550 -20915 20975 0
-1550 -20916 20976 0
-1550 -20917 20977 0
-1550 -20918 20978 0
-1550 -20919 20979 0
-1550 -20920 20980 0
-1550 -20921 20981 0
-1550 -20922 20982 0
-1550 -20923 20983 0
-1550 -20924 20984 0
-1550 -20925 20985 0
-1550 -20926 20986 0
-1550 -20927 20987 0
-1550 -20928 20988 0
-1550 -20929 20989 0
-1550 -20930 20990 0
-1550 -20931 20991 0
-1550 -20932 20992 0
-1550 -20933 20993 0
-1550 -20934 20994 0
-1550 -20935 20995 0
-1550 -20936 0
-20937 20996 0
-20938 20997 0
-20939 20998 0
-20940 20999 0
-20941 21000 0
-20942 21001 0
-20943 21002 0
-20944 21003 0
-20945 21004 0
-20946 21005 0
-20947 21006 0
-20948 21007 0
-20949 21008 0
-20950 21009 0
-20951 21010 0
-20952 21011 0
-20953 21012 0
-20954 21013 0
-20955 21014 0
-20956 21015 0
-20957 21016 0
-20958 21017 0
-20959 21018 0
-20960 21019 0
-20961 21020 0
-20962 21021 0
-20963 21022 0
-20964 21023 0
-20965 21024 0
-20966 21025 0
-20967 21026 0
-20968 21027 0
-20969 21028 0
-20970 21029 0
-20971 21030 0
-20972 21031 0
-20973 21032 0
-20974 21033 0
-20975 21034 0
-20976 21035 0
-20977 21036 0
-20978 21037 0
-20979 21038 0
-20980 21039 0
-20981 21040 0
-20982 21041 0
-20983 21042 0
-20984 21043 0
-20985 21044 0
-20986 21045 0
-20987 21046 0
-20988 21047 0
-20989 21048 0
-20990 21049 0
-20991 21050 0
-20992 21051 0
-20993 21052 0
-20994 21053 0
-20995 21054 0
-1552 -20937 20997 0
-1552 -20938 20998 0
-1552 -20939 20999 0
-1552 -20940 21000 0
-1552 -20941 21001 0
-1552 -20942 21002 0
-1552 -20943 21003 0
-1552 -20944 21004 0
-1552 -20945 21005 0
-1552 -20946 21006 0
-1552 -20947 21007 0
-1552 -20948 21008 0
-1552 -20949 21009 0
-1552 -20950 21010 0
-1552 -20951 21011 0
-1552 -20952 21012 0
-1552 -20953 21013 0
-1552 -20954 21014 0
-1552 -20955 21015 0
-1552 -20956 21016 0
-1552 -20957 21017 0
-1552 -20958 21018 0
-1552 -20959 21019 0
-1552 -20960 21020 0
-1552 -20961 21021 0
-1552 -20962 21022 0
-1552 -20963 21023 0
-1552 -20964 21024 0
-1552 -20965 21025 0
-1552 -20966 21026 0
-1552 -20967 21027 0
-1552 -20968 21028 0
-1552 -20969 21029 0
-1552 -20970 21030 0
-1552 -20971 21031 0
-1552 -20972 21032 0
-1552 -20973 21033 0
-1552 -20974 21034 0
-1552 -20975 21035 0
-1552 -20976 21036 0
-1552 -20977 21037 0
-1552 -20978 21038 0
-1552 -20979 21039 0
-1552 -20980 21040 0
-1552 -20981 21041 0
-1552 -20982 21042 0
-1552 -20983 21043 0
-1552 -20984 21044 0
-1552 -20985 21045 0
-1552 -20986 21046 0
-1552 -20987 21047 0
-1552 -20988 21048 0
-1552 -20989 21049 0
-1552 -20990 21050 0
-1552 -20991 21051 0
-1552 -20992 21052 0
-1552 -20993 21053 0
-1552 -20994 21054 0
-1552 -20995 0
-20996 21055 0
-20997 21056 0
-20998 21057 0
-20999 21058 0
-21000 21059 0
-21001 21060 0
-21002 21061 0
-21003 21062 0
-21004 21063 0
-21005 21064 0
-21006 21065 0
-21007 21066 0
-21008 21067 0
-21009 21068 0
-21010 21069 0
-21011 21070 0
-21012 21071 0
-21013 21072 0
-21014 21073 0
-21015 21074 0
-21016 21075 0
-21017 21076 0
-21018 21077 0
-21019 21078 0
-21020 21079 0
-21021 21080 0
-21022 21081 0
-21023 21082 0
-21024 21083 0
-21025 21084 0
-21026 21085 0
-21027 21086 0
-21028 21087 0
-21029 21088 0
-21030 21089 0
-21031 21090 0
-21032 21091 0
-21033 21092 0
-21034 21093 0
-21035 21094 0
-21036 21095 0
-21037 21096 0
-21038 21097 0
-21039 21098 0
-21040 21099 0
-21041 21100 0
-21042 21101 0
-21043 21102 0
-21044 21103 0
-21045 21104 0
-21046 21105 0
-21047 21106 0
-21048 21107 0
-21049 21108 0
-21050 21109 0
-21051 21110 0
-21052 21111 0
-21053 21112 0
-21054 21113 0
-1554 -20996 21056 0
-1554 -20997 21057 0
-1554 -20998 21058 0
-1554 -20999 21059 0
-1554 -21000 21060 0
-1554 -21001 21061 0
-1554 -21002 21062 0
-1554 -21003 21063 0
-1554 -21004 21064 0
-1554 -21005 21065 0
-1554 -21006 21066 0
-1554 -21007 21067 0
-1554 -21008 21068 0
-1554 -21009 21069 0
-1554 -21010 21070 0
-1554 -21011 21071 0
-1554 -21012 21072 0
-1554 -21013 21073 0
-1554 -21014 21074 0
-1554 -21015 21075 0
-1554 -21016 21076 0
-1554 -21017 21077 0
-1554 -21018 21078 0
-1554 -21019 21079 0
-1554 -21020 21080 0
-1554 -21021 21081 0
-1554 -21022 21082 0
-1554 -21023 21083 0
-1554 -21024 21084 0
-1554 -21025 21085 0
-1554 -21026 21086 0
-1554 -21027 21087 0
-1554 -21028 21088 0
-1554 -21029 21089 0
-1554 -21030 21090 0
-1554 -21031 21091 0
-1554 -21032 21092 0
-1554 -21033 21093 0
-1554 -21034 21094 0
-1554 -21035 21095 0
-1554 -21036 21096 0
-1554 -21037 21097 0
-1554 -21038 21098 0
-1554 -21039 21099 0
-1554 -21040 21100 0
-1554 -21041 21101 0
-1554 -21042 21102 0
-1554 -21043 21103 0
-1554 -21044 21104 0
-1554 -21045 21105 0
-1554 -21046 21106 0
-1554 -21047 21107 0
-1554 -21048 21108 0
-1554 -21049 21109 0
-1554 -21050 21110 0
-1554 -21051 21111 0
-1554 -21052 21112 0
-1554 -21053 21113 0
-1554 -21054 0
-21055 21114 0
-21056 21115 0
-21057 21116 0
-21058 21117 0
-21059 21118 0
-21060 21119 0
-21061 21120 0
-21062 21121 0
-21063 21122 0
-21064 21123 0
-21065 21124 0
-21066 21125 0
-21067 21126 0
-21068 21127 0
-21069 21128 0
-21070 21129 0
-21071 21130 0
-21072 21131 0
-21073 21132 0
-21074 21133 0
-21075 21134 0
-21076 21135 0
-21077 21136 0
-21078 21137 0
-21079 21138 0
-21080 21139 0
-21081 21140 0
-21082 21141 0
-21083 21142 0
-21084 21143 0
-21085 21144 0
-21086 21145 0
-21087 21146 0
-21088 21147 0
-21089 21148 0
-21090 21149 0
-21091 21150 0
-21092 21151 0
-21093 21152 0
-21094 21153 0
-21095 21154 0
-21096 21155 0
-21097 21156 0
-21098 21157 0
-21099 21158 0
-21100 21159 0
-21101 21160 0
-21102 21161 0
-21103 21162 0
-21104 21163 0
-21105 21164 0
-21106 21165 0
-21107 21166 0
-21108 21167 0
-21109 21168 0
-21110 21169 0
-21111 21170 0
-21112 21171 0
-21113 21172 0
-1556 -21055 21115 0
-1556 -21056 21116 0
-1556 -21057 21117 0
-1556 -21058 21118 0
-1556 -21059 21119 0
-1556 -21060 21120 0
-1556 -21061 21121 0
-1556 -21062 21122 0
-1556 -21063 21123 0
-1556 -21064 21124 0
-1556 -21065 21125 0
-1556 -21066 21126 0
-1556 -21067 21127 0
-1556 -21068 21128 0
-1556 -21069 21129 0
-1556 -21070 21130 0
-1556 -21071 21131 0
-1556 -21072 21132 0
-1556 -21073 21133 0
-1556 -21074 21134 0
-1556 -21075 21135 0
-1556 -21076 21136 0
-1556 -21077 21137 0
-1556 -21078 21138 0
-1556 -21079 21139 0
-1556 -21080 21140 0
-1556 -21081 21141 0
-1556 -21082 21142 0
-1556 -21083 21143 0
-1556 -21084 21144 0
-1556 -21085 21145 0
-1556 -21086 21146 0
-1556 -21087 21147 0
-1556 -21088 21148 0
-1556 -21089 21149 0
-1556 -21090 21150 0
-1556 -21091 21151 0
-1556 -21092 21152 0
-1556 -21093 21153 0
-1556 -21094 21154 0
-1556 -21095 21155 0
-1556 -21096 21156 0
-1556 -21097 21157 0
-1556 -21098 21158 0
-1556 -21099 21159 0
-1556 -21100 21160 0
-1556 -21101 21161 0
-1556 -21102 21162 0
-1556 -21103 21163 0
-1556 -21104 21164 0
-1556 -21105 21165 0
-1556 -21106 21166 0
-1556 -21107 21167 0
-1556 -21108 21168 0
-1556 -21109 21169 0
-1556 -21110 21170 0
-1556 -21111 21171 0
-1556 -21112 21172 0
-1556 -21113 0
-21114 21173 0
-21115 21174 0
-21116 21175 0
-21117 21176 0
-21118 21177 0
-21119 21178 0
-21120 21179 0
-21121 21180 0
-21122 21181 0
-21123 21182 0
-21124 21183 0
-21125 21184 0
-21126 21185 0
-21127 21186 0
-21128 21187 0
-21129 21188 0
-21130 21189 0
-21131 21190 0
-21132 21191 0
-21133 21192 0
-21134 21193 0
-21135 21194 0
-21136 21195 0
-21137 21196 0
-21138 21197 0
-21139 21198 0
-21140 21199 0
-21141 21200 0
-21142 21201 0
-21143 21202 0
-21144 21203 0
-21145 21204 0
-21146 21205 0
-21147 21206 0
-21148 21207 0
-21149 21208 0
-21150 21209 0
-21151 21210 0
-21152 21211 0
-21153 21212 0
-21154 21213 0
-21155 21214 0
-21156 21215 0
-21157 21216 0
-21158 21217 0
-21159 21218 0
-21160 21219 0
-21161 21220 0
-21162 21221 0
-21163 21222 0
-21164 21223 0
-21165 21224 0
-21166 21225 0
-21167 21226 0
-21168 21227 0
-21169 21228 0
-21170 21229 0
-21171 21230 0
-21172 21231 0
-1558 -21114 21174 0
-1558 -21115 21175 0
-1558 -21116 21176 0
-1558 -21117 21177 0
-1558 -21118 21178 0
-1558 -21119 21179 0
-1558 -21120 21180 0
-1558 -21121 21181 0
-1558 -21122 21182 0
-1558 -21123 21183 0
-1558 -21124 21184 0
-1558 -21125 21185 0
-1558 -21126 21186 0
-1558 -21127 21187 0
-1558 -21128 21188 0
-1558 -21129 21189 0
-1558 -21130 21190 0
-1558 -21131 21191 0
-1558 -21132 21192 0
-1558 -21133 21193 0
-1558 -21134 21194 0
-1558 -21135 21195 0
-1558 -21136 21196 0
-1558 -21137 21197 0
-1558 -21138 21198 0
-1558 -21139 21199 0
-1558 -21140 21200 0
-1558 -21141 21201 0
-1558 -21142 21202 0
-1558 -21143 21203 0
-1558 -21144 21204 0
-1558 -21145 21205 0
-1558 -21146 21206 0
-1558 -21147 21207 0
-1558 -21148 21208 0
-1558 -21149 21209 0
-1558 -21150 21210 0
-1558 -21151 21211 0
-1558 -21152 21212 0
-1558 -21153 21213 0
-1558 -21154 21214 0
-1558 -21155 21215 0
-1558 -21156 21216 0
-1558 -21157 21217 0
-1558 -21158 21218 0
-1558 -21159 21219 0
-1558 -21160 21220 0
-1558 -21161 21221 0
-1558 -21162 21222 0
-1558 -21163 21223 0
-1558 -21164 21224 0
-1558 -21165 21225 0
-1558 -21166 21226 0
-1558 -21167 21227 0
-1558 -21168 21228 0
-1558 -21169 21229 0
-1558 -21170 21230 0
-1558 -21171 21231 0
-1558 -21172 0
-21173 21232 0
-21174 21233 0
-21175 21234 0
-21176 21235 0
-21177 21236 0
-21178 21237 0
-21179 21238 0
-21180 21239 0
-21181 21240 0
-21182 21241 0
-21183 21242 0
-21184 21243 0
-21185 21244 0
-21186 21245 0
-21187 21246 0
-21188 21247 0
-21189 21248 0
-21190 21249 0
-21191 21250 0
-21192 21251 0
-21193 21252 0
-21194 21253 0
-21195 21254 0
-21196 21255 0
-21197 21256 0
-21198 21257 0
-21199 21258 0
-21200 21259 0
-21201 21260 0
-21202 21261 0
-21203 21262 0
-21204 21263 0
-21205 21264 0
-21206 21265 0
-21207 21266 0
-21208 21267 0
-21209 21268 0
-21210 21269 0
-21211 21270 0
-21212 21271 0
-21213 21272 0
-21214 21273 0
-21215 21274 0
-21216 21275 0
-21217 21276 0
-21218 21277 0
-21219 21278 0
-21220 21279 0
-21221 21280 0
-21222 21281 0
-21223 21282 0
-21224 21283 0
-21225 21284 0
-21226 21285 0
-21227 21286 0
-21228 21287 0
-21229 21288 0
-21230 21289 0
-21231 21290 0
-1560 -21173 21233 0
-1560 -21174 21234 0
-1560 -21175 21235 0
-1560 -21176 21236 0
-1560 -21177 21237 0
-1560 -21178 21238 0
-1560 -21179 21239 0
-1560 -21180 21240 0
-1560 -21181 21241 0
-1560 -21182 21242 0
-1560 -21183 21243 0
-1560 -21184 21244 0
-1560 -21185 21245 0
-1560 -21186 21246 0
-1560 -21187 21247 0
-1560 -21188 21248 0
-1560 -21189 21249 0
-1560 -21190 21250 0
-1560 -21191 21251 0
-1560 -21192 21252 0
-1560 -21193 21253 0
-1560 -21194 21254 0
-1560 -21195 21255 0
-1560 -21196 21256 0
-1560 -21197 21257 0
-1560 -21198 21258 0
-1560 -21199 21259 0
-1560 -21200 21260 0
-1560 -21201 21261 0
-1560 -21202 21262 0
-1560 -21203 21263 0
-1560 -21204 21264 0
-1560 -21205 21265 0
-1560 -21206 21266 0
-1560 -21207 21267 0
-1560 -21208 21268 0
-1560 -21209 21269 0
-1560 -21210 21270 0
-1560 -21211 21271 0
-1560 -21212 21272 0
-1560 -21213 21273 0
-1560 -21214 21274 0
-1560 -21215 21275 0
-1560 -21216 21276 0
-1560 -21217 21277 0
-1560 -21218 21278 0
-1560 -21219 21279 0
-1560 -21220 21280 0
-1560 -21221 21281 0
-1560 -21222 21282 0
-1560 -21223 21283 0
-1560 -21224 21284 0
-1560 -21225 21285 0
-1560 -21226 21286 0
-1560 -21227 21287 0
-1560 -21228 21288 0
-1560 -21229 21289 0
-1560 -21230 21290 0
-1560 -21231 0
-21232 21291 0
-21233 21292 0
-21234 21293 0
-21235 21294 0
-21236 21295 0
-21237 21296 0
-21238 21297 0
-21239 21298 0
-21240 21299 0
-21241 21300 0
-21242 21301 0
-21243 21302 0
-21244 21303 0
-21245 21304 0
-21246 21305 0
-21247 21306 0
-21248 21307 0
-21249 21308 0
-21250 21309 0
-21251 21310 0
-21252 21311 0
-21253 21312 0
-21254 21313 0
-21255 21314 0
-21256 21315 0
-21257 21316 0
-21258 21317 0
-21259 21318 0
-21260 21319 0
-21261 21320 0
-21262 21321 0
-21263 21322 0
-21264 21323 0
-21265 21324 0
-21266 21325 0
-21267 21326 0
-21268 21327 0
-21269 21328 0
-21270 21329 0
-21271 21330 0
-21272 21331 0
-21273 21332 0
-21274 21333 0
-21275 21334 0
-21276 21335 0
-21277 21336 0
-21278 21337 0
-21279 21338 0
-21280 21339 0
-21281 21340 0
-21282 21341 0
-21283 21342 0
-21284 21343 0
-21285 21344 0
-21286 21345 0
-21287 21346 0
-21288 21347 0
-21289 21348 0
-21290 21349 0
-1562 -21232 21292 0
-1562 -21233 21293 0
-1562 -21234 21294 0
-1562 -21235 21295 0
-1562 -21236 21296 0
-1562 -21237 21297 0
-1562 -21238 21298 0
-1562 -21239 21299 0
-1562 -21240 21300 0
-1562 -21241 21301 0
-1562 -21242 21302 0
-1562 -21243 21303 0
-1562 -21244 21304 0
-1562 -21245 21305 0
-1562 -21246 21306 0
-1562 -21247 21307 0
-1562 -21248 21308 0
-1562 -21249 21309 0
-1562 -21250 21310 0
-1562 -21251 21311 0
-1562 -21252 21312 0
-1562 -21253 21313 0
-1562 -21254 21314 0
-1562 -21255 21315 0
-1562 -21256 21316 0
-1562 -21257 21317 0
-1562 -21258 21318 0
-1562 -21259 21319 0
-1562 -21260 21320 0
-1562 -21261 21321 0
-1562 -21262 21322 0
-1562 -21263 21323 0
-1562 -21264 21324 0
-1562 -21265 21325 0
-1562 -21266 21326 0
-1562 -21267 21327 0
-1562 -21268 21328 0
-1562 -21269 21329 0
-1562 -21270 21330 0
-1562 -21271 21331 0
-1562 -21272 21332 0
-1562 -21273 21333 0
-1562 -21274 21334 0
-1562 -21275 21335 0
-1562 -21276 21336 0
-1562 -21277 21337 0
-1562 -21278 21338 0
-1562 -21279 21339 0
-1562 -21280 21340 0
-1562 -21281 21341 0
-1562 -21282 21342 0
-1562 -21283 21343 0
-1562 -21284 21344 0
-1562 -21285 21345 0
-1562 -21286 21346 0
-1562 -21287 21347 0
-1562 -21288 21348 0
-1562 -21289 21349 0
-1562 -21290 0
-21291 21350 0
-21292 21351 0
-21293 21352 0
-21294 21353 0
-21295 21354 0
-21296 21355 0
-21297 21356 0
-21298 21357 0
-21299 21358 0
-21300 21359 0
-21301 21360 0
-21302 21361 0
-21303 21362 0
-21304 21363 0
-21305 21364 0
-21306 21365 0
-21307 21366 0
-21308 21367 0
-21309 21368 0
-21310 21369 0
-21311 21370 0
-21312 21371 0
-21313 21372 0
-21314 21373 0
-21315 21374 0
-21316 21375 0
-21317 21376 0
-21318 21377 0
-21319 21378 0
-21320 21379 0
-21321 21380 0
-21322 21381 0
-21323 21382 0
-21324 21383 0
-21325 21384 0
-21326 21385 0
-21327 21386 0
-21328 21387 0
-21329 21388 0
-21330 21389 0
-21331 21390 0
-21332 21391 0
-21333 21392 0
-21334 21393 0
-21335 21394 0
-21336 21395 0
-21337 21396 0
-21338 21397 0
-21339 21398 0
-21340 21399 0
-21341 21400 0
-21342 21401 0
-21343 21402 0
-21344 21403 0
-21345 21404 0
-21346 21405 0
-21347 21406 0
-21348 21407 0
-21349 21408 0
-1564 -21291 21351 0
-1564 -21292 21352 0
-1564 -21293 21353 0
-1564 -21294 21354 0
-1564 -21295 21355 0
-1564 -21296 21356 0
-1564 -21297 21357 0
-1564 -21298 21358 0
-1564 -21299 21359 0
-1564 -21300 21360 0
-1564 -21301 21361 0
-1564 -21302 21362 0
-1564 -21303 21363 0
-1564 -21304 21364 0
-1564 -21305 21365 0
-1564 -21306 21366 0
-1564 -21307 21367 0
-1564 -21308 21368 0
-1564 -21309 21369 0
-1564 -21310 21370 0
-1564 -21311 21371 0
-1564 -21312 21372 0
-1564 -21313 21373 0
-1564 -21314 21374 0
-1564 -21315 21375 0
-1564 -21316 21376 0
-1564 -21317 21377 0
-1564 -21318 21378 0
-1564 -21319 21379 0
-1564 -21320 21380 0
-1564 -21321 21381 0
-1564 -21322 21382 0
-1564 -21323 21383 0
-1564 -21324 21384 0
-1564 -21325 21385 0
-1564 -21326 21386 0
-1564 -21327 21387 0
-1564 -21328 21388 0
-1564 -21329 21389 0
-1564 -21330 21390 0
-1564 -21331 21391 0
-1564 -21332 21392 0
-1564 -21333 21393 0
-1564 -21334 21394 0
-1564 -21335 21395 0
-1564 -21336 21396 0
-1564 -21337 21397 0
-1564 -21338 21398 0
-1564 -21339 21399 0
-1564 -21340 21400 0
-1564 -21341 21401 0
-1564 -21342 21402 0
-1564 -21343 21403 0
-1564 -21344 21404 0
-1564 -21345 21405 0
-1564 -21346 21406 0
-1564 -21347 21407 0
-1564 -21348 21408 0
-1564 -21349 0
-21350 21409 0
-21351 21410 0
-21352 21411 0
-21353 21412 0
-21354 21413 0
-21355 21414 0
-21356 21415 0
-21357 21416 0
-21358 21417 0
-21359 21418 0
-21360 21419 0
-21361 21420 0
-21362 21421 0
-21363 21422 0
-21364 21423 0
-21365 21424 0
-21366 21425 0
-21367 21426 0
-21368 21427 0
-21369 21428 0
-21370 21429 0
-21371 21430 0
-21372 21431 0
-21373 21432 0
-21374 21433 0
-21375 21434 0
-21376 21435 0
-21377 21436 0
-21378 21437 0
-21379 21438 0
-21380 21439 0
-21381 21440 0
-21382 21441 0
-21383 21442 0
-21384 21443 0
-21385 21444 0
-21386 21445 0
-21387 21446 0
-21388 21447 0
-21389 21448 0
-21390 21449 0
-21391 21450 0
-21392 21451 0
-21393 21452 0
-21394 21453 0
-21395 21454 0
-21396 21455 0
-21397 21456 0
-21398 21457 0
-21399 21458 0
-21400 21459 0
-21401 21460 0
-21402 21461 0
-21403 21462 0
-21404 21463 0
-21405 21464 0
-21406 21465 0
-21407 21466 0
-21408 21467 0
-1566 -21350 21410 0
-1566 -21351 21411 0
-1566 -21352 21412 0
-1566 -21353 21413 0
-1566 -21354 21414 0
-1566 -21355 21415 0
-1566 -21356 21416 0
-1566 -21357 21417 0
-1566 -21358 21418 0
-1566 -21359 21419 0
-1566 -21360 21420 0
-1566 -21361 21421 0
-1566 -21362 21422 0
-1566 -21363 21423 0
-1566 -21364 21424 0
-1566 -21365 21425 0
-1566 -21366 21426 0
-1566 -21367 21427 0
-1566 -21368 21428 0
-1566 -21369 21429 0
-1566 -21370 21430 0
-1566 -21371 21431 0
-1566 -21372 21432 0
-1566 -21373 21433 0
-1566 -21374 21434 0
-1566 -21375 21435 0
-1566 -21376 21436 0
-1566 -21377 21437 0
-1566 -21378 21438 0
-1566 -21379 21439 0
-1566 -21380 21440 0
-1566 -21381 21441 0
-1566 -21382 21442 0
-1566 -21383 21443 0
-1566 -21384 21444 0
-1566 -21385 21445 0
-1566 -21386 21446 0
-1566 -21387 21447 0
-1566 -21388 21448 0
-1566 -21389 21449 0
-1566 -21390 21450 0
-1566 -21391 21451 0
-1566 -21392 21452 0
-1566 -21393 21453 0
-1566 -21394 21454 0
-1566 -21395 21455 0
-1566 -21396 21456 0
-1566 -21397 21457 0
-1566 -21398 21458 0
-1566 -21399 21459 0
-1566 -21400 21460 0
-1566 -21401 21461 0
-1566 -21402 21462 0
-1566 -21403 21463 0
-1566 -21404 21464 0
-1566 -21405 21465 0
-1566 -21406 21466 0
-1566 -21407 21467 0
-1566 -21408 0
-21409 21468 0
-21410 21469 0
-21411 21470 0
-21412 21471 0
-21413 21472 0
-21414 21473 0
-21415 21474 0
-21416 21475 0
-21417 21476 0
-21418 21477 0
-21419 21478 0
-21420 21479 0
-21421 21480 0
-21422 21481 0
-21423 21482 0
-21424 21483 0
-21425 21484 0
-21426 21485 0
-21427 21486 0
-21428 21487 0
-21429 21488 0
-21430 21489 0
-21431 21490 0
-21432 21491 0
-21433 21492 0
-21434 21493 0
-21435 21494 0
-21436 21495 0
-21437 21496 0
-21438 21497 0
-21439 21498 0
-21440 21499 0
-21441 21500 0
-21442 21501 0
-21443 21502 0
-21444 21503 0
-21445 21504 0
-21446 21505 0
-21447 21506 0
-21448 21507 0
-21449 21508 0
-21450 21509 0
-21451 21510 0
-21452 21511 0
-21453 21512 0
-21454 21513 0
-21455 21514 0
-21456 21515 0
-21457 21516 0
-21458 21517 0
-21459 21518 0
-21460 21519 0
-21461 21520 0
-21462 21521 0
-21463 21522 0
-21464 21523 0
-21465 21524 0
-21466 21525 0
-21467 21526 0
-1568 -21409 21469 0
-1568 -21410 21470 0
-1568 -21411 21471 0
-1568 -21412 21472 0
-1568 -21413 21473 0
-1568 -21414 21474 0
-1568 -21415 21475 0
-1568 -21416 21476 0
-1568 -21417 21477 0
-1568 -21418 21478 0
-1568 -21419 21479 0
-1568 -21420 21480 0
-1568 -21421 21481 0
-1568 -21422 21482 0
-1568 -21423 21483 0
-1568 -21424 21484 0
-1568 -21425 21485 0
-1568 -21426 21486 0
-1568 -21427 21487 0
-1568 -21428 21488 0
-1568 -21429 21489 0
-1568 -21430 21490 0
-1568 -21431 21491 0
-1568 -21432 21492 0
-1568 -21433 21493 0
-1568 -21434 21494 0
-1568 -21435 21495 0
-1568 -21436 21496 0
-1568 -21437 21497 0
-1568 -21438 21498 0
-1568 -21439 21499 0
-1568 -21440 21500 0
-1568 -21441 21501 0
-1568 -21442 21502 0
-1568 -21443 21503 0
-1568 -21444 21504 0
-1568 -21445 21505 0
-1568 -21446 21506 0
-1568 -21447 21507 0
-1568 -21448 21508 0
-1568 -21449 21509 0
-1568 -21450 21510 0
-1568 -21451 21511 0
-1568 -21452 21512 0
-1568 -21453 21513 0
-1568 -21454 21514 0
-1568 -21455 21515 0
-1568 -21456 21516 0
-1568 -21457 21517 0
-1568 -21458 21518 0
-1568 -21459 21519 0
-1568 -21460 21520 0
-1568 -21461 21521 0
-1568 -21462 21522 0
-1568 -21463 21523 0
-1568 -21464 21524 0
-1568 -21465 21525 0
-1568 -21466 21526 0
-1568 -21467 0
-21468 21527 0
-21469 21528 0
-21470 21529 0
-21471 21530 0
-21472 21531 0
-21473 21532 0
-21474 21533 0
-21475 21534 0
-21476 21535 0
-21477 21536 0
-21478 21537 0
-21479 21538 0
-21480 21539 0
-21481 21540 0
-21482 21541 0
-21483 21542 0
-21484 21543 0
-21485 21544 0
-21486 21545 0
-21487 21546 0
-21488 21547 0
-21489 21548 0
-21490 21549 0
-21491 21550 0
-21492 21551 0
-21493 21552 0
-21494 21553 0
-21495 21554 0
-21496 21555 0
-21497 21556 0
-21498 21557 0
-21499 21558 0
-21500 21559 0
-21501 21560 0
-21502 21561 0
-21503 21562 0
-21504 21563 0
-21505 21564 0
-21506 21565 0
-21507 21566 0
-21508 21567 0
-21509 21568 0
-21510 21569 0
-21511 21570 0
-21512 21571 0
-21513 21572 0
-21514 21573 0
-21515 21574 0
-21516 21575 0
-21517 21576 0
-21518 21577 0
-21519 21578 0
-21520 21579 0
-21521 21580 0
-21522 21581 0
-21523 21582 0
-21524 21583 0
-21525 21584 0
-21526 21585 0
-1570 -21468 21528 0
-1570 -21469 21529 0
-1570 -21470 21530 0
-1570 -21471 21531 0
-1570 -21472 21532 0
-1570 -21473 21533 0
-1570 -21474 21534 0
-1570 -21475 21535 0
-1570 -21476 21536 0
-1570 -21477 21537 0
-1570 -21478 21538 0
-1570 -21479 21539 0
-1570 -21480 21540 0
-1570 -21481 21541 0
-1570 -21482 21542 0
-1570 -21483 21543 0
-1570 -21484 21544 0
-1570 -21485 21545 0
-1570 -21486 21546 0
-1570 -21487 21547 0
-1570 -21488 21548 0
-1570 -21489 21549 0
-1570 -21490 21550 0
-1570 -21491 21551 0
-1570 -21492 21552 0
-1570 -21493 21553 0
-1570 -21494 21554 0
-1570 -21495 21555 0
-1570 -21496 21556 0
-1570 -21497 21557 0
-1570 -21498 21558 0
-1570 -21499 21559 0
-1570 -21500 21560 0
-1570 -21501 21561 0
-1570 -21502 21562 0
-1570 -21503 21563 0
-1570 -21504 21564 0
-1570 -21505 21565 0
-1570 -21506 21566 0
-1570 -21507 21567 0
-1570 -21508 21568 0
-1570 -21509 21569 0
-1570 -21510 21570 0
-1570 -21511 21571 0
-1570 -21512 21572 0
-1570 -21513 21573 0
-1570 -21514 21574 0
-1570 -21515 21575 0
-1570 -21516 21576 0
-1570 -21517 21577 0
-1570 -21518 21578 0
-1570 -21519 21579 0
-1570 -21520 21580 0
-1570 -21521 21581 0
-1570 -21522 21582 0
-1570 -21523 21583 0
-1570 -21524 21584 0
-1570 -21525 21585 0
-1570 -21526 0
-21527 21586 0
-21528 21587 0
-21529 21588 0
-21530 21589 0
-21531 21590 0
-21532 21591 0
-21533 21592 0
-21534 21593 0
-21535 21594 0
-21536 21595 0
-21537 21596 0
-21538 21597 0
-21539 21598 0
-21540 21599 0
-21541 21600 0
-21542 21601 0
-21543 21602 0
-21544 21603 0
-21545 21604 0
-21546 21605 0
-21547 21606 0
-21548 21607 0
-21549 21608 0
-21550 21609 0
-21551 21610 0
-21552 21611 0
-21553 21612 0
-21554 21613 0
-21555 21614 0
-21556 21615 0
-21557 21616 0
-21558 21617 0
-21559 21618 0
-21560 21619 0
-21561 21620 0
-21562 21621 0
-21563 21622 0
-21564 21623 0
-21565 21624 0
-21566 21625 0
-21567 21626 0
-21568 21627 0
-21569 21628 0
-21570 21629 0
-21571 21630 0
-21572 21631 0
-21573 21632 0
-21574 21633 0
-21575 21634 0
-21576 21635 0
-21577 21636 0
-21578 21637 0
-21579 21638 0
-21580 21639 0
-21581 21640 0
-21582 21641 0
-21583 21642 0
-21584 21643 0
-21585 21644 0
-1572 -21527 21587 0
-1572 -21528 21588 0
-1572 -21529 21589 0
-1572 -21530 21590 0
-1572 -21531 21591 0
-1572 -21532 21592 0
-1572 -21533 21593 0
-1572 -21534 21594 0
-1572 -21535 21595 0
-1572 -21536 21596 0
-1572 -21537 21597 0
-1572 -21538 21598 0
-1572 -21539 21599 0
-1572 -21540 21600 0
-1572 -21541 21601 0
-1572 -21542 21602 0
-1572 -21543 21603 0
-1572 -21544 21604 0
-1572 -21545 21605 0
-1572 -21546 21606 0
-1572 -21547 21607 0
-1572 -21548 21608 0
-1572 -21549 21609 0
-1572 -21550 21610 0
-1572 -21551 21611 0
-1572 -21552 21612 0
-1572 -21553 21613 0
-1572 -21554 21614 0
-1572 -21555 21615 0
-1572 -21556 21616 0
-1572 -21557 21617 0
-1572 -21558 21618 0
-1572 -21559 21619 0
-1572 -21560 21620 0
-1572 -21561 21621 0
-1572 -21562 21622 0
-1572 -21563 21623 0
-1572 -21564 21624 0
-1572 -21565 21625 0
-1572 -21566 21626 0
-1572 -21567 21627 0
-1572 -21568 21628 0
-1572 -21569 21629 0
-1572 -21570 21630 0
-1572 -21571 21631 0
-1572 -21572 21632 0
-1572 -21573 21633 0
-1572 -21574 21634 0
-1572 -21575 21635 0
-1572 -21576 21636 0
-1572 -21577 21637 0
-1572 -21578 21638 0
-1572 -21579 21639 0
-1572 -21580 21640 0
-1572 -21581 21641 0
-1572 -21582 21642 0
-1572 -21583 21643 0
-1572 -21584 21644 0
-1572 -21585 0
-21586 21645 0
-21587 21646 0
-21588 21647 0
-21589 21648 0
-21590 21649 0
-21591 21650 0
-21592 21651 0
-21593 21652 0
-21594 21653 0
-21595 21654 0
-21596 21655 0
-21597 21656 0
-21598 21657 0
-21599 21658 0
-21600 21659 0
-21601 21660 0
-21602 21661 0
-21603 21662 0
-21604 21663 0
-21605 21664 0
-21606 21665 0
-21607 21666 0
-21608 21667 0
-21609 21668 0
-21610 21669 0
-21611 21670 0
-21612 21671 0
-21613 21672 0
-21614 21673 0
-21615 21674 0
-21616 21675 0
-21617 21676 0
-21618 21677 0
-21619 21678 0
-21620 21679 0
-21621 21680 0
-21622 21681 0
-21623 21682 0
-21624 21683 0
-21625 21684 0
-21626 21685 0
-21627 21686 0
-21628 21687 0
-21629 21688 0
-21630 21689 0
-21631 21690 0
-21632 21691 0
-21633 21692 0
-21634 21693 0
-21635 21694 0
-21636 21695 0
-21637 21696 0
-21638 21697 0
-21639 21698 0
-21640 21699 0
-21641 21700 0
-21642 21701 0
-21643 21702 0
-21644 21703 0
-1574 -21586 21646 0
-1574 -21587 21647 0
-1574 -21588 21648 0
-1574 -21589 21649 0
-1574 -21590 21650 0
-1574 -21591 21651 0
-1574 -21592 21652 0
-1574 -21593 21653 0
-1574 -21594 21654 0
-1574 -21595 21655 0
-1574 -21596 21656 0
-1574 -21597 21657 0
-1574 -21598 21658 0
-1574 -21599 21659 0
-1574 -21600 21660 0
-1574 -21601 21661 0
-1574 -21602 21662 0
-1574 -21603 21663 0
-1574 -21604 21664 0
-1574 -21605 21665 0
-1574 -21606 21666 0
-1574 -21607 21667 0
-1574 -21608 21668 0
-1574 -21609 21669 0
-1574 -21610 21670 0
-1574 -21611 21671 0
-1574 -21612 21672 0
-1574 -21613 21673 0
-1574 -21614 21674 0
-1574 -21615 21675 0
-1574 -21616 21676 0
-1574 -21617 21677 0
-1574 -21618 21678 0
-1574 -21619 21679 0
-1574 -21620 21680 0
-1574 -21621 21681 0
-1574 -21622 21682 0
-1574 -21623 21683 0
-1574 -21624 21684 0
-1574 -21625 21685 0
-1574 -21626 21686 0
-1574 -21627 21687 0
-1574 -21628 21688 0
-1574 -21629 21689 0
-1574 -21630 21690 0
-1574 -21631 21691 0
-1574 -21632 21692 0
-1574 -21633 21693 0
-1574 -21634 21694 0
-1574 -21635 21695 0
-1574 -21636 21696 0
-1574 -21637 21697 0
-1574 -21638 21698 0
-1574 -21639 21699 0
-1574 -21640 21700 0
-1574 -21641 21701 0
-1574 -21642 21702 0
-1574 -21643 21703 0
-1574 -21644 0
-21645 21704 0
-21646 21705 0
-21647 21706 0
-21648 21707 0
-21649 21708 0
-21650 21709 0
-21651 21710 0
-21652 21711 0
-21653 21712 0
-21654 21713 0
-21655 21714 0
-21656 21715 0
-21657 21716 0
-21658 21717 0
-21659 21718 0
-21660 21719 0
-21661 21720 0
-21662 21721 0
-21663 21722 0
-21664 21723 0
-21665 21724 0
-21666 21725 0
-21667 21726 0
-21668 21727 0
-21669 21728 0
-21670 21729 0
-21671 21730 0
-21672 21731 0
-21673 21732 0
-21674 21733 0
-21675 21734 0
-21676 21735 0
-21677 21736 0
-21678 21737 0
-21679 21738 0
-21680 21739 0
-21681 21740 0
-21682 21741 0
-21683 21742 0
-21684 21743 0
-21685 21744 0
-21686 21745 0
-21687 21746 0
-21688 21747 0
-21689 21748 0
-21690 21749 0
-21691 21750 0
-21692 21751 0
-21693 21752 0
-21694 21753 0
-21695 21754 0
-21696 21755 0
-21697 21756 0
-21698 21757 0
-21699 21758 0
-21700 21759 0
-21701 21760 0
-21702 21761 0
-21703 21762 0
-1576 -21645 21705 0
-1576 -21646 21706 0
-1576 -21647 21707 0
-1576 -21648 21708 0
-1576 -21649 21709 0
-1576 -21650 21710 0
-1576 -21651 21711 0
-1576 -21652 21712 0
-1576 -21653 21713 0
-1576 -21654 21714 0
-1576 -21655 21715 0
-1576 -21656 21716 0
-1576 -21657 21717 0
-1576 -21658 21718 0
-1576 -21659 21719 0
-1576 -21660 21720 0
-1576 -21661 21721 0
-1576 -21662 21722 0
-1576 -21663 21723 0
-1576 -21664 21724 0
-1576 -21665 21725 0
-1576 -21666 21726 0
-1576 -21667 21727 0
-1576 -21668 21728 0
-1576 -21669 21729 0
-1576 -21670 21730 0
-1576 -21671 21731 0
-1576 -21672 21732 0
-1576 -21673 21733 0
-1576 -21674 21734 0
-1576 -21675 21735 0
-1576 -21676 21736 0
-1576 -21677 21737 0
-1576 -21678 21738 0
-1576 -21679 21739 0
-1576 -21680 21740 0
-1576 -21681 21741 0
-1576 -21682 21742 0
-1576 -21683 21743 0
-1576 -21684 21744 0
-1576 -21685 21745 0
-1576 -21686 21746 0
-1576 -21687 21747 0
-1576 -21688 21748 0
-1576 -21689 21749 0
-1576 -21690 21750 0
-1576 -21691 21751 0
-1576 -21692 21752 0
-1576 -21693 21753 0
-1576 -21694 21754 0
-1576 -21695 21755 0
-1576 -21696 21756 0
-1576 -21697 21757 0
-1576 -21698 21758 0
-1576 -21699 21759 0
-1576 -21700 21760 0
-1576 -21701 21761 0
-1576 -21702 21762 0
-1576 -21703 0
-21704 21763 0
-21705 21764 0
-21706 21765 0
-21707 21766 0
-21708 21767 0
-21709 21768 0
-21710 21769 0
-21711 21770 0
-21712 21771 0
-21713 21772 0
-21714 21773 0
-21715 21774 0
-21716 21775 0
-21717 21776 0
-21718 21777 0
-21719 21778 0
-21720 21779 0
-21721 21780 0
-21722 21781 0
-21723 21782 0
-21724 21783 0
-21725 21784 0
-21726 21785 0
-21727 21786 0
-21728 21787 0
-21729 21788 0
-21730 21789 0
-21731 21790 0
-21732 21791 0
-21733 21792 0
-21734 21793 0
-21735 21794 0
-21736 21795 0
-21737 21796 0
-21738 21797 0
-21739 21798 0
-21740 21799 0
-21741 21800 0
-21742 21801 0
-21743 21802 0
-21744 21803 0
-21745 21804 0
-21746 21805 0
-21747 21806 0
-21748 21807 0
-21749 21808 0
-21750 21809 0
-21751 21810 0
-21752 21811 0
-21753 21812 0
-21754 21813 0
-21755 21814 0
-21756 21815 0
-21757 21816 0
-21758 21817 0
-21759 21818 0
-21760 21819 0
-21761 21820 0
-21762 21821 0
-1578 -21704 21764 0
-1578 -21705 21765 0
-1578 -21706 21766 0
-1578 -21707 21767 0
-1578 -21708 21768 0
-1578 -21709 21769 0
-1578 -21710 21770 0
-1578 -21711 21771 0
-1578 -21712 21772 0
-1578 -21713 21773 0
-1578 -21714 21774 0
-1578 -21715 21775 0
-1578 -21716 21776 0
-1578 -21717 21777 0
-1578 -21718 21778 0
-1578 -21719 21779 0
-1578 -21720 21780 0
-1578 -21721 21781 0
-1578 -21722 21782 0
-1578 -21723 21783 0
-1578 -21724 21784 0
-1578 -21725 21785 0
-1578 -21726 21786 0
-1578 -21727 21787 0
-1578 -21728 21788 0
-1578 -21729 21789 0
-1578 -21730 21790 0
-1578 -21731 21791 0
-1578 -21732 21792 0
-1578 -21733 21793 0
-1578 -21734 21794 0
-1578 -21735 21795 0
-1578 -21736 21796 0
-1578 -21737 21797 0
-1578 -21738 21798 0
-1578 -21739 21799 0
-1578 -21740 21800 0
-1578 -21741 21801 0
-1578 -21742 21802 0
-1578 -21743 21803 0
-1578 -21744 21804 0
-1578 -21745 21805 0
-1578 -21746 21806 0
-1578 -21747 21807 0
-1578 -21748 21808 0
-1578 -21749 21809 0
-1578 -21750 21810 0
-1578 -21751 21811 0
-1578 -21752 21812 0
-1578 -21753 21813 0
-1578 -21754 21814 0
-1578 -21755 21815 0
-1578 -21756 21816 0
-1578 -21757 21817 0
-1578 -21758 21818 0
-1578 -21759 21819 0
-1578 -21760 21820 0
-1578 -21761 21821 0
-1578 -21762 0
-21763 21822 0
-21764 21823 0
-21765 21824 0
-21766 21825 0
-21767 21826 0
-21768 21827 0
-21769 21828 0
-21770 21829 0
-21771 21830 0
-21772 21831 0
-21773 21832 0
-21774 21833 0
-21775 21834 0
-21776 21835 0
-21777 21836 0
-21778 21837 0
-21779 21838 0
-21780 21839 0
-21781 21840 0
-21782 21841 0
-21783 21842 0
-21784 21843 0
-21785 21844 0
-21786 21845 0
-21787 21846 0
-21788 21847 0
-21789 21848 0
-21790 21849 0
-21791 21850 0
-21792 21851 0
-21793 21852 0
-21794 21853 0
-21795 21854 0
-21796 21855 0
-21797 21856 0
-21798 21857 0
-21799 21858 0
-21800 21859 0
-21801 21860 0
-21802 21861 0
-21803 21862 0
-21804 21863 0
-21805 21864 0
-21806 21865 0
-21807 21866 0
-21808 21867 0
-21809 21868 0
-21810 21869 0
-21811 21870 0
-21812 21871 0
-21813 21872 0
-21814 21873 0
-21815 21874 0
-21816 21875 0
-21817 21876 0
-21818 21877 0
-21819 21878 0
-21820 21879 0
-21821 21880 0
-1580 -21763 21823 0
-1580 -21764 21824 0
-1580 -21765 21825 0
-1580 -21766 21826 0
-1580 -21767 21827 0
-1580 -21768 21828 0
-1580 -21769 21829 0
-1580 -21770 21830 0
-1580 -21771 21831 0
-1580 -21772 21832 0
-1580 -21773 21833 0
-1580 -21774 21834 0
-1580 -21775 21835 0
-1580 -21776 21836 0
-1580 -21777 21837 0
-1580 -21778 21838 0
-1580 -21779 21839 0
-1580 -21780 21840 0
-1580 -21781 21841 0
-1580 -21782 21842 0
-1580 -21783 21843 0
-1580 -21784 21844 0
-1580 -21785 21845 0
-1580 -21786 21846 0
-1580 -21787 21847 0
-1580 -21788 21848 0
-1580 -21789 21849 0
-1580 -21790 21850 0
-1580 -21791 21851 0
-1580 -21792 21852 0
-1580 -21793 21853 0
-1580 -21794 21854 0
-1580 -21795 21855 0
-1580 -21796 21856 0
-1580 -21797 21857 0
-1580 -21798 21858 0
-1580 -21799 21859 0
-1580 -21800 21860 0
-1580 -21801 21861 0
-1580 -21802 21862 0
-1580 -21803 21863 0
-1580 -21804 21864 0
-1580 -21805 21865 0
-1580 -21806 21866 0
-1580 -21807 21867 0
-1580 -21808 21868 0
-1580 -21809 21869 0
-1580 -21810 21870 0
-1580 -21811 21871 0
-1580 -21812 21872 0
-1580 -21813 21873 0
-1580 -21814 21874 0
-1580 -21815 21875 0
-1580 -21816 21876 0
-1580 -21817 21877 0
-1580 -21818 21878 0
-1580 -21819 21879 0
-1580 -21820 21880 0
-1580 -21821 0
-21822 21881 0
-21823 21882 0
-21824 21883 0
-21825 21884 0
-21826 21885 0
-21827 21886 0
-21828 21887 0
-21829 21888 0
-21830 21889 0
-21831 21890 0
-21832 21891 0
-21833 21892 0
-21834 21893 0
-21835 21894 0
-21836 21895 0
-21837 21896 0
-21838 21897 0
-21839 21898 0
-21840 21899 0
-21841 21900 0
-21842 21901 0
-21843 21902 0
-21844 21903 0
-21845 21904 0
-21846 21905 0
-21847 21906 0
-21848 21907 0
-21849 21908 0
-21850 21909 0
-21851 21910 0
-21852 21911 0
-21853 21912 0
-21854 21913 0
-21855 21914 0
-21856 21915 0
-21857 21916 0
-21858 21917 0
-21859 21918 0
-21860 21919 0
-21861 21920 0
-21862 21921 0
-21863 21922 0
-21864 21923 0
-21865 21924 0
-21866 21925 0
-21867 21926 0
-21868 21927 0
-21869 21928 0
-21870 21929 0
-21871 21930 0
-21872 21931 0
-21873 21932 0
-21874 21933 0
-21875 21934 0
-21876 21935 0
-21877 21936 0
-21878 21937 0
-21879 21938 0
-21880 21939 0
-1582 -21822 21882 0
-1582 -21823 21883 0
-1582 -21824 21884 0
-1582 -21825 21885 0
-1582 -21826 21886 0
-1582 -21827 21887 0
-1582 -21828 21888 0
-1582 -21829 21889 0
-1582 -21830 21890 0
-1582 -21831 21891 0
-1582 -21832 21892 0
-1582 -21833 21893 0
-1582 -21834 21894 0
-1582 -21835 21895 0
-1582 -21836 21896 0
-1582 -21837 21897 0
-1582 -21838 21898 0
-1582 -21839 21899 0
-1582 -21840 21900 0
-1582 -21841 21901 0
-1582 -21842 21902 0
-1582 -21843 21903 0
-1582 -21844 21904 0
-1582 -21845 21905 0
-1582 -21846 21906 0
-1582 -21847 21907 0
-1582 -21848 21908 0
-1582 -21849 21909 0
-1582 -21850 21910 0
-1582 -21851 21911 0
-1582 -21852 21912 0
-1582 -21853 21913 0
-1582 -21854 21914 0
-1582 -21855 21915 0
-1582 -21856 21916 0
-1582 -21857 21917 0
-1582 -21858 21918 0
-1582 -21859 21919 0
-1582 -21860 21920 0
-1582 -21861 21921 0
-1582 -21862 21922 0
-1582 -21863 21923 0
-1582 -21864 21924 0
-1582 -21865 21925 0
-1582 -21866 21926 0
-1582 -21867 21927 0
-1582 -21868 21928 0
-1582 -21869 21929 0
-1582 -21870 21930 0
-1582 -21871 21931 0
-1582 -21872 21932 0
-1582 -21873 21933 0
-1582 -21874 21934 0
-1582 -21875 21935 0
-1582 -21876 21936 0
-1582 -21877 21937 0
-1582 -21878 21938 0
-1582 -21879 21939 0
-1582 -21880 0
-21881 21940 0
-21882 21941 0
-21883 21942 0
-21884 21943 0
-21885 21944 0
-21886 21945 0
-21887 21946 0
-21888 21947 0
-21889 21948 0
-21890 21949 0
-21891 21950 0
-21892 21951 0
-21893 21952 0
-21894 21953 0
-21895 21954 0
-21896 21955 0
-21897 21956 0
-21898 21957 0
-21899 21958 0
-21900 21959 0
-21901 21960 0
-21902 21961 0
-21903 21962 0
-21904 21963 0
-21905 21964 0
-21906 21965 0
-21907 21966 0
-21908 21967 0
-21909 21968 0
-21910 21969 0
-21911 21970 0
-21912 21971 0
-21913 21972 0
-21914 21973 0
-21915 21974 0
-21916 21975 0
-21917 21976 0
-21918 21977 0
-21919 21978 0
-21920 21979 0
-21921 21980 0
-21922 21981 0
-21923 21982 0
-21924 21983 0
-21925 21984 0
-21926 21985 0
-21927 21986 0
-21928 21987 0
-21929 21988 0
-21930 21989 0
-21931 21990 0
-21932 21991 0
-21933 21992 0
-21934 21993 0
-21935 21994 0
-21936 21995 0
-21937 21996 0
-21938 21997 0
-21939 21998 0
-1584 -21881 21941 0
-1584 -21882 21942 0
-1584 -21883 21943 0
-1584 -21884 21944 0
-1584 -21885 21945 0
-1584 -21886 21946 0
-1584 -21887 21947 0
-1584 -21888 21948 0
-1584 -21889 21949 0
-1584 -21890 21950 0
-1584 -21891 21951 0
-1584 -21892 21952 0
-1584 -21893 21953 0
-1584 -21894 21954 0
-1584 -21895 21955 0
-1584 -21896 21956 0
-1584 -21897 21957 0
-1584 -21898 21958 0
-1584 -21899 21959 0
-1584 -21900 21960 0
-1584 -21901 21961 0
-1584 -21902 21962 0
-1584 -21903 21963 0
-1584 -21904 21964 0
-1584 -21905 21965 0
-1584 -21906 21966 0
-1584 -21907 21967 0
-1584 -21908 21968 0
-1584 -21909 21969 0
-1584 -21910 21970 0
-1584 -21911 21971 0
-1584 -21912 21972 0
-1584 -21913 21973 0
-1584 -21914 21974 0
-1584 -21915 21975 0
-1584 -21916 21976 0
-1584 -21917 21977 0
-1584 -21918 21978 0
-1584 -21919 21979 0
-1584 -21920 21980 0
-1584 -21921 21981 0
-1584 -21922 21982 0
-1584 -21923 21983 0
-1584 -21924 21984 0
-1584 -21925 21985 0
-1584 -21926 21986 0
-1584 -21927 21987 0
-1584 -21928 21988 0
-1584 -21929 21989 0
-1584 -21930 21990 0
-1584 -21931 21991 0
-1584 -21932 21992 0
-1584 -21933 21993 0
-1584 -21934 21994 0
-1584 -21935 21995 0
-1584 -21936 21996 0
-1584 -21937 21997 0
-1584 -21938 21998 0
-1584 -21939 0
-21940 21999 0
-21941 22000 0
-21942 22001 0
-21943 22002 0
-21944 22003 0
-21945 22004 0
-21946 22005 0
-21947 22006 0
-21948 22007 0
-21949 22008 0
-21950 22009 0
-21951 22010 0
-21952 22011 0
-21953 22012 0
-21954 22013 0
-21955 22014 0
-21956 22015 0
-21957 22016 0
-21958 22017 0
-21959 22018 0
-21960 22019 0
-21961 22020 0
-21962 22021 0
-21963 22022 0
-21964 22023 0
-21965 22024 0
-21966 22025 0
-21967 22026 0
-21968 22027 0
-21969 22028 0
-21970 22029 0
-21971 22030 0
-21972 22031 0
-21973 22032 0
-21974 22033 0
-21975 22034 0
-21976 22035 0
-21977 22036 0
-21978 22037 0
-21979 22038 0
-21980 22039 0
-21981 22040 0
-21982 22041 0
-21983 22042 0
-21984 22043 0
-21985 22044 0
-21986 22045 0
-21987 22046 0
-21988 22047 0
-21989 22048 0
-21990 22049 0
-21991 22050 0
-21992 22051 0
-21993 22052 0
-21994 22053 0
-21995 22054 0
-21996 22055 0
-21997 22056 0
-21998 22057 0
-1586 -21940 22000 0
-1586 -21941 22001 0
-1586 -21942 22002 0
-1586 -21943 22003 0
-1586 -21944 22004 0
-1586 -21945 22005 0
-1586 -21946 22006 0
-1586 -21947 22007 0
-1586 -21948 22008 0
-1586 -21949 22009 0
-1586 -21950 22010 0
-1586 -21951 22011 0
-1586 -21952 22012 0
-1586 -21953 22013 0
-1586 -21954 22014 0
-1586 -21955 22015 0
-1586 -21956 22016 0
-1586 -21957 22017 0
-1586 -21958 22018 0
-1586 -21959 22019 0
-1586 -21960 22020 0
-1586 -21961 22021 0
-1586 -21962 22022 0
-1586 -21963 22023 0
-1586 -21964 22024 0
-1586 -21965 22025 0
-1586 -21966 22026 0
-1586 -21967 22027 0
-1586 -21968 22028 0
-1586 -21969 22029 0
-1586 -21970 22030 0
-1586 -21971 22031 0
-1586 -21972 22032 0
-1586 -21973 22033 0
-1586 -21974 22034 0
-1586 -21975 22035 0
-1586 -21976 22036 0
-1586 -21977 22037 0
-1586 -21978 22038 0
-1586 -21979 22039 0
-1586 -21980 22040 0
-1586 -21981 22041 0
-1586 -21982 22042 0
-1586 -21983 22043 0
-1586 -21984 22044 0
-1586 -21985 22045 0
-1586 -21986 22046 0
-1586 -21987 22047 0
-1586 -21988 22048 0
-1586 -21989 22049 0
-1586 -21990 22050 0
-1586 -21991 22051 0
-1586 -21992 22052 0
-1586 -21993 22053 0
-1586 -21994 22054 0
-1586 -21995 22055 0
-1586 -21996 22056 0
-1586 -21997 22057 0
-1586 -21998 0
-21999 22058 0
-22000 22059 0
-22001 22060 0
-22002 22061 0
-22003 22062 0
-22004 22063 0
-22005 22064 0
-22006 22065 0
-22007 22066 0
-22008 22067 0
-22009 22068 0
-22010 22069 0
-22011 22070 0
-22012 22071 0
-22013 22072 0
-22014 22073 0
-22015 22074 0
-22016 22075 0
-22017 22076 0
-22018 22077 0
-22019 22078 0
-22020 22079 0
-22021 22080 0
-22022 22081 0
-22023 22082 0
-22024 22083 0
-22025 22084 0
-22026 22085 0
-22027 22086 0
-22028 22087 0
-22029 22088 0
-22030 22089 0
-22031 22090 0
-22032 22091 0
-22033 22092 0
-22034 22093 0
-22035 22094 0
-22036 22095 0
-22037 22096 0
-22038 22097 0
-22039 22098 0
-22040 22099 0
-22041 22100 0
-22042 22101 0
-22043 22102 0
-22044 22103 0
-22045 22104 0
-22046 22105 0
-22047 22106 0
-22048 22107 0
-22049 22108 0
-22050 22109 0
-22051 22110 0
-22052 22111 0
-22053 22112 0
-22054 22113 0
-22055 22114 0
-22056 22115 0
-22057 22116 0
-1588 -21999 22059 0
-1588 -22000 22060 0
-1588 -22001 22061 0
-1588 -22002 22062 0
-1588 -22003 22063 0
-1588 -22004 22064 0
-1588 -22005 22065 0
-1588 -22006 22066 0
-1588 -22007 22067 0
-1588 -22008 22068 0
-1588 -22009 22069 0
-1588 -22010 22070 0
-1588 -22011 22071 0
-1588 -22012 22072 0
-1588 -22013 22073 0
-1588 -22014 22074 0
-1588 -22015 22075 0
-1588 -22016 22076 0
-1588 -22017 22077 0
-1588 -22018 22078 0
-1588 -22019 22079 0
-1588 -22020 22080 0
-1588 -22021 22081 0
-1588 -22022 22082 0
-1588 -22023 22083 0
-1588 -22024 22084 0
-1588 -22025 22085 0
-1588 -22026 22086 0
-1588 -22027 22087 0
-1588 -22028 22088 0
-1588 -22029 22089 0
-1588 -22030 22090 0
-1588 -22031 22091 0
-1588 -22032 22092 0
-1588 -22033 22093 0
-1588 -22034 22094 0
-1588 -22035 22095 0
-1588 -22036 22096 0
-1588 -22037 22097 0
-1588 -22038 22098 0
-1588 -22039 22099 0
-1588 -22040 22100 0
-1588 -22041 22101 0
-1588 -22042 22102 0
-1588 -22043 22103 0
-1588 -22044 22104 0
-1588 -22045 22105 0
-1588 -22046 22106 0
-1588 -22047 22107 0
-1588 -22048 22108 0
-1588 -22049 22109 0
-1588 -22050 22110 0
-1588 -22051 22111 0
-1588 -22052 22112 0
-1588 -22053 22113 0
-1588 -22054 22114 0
-1588 -22055 22115 0
-1588 -22056 22116 0
-1588 -22057 0
-22058 22117 0
-22059 22118 0
-22060 22119 0
-22061 22120 0
-22062 22121 0
-22063 22122 0
-22064 22123 0
-22065 22124 0
-22066 22125 0
-22067 22126 0
-22068 22127 0
-22069 22128 0
-22070 22129 0
-22071 22130 0
-22072 22131 0
-22073 22132 0
-22074 22133 0
-22075 22134 0
-22076 22135 0
-22077 22136 0
-22078 22137 0
-22079 22138 0
-22080 22139 0
-22081 22140 0
-22082 22141 0
-22083 22142 0
-22084 22143 0
-22085 22144 0
-22086 22145 0
-22087 22146 0
-22088 22147 0
-22089 22148 0
-22090 22149 0
-22091 22150 0
-22092 22151 0
-22093 22152 0
-22094 22153 0
-22095 22154 0
-22096 22155 0
-22097 22156 0
-22098 22157 0
-22099 22158 0
-22100 22159 0
-22101 22160 0
-22102 22161 0
-22103 22162 0
-22104 22163 0
-22105 22164 0
-22106 22165 0
-22107 22166 0
-22108 22167 0
-22109 22168 0
-22110 22169 0
-22111 22170 0
-22112 22171 0
-22113 22172 0
-22114 22173 0
-22115 22174 0
-22116 22175 0
-1590 -22058 22118 0
-1590 -22059 22119 0
-1590 -22060 22120 0
-1590 -22061 22121 0
-1590 -22062 22122 0
-1590 -22063 22123 0
-1590 -22064 22124 0
-1590 -22065 22125 0
-1590 -22066 22126 0
-1590 -22067 22127 0
-1590 -22068 22128 0
-1590 -22069 22129 0
-1590 -22070 22130 0
-1590 -22071 22131 0
-1590 -22072 22132 0
-1590 -22073 22133 0
-1590 -22074 22134 0
-1590 -22075 22135 0
-1590 -22076 22136 0
-1590 -22077 22137 0
-1590 -22078 22138 0
-1590 -22079 22139 0
-1590 -22080 22140 0
-1590 -22081 22141 0
-1590 -22082 22142 0
-1590 -22083 22143 0
-1590 -22084 22144 0
-1590 -22085 22145 0
-1590 -22086 22146 0
-1590 -22087 22147 0
-1590 -22088 22148 0
-1590 -22089 22149 0
-1590 -22090 22150 0
-1590 -22091 22151 0
-1590 -22092 22152 0
-1590 -22093 22153 0
-1590 -22094 22154 0
-1590 -22095 22155 0
-1590 -22096 22156 0
-1590 -22097 22157 0
-1590 -22098 22158 0
-1590 -22099 22159 0
-1590 -22100 22160 0
-1590 -22101 22161 0
-1590 -22102 22162 0
-1590 -22103 22163 0
-1590 -22104 22164 0
-1590 -22105 22165 0
-1590 -22106 22166 0
-1590 -22107 22167 0
-1590 -22108 22168 0
-1590 -22109 22169 0
-1590 -22110 22170 0
-1590 -22111 22171 0
-1590 -22112 22172 0
-1590 -22113 22173 0
-1590 -22114 22174 0
-1590 -22115 22175 0
-1590 -22116 0
-22117 22176 0
-22118 22177 0
-22119 22178 0
-22120 22179 0
-22121 22180 0
-22122 22181 0
-22123 22182 0
-22124 22183 0
-22125 22184 0
-22126 22185 0
-22127 22186 0
-22128 22187 0
-22129 22188 0
-22130 22189 0
-22131 22190 0
-22132 22191 0
-22133 22192 0
-22134 22193 0
-22135 22194 0
-22136 22195 0
-22137 22196 0
-22138 22197 0
-22139 22198 0
-22140 22199 0
-22141 22200 0
-22142 22201 0
-22143 22202 0
-22144 22203 0
-22145 22204 0
-22146 22205 0
-22147 22206 0
-22148 22207 0
-22149 22208 0
-22150 22209 0
-22151 22210 0
-22152 22211 0
-22153 22212 0
-22154 22213 0
-22155 22214 0
-22156 22215 0
-22157 22216 0
-22158 22217 0
-22159 22218 0
-22160 22219 0
-22161 22220 0
-22162 22221 0
-22163 22222 0
-22164 22223 0
-22165 22224 0
-22166 22225 0
-22167 22226 0
-22168 22227 0
-22169 22228 0
-22170 22229 0
-22171 22230 0
-22172 22231 0
-22173 22232 0
-22174 22233 0
-22175 22234 0
-1592 -22117 22177 0
-1592 -22118 22178 0
-1592 -22119 22179 0
-1592 -22120 22180 0
-1592 -22121 22181 0
-1592 -22122 22182 0
-1592 -22123 22183 0
-1592 -22124 22184 0
-1592 -22125 22185 0
-1592 -22126 22186 0
-1592 -22127 22187 0
-1592 -22128 22188 0
-1592 -22129 22189 0
-1592 -22130 22190 0
-1592 -22131 22191 0
-1592 -22132 22192 0
-1592 -22133 22193 0
-1592 -22134 22194 0
-1592 -22135 22195 0
-1592 -22136 22196 0
-1592 -22137 22197 0
-1592 -22138 22198 0
-1592 -22139 22199 0
-1592 -22140 22200 0
-1592 -22141 22201 0
-1592 -22142 22202 0
-1592 -22143 22203 0
-1592 -22144 22204 0
-1592 -22145 22205 0
-1592 -22146 22206 0
-1592 -22147 22207 0
-1592 -22148 22208 0
-1592 -22149 22209 0
-1592 -22150 22210 0
-1592 -22151 22211 0
-1592 -22152 22212 0
-1592 -22153 22213 0
-1592 -22154 22214 0
-1592 -22155 22215 0
-1592 -22156 22216 0
-1592 -22157 22217 0
-1592 -22158 22218 0
-1592 -22159 22219 0
-1592 -22160 22220 0
-1592 -22161 22221 0
-1592 -22162 22222 0
-1592 -22163 22223 0
-1592 -22164 22224 0
-1592 -22165 22225 0
-1592 -22166 22226 0
-1592 -22167 22227 0
-1592 -22168 22228 0
-1592 -22169 22229 0
-1592 -22170 22230 0
-1592 -22171 22231 0
-1592 -22172 22232 0
-1592 -22173 22233 0
-1592 -22174 22234 0
-1592 -22175 0
-22176 22235 0
-22177 22236 0
-22178 22237 0
-22179 22238 0
-22180 22239 0
-22181 22240 0
-22182 22241 0
-22183 22242 0
-22184 22243 0
-22185 22244 0
-22186 22245 0
-22187 22246 0
-22188 22247 0
-22189 22248 0
-22190 22249 0
-22191 22250 0
-22192 22251 0
-22193 22252 0
-22194 22253 0
-22195 22254 0
-22196 22255 0
-22197 22256 0
-22198 22257 0
-22199 22258 0
-22200 22259 0
-22201 22260 0
-22202 22261 0
-22203 22262 0
-22204 22263 0
-22205 22264 0
-22206 22265 0
-22207 22266 0
-22208 22267 0
-22209 22268 0
-22210 22269 0
-22211 22270 0
-22212 22271 0
-22213 22272 0
-22214 22273 0
-22215 22274 0
-22216 22275 0
-22217 22276 0
-22218 22277 0
-22219 22278 0
-22220 22279 0
-22221 22280 0
-22222 22281 0
-22223 22282 0
-22224 22283 0
-22225 22284 0
-22226 22285 0
-22227 22286 0
-22228 22287 0
-22229 22288 0
-22230 22289 0
-22231 22290 0
-22232 22291 0
-22233 22292 0
-22234 22293 0
-1594 -22176 22236 0
-1594 -22177 22237 0
-1594 -22178 22238 0
-1594 -22179 22239 0
-1594 -22180 22240 0
-1594 -22181 22241 0
-1594 -22182 22242 0
-1594 -22183 22243 0
-1594 -22184 22244 0
-1594 -22185 22245 0
-1594 -22186 22246 0
-1594 -22187 22247 0
-1594 -22188 22248 0
-1594 -22189 22249 0
-1594 -22190 22250 0
-1594 -22191 22251 0
-1594 -22192 22252 0
-1594 -22193 22253 0
-1594 -22194 22254 0
-1594 -22195 22255 0
-1594 -22196 22256 0
-1594 -22197 22257 0
-1594 -22198 22258 0
-1594 -22199 22259 0
-1594 -22200 22260 0
-1594 -22201 22261 0
-1594 -22202 22262 0
-1594 -22203 22263 0
-1594 -22204 22264 0
-1594 -22205 22265 0
-1594 -22206 22266 0
-1594 -22207 22267 0
-1594 -22208 22268 0
-1594 -22209 22269 0
-1594 -22210 22270 0
-1594 -22211 22271 0
-1594 -22212 22272 0
-1594 -22213 22273 0
-1594 -22214 22274 0
-1594 -22215 22275 0
-1594 -22216 22276 0
-1594 -22217 22277 0
-1594 -22218 22278 0
-1594 -22219 22279 0
-1594 -22220 22280 0
-1594 -22221 22281 0
-1594 -22222 22282 0
-1594 -22223 22283 0
-1594 -22224 22284 0
-1594 -22225 22285 0
-1594 -22226 22286 0
-1594 -22227 22287 0
-1594 -22228 22288 0
-1594 -22229 22289 0
-1594 -22230 22290 0
-1594 -22231 22291 0
-1594 -22232 22292 0
-1594 -22233 22293 0
-1594 -22234 0
-22235 22294 0
-22236 22295 0
-22237 22296 0
-22238 22297 0
-22239 22298 0
-22240 22299 0
-22241 22300 0
-22242 22301 0
-22243 22302 0
-22244 22303 0
-22245 22304 0
-22246 22305 0
-22247 22306 0
-22248 22307 0
-22249 22308 0
-22250 22309 0
-22251 22310 0
-22252 22311 0
-22253 22312 0
-22254 22313 0
-22255 22314 0
-22256 22315 0
-22257 22316 0
-22258 22317 0
-22259 22318 0
-22260 22319 0
-22261 22320 0
-22262 22321 0
-22263 22322 0
-22264 22323 0
-22265 22324 0
-22266 22325 0
-22267 22326 0
-22268 22327 0
-22269 22328 0
-22270 22329 0
-22271 22330 0
-22272 22331 0
-22273 22332 0
-22274 22333 0
-22275 22334 0
-22276 22335 0
-22277 22336 0
-22278 22337 0
-22279 22338 0
-22280 22339 0
-22281 22340 0
-22282 22341 0
-22283 22342 0
-22284 22343 0
-22285 22344 0
-22286 22345 0
-22287 22346 0
-22288 22347 0
-22289 22348 0
-22290 22349 0
-22291 22350 0
-22292 22351 0
-22293 22352 0
-1596 -22235 22295 0
-1596 -22236 22296 0
-1596 -22237 22297 0
-1596 -22238 22298 0
-1596 -22239 22299 0
-1596 -22240 22300 0
-1596 -22241 22301 0
-1596 -22242 22302 0
-1596 -22243 22303 0
-1596 -22244 22304 0
-1596 -22245 22305 0
-1596 -22246 22306 0
-1596 -22247 22307 0
-1596 -22248 22308 0
-1596 -22249 22309 0
-1596 -22250 22310 0
-1596 -22251 22311 0
-1596 -22252 22312 0
-1596 -22253 22313 0
-1596 -22254 22314 0
-1596 -22255 22315 0
-1596 -22256 22316 0
-1596 -22257 22317 0
-1596 -22258 22318 0
-1596 -22259 22319 0
-1596 -22260 22320 0
-1596 -22261 22321 0
-1596 -22262 22322 0
-1596 -22263 22323 0
-1596 -22264 22324 0
-1596 -22265 22325 0
-1596 -22266 22326 0
-1596 -22267 22327 0
-1596 -22268 22328 0
-1596 -22269 22329 0
-1596 -22270 22330 0
-1596 -22271 22331 0
-1596 -22272 22332 0
-1596 -22273 22333 0
-1596 -22274 22334 0
-1596 -22275 22335 0
-1596 -22276 22336 0
-1596 -22277 22337 0
-1596 -22278 22338 0
-1596 -22279 22339 0
-1596 -22280 22340 0
-1596 -22281 22341 0
-1596 -22282 22342 0
-1596 -22283 22343 0
-1596 -22284 22344 0
-1596 -22285 22345 0
-1596 -22286 22346 0
-1596 -22287 22347 0
-1596 -22288 22348 0
-1596 -22289 22349 0
-1596 -22290 22350 0
-1596 -22291 22351 0
-1596 -22292 22352 0
-1596 -22293 0
-22294 22353 0
-22295 22354 0
-22296 22355 0
-22297 22356 0
-22298 22357 0
-22299 22358 0
-22300 22359 0
-22301 22360 0
-22302 22361 0
-22303 22362 0
-22304 22363 0
-22305 22364 0
-22306 22365 0
-22307 22366 0
-22308 22367 0
-22309 22368 0
-22310 22369 0
-22311 22370 0
-22312 22371 0
-22313 22372 0
-22314 22373 0
-22315 22374 0
-22316 22375 0
-22317 22376 0
-22318 22377 0
-22319 22378 0
-22320 22379 0
-22321 22380 0
-22322 22381 0
-22323 22382 0
-22324 22383 0
-22325 22384 0
-22326 22385 0
-22327 22386 0
-22328 22387 0
-22329 22388 0
-22330 22389 0
-22331 22390 0
-22332 22391 0
-22333 22392 0
-22334 22393 0
-22335 22394 0
-22336 22395 0
-22337 22396 0
-22338 22397 0
-22339 22398 0
-22340 22399 0
-22341 22400 0
-22342 22401 0
-22343 22402 0
-22344 22403 0
-22345 22404 0
-22346 22405 0
-22347 22406 0
-22348 22407 0
-22349 22408 0
-22350 22409 0
-22351 22410 0
-22352 22411 0
-1598 -22294 22354 0
-1598 -22295 22355 0
-1598 -22296 22356 0
-1598 -22297 22357 0
-1598 -22298 22358 0
-1598 -22299 22359 0
-1598 -22300 22360 0
-1598 -22301 22361 0
-1598 -22302 22362 0
-1598 -22303 22363 0
-1598 -22304 22364 0
-1598 -22305 22365 0
-1598 -22306 22366 0
-1598 -22307 22367 0
-1598 -22308 22368 0
-1598 -22309 22369 0
-1598 -22310 22370 0
-1598 -22311 22371 0
-1598 -22312 22372 0
-1598 -22313 22373 0
-1598 -22314 22374 0
-1598 -22315 22375 0
-1598 -22316 22376 0
-1598 -22317 22377 0
-1598 -22318 22378 0
-1598 -22319 22379 0
-1598 -22320 22380 0
-1598 -22321 22381 0
-1598 -22322 22382 0
-1598 -22323 22383 0
-1598 -22324 22384 0
-1598 -22325 22385 0
-1598 -22326 22386 0
-1598 -22327 22387 0
-1598 -22328 22388 0
-1598 -22329 22389 0
-1598 -22330 22390 0
-1598 -22331 22391 0
-1598 -22332 22392 0
-1598 -22333 22393 0
-1598 -22334 22394 0
-1598 -22335 22395 0
-1598 -22336 22396 0
-1598 -22337 22397 0
-1598 -22338 22398 0
-1598 -22339 22399 0
-1598 -22340 22400 0
-1598 -22341 22401 0
-1598 -22342 22402 0
-1598 -22343 22403 0
-1598 -22344 22404 0
-1598 -22345 22405 0
-1598 -22346 22406 0
-1598 -22347 22407 0
-1598 -22348 22408 0
-1598 -22349 22409 0
-1598 -22350 22410 0
-1598 -22351 22411 0
-1598 -22352 0
-22353 22412 0
-22354 22413 0
-22355 22414 0
-22356 22415 0
-22357 22416 0
-22358 22417 0
-22359 22418 0
-22360 22419 0
-22361 22420 0
-22362 22421 0
-22363 22422 0
-22364 22423 0
-22365 22424 0
-22366 22425 0
-22367 22426 0
-22368 22427 0
-22369 22428 0
-22370 22429 0
-22371 22430 0
-22372 22431 0
-22373 22432 0
-22374 22433 0
-22375 22434 0
-22376 22435 0
-22377 22436 0
-22378 22437 0
-22379 22438 0
-22380 22439 0
-22381 22440 0
-22382 22441 0
-22383 22442 0
-22384 22443 0
-22385 22444 0
-22386 22445 0
-22387 22446 0
-22388 22447 0
-22389 22448 0
-22390 22449 0
-22391 22450 0
-22392 22451 0
-22393 22452 0
-22394 22453 0
-22395 22454 0
-22396 22455 0
-22397 22456 0
-22398 22457 0
-22399 22458 0
-22400 22459 0
-22401 22460 0
-22402 22461 0
-22403 22462 0
-22404 22463 0
-22405 22464 0
-22406 22465 0
-22407 22466 0
-22408 22467 0
-22409 22468 0
-22410 22469 0
-22411 22470 0
-1600 -22353 22413 0
-1600 -22354 22414 0
-1600 -22355 22415 0
-1600 -22356 22416 0
-1600 -22357 22417 0
-1600 -22358 22418 0
-1600 -22359 22419 0
-1600 -22360 22420 0
-1600 -22361 22421 0
-1600 -22362 22422 0
-1600 -22363 22423 0
-1600 -22364 22424 0
-1600 -22365 22425 0
-1600 -22366 22426 0
-1600 -22367 22427 0
-1600 -22368 22428 0
-1600 -22369 22429 0
-1600 -22370 22430 0
-1600 -22371 22431 0
-1600 -22372 22432 0
-1600 -22373 22433 0
-1600 -22374 22434 0
-1600 -22375 22435 0
-1600 -22376 22436 0
-1600 -22377 22437 0
-1600 -22378 22438 0
-1600 -22379 22439 0
-1600 -22380 22440 0
-1600 -22381 22441 0
-1600 -22382 22442 0
-1600 -22383 22443 0
-1600 -22384 22444 0
-1600 -22385 22445 0
-1600 -22386 22446 0
-1600 -22387 22447 0
-1600 -22388 22448 0
-1600 -22389 22449 0
-1600 -22390 22450 0
-1600 -22391 22451 0
-1600 -22392 22452 0
-1600 -22393 22453 0
-1600 -22394 22454 0
-1600 -22395 22455 0
-1600 -22396 22456 0
-1600 -22397 22457 0
-1600 -22398 22458 0
-1600 -22399 22459 0
-1600 -22400 22460 0
-1600 -22401 22461 0
-1600 -22402 22462 0
-1600 -22403 22463 0
-1600 -22404 22464 0
-1600 -22405 22465 0
-1600 -22406 22466 0
-1600 -22407 22467 0
-1600 -22408 22468 0
-1600 -22409 22469 0
-1600 -22410 22470 0
-1600 -22411 0
-22412 22471 0
-22413 22472 0
-22414 22473 0
-22415 22474 0
-22416 22475 0
-22417 22476 0
-22418 22477 0
-22419 22478 0
-22420 22479 0
-22421 22480 0
-22422 22481 0
-22423 22482 0
-22424 22483 0
-22425 22484 0
-22426 22485 0
-22427 22486 0
-22428 22487 0
-22429 22488 0
-22430 22489 0
-22431 22490 0
-22432 22491 0
-22433 22492 0
-22434 22493 0
-22435 22494 0
-22436 22495 0
-22437 22496 0
-22438 22497 0
-22439 22498 0
-22440 22499 0
-22441 22500 0
-22442 22501 0
-22443 22502 0
-22444 22503 0
-22445 22504 0
-22446 22505 0
-22447 22506 0
-22448 22507 0
-22449 22508 0
-22450 22509 0
-22451 22510 0
-22452 22511 0
-22453 22512 0
-22454 22513 0
-22455 22514 0
-22456 22515 0
-22457 22516 0
-22458 22517 0
-22459 22518 0
-22460 22519 0
-22461 22520 0
-22462 22521 0
-22463 22522 0
-22464 22523 0
-22465 22524 0
-22466 22525 0
-22467 22526 0
-22468 22527 0
-22469 22528 0
-22470 22529 0
-1602 -22412 22472 0
-1602 -22413 22473 0
-1602 -22414 22474 0
-1602 -22415 22475 0
-1602 -22416 22476 0
-1602 -22417 22477 0
-1602 -22418 22478 0
-1602 -22419 22479 0
-1602 -22420 22480 0
-1602 -22421 22481 0
-1602 -22422 22482 0
-1602 -22423 22483 0
-1602 -22424 22484 0
-1602 -22425 22485 0
-1602 -22426 22486 0
-1602 -22427 22487 0
-1602 -22428 22488 0
-1602 -22429 22489 0
-1602 -22430 22490 0
-1602 -22431 22491 0
-1602 -22432 22492 0
-1602 -22433 22493 0
-1602 -22434 22494 0
-1602 -22435 22495 0
-1602 -22436 22496 0
-1602 -22437 22497 0
-1602 -22438 22498 0
-1602 -22439 22499 0
-1602 -22440 22500 0
-1602 -22441 22501 0
-1602 -22442 22502 0
-1602 -22443 22503 0
-1602 -22444 22504 0
-1602 -22445 22505 0
-1602 -22446 22506 0
-1602 -22447 22507 0
-1602 -22448 22508 0
-1602 -22449 22509 0
-1602 -22450 22510 0
-1602 -22451 22511 0
-1602 -22452 22512 0
-1602 -22453 22513 0
-1602 -22454 22514 0
-1602 -22455 22515 0
-1602 -22456 22516 0
-1602 -22457 22517 0
-1602 -22458 22518 0
-1602 -22459 22519 0
-1602 -22460 22520 0
-1602 -22461 22521 0
-1602 -22462 22522 0
-1602 -22463 22523 0
-1602 -22464 22524 0
-1602 -22465 22525 0
-1602 -22466 22526 0
-1602 -22467 22527 0
-1602 -22468 22528 0
-1602 -22469 22529 0
-1602 -22470 0
-22471 22530 0
-22472 22531 0
-22473 22532 0
-22474 22533 0
-22475 22534 0
-22476 22535 0
-22477 22536 0
-22478 22537 0
-22479 22538 0
-22480 22539 0
-22481 22540 0
-22482 22541 0
-22483 22542 0
-22484 22543 0
-22485 22544 0
-22486 22545 0
-22487 22546 0
-22488 22547 0
-22489 22548 0
-22490 22549 0
-22491 22550 0
-22492 22551 0
-22493 22552 0
-22494 22553 0
-22495 22554 0
-22496 22555 0
-22497 22556 0
-22498 22557 0
-22499 22558 0
-22500 22559 0
-22501 22560 0
-22502 22561 0
-22503 22562 0
-22504 22563 0
-22505 22564 0
-22506 22565 0
-22507 22566 0
-22508 22567 0
-22509 22568 0
-22510 22569 0
-22511 22570 0
-22512 22571 0
-22513 22572 0
-22514 22573 0
-22515 22574 0
-22516 22575 0
-22517 22576 0
-22518 22577 0
-22519 22578 0
-22520 22579 0
-22521 22580 0
-22522 22581 0
-22523 22582 0
-22524 22583 0
-22525 22584 0
-22526 22585 0
-22527 22586 0
-22528 22587 0
-22529 22588 0
-1604 -22471 22531 0
-1604 -22472 22532 0
-1604 -22473 22533 0
-1604 -22474 22534 0
-1604 -22475 22535 0
-1604 -22476 22536 0
-1604 -22477 22537 0
-1604 -22478 22538 0
-1604 -22479 22539 0
-1604 -22480 22540 0
-1604 -22481 22541 0
-1604 -22482 22542 0
-1604 -22483 22543 0
-1604 -22484 22544 0
-1604 -22485 22545 0
-1604 -22486 22546 0
-1604 -22487 22547 0
-1604 -22488 22548 0
-1604 -22489 22549 0
-1604 -22490 22550 0
-1604 -22491 22551 0
-1604 -22492 22552 0
-1604 -22493 22553 0
-1604 -22494 22554 0
-1604 -22495 22555 0
-1604 -22496 22556 0
-1604 -22497 22557 0
-1604 -22498 22558 0
-1604 -22499 22559 0
-1604 -22500 22560 0
-1604 -22501 22561 0
-1604 -22502 22562 0
-1604 -22503 22563 0
-1604 -22504 22564 0
-1604 -22505 22565 0
-1604 -22506 22566 0
-1604 -22507 22567 0
-1604 -22508 22568 0
-1604 -22509 22569 0
-1604 -22510 22570 0
-1604 -22511 22571 0
-1604 -22512 22572 0
-1604 -22513 22573 0
-1604 -22514 22574 0
-1604 -22515 22575 0
-1604 -22516 22576 0
-1604 -22517 22577 0
-1604 -22518 22578 0
-1604 -22519 22579 0
-1604 -22520 22580 0
-1604 -22521 22581 0
-1604 -22522 22582 0
-1604 -22523 22583 0
-1604 -22524 22584 0
-1604 -22525 22585 0
-1604 -22526 22586 0
-1604 -22527 22587 0
-1604 -22528 22588 0
-1604 -22529 0
-22530 22589 0
-22531 22590 0
-22532 22591 0
-22533 22592 0
-22534 22593 0
-22535 22594 0
-22536 22595 0
-22537 22596 0
-22538 22597 0
-22539 22598 0
-22540 22599 0
-22541 22600 0
-22542 22601 0
-22543 22602 0
-22544 22603 0
-22545 22604 0
-22546 22605 0
-22547 22606 0
-22548 22607 0
-22549 22608 0
-22550 22609 0
-22551 22610 0
-22552 22611 0
-22553 22612 0
-22554 22613 0
-22555 22614 0
-22556 22615 0
-22557 22616 0
-22558 22617 0
-22559 22618 0
-22560 22619 0
-22561 22620 0
-22562 22621 0
-22563 22622 0
-22564 22623 0
-22565 22624 0
-22566 22625 0
-22567 22626 0
-22568 22627 0
-22569 22628 0
-22570 22629 0
-22571 22630 0
-22572 22631 0
-22573 22632 0
-22574 22633 0
-22575 22634 0
-22576 22635 0
-22577 22636 0
-22578 22637 0
-22579 22638 0
-22580 22639 0
-22581 22640 0
-22582 22641 0
-22583 22642 0
-22584 22643 0
-22585 22644 0
-22586 22645 0
-22587 22646 0
-22588 22647 0
-1606 -22530 22590 0
-1606 -22531 22591 0
-1606 -22532 22592 0
-1606 -22533 22593 0
-1606 -22534 22594 0
-1606 -22535 22595 0
-1606 -22536 22596 0
-1606 -22537 22597 0
-1606 -22538 22598 0
-1606 -22539 22599 0
-1606 -22540 22600 0
-1606 -22541 22601 0
-1606 -22542 22602 0
-1606 -22543 22603 0
-1606 -22544 22604 0
-1606 -22545 22605 0
-1606 -22546 22606 0
-1606 -22547 22607 0
-1606 -22548 22608 0
-1606 -22549 22609 0
-1606 -22550 22610 0
-1606 -22551 22611 0
-1606 -22552 22612 0
-1606 -22553 22613 0
-1606 -22554 22614 0
-1606 -22555 22615 0
-1606 -22556 22616 0
-1606 -22557 22617 0
-1606 -22558 22618 0
-1606 -22559 22619 0
-1606 -22560 22620 0
-1606 -22561 22621 0
-1606 -22562 22622 0
-1606 -22563 22623 0
-1606 -22564 22624 0
-1606 -22565 22625 0
-1606 -22566 22626 0
-1606 -22567 22627 0
-1606 -22568 22628 0
-1606 -22569 22629 0
-1606 -22570 22630 0
-1606 -22571 22631 0
-1606 -22572 22632 0
-1606 -22573 22633 0
-1606 -22574 22634 0
-1606 -22575 22635 0
-1606 -22576 22636 0
-1606 -22577 22637 0
-1606 -22578 22638 0
-1606 -22579 22639 0
-1606 -22580 22640 0
-1606 -22581 22641 0
-1606 -22582 22642 0
-1606 -22583 22643 0
-1606 -22584 22644 0
-1606 -22585 22645 0
-1606 -22586 22646 0
-1606 -22587 22647 0
-1606 -22588 0
-22589 22648 0
-22590 22649 0
-22591 22650 0
-22592 22651 0
-22593 22652 0
-22594 22653 0
-22595 22654 0
-22596 22655 0
-22597 22656 0
-22598 22657 0
-22599 22658 0
-22600 22659 0
-22601 22660 0
-22602 22661 0
-22603 22662 0
-22604 22663 0
-22605 22664 0
-22606 22665 0
-22607 22666 0
-22608 22667 0
-22609 22668 0
-22610 22669 0
-22611 22670 0
-22612 22671 0
-22613 22672 0
-22614 22673 0
-22615 22674 0
-22616 22675 0
-22617 22676 0
-22618 22677 0
-22619 22678 0
-22620 22679 0
-22621 22680 0
-22622 22681 0
-22623 22682 0
-22624 22683 0
-22625 22684 0
-22626 22685 0
-22627 22686 0
-22628 22687 0
-22629 22688 0
-22630 22689 0
-22631 22690 0
-22632 22691 0
-22633 22692 0
-22634 22693 0
-22635 22694 0
-22636 22695 0
-22637 22696 0
-22638 22697 0
-22639 22698 0
-22640 22699 0
-22641 22700 0
-22642 22701 0
-22643 22702 0
-22644 22703 0
-22645 22704 0
-22646 22705 0
-22647 22706 0
-1608 -22589 22649 0
-1608 -22590 22650 0
-1608 -22591 22651 0
-1608 -22592 22652 0
-1608 -22593 22653 0
-1608 -22594 22654 0
-1608 -22595 22655 0
-1608 -22596 22656 0
-1608 -22597 22657 0
-1608 -22598 22658 0
-1608 -22599 22659 0
-1608 -22600 22660 0
-1608 -22601 22661 0
-1608 -22602 22662 0
-1608 -22603 22663 0
-1608 -22604 22664 0
-1608 -22605 22665 0
-1608 -22606 22666 0
-1608 -22607 22667 0
-1608 -22608 22668 0
-1608 -22609 22669 0
-1608 -22610 22670 0
-1608 -22611 22671 0
-1608 -22612 22672 0
-1608 -22613 22673 0
-1608 -22614 22674 0
-1608 -22615 22675 0
-1608 -22616 22676 0
-1608 -22617 22677 0
-1608 -22618 22678 0
-1608 -22619 22679 0
-1608 -22620 22680 0
-1608 -22621 22681 0
-1608 -22622 22682 0
-1608 -22623 22683 0
-1608 -22624 22684 0
-1608 -22625 22685 0
-1608 -22626 22686 0
-1608 -22627 22687 0
-1608 -22628 22688 0
-1608 -22629 22689 0
-1608 -22630 22690 0
-1608 -22631 22691 0
-1608 -22632 22692 0
-1608 -22633 22693 0
-1608 -22634 22694 0
-1608 -22635 22695 0
-1608 -22636 22696 0
-1608 -22637 22697 0
-1608 -22638 22698 0
-1608 -22639 22699 0
-1608 -22640 22700 0
-1608 -22641 22701 0
-1608 -22642 22702 0
-1608 -22643 22703 0
-1608 -22644 22704 0
-1608 -22645 22705 0
-1608 -22646 22706 0
-1608 -22647 0
-22648 22707 0
-22649 22708 0
-22650 22709 0
-22651 22710 0
-22652 22711 0
-22653 22712 0
-22654 22713 0
-22655 22714 0
-22656 22715 0
-22657 22716 0
-22658 22717 0
-22659 22718 0
-22660 22719 0
-22661 22720 0
-22662 22721 0
-22663 22722 0
-22664 22723 0
-22665 22724 0
-22666 22725 0
-22667 22726 0
-22668 22727 0
-22669 22728 0
-22670 22729 0
-22671 22730 0
-22672 22731 0
-22673 22732 0
-22674 22733 0
-22675 22734 0
-22676 22735 0
-22677 22736 0
-22678 22737 0
-22679 22738 0
-22680 22739 0
-22681 22740 0
-22682 22741 0
-22683 22742 0
-22684 22743 0
-22685 22744 0
-22686 22745 0
-22687 22746 0
-22688 22747 0
-22689 22748 0
-22690 22749 0
-22691 22750 0
-22692 22751 0
-22693 22752 0
-22694 22753 0
-22695 22754 0
-22696 22755 0
-22697 22756 0
-22698 22757 0
-22699 22758 0
-22700 22759 0
-22701 22760 0
-22702 22761 0
-22703 22762 0
-22704 22763 0
-22705 22764 0
-22706 22765 0
-1610 -22648 22708 0
-1610 -22649 22709 0
-1610 -22650 22710 0
-1610 -22651 22711 0
-1610 -22652 22712 0
-1610 -22653 22713 0
-1610 -22654 22714 0
-1610 -22655 22715 0
-1610 -22656 22716 0
-1610 -22657 22717 0
-1610 -22658 22718 0
-1610 -22659 22719 0
-1610 -22660 22720 0
-1610 -22661 22721 0
-1610 -22662 22722 0
-1610 -22663 22723 0
-1610 -22664 22724 0
-1610 -22665 22725 0
-1610 -22666 22726 0
-1610 -22667 22727 0
-1610 -22668 22728 0
-1610 -22669 22729 0
-1610 -22670 22730 0
-1610 -22671 22731 0
-1610 -22672 22732 0
-1610 -22673 22733 0
-1610 -22674 22734 0
-1610 -22675 22735 0
-1610 -22676 22736 0
-1610 -22677 22737 0
-1610 -22678 22738 0
-1610 -22679 22739 0
-1610 -22680 22740 0
-1610 -22681 22741 0
-1610 -22682 22742 0
-1610 -22683 22743 0
-1610 -22684 22744 0
-1610 -22685 22745 0
-1610 -22686 22746 0
-1610 -22687 22747 0
-1610 -22688 22748 0
-1610 -22689 22749 0
-1610 -22690 22750 0
-1610 -22691 22751 0
-1610 -22692 22752 0
-1610 -22693 22753 0
-1610 -22694 22754 0
-1610 -22695 22755 0
-1610 -22696 22756 0
-1610 -22697 22757 0
-1610 -22698 22758 0
-1610 -22699 22759 0
-1610 -22700 22760 0
-1610 -22701 22761 0
-1610 -22702 22762 0
-1610 -22703 22763 0
-1610 -22704 22764 0
-1610 -22705 22765 0
-1610 -22706 0
-22707 22766 0
-22708 22767 0
-22709 22768 0
-22710 22769 0
-22711 22770 0
-22712 22771 0
-22713 22772 0
-22714 22773 0
-22715 22774 0
-22716 22775 0
-22717 22776 0
-22718 22777 0
-22719 22778 0
-22720 22779 0
-22721 22780 0
-22722 22781 0
-22723 22782 0
-22724 22783 0
-22725 22784 0
-22726 22785 0
-22727 22786 0
-22728 22787 0
-22729 22788 0
-22730 22789 0
-22731 22790 0
-22732 22791 0
-22733 22792 0
-22734 22793 0
-22735 22794 0
-22736 22795 0
-22737 22796 0
-22738 22797 0
-22739 22798 0
-22740 22799 0
-22741 22800 0
-22742 22801 0
-22743 22802 0
-22744 22803 0
-22745 22804 0
-22746 22805 0
-22747 22806 0
-22748 22807 0
-22749 22808 0
-22750 22809 0
-22751 22810 0
-22752 22811 0
-22753 22812 0
-22754 22813 0
-22755 22814 0
-22756 22815 0
-22757 22816 0
-22758 22817 0
-22759 22818 0
-22760 22819 0
-22761 22820 0
-22762 22821 0
-22763 22822 0
-22764 22823 0
-22765 22824 0
-1612 -22707 22767 0
-1612 -22708 22768 0
-1612 -22709 22769 0
-1612 -22710 22770 0
-1612 -22711 22771 0
-1612 -22712 22772 0
-1612 -22713 22773 0
-1612 -22714 22774 0
-1612 -22715 22775 0
-1612 -22716 22776 0
-1612 -22717 22777 0
-1612 -22718 22778 0
-1612 -22719 22779 0
-1612 -22720 22780 0
-1612 -22721 22781 0
-1612 -22722 22782 0
-1612 -22723 22783 0
-1612 -22724 22784 0
-1612 -22725 22785 0
-1612 -22726 22786 0
-1612 -22727 22787 0
-1612 -22728 22788 0
-1612 -22729 22789 0
-1612 -22730 22790 0
-1612 -22731 22791 0
-1612 -22732 22792 0
-1612 -22733 22793 0
-1612 -22734 22794 0
-1612 -22735 22795 0
-1612 -22736 22796 0
-1612 -22737 22797 0
-1612 -22738 22798 0
-1612 -22739 22799 0
-1612 -22740 22800 0
-1612 -22741 22801 0
-1612 -22742 22802 0
-1612 -22743 22803 0
-1612 -22744 22804 0
-1612 -22745 22805 0
-1612 -22746 22806 0
-1612 -22747 22807 0
-1612 -22748 22808 0
-1612 -22749 22809 0
-1612 -22750 22810 0
-1612 -22751 22811 0
-1612 -22752 22812 0
-1612 -22753 22813 0
-1612 -22754 22814 0
-1612 -22755 22815 0
-1612 -22756 22816 0
-1612 -22757 22817 0
-1612 -22758 22818 0
-1612 -22759 22819 0
-1612 -22760 22820 0
-1612 -22761 22821 0
-1612 -22762 22822 0
-1612 -22763 22823 0
-1612 -22764 22824 0
-1612 -22765 0
-22766 22825 0
-22767 22826 0
-22768 22827 0
-22769 22828 0
-22770 22829 0
-22771 22830 0
-22772 22831 0
-22773 22832 0
-22774 22833 0
-22775 22834 0
-22776 22835 0
-22777 22836 0
-22778 22837 0
-22779 22838 0
-22780 22839 0
-22781 22840 0
-22782 22841 0
-22783 22842 0
-22784 22843 0
-22785 22844 0
-22786 22845 0
-22787 22846 0
-22788 22847 0
-22789 22848 0
-22790 22849 0
-22791 22850 0
-22792 22851 0
-22793 22852 0
-22794 22853 0
-22795 22854 0
-22796 22855 0
-22797 22856 0
-22798 22857 0
-22799 22858 0
-22800 22859 0
-22801 22860 0
-22802 22861 0
-22803 22862 0
-22804 22863 0
-22805 22864 0
-22806 22865 0
-22807 22866 0
-22808 22867 0
-22809 22868 0
-22810 22869 0
-22811 22870 0
-22812 22871 0
-22813 22872 0
-22814 22873 0
-22815 22874 0
-22816 22875 0
-22817 22876 0
-22818 22877 0
-22819 22878 0
-22820 22879 0
-22821 22880 0
-22822 22881 0
-22823 22882 0
-22824 22883 0
-1614 -22766 22826 0
-1614 -22767 22827 0
-1614 -22768 22828 0
-1614 -22769 22829 0
-1614 -22770 22830 0
-1614 -22771 22831 0
-1614 -22772 22832 0
-1614 -22773 22833 0
-1614 -22774 22834 0
-1614 -22775 22835 0
-1614 -22776 22836 0
-1614 -22777 22837 0
-1614 -22778 22838 0
-1614 -22779 22839 0
-1614 -22780 22840 0
-1614 -22781 22841 0
-1614 -22782 22842 0
-1614 -22783 22843 0
-1614 -22784 22844 0
-1614 -22785 22845 0
-1614 -22786 22846 0
-1614 -22787 22847 0
-1614 -22788 22848 0
-1614 -22789 22849 0
-1614 -22790 22850 0
-1614 -22791 22851 0
-1614 -22792 22852 0
-1614 -22793 22853 0
-1614 -22794 22854 0
-1614 -22795 22855 0
-1614 -22796 22856 0
-1614 -22797 22857 0
-1614 -22798 22858 0
-1614 -22799 22859 0
-1614 -22800 22860 0
-1614 -22801 22861 0
-1614 -22802 22862 0
-1614 -22803 22863 0
-1614 -22804 22864 0
-1614 -22805 22865 0
-1614 -22806 22866 0
-1614 -22807 22867 0
-1614 -22808 22868 0
-1614 -22809 22869 0
-1614 -22810 22870 0
-1614 -22811 22871 0
-1614 -22812 22872 0
-1614 -22813 22873 0
-1614 -22814 22874 0
-1614 -22815 22875 0
-1614 -22816 22876 0
-1614 -22817 22877 0
-1614 -22818 22878 0
-1614 -22819 22879 0
-1614 -22820 22880 0
-1614 -22821 22881 0
-1614 -22822 22882 0
-1614 -22823 22883 0
-1614 -22824 0
-22825 22884 0
-22826 22885 0
-22827 22886 0
-22828 22887 0
-22829 22888 0
-22830 22889 0
-22831 22890 0
-22832 22891 0
-22833 22892 0
-22834 22893 0
-22835 22894 0
-22836 22895 0
-22837 22896 0
-22838 22897 0
-22839 22898 0
-22840 22899 0
-22841 22900 0
-22842 22901 0
-22843 22902 0
-22844 22903 0
-22845 22904 0
-22846 22905 0
-22847 22906 0
-22848 22907 0
-22849 22908 0
-22850 22909 0
-22851 22910 0
-22852 22911 0
-22853 22912 0
-22854 22913 0
-22855 22914 0
-22856 22915 0
-22857 22916 0
-22858 22917 0
-22859 22918 0
-22860 22919 0
-22861 22920 0
-22862 22921 0
-22863 22922 0
-22864 22923 0
-22865 22924 0
-22866 22925 0
-22867 22926 0
-22868 22927 0
-22869 22928 0
-22870 22929 0
-22871 22930 0
-22872 22931 0
-22873 22932 0
-22874 22933 0
-22875 22934 0
-22876 22935 0
-22877 22936 0
-22878 22937 0
-22879 22938 0
-22880 22939 0
-22881 22940 0
-22882 22941 0
-22883 22942 0
-1616 -22825 22885 0
-1616 -22826 22886 0
-1616 -22827 22887 0
-1616 -22828 22888 0
-1616 -22829 22889 0
-1616 -22830 22890 0
-1616 -22831 22891 0
-1616 -22832 22892 0
-1616 -22833 22893 0
-1616 -22834 22894 0
-1616 -22835 22895 0
-1616 -22836 22896 0
-1616 -22837 22897 0
-1616 -22838 22898 0
-1616 -22839 22899 0
-1616 -22840 22900 0
-1616 -22841 22901 0
-1616 -22842 22902 0
-1616 -22843 22903 0
-1616 -22844 22904 0
-1616 -22845 22905 0
-1616 -22846 22906 0
-1616 -22847 22907 0
-1616 -22848 22908 0
-1616 -22849 22909 0
-1616 -22850 22910 0
-1616 -22851 22911 0
-1616 -22852 22912 0
-1616 -22853 22913 0
-1616 -22854 22914 0
-1616 -22855 22915 0
-1616 -22856 22916 0
-1616 -22857 22917 0
-1616 -22858 22918 0
-1616 -22859 22919 0
-1616 -22860 22920 0
-1616 -22861 22921 0
-1616 -22862 22922 0
-1616 -22863 22923 0
-1616 -22864 22924 0
-1616 -22865 22925 0
-1616 -22866 22926 0
-1616 -22867 22927 0
-1616 -22868 22928 0
-1616 -22869 22929 0
-1616 -22870 22930 0
-1616 -22871 22931 0
-1616 -22872 22932 0
-1616 -22873 22933 0
-1616 -22874 22934 0
-1616 -22875 22935 0
-1616 -22876 22936 0
-1616 -22877 22937 0
-1616 -22878 22938 0
-1616 -22879 22939 0
-1616 -22880 22940 0
-1616 -22881 22941 0
-1616 -22882 22942 0
-1616 -22883 0
-22884 22943 0
-22885 22944 0
-22886 22945 0
-22887 22946 0
-22888 22947 0
-22889 22948 0
-22890 22949 0
-22891 22950 0
-22892 22951 0
-22893 22952 0
-22894 22953 0
-22895 22954 0
-22896 22955 0
-22897 22956 0
-22898 22957 0
-22899 22958 0
-22900 22959 0
-22901 22960 0
-22902 22961 0
-22903 22962 0
-22904 22963 0
-22905 22964 0
-22906 22965 0
-22907 22966 0
-22908 22967 0
-22909 22968 0
-22910 22969 0
-22911 22970 0
-22912 22971 0
-22913 22972 0
-22914 22973 0
-22915 22974 0
-22916 22975 0
-22917 22976 0
-22918 22977 0
-22919 22978 0
-22920 22979 0
-22921 22980 0
-22922 22981 0
-22923 22982 0
-22924 22983 0
-22925 22984 0
-22926 22985 0
-22927 22986 0
-22928 22987 0
-22929 22988 0
-22930 22989 0
-22931 22990 0
-22932 22991 0
-22933 22992 0
-22934 22993 0
-22935 22994 0
-22936 22995 0
-22937 22996 0
-22938 22997 0
-22939 22998 0
-22940 22999 0
-22941 23000 0
-22942 23001 0
-1618 -22884 22944 0
-1618 -22885 22945 0
-1618 -22886 22946 0
-1618 -22887 22947 0
-1618 -22888 22948 0
-1618 -22889 22949 0
-1618 -22890 22950 0
-1618 -22891 22951 0
-1618 -22892 22952 0
-1618 -22893 22953 0
-1618 -22894 22954 0
-1618 -22895 22955 0
-1618 -22896 22956 0
-1618 -22897 22957 0
-1618 -22898 22958 0
-1618 -22899 22959 0
-1618 -22900 22960 0
-1618 -22901 22961 0
-1618 -22902 22962 0
-1618 -22903 22963 0
-1618 -22904 22964 0
-1618 -22905 22965 0
-1618 -22906 22966 0
-1618 -22907 22967 0
-1618 -22908 22968 0
-1618 -22909 22969 0
-1618 -22910 22970 0
-1618 -22911 22971 0
-1618 -22912 22972 0
-1618 -22913 22973 0
-1618 -22914 22974 0
-1618 -22915 22975 0
-1618 -22916 22976 0
-1618 -22917 22977 0
-1618 -22918 22978 0
-1618 -22919 22979 0
-1618 -22920 22980 0
-1618 -22921 22981 0
-1618 -22922 22982 0
-1618 -22923 22983 0
-1618 -22924 22984 0
-1618 -22925 22985 0
-1618 -22926 22986 0
-1618 -22927 22987 0
-1618 -22928 22988 0
-1618 -22929 22989 0
-1618 -22930 22990 0
-1618 -22931 22991 0
-1618 -22932 22992 0
-1618 -22933 22993 0
-1618 -22934 22994 0
-1618 -22935 22995 0
-1618 -22936 22996 0
-1618 -22937 22997 0
-1618 -22938 22998 0
-1618 -22939 22999 0
-1618 -22940 23000 0
-1618 -22941 23001 0
-1618 -22942 0
-22943 23002 0
-22944 23003 0
-22945 23004 0
-22946 23005 0
-22947 23006 0
-22948 23007 0
-22949 23008 0
-22950 23009 0
-22951 23010 0
-22952 23011 0
-22953 23012 0
-22954 23013 0
-22955 23014 0
-22956 23015 0
-22957 23016 0
-22958 23017 0
-22959 23018 0
-22960 23019 0
-22961 23020 0
-22962 23021 0
-22963 23022 0
-22964 23023 0
-22965 23024 0
-22966 23025 0
-22967 23026 0
-22968 23027 0
-22969 23028 0
-22970 23029 0
-22971 23030 0
-22972 23031 0
-22973 23032 0
-22974 23033 0
-22975 23034 0
-22976 23035 0
-22977 23036 0
-22978 23037 0
-22979 23038 0
-22980 23039 0
-22981 23040 0
-22982 23041 0
-22983 23042 0
-22984 23043 0
-22985 23044 0
-22986 23045 0
-22987 23046 0
-22988 23047 0
-22989 23048 0
-22990 23049 0
-22991 23050 0
-22992 23051 0
-22993 23052 0
-22994 23053 0
-22995 23054 0
-22996 23055 0
-22997 23056 0
-22998 23057 0
-22999 23058 0
-23000 23059 0
-23001 23060 0
-1620 -22943 23003 0
-1620 -22944 23004 0
-1620 -22945 23005 0
-1620 -22946 23006 0
-1620 -22947 23007 0
-1620 -22948 23008 0
-1620 -22949 23009 0
-1620 -22950 23010 0
-1620 -22951 23011 0
-1620 -22952 23012 0
-1620 -22953 23013 0
-1620 -22954 23014 0
-1620 -22955 23015 0
-1620 -22956 23016 0
-1620 -22957 23017 0
-1620 -22958 23018 0
-1620 -22959 23019 0
-1620 -22960 23020 0
-1620 -22961 23021 0
-1620 -22962 23022 0
-1620 -22963 23023 0
-1620 -22964 23024 0
-1620 -22965 23025 0
-1620 -22966 23026 0
-1620 -22967 23027 0
-1620 -22968 23028 0
-1620 -22969 23029 0
-1620 -22970 23030 0
-1620 -22971 23031 0
-1620 -22972 23032 0
-1620 -22973 23033 0
-1620 -22974 23034 0
-1620 -22975 23035 0
-1620 -22976 23036 0
-1620 -22977 23037 0
-1620 -22978 23038 0
-1620 -22979 23039 0
-1620 -22980 23040 0
-1620 -22981 23041 0
-1620 -22982 23042 0
-1620 -22983 23043 0
-1620 -22984 23044 0
-1620 -22985 23045 0
-1620 -22986 23046 0
-1620 -22987 23047 0
-1620 -22988 23048 0
-1620 -22989 23049 0
-1620 -22990 23050 0
-1620 -22991 23051 0
-1620 -22992 23052 0
-1620 -22993 23053 0
-1620 -22994 23054 0
-1620 -22995 23055 0
-1620 -22996 23056 0
-1620 -22997 23057 0
-1620 -22998 23058 0
-1620 -22999 23059 0
-1620 -23000 23060 0
-1620 -23001 0
-23002 23061 0
-23003 23062 0
-23004 23063 0
-23005 23064 0
-23006 23065 0
-23007 23066 0
-23008 23067 0
-23009 23068 0
-23010 23069 0
-23011 23070 0
-23012 23071 0
-23013 23072 0
-23014 23073 0
-23015 23074 0
-23016 23075 0
-23017 23076 0
-23018 23077 0
-23019 23078 0
-23020 23079 0
-23021 23080 0
-23022 23081 0
-23023 23082 0
-23024 23083 0
-23025 23084 0
-23026 23085 0
-23027 23086 0
-23028 23087 0
-23029 23088 0
-23030 23089 0
-23031 23090 0
-23032 23091 0
-23033 23092 0
-23034 23093 0
-23035 23094 0
-23036 23095 0
-23037 23096 0
-23038 23097 0
-23039 23098 0
-23040 23099 0
-23041 23100 0
-23042 23101 0
-23043 23102 0
-23044 23103 0
-23045 23104 0
-23046 23105 0
-23047 23106 0
-23048 23107 0
-23049 23108 0
-23050 23109 0
-23051 23110 0
-23052 23111 0
-23053 23112 0
-23054 23113 0
-23055 23114 0
-23056 23115 0
-23057 23116 0
-23058 23117 0
-23059 23118 0
-23060 23119 0
-1622 -23002 23062 0
-1622 -23003 23063 0
-1622 -23004 23064 0
-1622 -23005 23065 0
-1622 -23006 23066 0
-1622 -23007 23067 0
-1622 -23008 23068 0
-1622 -23009 23069 0
-1622 -23010 23070 0
-1622 -23011 23071 0
-1622 -23012 23072 0
-1622 -23013 23073 0
-1622 -23014 23074 0
-1622 -23015 23075 0
-1622 -23016 23076 0
-1622 -23017 23077 0
-1622 -23018 23078 0
-1622 -23019 23079 0
-1622 -23020 23080 0
-1622 -23021 23081 0
-1622 -23022 23082 0
-1622 -23023 23083 0
-1622 -23024 23084 0
-1622 -23025 23085 0
-1622 -23026 23086 0
-1622 -23027 23087 0
-1622 -23028 23088 0
-1622 -23029 23089 0
-1622 -23030 23090 0
-1622 -23031 23091 0
-1622 -23032 23092 0
-1622 -23033 23093 0
-1622 -23034 23094 0
-1622 -23035 23095 0
-1622 -23036 23096 0
-1622 -23037 23097 0
-1622 -23038 23098 0
-1622 -23039 23099 0
-1622 -23040 23100 0
-1622 -23041 23101 0
-1622 -23042 23102 0
-1622 -23043 23103 0
-1622 -23044 23104 0
-1622 -23045 23105 0
-1622 -23046 23106 0
-1622 -23047 23107 0
-1622 -23048 23108 0
-1622 -23049 23109 0
-1622 -23050 23110 0
-1622 -23051 23111 0
-1622 -23052 23112 0
-1622 -23053 23113 0
-1622 -23054 23114 0
-1622 -23055 23115 0
-1622 -23056 23116 0
-1622 -23057 23117 0
-1622 -23058 23118 0
-1622 -23059 23119 0
-1622 -23060 0
-23061 23120 0
-23062 23121 0
-23063 23122 0
-23064 23123 0
-23065 23124 0
-23066 23125 0
-23067 23126 0
-23068 23127 0
-23069 23128 0
-23070 23129 0
-23071 23130 0
-23072 23131 0
-23073 23132 0
-23074 23133 0
-23075 23134 0
-23076 23135 0
-23077 23136 0
-23078 23137 0
-23079 23138 0
-23080 23139 0
-23081 23140 0
-23082 23141 0
-23083 23142 0
-23084 23143 0
-23085 23144 0
-23086 23145 0
-23087 23146 0
-23088 23147 0
-23089 23148 0
-23090 23149 0
-23091 23150 0
-23092 23151 0
-23093 23152 0
-23094 23153 0
-23095 23154 0
-23096 23155 0
-23097 23156 0
-23098 23157 0
-23099 23158 0
-23100 23159 0
-23101 23160 0
-23102 23161 0
-23103 23162 0
-23104 23163 0
-23105 23164 0
-23106 23165 0
-23107 23166 0
-23108 23167 0
-23109 23168 0
-23110 23169 0
-23111 23170 0
-23112 23171 0
-23113 23172 0
-23114 23173 0
-23115 23174 0
-23116 23175 0
-23117 23176 0
-23118 23177 0
-23119 23178 0
-1624 -23061 23121 0
-1624 -23062 23122 0
-1624 -23063 23123 0
-1624 -23064 23124 0
-1624 -23065 23125 0
-1624 -23066 23126 0
-1624 -23067 23127 0
-1624 -23068 23128 0
-1624 -23069 23129 0
-1624 -23070 23130 0
-1624 -23071 23131 0
-1624 -23072 23132 0
-1624 -23073 23133 0
-1624 -23074 23134 0
-1624 -23075 23135 0
-1624 -23076 23136 0
-1624 -23077 23137 0
-1624 -23078 23138 0
-1624 -23079 23139 0
-1624 -23080 23140 0
-1624 -23081 23141 0
-1624 -23082 23142 0
-1624 -23083 23143 0
-1624 -23084 23144 0
-1624 -23085 23145 0
-1624 -23086 23146 0
-1624 -23087 23147 0
-1624 -23088 23148 0
-1624 -23089 23149 0
-1624 -23090 23150 0
-1624 -23091 23151 0
-1624 -23092 23152 0
-1624 -23093 23153 0
-1624 -23094 23154 0
-1624 -23095 23155 0
-1624 -23096 23156 0
-1624 -23097 23157 0
-1624 -23098 23158 0
-1624 -23099 23159 0
-1624 -23100 23160 0
-1624 -23101 23161 0
-1624 -23102 23162 0
-1624 -23103 23163 0
-1624 -23104 23164 0
-1624 -23105 23165 0
-1624 -23106 23166 0
-1624 -23107 23167 0
-1624 -23108 23168 0
-1624 -23109 23169 0
-1624 -23110 23170 0
-1624 -23111 23171 0
-1624 -23112 23172 0
-1624 -23113 23173 0
-1624 -23114 23174 0
-1624 -23115 23175 0
-1624 -23116 23176 0
-1624 -23117 23177 0
-1624 -23118 23178 0
-1624 -23119 0
-23120 23179 0
-23121 23180 0
-23122 23181 0
-23123 23182 0
-23124 23183 0
-23125 23184 0
-23126 23185 0
-23127 23186 0
-23128 23187 0
-23129 23188 0
-23130 23189 0
-23131 23190 0
-23132 23191 0
-23133 23192 0
-23134 23193 0
-23135 23194 0
-23136 23195 0
-23137 23196 0
-23138 23197 0
-23139 23198 0
-23140 23199 0
-23141 23200 0
-23142 23201 0
-23143 23202 0
-23144 23203 0
-23145 23204 0
-23146 23205 0
-23147 23206 0
-23148 23207 0
-23149 23208 0
-23150 23209 0
-23151 23210 0
-23152 23211 0
-23153 23212 0
-23154 23213 0
-23155 23214 0
-23156 23215 0
-23157 23216 0
-23158 23217 0
-23159 23218 0
-23160 23219 0
-23161 23220 0
-23162 23221 0
-23163 23222 0
-23164 23223 0
-23165 23224 0
-23166 23225 0
-23167 23226 0
-23168 23227 0
-23169 23228 0
-23170 23229 0
-23171 23230 0
-23172 23231 0
-23173 23232 0
-23174 23233 0
-23175 23234 0
-23176 23235 0
-23177 23236 0
-23178 23237 0
-1626 -23120 23180 0
-1626 -23121 23181 0
-1626 -23122 23182 0
-1626 -23123 23183 0
-1626 -23124 23184 0
-1626 -23125 23185 0
-1626 -23126 23186 0
-1626 -23127 23187 0
-1626 -23128 23188 0
-1626 -23129 23189 0
-1626 -23130 23190 0
-1626 -23131 23191 0
-1626 -23132 23192 0
-1626 -23133 23193 0
-1626 -23134 23194 0
-1626 -23135 23195 0
-1626 -23136 23196 0
-1626 -23137 23197 0
-1626 -23138 23198 0
-1626 -23139 23199 0
-1626 -23140 23200 0
-1626 -23141 23201 0
-1626 -23142 23202 0
-1626 -23143 23203 0
-1626 -23144 23204 0
-1626 -23145 23205 0
-1626 -23146 23206 0
-1626 -23147 23207 0
-1626 -23148 23208 0
-1626 -23149 23209 0
-1626 -23150 23210 0
-1626 -23151 23211 0
-1626 -23152 23212 0
-1626 -23153 23213 0
-1626 -23154 23214 0
-1626 -23155 23215 0
-1626 -23156 23216 0
-1626 -23157 23217 0
-1626 -23158 23218 0
-1626 -23159 23219 0
-1626 -23160 23220 0
-1626 -23161 23221 0
-1626 -23162 23222 0
-1626 -23163 23223 0
-1626 -23164 23224 0
-1626 -23165 23225 0
-1626 -23166 23226 0
-1626 -23167 23227 0
-1626 -23168 23228 0
-1626 -23169 23229 0
-1626 -23170 23230 0
-1626 -23171 23231 0
-1626 -23172 23232 0
-1626 -23173 23233 0
-1626 -23174 23234 0
-1626 -23175 23235 0
-1626 -23176 23236 0
-1626 -23177 23237 0
-1626 -23178 0
-23179 23238 0
-23180 23239 0
-23181 23240 0
-23182 23241 0
-23183 23242 0
-23184 23243 0
-23185 23244 0
-23186 23245 0
-23187 23246 0
-23188 23247 0
-23189 23248 0
-23190 23249 0
-23191 23250 0
-23192 23251 0
-23193 23252 0
-23194 23253 0
-23195 23254 0
-23196 23255 0
-23197 23256 0
-23198 23257 0
-23199 23258 0
-23200 23259 0
-23201 23260 0
-23202 23261 0
-23203 23262 0
-23204 23263 0
-23205 23264 0
-23206 23265 0
-23207 23266 0
-23208 23267 0
-23209 23268 0
-23210 23269 0
-23211 23270 0
-23212 23271 0
-23213 23272 0
-23214 23273 0
-23215 23274 0
-23216 23275 0
-23217 23276 0
-23218 23277 0
-23219 23278 0
-23220 23279 0
-23221 23280 0
-23222 23281 0
-23223 23282 0
-23224 23283 0
-23225 23284 0
-23226 23285 0
-23227 23286 0
-23228 23287 0
-23229 23288 0
-23230 23289 0
-23231 23290 0
-23232 23291 0
-23233 23292 0
-23234 23293 0
-23235 23294 0
-23236 23295 0
-23237 23296 0
-1628 -23179 23239 0
-1628 -23180 23240 0
-1628 -23181 23241 0
-1628 -23182 23242 0
-1628 -23183 23243 0
-1628 -23184 23244 0
-1628 -23185 23245 0
-1628 -23186 23246 0
-1628 -23187 23247 0
-1628 -23188 23248 0
-1628 -23189 23249 0
-1628 -23190 23250 0
-1628 -23191 23251 0
-1628 -23192 23252 0
-1628 -23193 23253 0
-1628 -23194 23254 0
-1628 -23195 23255 0
-1628 -23196 23256 0
-1628 -23197 23257 0
-1628 -23198 23258 0
-1628 -23199 23259 0
-1628 -23200 23260 0
-1628 -23201 23261 0
-1628 -23202 23262 0
-1628 -23203 23263 0
-1628 -23204 23264 0
-1628 -23205 23265 0
-1628 -23206 23266 0
-1628 -23207 23267 0
-1628 -23208 23268 0
-1628 -23209 23269 0
-1628 -23210 23270 0
-1628 -23211 23271 0
-1628 -23212 23272 0
-1628 -23213 23273 0
-1628 -23214 23274 0
-1628 -23215 23275 0
-1628 -23216 23276 0
-1628 -23217 23277 0
-1628 -23218 23278 0
-1628 -23219 23279 0
-1628 -23220 23280 0
-1628 -23221 23281 0
-1628 -23222 23282 0
-1628 -23223 23283 0
-1628 -23224 23284 0
-1628 -23225 23285 0
-1628 -23226 23286 0
-1628 -23227 23287 0
-1628 -23228 23288 0
-1628 -23229 23289 0
-1628 -23230 23290 0
-1628 -23231 23291 0
-1628 -23232 23292 0
-1628 -23233 23293 0
-1628 -23234 23294 0
-1628 -23235 23295 0
-1628 -23236 23296 0
-1628 -23237 0
-23238 23297 0
-23239 23298 0
-23240 23299 0
-23241 23300 0
-23242 23301 0
-23243 23302 0
-23244 23303 0
-23245 23304 0
-23246 23305 0
-23247 23306 0
-23248 23307 0
-23249 23308 0
-23250 23309 0
-23251 23310 0
-23252 23311 0
-23253 23312 0
-23254 23313 0
-23255 23314 0
-23256 23315 0
-23257 23316 0
-23258 23317 0
-23259 23318 0
-23260 23319 0
-23261 23320 0
-23262 23321 0
-23263 23322 0
-23264 23323 0
-23265 23324 0
-23266 23325 0
-23267 23326 0
-23268 23327 0
-23269 23328 0
-23270 23329 0
-23271 23330 0
-23272 23331 0
-23273 23332 0
-23274 23333 0
-23275 23334 0
-23276 23335 0
-23277 23336 0
-23278 23337 0
-23279 23338 0
-23280 23339 0
-23281 23340 0
-23282 23341 0
-23283 23342 0
-23284 23343 0
-23285 23344 0
-23286 23345 0
-23287 23346 0
-23288 23347 0
-23289 23348 0
-23290 23349 0
-23291 23350 0
-23292 23351 0
-23293 23352 0
-23294 23353 0
-23295 23354 0
-23296 23355 0
-1630 -23238 23298 0
-1630 -23239 23299 0
-1630 -23240 23300 0
-1630 -23241 23301 0
-1630 -23242 23302 0
-1630 -23243 23303 0
-1630 -23244 23304 0
-1630 -23245 23305 0
-1630 -23246 23306 0
-1630 -23247 23307 0
-1630 -23248 23308 0
-1630 -23249 23309 0
-1630 -23250 23310 0
-1630 -23251 23311 0
-1630 -23252 23312 0
-1630 -23253 23313 0
-1630 -23254 23314 0
-1630 -23255 23315 0
-1630 -23256 23316 0
-1630 -23257 23317 0
-1630 -23258 23318 0
-1630 -23259 23319 0
-1630 -23260 23320 0
-1630 -23261 23321 0
-1630 -23262 23322 0
-1630 -23263 23323 0
-1630 -23264 23324 0
-1630 -23265 23325 0
-1630 -23266 23326 0
-1630 -23267 23327 0
-1630 -23268 23328 0
-1630 -23269 23329 0
-1630 -23270 23330 0
-1630 -23271 23331 0
-1630 -23272 23332 0
-1630 -23273 23333 0
-1630 -23274 23334 0
-1630 -23275 23335 0
-1630 -23276 23336 0
-1630 -23277 23337 0
-1630 -23278 23338 0
-1630 -23279 23339 0
-1630 -23280 23340 0
-1630 -23281 23341 0
-1630 -23282 23342 0
-1630 -23283 23343 0
-1630 -23284 23344 0
-1630 -23285 23345 0
-1630 -23286 23346 0
-1630 -23287 23347 0
-1630 -23288 23348 0
-1630 -23289 23349 0
-1630 -23290 23350 0
-1630 -23291 23351 0
-1630 -23292 23352 0
-1630 -23293 23353 0
-1630 -23294 23354 0
-1630 -23295 23355 0
-1630 -23296 0
-23297 23356 0
-23298 23357 0
-23299 23358 0
-23300 23359 0
-23301 23360 0
-23302 23361 0
-23303 23362 0
-23304 23363 0
-23305 23364 0
-23306 23365 0
-23307 23366 0
-23308 23367 0
-23309 23368 0
-23310 23369 0
-23311 23370 0
-23312 23371 0
-23313 23372 0
-23314 23373 0
-23315 23374 0
-23316 23375 0
-23317 23376 0
-23318 23377 0
-23319 23378 0
-23320 23379 0
-23321 23380 0
-23322 23381 0
-23323 23382 0
-23324 23383 0
-23325 23384 0
-23326 23385 0
-23327 23386 0
-23328 23387 0
-23329 23388 0
-23330 23389 0
-23331 23390 0
-23332 23391 0
-23333 23392 0
-23334 23393 0
-23335 23394 0
-23336 23395 0
-23337 23396 0
-23338 23397 0
-23339 23398 0
-23340 23399 0
-23341 23400 0
-23342 23401 0
-23343 23402 0
-23344 23403 0
-23345 23404 0
-23346 23405 0
-23347 23406 0
-23348 23407 0
-23349 23408 0
-23350 23409 0
-23351 23410 0
-23352 23411 0
-23353 23412 0
-23354 23413 0
-23355 23414 0
-1632 -23297 23357 0
-1632 -23298 23358 0
-1632 -23299 23359 0
-1632 -23300 23360 0
-1632 -23301 23361 0
-1632 -23302 23362 0
-1632 -23303 23363 0
-1632 -23304 23364 0
-1632 -23305 23365 0
-1632 -23306 23366 0
-1632 -23307 23367 0
-1632 -23308 23368 0
-1632 -23309 23369 0
-1632 -23310 23370 0
-1632 -23311 23371 0
-1632 -23312 23372 0
-1632 -23313 23373 0
-1632 -23314 23374 0
-1632 -23315 23375 0
-1632 -23316 23376 0
-1632 -23317 23377 0
-1632 -23318 23378 0
-1632 -23319 23379 0
-1632 -23320 23380 0
-1632 -23321 23381 0
-1632 -23322 23382 0
-1632 -23323 23383 0
-1632 -23324 23384 0
-1632 -23325 23385 0
-1632 -23326 23386 0
-1632 -23327 23387 0
-1632 -23328 23388 0
-1632 -23329 23389 0
-1632 -23330 23390 0
-1632 -23331 23391 0
-1632 -23332 23392 0
-1632 -23333 23393 0
-1632 -23334 23394 0
-1632 -23335 23395 0
-1632 -23336 23396 0
-1632 -23337 23397 0
-1632 -23338 23398 0
-1632 -23339 23399 0
-1632 -23340 23400 0
-1632 -23341 23401 0
-1632 -23342 23402 0
-1632 -23343 23403 0
-1632 -23344 23404 0
-1632 -23345 23405 0
-1632 -23346 23406 0
-1632 -23347 23407 0
-1632 -23348 23408 0
-1632 -23349 23409 0
-1632 -23350 23410 0
-1632 -23351 23411 0
-1632 -23352 23412 0
-1632 -23353 23413 0
-1632 -23354 23414 0
-1632 -23355 0
-23356 23415 0
-23357 23416 0
-23358 23417 0
-23359 23418 0
-23360 23419 0
-23361 23420 0
-23362 23421 0
-23363 23422 0
-23364 23423 0
-23365 23424 0
-23366 23425 0
-23367 23426 0
-23368 23427 0
-23369 23428 0
-23370 23429 0
-23371 23430 0
-23372 23431 0
-23373 23432 0
-23374 23433 0
-23375 23434 0
-23376 23435 0
-23377 23436 0
-23378 23437 0
-23379 23438 0
-23380 23439 0
-23381 23440 0
-23382 23441 0
-23383 23442 0
-23384 23443 0
-23385 23444 0
-23386 23445 0
-23387 23446 0
-23388 23447 0
-23389 23448 0
-23390 23449 0
-23391 23450 0
-23392 23451 0
-23393 23452 0
-23394 23453 0
-23395 23454 0
-23396 23455 0
-23397 23456 0
-23398 23457 0
-23399 23458 0
-23400 23459 0
-23401 23460 0
-23402 23461 0
-23403 23462 0
-23404 23463 0
-23405 23464 0
-23406 23465 0
-23407 23466 0
-23408 23467 0
-23409 23468 0
-23410 23469 0
-23411 23470 0
-23412 23471 0
-23413 23472 0
-23414 23473 0
-1634 -23356 23416 0
-1634 -23357 23417 0
-1634 -23358 23418 0
-1634 -23359 23419 0
-1634 -23360 23420 0
-1634 -23361 23421 0
-1634 -23362 23422 0
-1634 -23363 23423 0
-1634 -23364 23424 0
-1634 -23365 23425 0
-1634 -23366 23426 0
-1634 -23367 23427 0
-1634 -23368 23428 0
-1634 -23369 23429 0
-1634 -23370 23430 0
-1634 -23371 23431 0
-1634 -23372 23432 0
-1634 -23373 23433 0
-1634 -23374 23434 0
-1634 -23375 23435 0
-1634 -23376 23436 0
-1634 -23377 23437 0
-1634 -23378 23438 0
-1634 -23379 23439 0
-1634 -23380 23440 0
-1634 -23381 23441 0
-1634 -23382 23442 0
-1634 -23383 23443 0
-1634 -23384 23444 0
-1634 -23385 23445 0
-1634 -23386 23446 0
-1634 -23387 23447 0
-1634 -23388 23448 0
-1634 -23389 23449 0
-1634 -23390 23450 0
-1634 -23391 23451 0
-1634 -23392 23452 0
-1634 -23393 23453 0
-1634 -23394 23454 0
-1634 -23395 23455 0
-1634 -23396 23456 0
-1634 -23397 23457 0
-1634 -23398 23458 0
-1634 -23399 23459 0
-1634 -23400 23460 0
-1634 -23401 23461 0
-1634 -23402 23462 0
-1634 -23403 23463 0
-1634 -23404 23464 0
-1634 -23405 23465 0
-1634 -23406 23466 0
-1634 -23407 23467 0
-1634 -23408 23468 0
-1634 -23409 23469 0
-1634 -23410 23470 0
-1634 -23411 23471 0
-1634 -23412 23472 0
-1634 -23413 23473 0
-1634 -23414 0
-23415 23474 0
-23416 23475 0
-23417 23476 0
-23418 23477 0
-23419 23478 0
-23420 23479 0
-23421 23480 0
-23422 23481 0
-23423 23482 0
-23424 23483 0
-23425 23484 0
-23426 23485 0
-23427 23486 0
-23428 23487 0
-23429 23488 0
-23430 23489 0
-23431 23490 0
-23432 23491 0
-23433 23492 0
-23434 23493 0
-23435 23494 0
-23436 23495 0
-23437 23496 0
-23438 23497 0
-23439 23498 0
-23440 23499 0
-23441 23500 0
-23442 23501 0
-23443 23502 0
-23444 23503 0
-23445 23504 0
-23446 23505 0
-23447 23506 0
-23448 23507 0
-23449 23508 0
-23450 23509 0
-23451 23510 0
-23452 23511 0
-23453 23512 0
-23454 23513 0
-23455 23514 0
-23456 23515 0
-23457 23516 0
-23458 23517 0
-23459 23518 0
-23460 23519 0
-23461 23520 0
-23462 23521 0
-23463 23522 0
-23464 23523 0
-23465 23524 0
-23466 23525 0
-23467 23526 0
-23468 23527 0
-23469 23528 0
-23470 23529 0
-23471 23530 0
-23472 23531 0
-23473 23532 0
-1636 -23415 23475 0
-1636 -23416 23476 0
-1636 -23417 23477 0
-1636 -23418 23478 0
-1636 -23419 23479 0
-1636 -23420 23480 0
-1636 -23421 23481 0
-1636 -23422 23482 0
-1636 -23423 23483 0
-1636 -23424 23484 0
-1636 -23425 23485 0
-1636 -23426 23486 0
-1636 -23427 23487 0
-1636 -23428 23488 0
-1636 -23429 23489 0
-1636 -23430 23490 0
-1636 -23431 23491 0
-1636 -23432 23492 0
-1636 -23433 23493 0
-1636 -23434 23494 0
-1636 -23435 23495 0
-1636 -23436 23496 0
-1636 -23437 23497 0
-1636 -23438 23498 0
-1636 -23439 23499 0
-1636 -23440 23500 0
-1636 -23441 23501 0
-1636 -23442 23502 0
-1636 -23443 23503 0
-1636 -23444 23504 0
-1636 -23445 23505 0
-1636 -23446 23506 0
-1636 -23447 23507 0
-1636 -23448 23508 0
-1636 -23449 23509 0
-1636 -23450 23510 0
-1636 -23451 23511 0
-1636 -23452 23512 0
-1636 -23453 23513 0
-1636 -23454 23514 0
-1636 -23455 23515 0
-1636 -23456 23516 0
-1636 -23457 23517 0
-1636 -23458 23518 0
-1636 -23459 23519 0
-1636 -23460 23520 0
-1636 -23461 23521 0
-1636 -23462 23522 0
-1636 -23463 23523 0
-1636 -23464 23524 0
-1636 -23465 23525 0
-1636 -23466 23526 0
-1636 -23467 23527 0
-1636 -23468 23528 0
-1636 -23469 23529 0
-1636 -23470 23530 0
-1636 -23471 23531 0
-1636 -23472 23532 0
-1636 -23473 0
-23474 23533 0
-23475 23534 0
-23476 23535 0
-23477 23536 0
-23478 23537 0
-23479 23538 0
-23480 23539 0
-23481 23540 0
-23482 23541 0
-23483 23542 0
-23484 23543 0
-23485 23544 0
-23486 23545 0
-23487 23546 0
-23488 23547 0
-23489 23548 0
-23490 23549 0
-23491 23550 0
-23492 23551 0
-23493 23552 0
-23494 23553 0
-23495 23554 0
-23496 23555 0
-23497 23556 0
-23498 23557 0
-23499 23558 0
-23500 23559 0
-23501 23560 0
-23502 23561 0
-23503 23562 0
-23504 23563 0
-23505 23564 0
-23506 23565 0
-23507 23566 0
-23508 23567 0
-23509 23568 0
-23510 23569 0
-23511 23570 0
-23512 23571 0
-23513 23572 0
-23514 23573 0
-23515 23574 0
-23516 23575 0
-23517 23576 0
-23518 23577 0
-23519 23578 0
-23520 23579 0
-23521 23580 0
-23522 23581 0
-23523 23582 0
-23524 23583 0
-23525 23584 0
-23526 23585 0
-23527 23586 0
-23528 23587 0
-23529 23588 0
-23530 23589 0
-23531 23590 0
-23532 23591 0
-1638 -23474 23534 0
-1638 -23475 23535 0
-1638 -23476 23536 0
-1638 -23477 23537 0
-1638 -23478 23538 0
-1638 -23479 23539 0
-1638 -23480 23540 0
-1638 -23481 23541 0
-1638 -23482 23542 0
-1638 -23483 23543 0
-1638 -23484 23544 0
-1638 -23485 23545 0
-1638 -23486 23546 0
-1638 -23487 23547 0
-1638 -23488 23548 0
-1638 -23489 23549 0
-1638 -23490 23550 0
-1638 -23491 23551 0
-1638 -23492 23552 0
-1638 -23493 23553 0
-1638 -23494 23554 0
-1638 -23495 23555 0
-1638 -23496 23556 0
-1638 -23497 23557 0
-1638 -23498 23558 0
-1638 -23499 23559 0
-1638 -23500 23560 0
-1638 -23501 23561 0
-1638 -23502 23562 0
-1638 -23503 23563 0
-1638 -23504 23564 0
-1638 -23505 23565 0
-1638 -23506 23566 0
-1638 -23507 23567 0
-1638 -23508 23568 0
-1638 -23509 23569 0
-1638 -23510 23570 0
-1638 -23511 23571 0
-1638 -23512 23572 0
-1638 -23513 23573 0
-1638 -23514 23574 0
-1638 -23515 23575 0
-1638 -23516 23576 0
-1638 -23517 23577 0
-1638 -23518 23578 0
-1638 -23519 23579 0
-1638 -23520 23580 0
-1638 -23521 23581 0
-1638 -23522 23582 0
-1638 -23523 23583 0
-1638 -23524 23584 0
-1638 -23525 23585 0
-1638 -23526 23586 0
-1638 -23527 23587 0
-1638 -23528 23588 0
-1638 -23529 23589 0
-1638 -23530 23590 0
-1638 -23531 23591 0
-1638 -23532 0
-23533 23592 0
-23534 23593 0
-23535 23594 0
-23536 23595 0
-23537 23596 0
-23538 23597 0
-23539 23598 0
-23540 23599 0
-23541 23600 0
-23542 23601 0
-23543 23602 0
-23544 23603 0
-23545 23604 0
-23546 23605 0
-23547 23606 0
-23548 23607 0
-23549 23608 0
-23550 23609 0
-23551 23610 0
-23552 23611 0
-23553 23612 0
-23554 23613 0
-23555 23614 0
-23556 23615 0
-23557 23616 0
-23558 23617 0
-23559 23618 0
-23560 23619 0
-23561 23620 0
-23562 23621 0
-23563 23622 0
-23564 23623 0
-23565 23624 0
-23566 23625 0
-23567 23626 0
-23568 23627 0
-23569 23628 0
-23570 23629 0
-23571 23630 0
-23572 23631 0
-23573 23632 0
-23574 23633 0
-23575 23634 0
-23576 23635 0
-23577 23636 0
-23578 23637 0
-23579 23638 0
-23580 23639 0
-23581 23640 0
-23582 23641 0
-23583 23642 0
-23584 23643 0
-23585 23644 0
-23586 23645 0
-23587 23646 0
-23588 23647 0
-23589 23648 0
-23590 23649 0
-23591 23650 0
-1640 -23533 23593 0
-1640 -23534 23594 0
-1640 -23535 23595 0
-1640 -23536 23596 0
-1640 -23537 23597 0
-1640 -23538 23598 0
-1640 -23539 23599 0
-1640 -23540 23600 0
-1640 -23541 23601 0
-1640 -23542 23602 0
-1640 -23543 23603 0
-1640 -23544 23604 0
-1640 -23545 23605 0
-1640 -23546 23606 0
-1640 -23547 23607 0
-1640 -23548 23608 0
-1640 -23549 23609 0
-1640 -23550 23610 0
-1640 -23551 23611 0
-1640 -23552 23612 0
-1640 -23553 23613 0
-1640 -23554 23614 0
-1640 -23555 23615 0
-1640 -23556 23616 0
-1640 -23557 23617 0
-1640 -23558 23618 0
-1640 -23559 23619 0
-1640 -23560 23620 0
-1640 -23561 23621 0
-1640 -23562 23622 0
-1640 -23563 23623 0
-1640 -23564 23624 0
-1640 -23565 23625 0
-1640 -23566 23626 0
-1640 -23567 23627 0
-1640 -23568 23628 0
-1640 -23569 23629 0
-1640 -23570 23630 0
-1640 -23571 23631 0
-1640 -23572 23632 0
-1640 -23573 23633 0
-1640 -23574 23634 0
-1640 -23575 23635 0
-1640 -23576 23636 0
-1640 -23577 23637 0
-1640 -23578 23638 0
-1640 -23579 23639 0
-1640 -23580 23640 0
-1640 -23581 23641 0
-1640 -23582 23642 0
-1640 -23583 23643 0
-1640 -23584 23644 0
-1640 -23585 23645 0
-1640 -23586 23646 0
-1640 -23587 23647 0
-1640 -23588 23648 0
-1640 -23589 23649 0
-1640 -23590 23650 0
-1640 -23591 0
-23592 23651 0
-23593 23652 0
-23594 23653 0
-23595 23654 0
-23596 23655 0
-23597 23656 0
-23598 23657 0
-23599 23658 0
-23600 23659 0
-23601 23660 0
-23602 23661 0
-23603 23662 0
-23604 23663 0
-23605 23664 0
-23606 23665 0
-23607 23666 0
-23608 23667 0
-23609 23668 0
-23610 23669 0
-23611 23670 0
-23612 23671 0
-23613 23672 0
-23614 23673 0
-23615 23674 0
-23616 23675 0
-23617 23676 0
-23618 23677 0
-23619 23678 0
-23620 23679 0
-23621 23680 0
-23622 23681 0
-23623 23682 0
-23624 23683 0
-23625 23684 0
-23626 23685 0
-23627 23686 0
-23628 23687 0
-23629 23688 0
-23630 23689 0
-23631 23690 0
-23632 23691 0
-23633 23692 0
-23634 23693 0
-23635 23694 0
-23636 23695 0
-23637 23696 0
-23638 23697 0
-23639 23698 0
-23640 23699 0
-23641 23700 0
-23642 23701 0
-23643 23702 0
-23644 23703 0
-23645 23704 0
-23646 23705 0
-23647 23706 0
-23648 23707 0
-23649 23708 0
-23650 23709 0
-1642 -23592 23652 0
-1642 -23593 23653 0
-1642 -23594 23654 0
-1642 -23595 23655 0
-1642 -23596 23656 0
-1642 -23597 23657 0
-1642 -23598 23658 0
-1642 -23599 23659 0
-1642 -23600 23660 0
-1642 -23601 23661 0
-1642 -23602 23662 0
-1642 -23603 23663 0
-1642 -23604 23664 0
-1642 -23605 23665 0
-1642 -23606 23666 0
-1642 -23607 23667 0
-1642 -23608 23668 0
-1642 -23609 23669 0
-1642 -23610 23670 0
-1642 -23611 23671 0
-1642 -23612 23672 0
-1642 -23613 23673 0
-1642 -23614 23674 0
-1642 -23615 23675 0
-1642 -23616 23676 0
-1642 -23617 23677 0
-1642 -23618 23678 0
-1642 -23619 23679 0
-1642 -23620 23680 0
-1642 -23621 23681 0
-1642 -23622 23682 0
-1642 -23623 23683 0
-1642 -23624 23684 0
-1642 -23625 23685 0
-1642 -23626 23686 0
-1642 -23627 23687 0
-1642 -23628 23688 0
-1642 -23629 23689 0
-1642 -23630 23690 0
-1642 -23631 23691 0
-1642 -23632 23692 0
-1642 -23633 23693 0
-1642 -23634 23694 0
-1642 -23635 23695 0
-1642 -23636 23696 0
-1642 -23637 23697 0
-1642 -23638 23698 0
-1642 -23639 23699 0
-1642 -23640 23700 0
-1642 -23641 23701 0
-1642 -23642 23702 0
-1642 -23643 23703 0
-1642 -23644 23704 0
-1642 -23645 23705 0
-1642 -23646 23706 0
-1642 -23647 23707 0
-1642 -23648 23708 0
-1642 -23649 23709 0
-1642 -23650 0
-23651 23710 0
-23652 23711 0
-23653 23712 0
-23654 23713 0
-23655 23714 0
-23656 23715 0
-23657 23716 0
-23658 23717 0
-23659 23718 0
-23660 23719 0
-23661 23720 0
-23662 23721 0
-23663 23722 0
-23664 23723 0
-23665 23724 0
-23666 23725 0
-23667 23726 0
-23668 23727 0
-23669 23728 0
-23670 23729 0
-23671 23730 0
-23672 23731 0
-23673 23732 0
-23674 23733 0
-23675 23734 0
-23676 23735 0
-23677 23736 0
-23678 23737 0
-23679 23738 0
-23680 23739 0
-23681 23740 0
-23682 23741 0
-23683 23742 0
-23684 23743 0
-23685 23744 0
-23686 23745 0
-23687 23746 0
-23688 23747 0
-23689 23748 0
-23690 23749 0
-23691 23750 0
-23692 23751 0
-23693 23752 0
-23694 23753 0
-23695 23754 0
-23696 23755 0
-23697 23756 0
-23698 23757 0
-23699 23758 0
-23700 23759 0
-23701 23760 0
-23702 23761 0
-23703 23762 0
-23704 23763 0
-23705 23764 0
-23706 23765 0
-23707 23766 0
-23708 23767 0
-23709 23768 0
-1644 -23651 23711 0
-1644 -23652 23712 0
-1644 -23653 23713 0
-1644 -23654 23714 0
-1644 -23655 23715 0
-1644 -23656 23716 0
-1644 -23657 23717 0
-1644 -23658 23718 0
-1644 -23659 23719 0
-1644 -23660 23720 0
-1644 -23661 23721 0
-1644 -23662 23722 0
-1644 -23663 23723 0
-1644 -23664 23724 0
-1644 -23665 23725 0
-1644 -23666 23726 0
-1644 -23667 23727 0
-1644 -23668 23728 0
-1644 -23669 23729 0
-1644 -23670 23730 0
-1644 -23671 23731 0
-1644 -23672 23732 0
-1644 -23673 23733 0
-1644 -23674 23734 0
-1644 -23675 23735 0
-1644 -23676 23736 0
-1644 -23677 23737 0
-1644 -23678 23738 0
-1644 -23679 23739 0
-1644 -23680 23740 0
-1644 -23681 23741 0
-1644 -23682 23742 0
-1644 -23683 23743 0
-1644 -23684 23744 0
-1644 -23685 23745 0
-1644 -23686 23746 0
-1644 -23687 23747 0
-1644 -23688 23748 0
-1644 -23689 23749 0
-1644 -23690 23750 0
-1644 -23691 23751 0
-1644 -23692 23752 0
-1644 -23693 23753 0
-1644 -23694 23754 0
-1644 -23695 23755 0
-1644 -23696 23756 0
-1644 -23697 23757 0
-1644 -23698 23758 0
-1644 -23699 23759 0
-1644 -23700 23760 0
-1644 -23701 23761 0
-1644 -23702 23762 0
-1644 -23703 23763 0
-1644 -23704 23764 0
-1644 -23705 23765 0
-1644 -23706 23766 0
-1644 -23707 23767 0
-1644 -23708 23768 0
-1644 -23709 0
-23710 23769 0
-23711 23770 0
-23712 23771 0
-23713 23772 0
-23714 23773 0
-23715 23774 0
-23716 23775 0
-23717 23776 0
-23718 23777 0
-23719 23778 0
-23720 23779 0
-23721 23780 0
-23722 23781 0
-23723 23782 0
-23724 23783 0
-23725 23784 0
-23726 23785 0
-23727 23786 0
-23728 23787 0
-23729 23788 0
-23730 23789 0
-23731 23790 0
-23732 23791 0
-23733 23792 0
-23734 23793 0
-23735 23794 0
-23736 23795 0
-23737 23796 0
-23738 23797 0
-23739 23798 0
-23740 23799 0
-23741 23800 0
-23742 23801 0
-23743 23802 0
-23744 23803 0
-23745 23804 0
-23746 23805 0
-23747 23806 0
-23748 23807 0
-23749 23808 0
-23750 23809 0
-23751 23810 0
-23752 23811 0
-23753 23812 0
-23754 23813 0
-23755 23814 0
-23756 23815 0
-23757 23816 0
-23758 23817 0
-23759 23818 0
-23760 23819 0
-23761 23820 0
-23762 23821 0
-23763 23822 0
-23764 23823 0
-23765 23824 0
-23766 23825 0
-23767 23826 0
-23768 23827 0
-1646 -23710 23770 0
-1646 -23711 23771 0
-1646 -23712 23772 0
-1646 -23713 23773 0
-1646 -23714 23774 0
-1646 -23715 23775 0
-1646 -23716 23776 0
-1646 -23717 23777 0
-1646 -23718 23778 0
-1646 -23719 23779 0
-1646 -23720 23780 0
-1646 -23721 23781 0
-1646 -23722 23782 0
-1646 -23723 23783 0
-1646 -23724 23784 0
-1646 -23725 23785 0
-1646 -23726 23786 0
-1646 -23727 23787 0
-1646 -23728 23788 0
-1646 -23729 23789 0
-1646 -23730 23790 0
-1646 -23731 23791 0
-1646 -23732 23792 0
-1646 -23733 23793 0
-1646 -23734 23794 0
-1646 -23735 23795 0
-1646 -23736 23796 0
-1646 -23737 23797 0
-1646 -23738 23798 0
-1646 -23739 23799 0
-1646 -23740 23800 0
-1646 -23741 23801 0
-1646 -23742 23802 0
-1646 -23743 23803 0
-1646 -23744 23804 0
-1646 -23745 23805 0
-1646 -23746 23806 0
-1646 -23747 23807 0
-1646 -23748 23808 0
-1646 -23749 23809 0
-1646 -23750 23810 0
-1646 -23751 23811 0
-1646 -23752 23812 0
-1646 -23753 23813 0
-1646 -23754 23814 0
-1646 -23755 23815 0
-1646 -23756 23816 0
-1646 -23757 23817 0
-1646 -23758 23818 0
-1646 -23759 23819 0
-1646 -23760 23820 0
-1646 -23761 23821 0
-1646 -23762 23822 0
-1646 -23763 23823 0
-1646 -23764 23824 0
-1646 -23765 23825 0
-1646 -23766 23826 0
-1646 -23767 23827 0
-1646 -23768 0
-23769 23828 0
-23770 23829 0
-23771 23830 0
-23772 23831 0
-23773 23832 0
-23774 23833 0
-23775 23834 0
-23776 23835 0
-23777 23836 0
-23778 23837 0
-23779 23838 0
-23780 23839 0
-23781 23840 0
-23782 23841 0
-23783 23842 0
-23784 23843 0
-23785 23844 0
-23786 23845 0
-23787 23846 0
-23788 23847 0
-23789 23848 0
-23790 23849 0
-23791 23850 0
-23792 23851 0
-23793 23852 0
-23794 23853 0
-23795 23854 0
-23796 23855 0
-23797 23856 0
-23798 23857 0
-23799 23858 0
-23800 23859 0
-23801 23860 0
-23802 23861 0
-23803 23862 0
-23804 23863 0
-23805 23864 0
-23806 23865 0
-23807 23866 0
-23808 23867 0
-23809 23868 0
-23810 23869 0
-23811 23870 0
-23812 23871 0
-23813 23872 0
-23814 23873 0
-23815 23874 0
-23816 23875 0
-23817 23876 0
-23818 23877 0
-23819 23878 0
-23820 23879 0
-23821 23880 0
-23822 23881 0
-23823 23882 0
-23824 23883 0
-23825 23884 0
-23826 23885 0
-23827 23886 0
-1648 -23769 23829 0
-1648 -23770 23830 0
-1648 -23771 23831 0
-1648 -23772 23832 0
-1648 -23773 23833 0
-1648 -23774 23834 0
-1648 -23775 23835 0
-1648 -23776 23836 0
-1648 -23777 23837 0
-1648 -23778 23838 0
-1648 -23779 23839 0
-1648 -23780 23840 0
-1648 -23781 23841 0
-1648 -23782 23842 0
-1648 -23783 23843 0
-1648 -23784 23844 0
-1648 -23785 23845 0
-1648 -23786 23846 0
-1648 -23787 23847 0
-1648 -23788 23848 0
-1648 -23789 23849 0
-1648 -23790 23850 0
-1648 -23791 23851 0
-1648 -23792 23852 0
-1648 -23793 23853 0
-1648 -23794 23854 0
-1648 -23795 23855 0
-1648 -23796 23856 0
-1648 -23797 23857 0
-1648 -23798 23858 0
-1648 -23799 23859 0
-1648 -23800 23860 0
-1648 -23801 23861 0
-1648 -23802 23862 0
-1648 -23803 23863 0
-1648 -23804 23864 0
-1648 -23805 23865 0
-1648 -23806 23866 0
-1648 -23807 23867 0
-1648 -23808 23868 0
-1648 -23809 23869 0
-1648 -23810 23870 0
-1648 -23811 23871 0
-1648 -23812 23872 0
-1648 -23813 23873 0
-1648 -23814 23874 0
-1648 -23815 23875 0
-1648 -23816 23876 0
-1648 -23817 23877 0
-1648 -23818 23878 0
-1648 -23819 23879 0
-1648 -23820 23880 0
-1648 -23821 23881 0
-1648 -23822 23882 0
-1648 -23823 23883 0
-1648 -23824 23884 0
-1648 -23825 23885 0
-1648 -23826 23886 0
-1648 -23827 0
-23828 23887 0
-23829 23888 0
-23830 23889 0
-23831 23890 0
-23832 23891 0
-23833 23892 0
-23834 23893 0
-23835 23894 0
-23836 23895 0
-23837 23896 0
-23838 23897 0
-23839 23898 0
-23840 23899 0
-23841 23900 0
-23842 23901 0
-23843 23902 0
-23844 23903 0
-23845 23904 0
-23846 23905 0
-23847 23906 0
-23848 23907 0
-23849 23908 0
-23850 23909 0
-23851 23910 0
-23852 23911 0
-23853 23912 0
-23854 23913 0
-23855 23914 0
-23856 23915 0
-23857 23916 0
-23858 23917 0
-23859 23918 0
-23860 23919 0
-23861 23920 0
-23862 23921 0
-23863 23922 0
-23864 23923 0
-23865 23924 0
-23866 23925 0
-23867 23926 0
-23868 23927 0
-23869 23928 0
-23870 23929 0
-23871 23930 0
-23872 23931 0
-23873 23932 0
-23874 23933 0
-23875 23934 0
-23876 23935 0
-23877 23936 0
-23878 23937 0
-23879 23938 0
-23880 23939 0
-23881 23940 0
-23882 23941 0
-23883 23942 0
-23884 23943 0
-23885 23944 0
-23886 23945 0
-1650 -23828 23888 0
-1650 -23829 23889 0
-1650 -23830 23890 0
-1650 -23831 23891 0
-1650 -23832 23892 0
-1650 -23833 23893 0
-1650 -23834 23894 0
-1650 -23835 23895 0
-1650 -23836 23896 0
-1650 -23837 23897 0
-1650 -23838 23898 0
-1650 -23839 23899 0
-1650 -23840 23900 0
-1650 -23841 23901 0
-1650 -23842 23902 0
-1650 -23843 23903 0
-1650 -23844 23904 0
-1650 -23845 23905 0
-1650 -23846 23906 0
-1650 -23847 23907 0
-1650 -23848 23908 0
-1650 -23849 23909 0
-1650 -23850 23910 0
-1650 -23851 23911 0
-1650 -23852 23912 0
-1650 -23853 23913 0
-1650 -23854 23914 0
-1650 -23855 23915 0
-1650 -23856 23916 0
-1650 -23857 23917 0
-1650 -23858 23918 0
-1650 -23859 23919 0
-1650 -23860 23920 0
-1650 -23861 23921 0
-1650 -23862 23922 0
-1650 -23863 23923 0
-1650 -23864 23924 0
-1650 -23865 23925 0
-1650 -23866 23926 0
-1650 -23867 23927 0
-1650 -23868 23928 0
-1650 -23869 23929 0
-1650 -23870 23930 0
-1650 -23871 23931 0
-1650 -23872 23932 0
-1650 -23873 23933 0
-1650 -23874 23934 0
-1650 -23875 23935 0
-1650 -23876 23936 0
-1650 -23877 23937 0
-1650 -23878 23938 0
-1650 -23879 23939 0
-1650 -23880 23940 0
-1650 -23881 23941 0
-1650 -23882 23942 0
-1650 -23883 23943 0
-1650 -23884 23944 0
-1650 -23885 23945 0
-1650 -23886 0
-23887 23946 0
-23888 23947 0
-23889 23948 0
-23890 23949 0
-23891 23950 0
-23892 23951 0
-23893 23952 0
-23894 23953 0
-23895 23954 0
-23896 23955 0
-23897 23956 0
-23898 23957 0
-23899 23958 0
-23900 23959 0
-23901 23960 0
-23902 23961 0
-23903 23962 0
-23904 23963 0
-23905 23964 0
-23906 23965 0
-23907 23966 0
-23908 23967 0
-23909 23968 0
-23910 23969 0
-23911 23970 0
-23912 23971 0
-23913 23972 0
-23914 23973 0
-23915 23974 0
-23916 23975 0
-23917 23976 0
-23918 23977 0
-23919 23978 0
-23920 23979 0
-23921 23980 0
-23922 23981 0
-23923 23982 0
-23924 23983 0
-23925 23984 0
-23926 23985 0
-23927 23986 0
-23928 23987 0
-23929 23988 0
-23930 23989 0
-23931 23990 0
-23932 23991 0
-23933 23992 0
-23934 23993 0
-23935 23994 0
-23936 23995 0
-23937 23996 0
-23938 23997 0
-23939 23998 0
-23940 23999 0
-23941 24000 0
-23942 24001 0
-23943 24002 0
-23944 24003 0
-23945 24004 0
-1652 -23887 23947 0
-1652 -23888 23948 0
-1652 -23889 23949 0
-1652 -23890 23950 0
-1652 -23891 23951 0
-1652 -23892 23952 0
-1652 -23893 23953 0
-1652 -23894 23954 0
-1652 -23895 23955 0
-1652 -23896 23956 0
-1652 -23897 23957 0
-1652 -23898 23958 0
-1652 -23899 23959 0
-1652 -23900 23960 0
-1652 -23901 23961 0
-1652 -23902 23962 0
-1652 -23903 23963 0
-1652 -23904 23964 0
-1652 -23905 23965 0
-1652 -23906 23966 0
-1652 -23907 23967 0
-1652 -23908 23968 0
-1652 -23909 23969 0
-1652 -23910 23970 0
-1652 -23911 23971 0
-1652 -23912 23972 0
-1652 -23913 23973 0
-1652 -23914 23974 0
-1652 -23915 23975 0
-1652 -23916 23976 0
-1652 -23917 23977 0
-1652 -23918 23978 0
-1652 -23919 23979 0
-1652 -23920 23980 0
-1652 -23921 23981 0
-1652 -23922 23982 0
-1652 -23923 23983 0
-1652 -23924 23984 0
-1652 -23925 23985 0
-1652 -23926 23986 0
-1652 -23927 23987 0
-1652 -23928 23988 0
-1652 -23929 23989 0
-1652 -23930 23990 0
-1652 -23931 23991 0
-1652 -23932 23992 0
-1652 -23933 23993 0
-1652 -23934 23994 0
-1652 -23935 23995 0
-1652 -23936 23996 0
-1652 -23937 23997 0
-1652 -23938 23998 0
-1652 -23939 23999 0
-1652 -23940 24000 0
-1652 -23941 24001 0
-1652 -23942 24002 0
-1652 -23943 24003 0
-1652 -23944 24004 0
-1652 -23945 0
-23946 24005 0
-23947 24006 0
-23948 24007 0
-23949 24008 0
-23950 24009 0
-23951 24010 0
-23952 24011 0
-23953 24012 0
-23954 24013 0
-23955 24014 0
-23956 24015 0
-23957 24016 0
-23958 24017 0
-23959 24018 0
-23960 24019 0
-23961 24020 0
-23962 24021 0
-23963 24022 0
-23964 24023 0
-23965 24024 0
-23966 24025 0
-23967 24026 0
-23968 24027 0
-23969 24028 0
-23970 24029 0
-23971 24030 0
-23972 24031 0
-23973 24032 0
-23974 24033 0
-23975 24034 0
-23976 24035 0
-23977 24036 0
-23978 24037 0
-23979 24038 0
-23980 24039 0
-23981 24040 0
-23982 24041 0
-23983 24042 0
-23984 24043 0
-23985 24044 0
-23986 24045 0
-23987 24046 0
-23988 24047 0
-23989 24048 0
-23990 24049 0
-23991 24050 0
-23992 24051 0
-23993 24052 0
-23994 24053 0
-23995 24054 0
-23996 24055 0
-23997 24056 0
-23998 24057 0
-23999 24058 0
-24000 24059 0
-24001 24060 0
-24002 24061 0
-24003 24062 0
-24004 24063 0
-1654 -23946 24006 0
-1654 -23947 24007 0
-1654 -23948 24008 0
-1654 -23949 24009 0
-1654 -23950 24010 0
-1654 -23951 24011 0
-1654 -23952 24012 0
-1654 -23953 24013 0
-1654 -23954 24014 0
-1654 -23955 24015 0
-1654 -23956 24016 0
-1654 -23957 24017 0
-1654 -23958 24018 0
-1654 -23959 24019 0
-1654 -23960 24020 0
-1654 -23961 24021 0
-1654 -23962 24022 0
-1654 -23963 24023 0
-1654 -23964 24024 0
-1654 -23965 24025 0
-1654 -23966 24026 0
-1654 -23967 24027 0
-1654 -23968 24028 0
-1654 -23969 24029 0
-1654 -23970 24030 0
-1654 -23971 24031 0
-1654 -23972 24032 0
-1654 -23973 24033 0
-1654 -23974 24034 0
-1654 -23975 24035 0
-1654 -23976 24036 0
-1654 -23977 24037 0
-1654 -23978 24038 0
-1654 -23979 24039 0
-1654 -23980 24040 0
-1654 -23981 24041 0
-1654 -23982 24042 0
-1654 -23983 24043 0
-1654 -23984 24044 0
-1654 -23985 24045 0
-1654 -23986 24046 0
-1654 -23987 24047 0
-1654 -23988 24048 0
-1654 -23989 24049 0
-1654 -23990 24050 0
-1654 -23991 24051 0
-1654 -23992 24052 0
-1654 -23993 24053 0
-1654 -23994 24054 0
-1654 -23995 24055 0
-1654 -23996 24056 0
-1654 -23997 24057 0
-1654 -23998 24058 0
-1654 -23999 24059 0
-1654 -24000 24060 0
-1654 -24001 24061 0
-1654 -24002 24062 0
-1654 -24003 24063 0
-1654 -24004 0
-24005 24064 0
-24006 24065 0
-24007 24066 0
-24008 24067 0
-24009 24068 0
-24010 24069 0
-24011 24070 0
-24012 24071 0
-24013 24072 0
-24014 24073 0
-24015 24074 0
-24016 24075 0
-24017 24076 0
-24018 24077 0
-24019 24078 0
-24020 24079 0
-24021 24080 0
-24022 24081 0
-24023 24082 0
-24024 24083 0
-24025 24084 0
-24026 24085 0
-24027 24086 0
-24028 24087 0
-24029 24088 0
-24030 24089 0
-24031 24090 0
-24032 24091 0
-24033 24092 0
-24034 24093 0
-24035 24094 0
-24036 24095 0
-24037 24096 0
-24038 24097 0
-24039 24098 0
-24040 24099 0
-24041 24100 0
-24042 24101 0
-24043 24102 0
-24044 24103 0
-24045 24104 0
-24046 24105 0
-24047 24106 0
-24048 24107 0
-24049 24108 0
-24050 24109 0
-24051 24110 0
-24052 24111 0
-24053 24112 0
-24054 24113 0
-24055 24114 0
-24056 24115 0
-24057 24116 0
-24058 24117 0
-24059 24118 0
-24060 24119 0
-24061 24120 0
-24062 24121 0
-24063 24122 0
-1656 -24005 24065 0
-1656 -24006 24066 0
-1656 -24007 24067 0
-1656 -24008 24068 0
-1656 -24009 24069 0
-1656 -24010 24070 0
-1656 -24011 24071 0
-1656 -24012 24072 0
-1656 -24013 24073 0
-1656 -24014 24074 0
-1656 -24015 24075 0
-1656 -24016 24076 0
-1656 -24017 24077 0
-1656 -24018 24078 0
-1656 -24019 24079 0
-1656 -24020 24080 0
-1656 -24021 24081 0
-1656 -24022 24082 0
-1656 -24023 24083 0
-1656 -24024 24084 0
-1656 -24025 24085 0
-1656 -24026 24086 0
-1656 -24027 24087 0
-1656 -24028 24088 0
-1656 -24029 24089 0
-1656 -24030 24090 0
-1656 -24031 24091 0
-1656 -24032 24092 0
-1656 -24033 24093 0
-1656 -24034 24094 0
-1656 -24035 24095 0
-1656 -24036 24096 0
-1656 -24037 24097 0
-1656 -24038 24098 0
-1656 -24039 24099 0
-1656 -24040 24100 0
-1656 -24041 24101 0
-1656 -24042 24102 0
-1656 -24043 24103 0
-1656 -24044 24104 0
-1656 -24045 24105 0
-1656 -24046 24106 0
-1656 -24047 24107 0
-1656 -24048 24108 0
-1656 -24049 24109 0
-1656 -24050 24110 0
-1656 -24051 24111 0
-1656 -24052 24112 0
-1656 -24053 24113 0
-1656 -24054 24114 0
-1656 -24055 24115 0
-1656 -24056 24116 0
-1656 -24057 24117 0
-1656 -24058 24118 0
-1656 -24059 24119 0
-1656 -24060 24120 0
-1656 -24061 24121 0
-1656 -24062 24122 0
-1656 -24063 0
-24064 24123 0
-24065 24124 0
-24066 24125 0
-24067 24126 0
-24068 24127 0
-24069 24128 0
-24070 24129 0
-24071 24130 0
-24072 24131 0
-24073 24132 0
-24074 24133 0
-24075 24134 0
-24076 24135 0
-24077 24136 0
-24078 24137 0
-24079 24138 0
-24080 24139 0
-24081 24140 0
-24082 24141 0
-24083 24142 0
-24084 24143 0
-24085 24144 0
-24086 24145 0
-24087 24146 0
-24088 24147 0
-24089 24148 0
-24090 24149 0
-24091 24150 0
-24092 24151 0
-24093 24152 0
-24094 24153 0
-24095 24154 0
-24096 24155 0
-24097 24156 0
-24098 24157 0
-24099 24158 0
-24100 24159 0
-24101 24160 0
-24102 24161 0
-24103 24162 0
-24104 24163 0
-24105 24164 0
-24106 24165 0
-24107 24166 0
-24108 24167 0
-24109 24168 0
-24110 24169 0
-24111 24170 0
-24112 24171 0
-24113 24172 0
-24114 24173 0
-24115 24174 0
-24116 24175 0
-24117 24176 0
-24118 24177 0
-24119 24178 0
-24120 24179 0
-24121 24180 0
-24122 24181 0
-1658 -24064 24124 0
-1658 -24065 24125 0
-1658 -24066 24126 0
-1658 -24067 24127 0
-1658 -24068 24128 0
-1658 -24069 24129 0
-1658 -24070 24130 0
-1658 -24071 24131 0
-1658 -24072 24132 0
-1658 -24073 24133 0
-1658 -24074 24134 0
-1658 -24075 24135 0
-1658 -24076 24136 0
-1658 -24077 24137 0
-1658 -24078 24138 0
-1658 -24079 24139 0
-1658 -24080 24140 0
-1658 -24081 24141 0
-1658 -24082 24142 0
-1658 -24083 24143 0
-1658 -24084 24144 0
-1658 -24085 24145 0
-1658 -24086 24146 0
-1658 -24087 24147 0
-1658 -24088 24148 0
-1658 -24089 24149 0
-1658 -24090 24150 0
-1658 -24091 24151 0
-1658 -24092 24152 0
-1658 -24093 24153 0
-1658 -24094 24154 0
-1658 -24095 24155 0
-1658 -24096 24156 0
-1658 -24097 24157 0
-1658 -24098 24158 0
-1658 -24099 24159 0
-1658 -24100 24160 0
-1658 -24101 24161 0
-1658 -24102 24162 0
-1658 -24103 24163 0
-1658 -24104 24164 0
-1658 -24105 24165 0
-1658 -24106 24166 0
-1658 -24107 24167 0
-1658 -24108 24168 0
-1658 -24109 24169 0
-1658 -24110 24170 0
-1658 -24111 24171 0
-1658 -24112 24172 0
-1658 -24113 24173 0
-1658 -24114 24174 0
-1658 -24115 24175 0
-1658 -24116 24176 0
-1658 -24117 24177 0
-1658 -24118 24178 0
-1658 -24119 24179 0
-1658 -24120 24180 0
-1658 -24121 24181 0
-1658 -24122 0
-24123 24182 0
-24124 24183 0
-24125 24184 0
-24126 24185 0
-24127 24186 0
-24128 24187 0
-24129 24188 0
-24130 24189 0
-24131 24190 0
-24132 24191 0
-24133 24192 0
-24134 24193 0
-24135 24194 0
-24136 24195 0
-24137 24196 0
-24138 24197 0
-24139 24198 0
-24140 24199 0
-24141 24200 0
-24142 24201 0
-24143 24202 0
-24144 24203 0
-24145 24204 0
-24146 24205 0
-24147 24206 0
-24148 24207 0
-24149 24208 0
-24150 24209 0
-24151 24210 0
-24152 24211 0
-24153 24212 0
-24154 24213 0
-24155 24214 0
-24156 24215 0
-24157 24216 0
-24158 24217 0
-24159 24218 0
-24160 24219 0
-24161 24220 0
-24162 24221 0
-24163 24222 0
-24164 24223 0
-24165 24224 0
-24166 24225 0
-24167 24226 0
-24168 24227 0
-24169 24228 0
-24170 24229 0
-24171 24230 0
-24172 24231 0
-24173 24232 0
-24174 24233 0
-24175 24234 0
-24176 24235 0
-24177 24236 0
-24178 24237 0
-24179 24238 0
-24180 24239 0
-24181 24240 0
-1660 -24123 24183 0
-1660 -24124 24184 0
-1660 -24125 24185 0
-1660 -24126 24186 0
-1660 -24127 24187 0
-1660 -24128 24188 0
-1660 -24129 24189 0
-1660 -24130 24190 0
-1660 -24131 24191 0
-1660 -24132 24192 0
-1660 -24133 24193 0
-1660 -24134 24194 0
-1660 -24135 24195 0
-1660 -24136 24196 0
-1660 -24137 24197 0
-1660 -24138 24198 0
-1660 -24139 24199 0
-1660 -24140 24200 0
-1660 -24141 24201 0
-1660 -24142 24202 0
-1660 -24143 24203 0
-1660 -24144 24204 0
-1660 -24145 24205 0
-1660 -24146 24206 0
-1660 -24147 24207 0
-1660 -24148 24208 0
-1660 -24149 24209 0
-1660 -24150 24210 0
-1660 -24151 24211 0
-1660 -24152 24212 0
-1660 -24153 24213 0
-1660 -24154 24214 0
-1660 -24155 24215 0
-1660 -24156 24216 0
-1660 -24157 24217 0
-1660 -24158 24218 0
-1660 -24159 24219 0
-1660 -24160 24220 0
-1660 -24161 24221 0
-1660 -24162 24222 0
-1660 -24163 24223 0
-1660 -24164 24224 0
-1660 -24165 24225 0
-1660 -24166 24226 0
-1660 -24167 24227 0
-1660 -24168 24228 0
-1660 -24169 24229 0
-1660 -24170 24230 0
-1660 -24171 24231 0
-1660 -24172 24232 0
-1660 -24173 24233 0
-1660 -24174 24234 0
-1660 -24175 24235 0
-1660 -24176 24236 0
-1660 -24177 24237 0
-1660 -24178 24238 0
-1660 -24179 24239 0
-1660 -24180 24240 0
-1660 -24181 0
-24182 24241 0
-24183 24242 0
-24184 24243 0
-24185 24244 0
-24186 24245 0
-24187 24246 0
-24188 24247 0
-24189 24248 0
-24190 24249 0
-24191 24250 0
-24192 24251 0
-24193 24252 0
-24194 24253 0
-24195 24254 0
-24196 24255 0
-24197 24256 0
-24198 24257 0
-24199 24258 0
-24200 24259 0
-24201 24260 0
-24202 24261 0
-24203 24262 0
-24204 24263 0
-24205 24264 0
-24206 24265 0
-24207 24266 0
-24208 24267 0
-24209 24268 0
-24210 24269 0
-24211 24270 0
-24212 24271 0
-24213 24272 0
-24214 24273 0
-24215 24274 0
-24216 24275 0
-24217 24276 0
-24218 24277 0
-24219 24278 0
-24220 24279 0
-24221 24280 0
-24222 24281 0
-24223 24282 0
-24224 24283 0
-24225 24284 0
-24226 24285 0
-24227 24286 0
-24228 24287 0
-24229 24288 0
-24230 24289 0
-24231 24290 0
-24232 24291 0
-24233 24292 0
-24234 24293 0
-24235 24294 0
-24236 24295 0
-24237 24296 0
-24238 24297 0
-24239 24298 0
-24240 24299 0
-1662 -24182 24242 0
-1662 -24183 24243 0
-1662 -24184 24244 0
-1662 -24185 24245 0
-1662 -24186 24246 0
-1662 -24187 24247 0
-1662 -24188 24248 0
-1662 -24189 24249 0
-1662 -24190 24250 0
-1662 -24191 24251 0
-1662 -24192 24252 0
-1662 -24193 24253 0
-1662 -24194 24254 0
-1662 -24195 24255 0
-1662 -24196 24256 0
-1662 -24197 24257 0
-1662 -24198 24258 0
-1662 -24199 24259 0
-1662 -24200 24260 0
-1662 -24201 24261 0
-1662 -24202 24262 0
-1662 -24203 24263 0
-1662 -24204 24264 0
-1662 -24205 24265 0
-1662 -24206 24266 0
-1662 -24207 24267 0
-1662 -24208 24268 0
-1662 -24209 24269 0
-1662 -24210 24270 0
-1662 -24211 24271 0
-1662 -24212 24272 0
-1662 -24213 24273 0
-1662 -24214 24274 0
-1662 -24215 24275 0
-1662 -24216 24276 0
-1662 -24217 24277 0
-1662 -24218 24278 0
-1662 -24219 24279 0
-1662 -24220 24280 0
-1662 -24221 24281 0
-1662 -24222 24282 0
-1662 -24223 24283 0
-1662 -24224 24284 0
-1662 -24225 24285 0
-1662 -24226 24286 0
-1662 -24227 24287 0
-1662 -24228 24288 0
-1662 -24229 24289 0
-1662 -24230 24290 0
-1662 -24231 24291 0
-1662 -24232 24292 0
-1662 -24233 24293 0
-1662 -24234 24294 0
-1662 -24235 24295 0
-1662 -24236 24296 0
-1662 -24237 24297 0
-1662 -24238 24298 0
-1662 -24239 24299 0
-1662 -24240 0
-24241 24300 0
-24242 24301 0
-24243 24302 0
-24244 24303 0
-24245 24304 0
-24246 24305 0
-24247 24306 0
-24248 24307 0
-24249 24308 0
-24250 24309 0
-24251 24310 0
-24252 24311 0
-24253 24312 0
-24254 24313 0
-24255 24314 0
-24256 24315 0
-24257 24316 0
-24258 24317 0
-24259 24318 0
-24260 24319 0
-24261 24320 0
-24262 24321 0
-24263 24322 0
-24264 24323 0
-24265 24324 0
-24266 24325 0
-24267 24326 0
-24268 24327 0
-24269 24328 0
-24270 24329 0
-24271 24330 0
-24272 24331 0
-24273 24332 0
-24274 24333 0
-24275 24334 0
-24276 24335 0
-24277 24336 0
-24278 24337 0
-24279 24338 0
-24280 24339 0
-24281 24340 0
-24282 24341 0
-24283 24342 0
-24284 24343 0
-24285 24344 0
-24286 24345 0
-24287 24346 0
-24288 24347 0
-24289 24348 0
-24290 24349 0
-24291 24350 0
-24292 24351 0
-24293 24352 0
-24294 24353 0
-24295 24354 0
-24296 24355 0
-24297 24356 0
-24298 24357 0
-24299 24358 0
-1664 -24241 24301 0
-1664 -24242 24302 0
-1664 -24243 24303 0
-1664 -24244 24304 0
-1664 -24245 24305 0
-1664 -24246 24306 0
-1664 -24247 24307 0
-1664 -24248 24308 0
-1664 -24249 24309 0
-1664 -24250 24310 0
-1664 -24251 24311 0
-1664 -24252 24312 0
-1664 -24253 24313 0
-1664 -24254 24314 0
-1664 -24255 24315 0
-1664 -24256 24316 0
-1664 -24257 24317 0
-1664 -24258 24318 0
-1664 -24259 24319 0
-1664 -24260 24320 0
-1664 -24261 24321 0
-1664 -24262 24322 0
-1664 -24263 24323 0
-1664 -24264 24324 0
-1664 -24265 24325 0
-1664 -24266 24326 0
-1664 -24267 24327 0
-1664 -24268 24328 0
-1664 -24269 24329 0
-1664 -24270 24330 0
-1664 -24271 24331 0
-1664 -24272 24332 0
-1664 -24273 24333 0
-1664 -24274 24334 0
-1664 -24275 24335 0
-1664 -24276 24336 0
-1664 -24277 24337 0
-1664 -24278 24338 0
-1664 -24279 24339 0
-1664 -24280 24340 0
-1664 -24281 24341 0
-1664 -24282 24342 0
-1664 -24283 24343 0
-1664 -24284 24344 0
-1664 -24285 24345 0
-1664 -24286 24346 0
-1664 -24287 24347 0
-1664 -24288 24348 0
-1664 -24289 24349 0
-1664 -24290 24350 0
-1664 -24291 24351 0
-1664 -24292 24352 0
-1664 -24293 24353 0
-1664 -24294 24354 0
-1664 -24295 24355 0
-1664 -24296 24356 0
-1664 -24297 24357 0
-1664 -24298 24358 0
-1664 -24299 0
-24300 24359 0
-24301 24360 0
-24302 24361 0
-24303 24362 0
-24304 24363 0
-24305 24364 0
-24306 24365 0
-24307 24366 0
-24308 24367 0
-24309 24368 0
-24310 24369 0
-24311 24370 0
-24312 24371 0
-24313 24372 0
-24314 24373 0
-24315 24374 0
-24316 24375 0
-24317 24376 0
-24318 24377 0
-24319 24378 0
-24320 24379 0
-24321 24380 0
-24322 24381 0
-24323 24382 0
-24324 24383 0
-24325 24384 0
-24326 24385 0
-24327 24386 0
-24328 24387 0
-24329 24388 0
-24330 24389 0
-24331 24390 0
-24332 24391 0
-24333 24392 0
-24334 24393 0
-24335 24394 0
-24336 24395 0
-24337 24396 0
-24338 24397 0
-24339 24398 0
-24340 24399 0
-24341 24400 0
-24342 24401 0
-24343 24402 0
-24344 24403 0
-24345 24404 0
-24346 24405 0
-24347 24406 0
-24348 24407 0
-24349 24408 0
-24350 24409 0
-24351 24410 0
-24352 24411 0
-24353 24412 0
-24354 24413 0
-24355 24414 0
-24356 24415 0
-24357 24416 0
-24358 24417 0
-1666 -24300 24360 0
-1666 -24301 24361 0
-1666 -24302 24362 0
-1666 -24303 24363 0
-1666 -24304 24364 0
-1666 -24305 24365 0
-1666 -24306 24366 0
-1666 -24307 24367 0
-1666 -24308 24368 0
-1666 -24309 24369 0
-1666 -24310 24370 0
-1666 -24311 24371 0
-1666 -24312 24372 0
-1666 -24313 24373 0
-1666 -24314 24374 0
-1666 -24315 24375 0
-1666 -24316 24376 0
-1666 -24317 24377 0
-1666 -24318 24378 0
-1666 -24319 24379 0
-1666 -24320 24380 0
-1666 -24321 24381 0
-1666 -24322 24382 0
-1666 -24323 24383 0
-1666 -24324 24384 0
-1666 -24325 24385 0
-1666 -24326 24386 0
-1666 -24327 24387 0
-1666 -24328 24388 0
-1666 -24329 24389 0
-1666 -24330 24390 0
-1666 -24331 24391 0
-1666 -24332 24392 0
-1666 -24333 24393 0
-1666 -24334 24394 0
-1666 -24335 24395 0
-1666 -24336 24396 0
-1666 -24337 24397 0
-1666 -24338 24398 0
-1666 -24339 24399 0
-1666 -24340 24400 0
-1666 -24341 24401 0
-1666 -24342 24402 0
-1666 -24343 24403 0
-1666 -24344 24404 0
-1666 -24345 24405 0
-1666 -24346 24406 0
-1666 -24347 24407 0
-1666 -24348 24408 0
-1666 -24349 24409 0
-1666 -24350 24410 0
-1666 -24351 24411 0
-1666 -24352 24412 0
-1666 -24353 24413 0
-1666 -24354 24414 0
-1666 -24355 24415 0
-1666 -24356 24416 0
-1666 -24357 24417 0
-1666 -24358 0
-24359 24418 0
-24360 24419 0
-24361 24420 0
-24362 24421 0
-24363 24422 0
-24364 24423 0
-24365 24424 0
-24366 24425 0
-24367 24426 0
-24368 24427 0
-24369 24428 0
-24370 24429 0
-24371 24430 0
-24372 24431 0
-24373 24432 0
-24374 24433 0
-24375 24434 0
-24376 24435 0
-24377 24436 0
-24378 24437 0
-24379 24438 0
-24380 24439 0
-24381 24440 0
-24382 24441 0
-24383 24442 0
-24384 24443 0
-24385 24444 0
-24386 24445 0
-24387 24446 0
-24388 24447 0
-24389 24448 0
-24390 24449 0
-24391 24450 0
-24392 24451 0
-24393 24452 0
-24394 24453 0
-24395 24454 0
-24396 24455 0
-24397 24456 0
-24398 24457 0
-24399 24458 0
-24400 24459 0
-24401 24460 0
-24402 24461 0
-24403 24462 0
-24404 24463 0
-24405 24464 0
-24406 24465 0
-24407 24466 0
-24408 24467 0
-24409 24468 0
-24410 24469 0
-24411 24470 0
-24412 24471 0
-24413 24472 0
-24414 24473 0
-24415 24474 0
-24416 24475 0
-24417 24476 0
-1668 -24359 24419 0
-1668 -24360 24420 0
-1668 -24361 24421 0
-1668 -24362 24422 0
-1668 -24363 24423 0
-1668 -24364 24424 0
-1668 -24365 24425 0
-1668 -24366 24426 0
-1668 -24367 24427 0
-1668 -24368 24428 0
-1668 -24369 24429 0
-1668 -24370 24430 0
-1668 -24371 24431 0
-1668 -24372 24432 0
-1668 -24373 24433 0
-1668 -24374 24434 0
-1668 -24375 24435 0
-1668 -24376 24436 0
-1668 -24377 24437 0
-1668 -24378 24438 0
-1668 -24379 24439 0
-1668 -24380 24440 0
-1668 -24381 24441 0
-1668 -24382 24442 0
-1668 -24383 24443 0
-1668 -24384 24444 0
-1668 -24385 24445 0
-1668 -24386 24446 0
-1668 -24387 24447 0
-1668 -24388 24448 0
-1668 -24389 24449 0
-1668 -24390 24450 0
-1668 -24391 24451 0
-1668 -24392 24452 0
-1668 -24393 24453 0
-1668 -24394 24454 0
-1668 -24395 24455 0
-1668 -24396 24456 0
-1668 -24397 24457 0
-1668 -24398 24458 0
-1668 -24399 24459 0
-1668 -24400 24460 0
-1668 -24401 24461 0
-1668 -24402 24462 0
-1668 -24403 24463 0
-1668 -24404 24464 0
-1668 -24405 24465 0
-1668 -24406 24466 0
-1668 -24407 24467 0
-1668 -24408 24468 0
-1668 -24409 24469 0
-1668 -24410 24470 0
-1668 -24411 24471 0
-1668 -24412 24472 0
-1668 -24413 24473 0
-1668 -24414 24474 0
-1668 -24415 24475 0
-1668 -24416 24476 0
-1668 -24417 0
-24418 24477 0
-24419 24478 0
-24420 24479 0
-24421 24480 0
-24422 24481 0
-24423 24482 0
-24424 24483 0
-24425 24484 0
-24426 24485 0
-24427 24486 0
-24428 24487 0
-24429 24488 0
-24430 24489 0
-24431 24490 0
-24432 24491 0
-24433 24492 0
-24434 24493 0
-24435 24494 0
-24436 24495 0
-24437 24496 0
-24438 24497 0
-24439 24498 0
-24440 24499 0
-24441 24500 0
-24442 24501 0
-24443 24502 0
-24444 24503 0
-24445 24504 0
-24446 24505 0
-24447 24506 0
-24448 24507 0
-24449 24508 0
-24450 24509 0
-24451 24510 0
-24452 24511 0
-24453 24512 0
-24454 24513 0
-24455 24514 0
-24456 24515 0
-24457 24516 0
-24458 24517 0
-24459 24518 0
-24460 24519 0
-24461 24520 0
-24462 24521 0
-24463 24522 0
-24464 24523 0
-24465 24524 0
-24466 24525 0
-24467 24526 0
-24468 24527 0
-24469 24528 0
-24470 24529 0
-24471 24530 0
-24472 24531 0
-24473 24532 0
-24474 24533 0
-24475 24534 0
-24476 24535 0
-1670 -24418 24478 0
-1670 -24419 24479 0
-1670 -24420 24480 0
-1670 -24421 24481 0
-1670 -24422 24482 0
-1670 -24423 24483 0
-1670 -24424 24484 0
-1670 -24425 24485 0
-1670 -24426 24486 0
-1670 -24427 24487 0
-1670 -24428 24488 0
-1670 -24429 24489 0
-1670 -24430 24490 0
-1670 -24431 24491 0
-1670 -24432 24492 0
-1670 -24433 24493 0
-1670 -24434 24494 0
-1670 -24435 24495 0
-1670 -24436 24496 0
-1670 -24437 24497 0
-1670 -24438 24498 0
-1670 -24439 24499 0
-1670 -24440 24500 0
-1670 -24441 24501 0
-1670 -24442 24502 0
-1670 -24443 24503 0
-1670 -24444 24504 0
-1670 -24445 24505 0
-1670 -24446 24506 0
-1670 -24447 24507 0
-1670 -24448 24508 0
-1670 -24449 24509 0
-1670 -24450 24510 0
-1670 -24451 24511 0
-1670 -24452 24512 0
-1670 -24453 24513 0
-1670 -24454 24514 0
-1670 -24455 24515 0
-1670 -24456 24516 0
-1670 -24457 24517 0
-1670 -24458 24518 0
-1670 -24459 24519 0
-1670 -24460 24520 0
-1670 -24461 24521 0
-1670 -24462 24522 0
-1670 -24463 24523 0
-1670 -24464 24524 0
-1670 -24465 24525 0
-1670 -24466 24526 0
-1670 -24467 24527 0
-1670 -24468 24528 0
-1670 -24469 24529 0
-1670 -24470 24530 0
-1670 -24471 24531 0
-1670 -24472 24532 0
-1670 -24473 24533 0
-1670 -24474 24534 0
-1670 -24475 24535 0
-1670 -24476 0
-24477 24536 0
-24478 24537 0
-24479 24538 0
-24480 24539 0
-24481 24540 0
-24482 24541 0
-24483 24542 0
-24484 24543 0
-24485 24544 0
-24486 24545 0
-24487 24546 0
-24488 24547 0
-24489 24548 0
-24490 24549 0
-24491 24550 0
-24492 24551 0
-24493 24552 0
-24494 24553 0
-24495 24554 0
-24496 24555 0
-24497 24556 0
-24498 24557 0
-24499 24558 0
-24500 24559 0
-24501 24560 0
-24502 24561 0
-24503 24562 0
-24504 24563 0
-24505 24564 0
-24506 24565 0
-24507 24566 0
-24508 24567 0
-24509 24568 0
-24510 24569 0
-24511 24570 0
-24512 24571 0
-24513 24572 0
-24514 24573 0
-24515 24574 0
-24516 24575 0
-24517 24576 0
-24518 24577 0
-24519 24578 0
-24520 24579 0
-24521 24580 0
-24522 24581 0
-24523 24582 0
-24524 24583 0
-24525 24584 0
-24526 24585 0
-24527 24586 0
-24528 24587 0
-24529 24588 0
-24530 24589 0
-24531 24590 0
-24532 24591 0
-24533 24592 0
-24534 24593 0
-24535 24594 0
-1672 -24477 24537 0
-1672 -24478 24538 0
-1672 -24479 24539 0
-1672 -24480 24540 0
-1672 -24481 24541 0
-1672 -24482 24542 0
-1672 -24483 24543 0
-1672 -24484 24544 0
-1672 -24485 24545 0
-1672 -24486 24546 0
-1672 -24487 24547 0
-1672 -24488 24548 0
-1672 -24489 24549 0
-1672 -24490 24550 0
-1672 -24491 24551 0
-1672 -24492 24552 0
-1672 -24493 24553 0
-1672 -24494 24554 0
-1672 -24495 24555 0
-1672 -24496 24556 0
-1672 -24497 24557 0
-1672 -24498 24558 0
-1672 -24499 24559 0
-1672 -24500 24560 0
-1672 -24501 24561 0
-1672 -24502 24562 0
-1672 -24503 24563 0
-1672 -24504 24564 0
-1672 -24505 24565 0
-1672 -24506 24566 0
-1672 -24507 24567 0
-1672 -24508 24568 0
-1672 -24509 24569 0
-1672 -24510 24570 0
-1672 -24511 24571 0
-1672 -24512 24572 0
-1672 -24513 24573 0
-1672 -24514 24574 0
-1672 -24515 24575 0
-1672 -24516 24576 0
-1672 -24517 24577 0
-1672 -24518 24578 0
-1672 -24519 24579 0
-1672 -24520 24580 0
-1672 -24521 24581 0
-1672 -24522 24582 0
-1672 -24523 24583 0
-1672 -24524 24584 0
-1672 -24525 24585 0
-1672 -24526 24586 0
-1672 -24527 24587 0
-1672 -24528 24588 0
-1672 -24529 24589 0
-1672 -24530 24590 0
-1672 -24531 24591 0
-1672 -24532 24592 0
-1672 -24533 24593 0
-1672 -24534 24594 0
-1672 -24535 0
-24536 24595 0
-24537 24596 0
-24538 24597 0
-24539 24598 0
-24540 24599 0
-24541 24600 0
-24542 24601 0
-24543 24602 0
-24544 24603 0
-24545 24604 0
-24546 24605 0
-24547 24606 0
-24548 24607 0
-24549 24608 0
-24550 24609 0
-24551 24610 0
-24552 24611 0
-24553 24612 0
-24554 24613 0
-24555 24614 0
-24556 24615 0
-24557 24616 0
-24558 24617 0
-24559 24618 0
-24560 24619 0
-24561 24620 0
-24562 24621 0
-24563 24622 0
-24564 24623 0
-24565 24624 0
-24566 24625 0
-24567 24626 0
-24568 24627 0
-24569 24628 0
-24570 24629 0
-24571 24630 0
-24572 24631 0
-24573 24632 0
-24574 24633 0
-24575 24634 0
-24576 24635 0
-24577 24636 0
-24578 24637 0
-24579 24638 0
-24580 24639 0
-24581 24640 0
-24582 24641 0
-24583 24642 0
-24584 24643 0
-24585 24644 0
-24586 24645 0
-24587 24646 0
-24588 24647 0
-24589 24648 0
-24590 24649 0
-24591 24650 0
-24592 24651 0
-24593 24652 0
-24594 24653 0
-1674 -24536 24596 0
-1674 -24537 24597 0
-1674 -24538 24598 0
-1674 -24539 24599 0
-1674 -24540 24600 0
-1674 -24541 24601 0
-1674 -24542 24602 0
-1674 -24543 24603 0
-1674 -24544 24604 0
-1674 -24545 24605 0
-1674 -24546 24606 0
-1674 -24547 24607 0
-1674 -24548 24608 0
-1674 -24549 24609 0
-1674 -24550 24610 0
-1674 -24551 24611 0
-1674 -24552 24612 0
-1674 -24553 24613 0
-1674 -24554 24614 0
-1674 -24555 24615 0
-1674 -24556 24616 0
-1674 -24557 24617 0
-1674 -24558 24618 0
-1674 -24559 24619 0
-1674 -24560 24620 0
-1674 -24561 24621 0
-1674 -24562 24622 0
-1674 -24563 24623 0
-1674 -24564 24624 0
-1674 -24565 24625 0
-1674 -24566 24626 0
-1674 -24567 24627 0
-1674 -24568 24628 0
-1674 -24569 24629 0
-1674 -24570 24630 0
-1674 -24571 24631 0
-1674 -24572 24632 0
-1674 -24573 24633 0
-1674 -24574 24634 0
-1674 -24575 24635 0
-1674 -24576 24636 0
-1674 -24577 24637 0
-1674 -24578 24638 0
-1674 -24579 24639 0
-1674 -24580 24640 0
-1674 -24581 24641 0
-1674 -24582 24642 0
-1674 -24583 24643 0
-1674 -24584 24644 0
-1674 -24585 24645 0
-1674 -24586 24646 0
-1674 -24587 24647 0
-1674 -24588 24648 0
-1674 -24589 24649 0
-1674 -24590 24650 0
-1674 -24591 24651 0
-1674 -24592 24652 0
-1674 -24593 24653 0
-1674 -24594 0
-24595 24654 0
-24596 24655 0
-24597 24656 0
-24598 24657 0
-24599 24658 0
-24600 24659 0
-24601 24660 0
-24602 24661 0
-24603 24662 0
-24604 24663 0
-24605 24664 0
-24606 24665 0
-24607 24666 0
-24608 24667 0
-24609 24668 0
-24610 24669 0
-24611 24670 0
-24612 24671 0
-24613 24672 0
-24614 24673 0
-24615 24674 0
-24616 24675 0
-24617 24676 0
-24618 24677 0
-24619 24678 0
-24620 24679 0
-24621 24680 0
-24622 24681 0
-24623 24682 0
-24624 24683 0
-24625 24684 0
-24626 24685 0
-24627 24686 0
-24628 24687 0
-24629 24688 0
-24630 24689 0
-24631 24690 0
-24632 24691 0
-24633 24692 0
-24634 24693 0
-24635 24694 0
-24636 24695 0
-24637 24696 0
-24638 24697 0
-24639 24698 0
-24640 24699 0
-24641 24700 0
-24642 24701 0
-24643 24702 0
-24644 24703 0
-24645 24704 0
-24646 24705 0
-24647 24706 0
-24648 24707 0
-24649 24708 0
-24650 24709 0
-24651 24710 0
-24652 24711 0
-24653 24712 0
-1676 -24595 24655 0
-1676 -24596 24656 0
-1676 -24597 24657 0
-1676 -24598 24658 0
-1676 -24599 24659 0
-1676 -24600 24660 0
-1676 -24601 24661 0
-1676 -24602 24662 0
-1676 -24603 24663 0
-1676 -24604 24664 0
-1676 -24605 24665 0
-1676 -24606 24666 0
-1676 -24607 24667 0
-1676 -24608 24668 0
-1676 -24609 24669 0
-1676 -24610 24670 0
-1676 -24611 24671 0
-1676 -24612 24672 0
-1676 -24613 24673 0
-1676 -24614 24674 0
-1676 -24615 24675 0
-1676 -24616 24676 0
-1676 -24617 24677 0
-1676 -24618 24678 0
-1676 -24619 24679 0
-1676 -24620 24680 0
-1676 -24621 24681 0
-1676 -24622 24682 0
-1676 -24623 24683 0
-1676 -24624 24684 0
-1676 -24625 24685 0
-1676 -24626 24686 0
-1676 -24627 24687 0
-1676 -24628 24688 0
-1676 -24629 24689 0
-1676 -24630 24690 0
-1676 -24631 24691 0
-1676 -24632 24692 0
-1676 -24633 24693 0
-1676 -24634 24694 0
-1676 -24635 24695 0
-1676 -24636 24696 0
-1676 -24637 24697 0
-1676 -24638 24698 0
-1676 -24639 24699 0
-1676 -24640 24700 0
-1676 -24641 24701 0
-1676 -24642 24702 0
-1676 -24643 24703 0
-1676 -24644 24704 0
-1676 -24645 24705 0
-1676 -24646 24706 0
-1676 -24647 24707 0
-1676 -24648 24708 0
-1676 -24649 24709 0
-1676 -24650 24710 0
-1676 -24651 24711 0
-1676 -24652 24712 0
-1676 -24653 0
-24654 24713 0
-24655 24714 0
-24656 24715 0
-24657 24716 0
-24658 24717 0
-24659 24718 0
-24660 24719 0
-24661 24720 0
-24662 24721 0
-24663 24722 0
-24664 24723 0
-24665 24724 0
-24666 24725 0
-24667 24726 0
-24668 24727 0
-24669 24728 0
-24670 24729 0
-24671 24730 0
-24672 24731 0
-24673 24732 0
-24674 24733 0
-24675 24734 0
-24676 24735 0
-24677 24736 0
-24678 24737 0
-24679 24738 0
-24680 24739 0
-24681 24740 0
-24682 24741 0
-24683 24742 0
-24684 24743 0
-24685 24744 0
-24686 24745 0
-24687 24746 0
-24688 24747 0
-24689 24748 0
-24690 24749 0
-24691 24750 0
-24692 24751 0
-24693 24752 0
-24694 24753 0
-24695 24754 0
-24696 24755 0
-24697 24756 0
-24698 24757 0
-24699 24758 0
-24700 24759 0
-24701 24760 0
-24702 24761 0
-24703 24762 0
-24704 24763 0
-24705 24764 0
-24706 24765 0
-24707 24766 0
-24708 24767 0
-24709 24768 0
-24710 24769 0
-24711 24770 0
-24712 24771 0
-1678 -24654 24714 0
-1678 -24655 24715 0
-1678 -24656 24716 0
-1678 -24657 24717 0
-1678 -24658 24718 0
-1678 -24659 24719 0
-1678 -24660 24720 0
-1678 -24661 24721 0
-1678 -24662 24722 0
-1678 -24663 24723 0
-1678 -24664 24724 0
-1678 -24665 24725 0
-1678 -24666 24726 0
-1678 -24667 24727 0
-1678 -24668 24728 0
-1678 -24669 24729 0
-1678 -24670 24730 0
-1678 -24671 24731 0
-1678 -24672 24732 0
-1678 -24673 24733 0
-1678 -24674 24734 0
-1678 -24675 24735 0
-1678 -24676 24736 0
-1678 -24677 24737 0
-1678 -24678 24738 0
-1678 -24679 24739 0
-1678 -24680 24740 0
-1678 -24681 24741 0
-1678 -24682 24742 0
-1678 -24683 24743 0
-1678 -24684 24744 0
-1678 -24685 24745 0
-1678 -24686 24746 0
-1678 -24687 24747 0
-1678 -24688 24748 0
-1678 -24689 24749 0
-1678 -24690 24750 0
-1678 -24691 24751 0
-1678 -24692 24752 0
-1678 -24693 24753 0
-1678 -24694 24754 0
-1678 -24695 24755 0
-1678 -24696 24756 0
-1678 -24697 24757 0
-1678 -24698 24758 0
-1678 -24699 24759 0
-1678 -24700 24760 0
-1678 -24701 24761 0
-1678 -24702 24762 0
-1678 -24703 24763 0
-1678 -24704 24764 0
-1678 -24705 24765 0
-1678 -24706 24766 0
-1678 -24707 24767 0
-1678 -24708 24768 0
-1678 -24709 24769 0
-1678 -24710 24770 0
-1678 -24711 24771 0
-1678 -24712 0
-24713 24772 0
-24714 24773 0
-24715 24774 0
-24716 24775 0
-24717 24776 0
-24718 24777 0
-24719 24778 0
-24720 24779 0
-24721 24780 0
-24722 24781 0
-24723 24782 0
-24724 24783 0
-24725 24784 0
-24726 24785 0
-24727 24786 0
-24728 24787 0
-24729 24788 0
-24730 24789 0
-24731 24790 0
-24732 24791 0
-24733 24792 0
-24734 24793 0
-24735 24794 0
-24736 24795 0
-24737 24796 0
-24738 24797 0
-24739 24798 0
-24740 24799 0
-24741 24800 0
-24742 24801 0
-24743 24802 0
-24744 24803 0
-24745 24804 0
-24746 24805 0
-24747 24806 0
-24748 24807 0
-24749 24808 0
-24750 24809 0
-24751 24810 0
-24752 24811 0
-24753 24812 0
-24754 24813 0
-24755 24814 0
-24756 24815 0
-24757 24816 0
-24758 24817 0
-24759 24818 0
-24760 24819 0
-24761 24820 0
-24762 24821 0
-24763 24822 0
-24764 24823 0
-24765 24824 0
-24766 24825 0
-24767 24826 0
-24768 24827 0
-24769 24828 0
-24770 24829 0
-24771 24830 0
-1680 -24713 24773 0
-1680 -24714 24774 0
-1680 -24715 24775 0
-1680 -24716 24776 0
-1680 -24717 24777 0
-1680 -24718 24778 0
-1680 -24719 24779 0
-1680 -24720 24780 0
-1680 -24721 24781 0
-1680 -24722 24782 0
-1680 -24723 24783 0
-1680 -24724 24784 0
-1680 -24725 24785 0
-1680 -24726 24786 0
-1680 -24727 24787 0
-1680 -24728 24788 0
-1680 -24729 24789 0
-1680 -24730 24790 0
-1680 -24731 24791 0
-1680 -24732 24792 0
-1680 -24733 24793 0
-1680 -24734 24794 0
-1680 -24735 24795 0
-1680 -24736 24796 0
-1680 -24737 24797 0
-1680 -24738 24798 0
-1680 -24739 24799 0
-1680 -24740 24800 0
-1680 -24741 24801 0
-1680 -24742 24802 0
-1680 -24743 24803 0
-1680 -24744 24804 0
-1680 -24745 24805 0
-1680 -24746 24806 0
-1680 -24747 24807 0
-1680 -24748 24808 0
-1680 -24749 24809 0
-1680 -24750 24810 0
-1680 -24751 24811 0
-1680 -24752 24812 0
-1680 -24753 24813 0
-1680 -24754 24814 0
-1680 -24755 24815 0
-1680 -24756 24816 0
-1680 -24757 24817 0
-1680 -24758 24818 0
-1680 -24759 24819 0
-1680 -24760 24820 0
-1680 -24761 24821 0
-1680 -24762 24822 0
-1680 -24763 24823 0
-1680 -24764 24824 0
-1680 -24765 24825 0
-1680 -24766 24826 0
-1680 -24767 24827 0
-1680 -24768 24828 0
-1680 -24769 24829 0
-1680 -24770 24830 0
-1680 -24771 0
-24772 24831 0
-24773 24832 0
-24774 24833 0
-24775 24834 0
-24776 24835 0
-24777 24836 0
-24778 24837 0
-24779 24838 0
-24780 24839 0
-24781 24840 0
-24782 24841 0
-24783 24842 0
-24784 24843 0
-24785 24844 0
-24786 24845 0
-24787 24846 0
-24788 24847 0
-24789 24848 0
-24790 24849 0
-24791 24850 0
-24792 24851 0
-24793 24852 0
-24794 24853 0
-24795 24854 0
-24796 24855 0
-24797 24856 0
-24798 24857 0
-24799 24858 0
-24800 24859 0
-24801 24860 0
-24802 24861 0
-24803 24862 0
-24804 24863 0
-24805 24864 0
-24806 24865 0
-24807 24866 0
-24808 24867 0
-24809 24868 0
-24810 24869 0
-24811 24870 0
-24812 24871 0
-24813 24872 0
-24814 24873 0
-24815 24874 0
-24816 24875 0
-24817 24876 0
-24818 24877 0
-24819 24878 0
-24820 24879 0
-24821 24880 0
-24822 24881 0
-24823 24882 0
-24824 24883 0
-24825 24884 0
-24826 24885 0
-24827 24886 0
-24828 24887 0
-24829 24888 0
-24830 24889 0
-1682 -24772 24832 0
-1682 -24773 24833 0
-1682 -24774 24834 0
-1682 -24775 24835 0
-1682 -24776 24836 0
-1682 -24777 24837 0
-1682 -24778 24838 0
-1682 -24779 24839 0
-1682 -24780 24840 0
-1682 -24781 24841 0
-1682 -24782 24842 0
-1682 -24783 24843 0
-1682 -24784 24844 0
-1682 -24785 24845 0
-1682 -24786 24846 0
-1682 -24787 24847 0
-1682 -24788 24848 0
-1682 -24789 24849 0
-1682 -24790 24850 0
-1682 -24791 24851 0
-1682 -24792 24852 0
-1682 -24793 24853 0
-1682 -24794 24854 0
-1682 -24795 24855 0
-1682 -24796 24856 0
-1682 -24797 24857 0
-1682 -24798 24858 0
-1682 -24799 24859 0
-1682 -24800 24860 0
-1682 -24801 24861 0
-1682 -24802 24862 0
-1682 -24803 24863 0
-1682 -24804 24864 0
-1682 -24805 24865 0
-1682 -24806 24866 0
-1682 -24807 24867 0
-1682 -24808 24868 0
-1682 -24809 24869 0
-1682 -24810 24870 0
-1682 -24811 24871 0
-1682 -24812 24872 0
-1682 -24813 24873 0
-1682 -24814 24874 0
-1682 -24815 24875 0
-1682 -24816 24876 0
-1682 -24817 24877 0
-1682 -24818 24878 0
-1682 -24819 24879 0
-1682 -24820 24880 0
-1682 -24821 24881 0
-1682 -24822 24882 0
-1682 -24823 24883 0
-1682 -24824 24884 0
-1682 -24825 24885 0
-1682 -24826 24886 0
-1682 -24827 24887 0
-1682 -24828 24888 0
-1682 -24829 24889 0
-1682 -24830 0
-24831 24890 0
-24832 24891 0
-24833 24892 0
-24834 24893 0
-24835 24894 0
-24836 24895 0
-24837 24896 0
-24838 24897 0
-24839 24898 0
-24840 24899 0
-24841 24900 0
-24842 24901 0
-24843 24902 0
-24844 24903 0
-24845 24904 0
-24846 24905 0
-24847 24906 0
-24848 24907 0
-24849 24908 0
-24850 24909 0
-24851 24910 0
-24852 24911 0
-24853 24912 0
-24854 24913 0
-24855 24914 0
-24856 24915 0
-24857 24916 0
-24858 24917 0
-24859 24918 0
-24860 24919 0
-24861 24920 0
-24862 24921 0
-24863 24922 0
-24864 24923 0
-24865 24924 0
-24866 24925 0
-24867 24926 0
-24868 24927 0
-24869 24928 0
-24870 24929 0
-24871 24930 0
-24872 24931 0
-24873 24932 0
-24874 24933 0
-24875 24934 0
-24876 24935 0
-24877 24936 0
-24878 24937 0
-24879 24938 0
-24880 24939 0
-24881 24940 0
-24882 24941 0
-24883 24942 0
-24884 24943 0
-24885 24944 0
-24886 24945 0
-24887 24946 0
-24888 24947 0
-24889 24948 0
-1684 -24831 24891 0
-1684 -24832 24892 0
-1684 -24833 24893 0
-1684 -24834 24894 0
-1684 -24835 24895 0
-1684 -24836 24896 0
-1684 -24837 24897 0
-1684 -24838 24898 0
-1684 -24839 24899 0
-1684 -24840 24900 0
-1684 -24841 24901 0
-1684 -24842 24902 0
-1684 -24843 24903 0
-1684 -24844 24904 0
-1684 -24845 24905 0
-1684 -24846 24906 0
-1684 -24847 24907 0
-1684 -24848 24908 0
-1684 -24849 24909 0
-1684 -24850 24910 0
-1684 -24851 24911 0
-1684 -24852 24912 0
-1684 -24853 24913 0
-1684 -24854 24914 0
-1684 -24855 24915 0
-1684 -24856 24916 0
-1684 -24857 24917 0
-1684 -24858 24918 0
-1684 -24859 24919 0
-1684 -24860 24920 0
-1684 -24861 24921 0
-1684 -24862 24922 0
-1684 -24863 24923 0
-1684 -24864 24924 0
-1684 -24865 24925 0
-1684 -24866 24926 0
-1684 -24867 24927 0
-1684 -24868 24928 0
-1684 -24869 24929 0
-1684 -24870 24930 0
-1684 -24871 24931 0
-1684 -24872 24932 0
-1684 -24873 24933 0
-1684 -24874 24934 0
-1684 -24875 24935 0
-1684 -24876 24936 0
-1684 -24877 24937 0
-1684 -24878 24938 0
-1684 -24879 24939 0
-1684 -24880 24940 0
-1684 -24881 24941 0
-1684 -24882 24942 0
-1684 -24883 24943 0
-1684 -24884 24944 0
-1684 -24885 24945 0
-1684 -24886 24946 0
-1684 -24887 24947 0
-1684 -24888 24948 0
-1684 -24889 0
-24890 24949 0
-24891 24950 0
-24892 24951 0
-24893 24952 0
-24894 24953 0
-24895 24954 0
-24896 24955 0
-24897 24956 0
-24898 24957 0
-24899 24958 0
-24900 24959 0
-24901 24960 0
-24902 24961 0
-24903 24962 0
-24904 24963 0
-24905 24964 0
-24906 24965 0
-24907 24966 0
-24908 24967 0
-24909 24968 0
-24910 24969 0
-24911 24970 0
-24912 24971 0
-24913 24972 0
-24914 24973 0
-24915 24974 0
-24916 24975 0
-24917 24976 0
-24918 24977 0
-24919 24978 0
-24920 24979 0
-24921 24980 0
-24922 24981 0
-24923 24982 0
-24924 24983 0
-24925 24984 0
-24926 24985 0
-24927 24986 0
-24928 24987 0
-24929 24988 0
-24930 24989 0
-24931 24990 0
-24932 24991 0
-24933 24992 0
-24934 24993 0
-24935 24994 0
-24936 24995 0
-24937 24996 0
-24938 24997 0
-24939 24998 0
-24940 24999 0
-24941 25000 0
-24942 25001 0
-24943 25002 0
-24944 25003 0
-24945 25004 0
-24946 25005 0
-24947 25006 0
-24948 25007 0
-1686 -24890 24950 0
-1686 -24891 24951 0
-1686 -24892 24952 0
-1686 -24893 24953 0
-1686 -24894 24954 0
-1686 -24895 24955 0
-1686 -24896 24956 0
-1686 -24897 24957 0
-1686 -24898 24958 0
-1686 -24899 24959 0
-1686 -24900 24960 0
-1686 -24901 24961 0
-1686 -24902 24962 0
-1686 -24903 24963 0
-1686 -24904 24964 0
-1686 -24905 24965 0
-1686 -24906 24966 0
-1686 -24907 24967 0
-1686 -24908 24968 0
-1686 -24909 24969 0
-1686 -24910 24970 0
-1686 -24911 24971 0
-1686 -24912 24972 0
-1686 -24913 24973 0
-1686 -24914 24974 0
-1686 -24915 24975 0
-1686 -24916 24976 0
-1686 -24917 24977 0
-1686 -24918 24978 0
-1686 -24919 24979 0
-1686 -24920 24980 0
-1686 -24921 24981 0
-1686 -24922 24982 0
-1686 -24923 24983 0
-1686 -24924 24984 0
-1686 -24925 24985 0
-1686 -24926 24986 0
-1686 -24927 24987 0
-1686 -24928 24988 0
-1686 -24929 24989 0
-1686 -24930 24990 0
-1686 -24931 24991 0
-1686 -24932 24992 0
-1686 -24933 24993 0
-1686 -24934 24994 0
-1686 -24935 24995 0
-1686 -24936 24996 0
-1686 -24937 24997 0
-1686 -24938 24998 0
-1686 -24939 24999 0
-1686 -24940 25000 0
-1686 -24941 25001 0
-1686 -24942 25002 0
-1686 -24943 25003 0
-1686 -24944 25004 0
-1686 -24945 25005 0
-1686 -24946 25006 0
-1686 -24947 25007 0
-1686 -24948 0
-24949 25008 0
-24950 25009 0
-24951 25010 0
-24952 25011 0
-24953 25012 0
-24954 25013 0
-24955 25014 0
-24956 25015 0
-24957 25016 0
-24958 25017 0
-24959 25018 0
-24960 25019 0
-24961 25020 0
-24962 25021 0
-24963 25022 0
-24964 25023 0
-24965 25024 0
-24966 25025 0
-24967 25026 0
-24968 25027 0
-24969 25028 0
-24970 25029 0
-24971 25030 0
-24972 25031 0
-24973 25032 0
-24974 25033 0
-24975 25034 0
-24976 25035 0
-24977 25036 0
-24978 25037 0
-24979 25038 0
-24980 25039 0
-24981 25040 0
-24982 25041 0
-24983 25042 0
-24984 25043 0
-24985 25044 0
-24986 25045 0
-24987 25046 0
-24988 25047 0
-24989 25048 0
-24990 25049 0
-24991 25050 0
-24992 25051 0
-24993 25052 0
-24994 25053 0
-24995 25054 0
-24996 25055 0
-24997 25056 0
-24998 25057 0
-24999 25058 0
-25000 25059 0
-25001 25060 0
-25002 25061 0
-25003 25062 0
-25004 25063 0
-25005 25064 0
-25006 25065 0
-25007 25066 0
-1688 -24949 25009 0
-1688 -24950 25010 0
-1688 -24951 25011 0
-1688 -24952 25012 0
-1688 -24953 25013 0
-1688 -24954 25014 0
-1688 -24955 25015 0
-1688 -24956 25016 0
-1688 -24957 25017 0
-1688 -24958 25018 0
-1688 -24959 25019 0
-1688 -24960 25020 0
-1688 -24961 25021 0
-1688 -24962 25022 0
-1688 -24963 25023 0
-1688 -24964 25024 0
-1688 -24965 25025 0
-1688 -24966 25026 0
-1688 -24967 25027 0
-1688 -24968 25028 0
-1688 -24969 25029 0
-1688 -24970 25030 0
-1688 -24971 25031 0
-1688 -24972 25032 0
-1688 -24973 25033 0
-1688 -24974 25034 0
-1688 -24975 25035 0
-1688 -24976 25036 0
-1688 -24977 25037 0
-1688 -24978 25038 0
-1688 -24979 25039 0
-1688 -24980 25040 0
-1688 -24981 25041 0
-1688 -24982 25042 0
-1688 -24983 25043 0
-1688 -24984 25044 0
-1688 -24985 25045 0
-1688 -24986 25046 0
-1688 -24987 25047 0
-1688 -24988 25048 0
-1688 -24989 25049 0
-1688 -24990 25050 0
-1688 -24991 25051 0
-1688 -24992 25052 0
-1688 -24993 25053 0
-1688 -24994 25054 0
-1688 -24995 25055 0
-1688 -24996 25056 0
-1688 -24997 25057 0
-1688 -24998 25058 0
-1688 -24999 25059 0
-1688 -25000 25060 0
-1688 -25001 25061 0
-1688 -25002 25062 0
-1688 -25003 25063 0
-1688 -25004 25064 0
-1688 -25005 25065 0
-1688 -25006 25066 0
-1688 -25007 0
-25008 25067 0
-25009 25068 0
-25010 25069 0
-25011 25070 0
-25012 25071 0
-25013 25072 0
-25014 25073 0
-25015 25074 0
-25016 25075 0
-25017 25076 0
-25018 25077 0
-25019 25078 0
-25020 25079 0
-25021 25080 0
-25022 25081 0
-25023 25082 0
-25024 25083 0
-25025 25084 0
-25026 25085 0
-25027 25086 0
-25028 25087 0
-25029 25088 0
-25030 25089 0
-25031 25090 0
-25032 25091 0
-25033 25092 0
-25034 25093 0
-25035 25094 0
-25036 25095 0
-25037 25096 0
-25038 25097 0
-25039 25098 0
-25040 25099 0
-25041 25100 0
-25042 25101 0
-25043 25102 0
-25044 25103 0
-25045 25104 0
-25046 25105 0
-25047 25106 0
-25048 25107 0
-25049 25108 0
-25050 25109 0
-25051 25110 0
-25052 25111 0
-25053 25112 0
-25054 25113 0
-25055 25114 0
-25056 25115 0
-25057 25116 0
-25058 25117 0
-25059 25118 0
-25060 25119 0
-25061 25120 0
-25062 25121 0
-25063 25122 0
-25064 25123 0
-25065 25124 0
-25066 25125 0
-1690 -25008 25068 0
-1690 -25009 25069 0
-1690 -25010 25070 0
-1690 -25011 25071 0
-1690 -25012 25072 0
-1690 -25013 25073 0
-1690 -25014 25074 0
-1690 -25015 25075 0
-1690 -25016 25076 0
-1690 -25017 25077 0
-1690 -25018 25078 0
-1690 -25019 25079 0
-1690 -25020 25080 0
-1690 -25021 25081 0
-1690 -25022 25082 0
-1690 -25023 25083 0
-1690 -25024 25084 0
-1690 -25025 25085 0
-1690 -25026 25086 0
-1690 -25027 25087 0
-1690 -25028 25088 0
-1690 -25029 25089 0
-1690 -25030 25090 0
-1690 -25031 25091 0
-1690 -25032 25092 0
-1690 -25033 25093 0
-1690 -25034 25094 0
-1690 -25035 25095 0
-1690 -25036 25096 0
-1690 -25037 25097 0
-1690 -25038 25098 0
-1690 -25039 25099 0
-1690 -25040 25100 0
-1690 -25041 25101 0
-1690 -25042 25102 0
-1690 -25043 25103 0
-1690 -25044 25104 0
-1690 -25045 25105 0
-1690 -25046 25106 0
-1690 -25047 25107 0
-1690 -25048 25108 0
-1690 -25049 25109 0
-1690 -25050 25110 0
-1690 -25051 25111 0
-1690 -25052 25112 0
-1690 -25053 25113 0
-1690 -25054 25114 0
-1690 -25055 25115 0
-1690 -25056 25116 0
-1690 -25057 25117 0
-1690 -25058 25118 0
-1690 -25059 25119 0
-1690 -25060 25120 0
-1690 -25061 25121 0
-1690 -25062 25122 0
-1690 -25063 25123 0
-1690 -25064 25124 0
-1690 -25065 25125 0
-1690 -25066 0
-25067 25126 0
-25068 25127 0
-25069 25128 0
-25070 25129 0
-25071 25130 0
-25072 25131 0
-25073 25132 0
-25074 25133 0
-25075 25134 0
-25076 25135 0
-25077 25136 0
-25078 25137 0
-25079 25138 0
-25080 25139 0
-25081 25140 0
-25082 25141 0
-25083 25142 0
-25084 25143 0
-25085 25144 0
-25086 25145 0
-25087 25146 0
-25088 25147 0
-25089 25148 0
-25090 25149 0
-25091 25150 0
-25092 25151 0
-25093 25152 0
-25094 25153 0
-25095 25154 0
-25096 25155 0
-25097 25156 0
-25098 25157 0
-25099 25158 0
-25100 25159 0
-25101 25160 0
-25102 25161 0
-25103 25162 0
-25104 25163 0
-25105 25164 0
-25106 25165 0
-25107 25166 0
-25108 25167 0
-25109 25168 0
-25110 25169 0
-25111 25170 0
-25112 25171 0
-25113 25172 0
-25114 25173 0
-25115 25174 0
-25116 25175 0
-25117 25176 0
-25118 25177 0
-25119 25178 0
-25120 25179 0
-25121 25180 0
-25122 25181 0
-25123 25182 0
-25124 25183 0
-25125 25184 0
-1692 -25067 25127 0
-1692 -25068 25128 0
-1692 -25069 25129 0
-1692 -25070 25130 0
-1692 -25071 25131 0
-1692 -25072 25132 0
-1692 -25073 25133 0
-1692 -25074 25134 0
-1692 -25075 25135 0
-1692 -25076 25136 0
-1692 -25077 25137 0
-1692 -25078 25138 0
-1692 -25079 25139 0
-1692 -25080 25140 0
-1692 -25081 25141 0
-1692 -25082 25142 0
-1692 -25083 25143 0
-1692 -25084 25144 0
-1692 -25085 25145 0
-1692 -25086 25146 0
-1692 -25087 25147 0
-1692 -25088 25148 0
-1692 -25089 25149 0
-1692 -25090 25150 0
-1692 -25091 25151 0
-1692 -25092 25152 0
-1692 -25093 25153 0
-1692 -25094 25154 0
-1692 -25095 25155 0
-1692 -25096 25156 0
-1692 -25097 25157 0
-1692 -25098 25158 0
-1692 -25099 25159 0
-1692 -25100 25160 0
-1692 -25101 25161 0
-1692 -25102 25162 0
-1692 -25103 25163 0
-1692 -25104 25164 0
-1692 -25105 25165 0
-1692 -25106 25166 0
-1692 -25107 25167 0
-1692 -25108 25168 0
-1692 -25109 25169 0
-1692 -25110 25170 0
-1692 -25111 25171 0
-1692 -25112 25172 0
-1692 -25113 25173 0
-1692 -25114 25174 0
-1692 -25115 25175 0
-1692 -25116 25176 0
-1692 -25117 25177 0
-1692 -25118 25178 0
-1692 -25119 25179 0
-1692 -25120 25180 0
-1692 -25121 25181 0
-1692 -25122 25182 0
-1692 -25123 25183 0
-1692 -25124 25184 0
-1692 -25125 0
-25126 25185 0
-25127 25186 0
-25128 25187 0
-25129 25188 0
-25130 25189 0
-25131 25190 0
-25132 25191 0
-25133 25192 0
-25134 25193 0
-25135 25194 0
-25136 25195 0
-25137 25196 0
-25138 25197 0
-25139 25198 0
-25140 25199 0
-25141 25200 0
-25142 25201 0
-25143 25202 0
-25144 25203 0
-25145 25204 0
-25146 25205 0
-25147 25206 0
-25148 25207 0
-25149 25208 0
-25150 25209 0
-25151 25210 0
-25152 25211 0
-25153 25212 0
-25154 25213 0
-25155 25214 0
-25156 25215 0
-25157 25216 0
-25158 25217 0
-25159 25218 0
-25160 25219 0
-25161 25220 0
-25162 25221 0
-25163 25222 0
-25164 25223 0
-25165 25224 0
-25166 25225 0
-25167 25226 0
-25168 25227 0
-25169 25228 0
-25170 25229 0
-25171 25230 0
-25172 25231 0
-25173 25232 0
-25174 25233 0
-25175 25234 0
-25176 25235 0
-25177 25236 0
-25178 25237 0
-25179 25238 0
-25180 25239 0
-25181 25240 0
-25182 25241 0
-25183 25242 0
-25184 25243 0
-1694 -25126 25186 0
-1694 -25127 25187 0
-1694 -25128 25188 0
-1694 -25129 25189 0
-1694 -25130 25190 0
-1694 -25131 25191 0
-1694 -25132 25192 0
-1694 -25133 25193 0
-1694 -25134 25194 0
-1694 -25135 25195 0
-1694 -25136 25196 0
-1694 -25137 25197 0
-1694 -25138 25198 0
-1694 -25139 25199 0
-1694 -25140 25200 0
-1694 -25141 25201 0
-1694 -25142 25202 0
-1694 -25143 25203 0
-1694 -25144 25204 0
-1694 -25145 25205 0
-1694 -25146 25206 0
-1694 -25147 25207 0
-1694 -25148 25208 0
-1694 -25149 25209 0
-1694 -25150 25210 0
-1694 -25151 25211 0
-1694 -25152 25212 0
-1694 -25153 25213 0
-1694 -25154 25214 0
-1694 -25155 25215 0
-1694 -25156 25216 0
-1694 -25157 25217 0
-1694 -25158 25218 0
-1694 -25159 25219 0
-1694 -25160 25220 0
-1694 -25161 25221 0
-1694 -25162 25222 0
-1694 -25163 25223 0
-1694 -25164 25224 0
-1694 -25165 25225 0
-1694 -25166 25226 0
-1694 -25167 25227 0
-1694 -25168 25228 0
-1694 -25169 25229 0
-1694 -25170 25230 0
-1694 -25171 25231 0
-1694 -25172 25232 0
-1694 -25173 25233 0
-1694 -25174 25234 0
-1694 -25175 25235 0
-1694 -25176 25236 0
-1694 -25177 25237 0
-1694 -25178 25238 0
-1694 -25179 25239 0
-1694 -25180 25240 0
-1694 -25181 25241 0
-1694 -25182 25242 0
-1694 -25183 25243 0
-1694 -25184 0
-25185 25244 0
-25186 25245 0
-25187 25246 0
-25188 25247 0
-25189 25248 0
-25190 25249 0
-25191 25250 0
-25192 25251 0
-25193 25252 0
-25194 25253 0
-25195 25254 0
-25196 25255 0
-25197 25256 0
-25198 25257 0
-25199 25258 0
-25200 25259 0
-25201 25260 0
-25202 25261 0
-25203 25262 0
-25204 25263 0
-25205 25264 0
-25206 25265 0
-25207 25266 0
-25208 25267 0
-25209 25268 0
-25210 25269 0
-25211 25270 0
-25212 25271 0
-25213 25272 0
-25214 25273 0
-25215 25274 0
-25216 25275 0
-25217 25276 0
-25218 25277 0
-25219 25278 0
-25220 25279 0
-25221 25280 0
-25222 25281 0
-25223 25282 0
-25224 25283 0
-25225 25284 0
-25226 25285 0
-25227 25286 0
-25228 25287 0
-25229 25288 0
-25230 25289 0
-25231 25290 0
-25232 25291 0
-25233 25292 0
-25234 25293 0
-25235 25294 0
-25236 25295 0
-25237 25296 0
-25238 25297 0
-25239 25298 0
-25240 25299 0
-25241 25300 0
-25242 25301 0
-25243 25302 0
-1696 -25185 25245 0
-1696 -25186 25246 0
-1696 -25187 25247 0
-1696 -25188 25248 0
-1696 -25189 25249 0
-1696 -25190 25250 0
-1696 -25191 25251 0
-1696 -25192 25252 0
-1696 -25193 25253 0
-1696 -25194 25254 0
-1696 -25195 25255 0
-1696 -25196 25256 0
-1696 -25197 25257 0
-1696 -25198 25258 0
-1696 -25199 25259 0
-1696 -25200 25260 0
-1696 -25201 25261 0
-1696 -25202 25262 0
-1696 -25203 25263 0
-1696 -25204 25264 0
-1696 -25205 25265 0
-1696 -25206 25266 0
-1696 -25207 25267 0
-1696 -25208 25268 0
-1696 -25209 25269 0
-1696 -25210 25270 0
-1696 -25211 25271 0
-1696 -25212 25272 0
-1696 -25213 25273 0
-1696 -25214 25274 0
-1696 -25215 25275 0
-1696 -25216 25276 0
-1696 -25217 25277 0
-1696 -25218 25278 0
-1696 -25219 25279 0
-1696 -25220 25280 0
-1696 -25221 25281 0
-1696 -25222 25282 0
-1696 -25223 25283 0
-1696 -25224 25284 0
-1696 -25225 25285 0
-1696 -25226 25286 0
-1696 -25227 25287 0
-1696 -25228 25288 0
-1696 -25229 25289 0
-1696 -25230 25290 0
-1696 -25231 25291 0
-1696 -25232 25292 0
-1696 -25233 25293 0
-1696 -25234 25294 0
-1696 -25235 25295 0
-1696 -25236 25296 0
-1696 -25237 25297 0
-1696 -25238 25298 0
-1696 -25239 25299 0
-1696 -25240 25300 0
-1696 -25241 25301 0
-1696 -25242 25302 0
-1696 -25243 0
-25244 25303 0
-25245 25304 0
-25246 25305 0
-25247 25306 0
-25248 25307 0
-25249 25308 0
-25250 25309 0
-25251 25310 0
-25252 25311 0
-25253 25312 0
-25254 25313 0
-25255 25314 0
-25256 25315 0
-25257 25316 0
-25258 25317 0
-25259 25318 0
-25260 25319 0
-25261 25320 0
-25262 25321 0
-25263 25322 0
-25264 25323 0
-25265 25324 0
-25266 25325 0
-25267 25326 0
-25268 25327 0
-25269 25328 0
-25270 25329 0
-25271 25330 0
-25272 25331 0
-25273 25332 0
-25274 25333 0
-25275 25334 0
-25276 25335 0
-25277 25336 0
-25278 25337 0
-25279 25338 0
-25280 25339 0
-25281 25340 0
-25282 25341 0
-25283 25342 0
-25284 25343 0
-25285 25344 0
-25286 25345 0
-25287 25346 0
-25288 25347 0
-25289 25348 0
-25290 25349 0
-25291 25350 0
-25292 25351 0
-25293 25352 0
-25294 25353 0
-25295 25354 0
-25296 25355 0
-25297 25356 0
-25298 25357 0
-25299 25358 0
-25300 25359 0
-25301 25360 0
-25302 25361 0
-1698 -25244 25304 0
-1698 -25245 25305 0
-1698 -25246 25306 0
-1698 -25247 25307 0
-1698 -25248 25308 0
-1698 -25249 25309 0
-1698 -25250 25310 0
-1698 -25251 25311 0
-1698 -25252 25312 0
-1698 -25253 25313 0
-1698 -25254 25314 0
-1698 -25255 25315 0
-1698 -25256 25316 0
-1698 -25257 25317 0
-1698 -25258 25318 0
-1698 -25259 25319 0
-1698 -25260 25320 0
-1698 -25261 25321 0
-1698 -25262 25322 0
-1698 -25263 25323 0
-1698 -25264 25324 0
-1698 -25265 25325 0
-1698 -25266 25326 0
-1698 -25267 25327 0
-1698 -25268 25328 0
-1698 -25269 25329 0
-1698 -25270 25330 0
-1698 -25271 25331 0
-1698 -25272 25332 0
-1698 -25273 25333 0
-1698 -25274 25334 0
-1698 -25275 25335 0
-1698 -25276 25336 0
-1698 -25277 25337 0
-1698 -25278 25338 0
-1698 -25279 25339 0
-1698 -25280 25340 0
-1698 -25281 25341 0
-1698 -25282 25342 0
-1698 -25283 25343 0
-1698 -25284 25344 0
-1698 -25285 25345 0
-1698 -25286 25346 0
-1698 -25287 25347 0
-1698 -25288 25348 0
-1698 -25289 25349 0
-1698 -25290 25350 0
-1698 -25291 25351 0
-1698 -25292 25352 0
-1698 -25293 25353 0
-1698 -25294 25354 0
-1698 -25295 25355 0
-1698 -25296 25356 0
-1698 -25297 25357 0
-1698 -25298 25358 0
-1698 -25299 25359 0
-1698 -25300 25360 0
-1698 -25301 25361 0
-1698 -25302 0
-25303 25362 0
-25304 25363 0
-25305 25364 0
-25306 25365 0
-25307 25366 0
-25308 25367 0
-25309 25368 0
-25310 25369 0
-25311 25370 0
-25312 25371 0
-25313 25372 0
-25314 25373 0
-25315 25374 0
-25316 25375 0
-25317 25376 0
-25318 25377 0
-25319 25378 0
-25320 25379 0
-25321 25380 0
-25322 25381 0
-25323 25382 0
-25324 25383 0
-25325 25384 0
-25326 25385 0
-25327 25386 0
-25328 25387 0
-25329 25388 0
-25330 25389 0
-25331 25390 0
-25332 25391 0
-25333 25392 0
-25334 25393 0
-25335 25394 0
-25336 25395 0
-25337 25396 0
-25338 25397 0
-25339 25398 0
-25340 25399 0
-25341 25400 0
-25342 25401 0
-25343 25402 0
-25344 25403 0
-25345 25404 0
-25346 25405 0
-25347 25406 0
-25348 25407 0
-25349 25408 0
-25350 25409 0
-25351 25410 0
-25352 25411 0
-25353 25412 0
-25354 25413 0
-25355 25414 0
-25356 25415 0
-25357 25416 0
-25358 25417 0
-25359 25418 0
-25360 25419 0
-25361 25420 0
-1700 -25303 25363 0
-1700 -25304 25364 0
-1700 -25305 25365 0
-1700 -25306 25366 0
-1700 -25307 25367 0
-1700 -25308 25368 0
-1700 -25309 25369 0
-1700 -25310 25370 0
-1700 -25311 25371 0
-1700 -25312 25372 0
-1700 -25313 25373 0
-1700 -25314 25374 0
-1700 -25315 25375 0
-1700 -25316 25376 0
-1700 -25317 25377 0
-1700 -25318 25378 0
-1700 -25319 25379 0
-1700 -25320 25380 0
-1700 -25321 25381 0
-1700 -25322 25382 0
-1700 -25323 25383 0
-1700 -25324 25384 0
-1700 -25325 25385 0
-1700 -25326 25386 0
-1700 -25327 25387 0
-1700 -25328 25388 0
-1700 -25329 25389 0
-1700 -25330 25390 0
-1700 -25331 25391 0
-1700 -25332 25392 0
-1700 -25333 25393 0
-1700 -25334 25394 0
-1700 -25335 25395 0
-1700 -25336 25396 0
-1700 -25337 25397 0
-1700 -25338 25398 0
-1700 -25339 25399 0
-1700 -25340 25400 0
-1700 -25341 25401 0
-1700 -25342 25402 0
-1700 -25343 25403 0
-1700 -25344 25404 0
-1700 -25345 25405 0
-1700 -25346 25406 0
-1700 -25347 25407 0
-1700 -25348 25408 0
-1700 -25349 25409 0
-1700 -25350 25410 0
-1700 -25351 25411 0
-1700 -25352 25412 0
-1700 -25353 25413 0
-1700 -25354 25414 0
-1700 -25355 25415 0
-1700 -25356 25416 0
-1700 -25357 25417 0
-1700 -25358 25418 0
-1700 -25359 25419 0
-1700 -25360 25420 0
-1700 -25361 0
-25362 25421 0
-25363 25422 0
-25364 25423 0
-25365 25424 0
-25366 25425 0
-25367 25426 0
-25368 25427 0
-25369 25428 0
-25370 25429 0
-25371 25430 0
-25372 25431 0
-25373 25432 0
-25374 25433 0
-25375 25434 0
-25376 25435 0
-25377 25436 0
-25378 25437 0
-25379 25438 0
-25380 25439 0
-25381 25440 0
-25382 25441 0
-25383 25442 0
-25384 25443 0
-25385 25444 0
-25386 25445 0
-25387 25446 0
-25388 25447 0
-25389 25448 0
-25390 25449 0
-25391 25450 0
-25392 25451 0
-25393 25452 0
-25394 25453 0
-25395 25454 0
-25396 25455 0
-25397 25456 0
-25398 25457 0
-25399 25458 0
-25400 25459 0
-25401 25460 0
-25402 25461 0
-25403 25462 0
-25404 25463 0
-25405 25464 0
-25406 25465 0
-25407 25466 0
-25408 25467 0
-25409 25468 0
-25410 25469 0
-25411 25470 0
-25412 25471 0
-25413 25472 0
-25414 25473 0
-25415 25474 0
-25416 25475 0
-25417 25476 0
-25418 25477 0
-25419 25478 0
-25420 25479 0
-1702 -25362 25422 0
-1702 -25363 25423 0
-1702 -25364 25424 0
-1702 -25365 25425 0
-1702 -25366 25426 0
-1702 -25367 25427 0
-1702 -25368 25428 0
-1702 -25369 25429 0
-1702 -25370 25430 0
-1702 -25371 25431 0
-1702 -25372 25432 0
-1702 -25373 25433 0
-1702 -25374 25434 0
-1702 -25375 25435 0
-1702 -25376 25436 0
-1702 -25377 25437 0
-1702 -25378 25438 0
-1702 -25379 25439 0
-1702 -25380 25440 0
-1702 -25381 25441 0
-1702 -25382 25442 0
-1702 -25383 25443 0
-1702 -25384 25444 0
-1702 -25385 25445 0
-1702 -25386 25446 0
-1702 -25387 25447 0
-1702 -25388 25448 0
-1702 -25389 25449 0
-1702 -25390 25450 0
-1702 -25391 25451 0
-1702 -25392 25452 0
-1702 -25393 25453 0
-1702 -25394 25454 0
-1702 -25395 25455 0
-1702 -25396 25456 0
-1702 -25397 25457 0
-1702 -25398 25458 0
-1702 -25399 25459 0
-1702 -25400 25460 0
-1702 -25401 25461 0
-1702 -25402 25462 0
-1702 -25403 25463 0
-1702 -25404 25464 0
-1702 -25405 25465 0
-1702 -25406 25466 0
-1702 -25407 25467 0
-1702 -25408 25468 0
-1702 -25409 25469 0
-1702 -25410 25470 0
-1702 -25411 25471 0
-1702 -25412 25472 0
-1702 -25413 25473 0
-1702 -25414 25474 0
-1702 -25415 25475 0
-1702 -25416 25476 0
-1702 -25417 25477 0
-1702 -25418 25478 0
-1702 -25419 25479 0
-1702 -25420 0
