c Speck64 XOR-differential SAT CNF
c word_bits=32 alpha=8 beta=3 rounds=12
c in_dx=0x00000001 in_dy=0x00000000
c out_dx=None out_dy=None
c max_weight=56
c num_vars=22408 num_clauses=49579
p cnf 22408 49579
1 0
-2 0
-3 0
-4 0
-5 0
-6 0
-7 0
-8 0
-9 0
-10 0
-11 0
-12 0
-13 0
-14 0
-15 0
-16 0
-17 0
-18 0
-19 0
-20 0
-21 0
-22 0
-23 0
-24 0
-25 0
-26 0
-27 0
-28 0
-29 0
-30 0
-31 0
-32 0
-33 0
-34 0
-35 0
-36 0
-37 0
-38 0
-39 0
-40 0
-41 0
-42 0
-43 0
-44 0
-45 0
-46 0
-47 0
-48 0
-49 0
-50 0
-51 0
-52 0
-53 0
-54 0
-55 0
-56 0
-57 0
-58 0
-59 0
-60 0
-61 0
-62 0
-63 0
-64 0
9 33 -65 0
9 -33 65 0
-9 33 65 0
-9 -33 -65 0
9 33 65 833 0
-9 -33 -65 833 0
-833 -9 33 0
-833 9 -33 0
-833 -9 65 0
-833 9 -65 0
-833 10 34 66 -33 0
-833 10 34 -66 33 0
-833 10 -34 66 33 0
-833 10 -34 -66 -33 0
-833 -10 34 66 33 0
-833 -10 34 -66 -33 0
-833 -10 -34 66 -33 0
-833 -10 -34 -66 33 0
834 833 0
-834 -833 0
10 34 66 835 0
-10 -34 -66 835 0
-835 -10 34 0
-835 10 -34 0
-835 -10 66 0
-835 10 -66 0
-835 11 35 67 -34 0
-835 11 35 -67 34 0
-835 11 -35 67 34 0
-835 11 -35 -67 -34 0
-835 -11 35 67 34 0
-835 -11 35 -67 -34 0
-835 -11 -35 67 -34 0
-835 -11 -35 -67 34 0
836 835 0
-836 -835 0
11 35 67 837 0
-11 -35 -67 837 0
-837 -11 35 0
-837 11 -35 0
-837 -11 67 0
-837 11 -67 0
-837 12 36 68 -35 0
-837 12 36 -68 35 0
-837 12 -36 68 35 0
-837 12 -36 -68 -35 0
-837 -12 36 68 35 0
-837 -12 36 -68 -35 0
-837 -12 -36 68 -35 0
-837 -12 -36 -68 35 0
838 837 0
-838 -837 0
12 36 68 839 0
-12 -36 -68 839 0
-839 -12 36 0
-839 12 -36 0
-839 -12 68 0
-839 12 -68 0
-839 13 37 69 -36 0
-839 13 37 -69 36 0
-839 13 -37 69 36 0
-839 13 -37 -69 -36 0
-839 -13 37 69 36 0
-839 -13 37 -69 -36 0
-839 -13 -37 69 -36 0
-839 -13 -37 -69 36 0
840 839 0
-840 -839 0
13 37 69 841 0
-13 -37 -69 841 0
-841 -13 37 0
-841 13 -37 0
-841 -13 69 0
-841 13 -69 0
-841 14 38 70 -37 0
-841 14 38 -70 37 0
-841 14 -38 70 37 0
-841 14 -38 -70 -37 0
-841 -14 38 70 37 0
-841 -14 38 -70 -37 0
-841 -14 -38 70 -37 0
-841 -14 -38 -70 37 0
842 841 0
-842 -841 0
14 38 70 843 0
-14 -38 -70 843 0
-843 -14 38 0
-843 14 -38 0
-843 -14 70 0
-843 14 -70 0
-843 15 39 71 -38 0
-843 15 39 -71 38 0
-843 15 -39 71 38 0
-843 15 -39 -71 -38 0
-843 -15 39 71 38 0
-843 -15 39 -71 -38 0
-843 -15 -39 71 -38 0
-843 -15 -39 -71 38 0
844 843 0
-844 -843 0
15 39 71 845 0
-15 -39 -71 845 0
-845 -15 39 0
-845 15 -39 0
-845 -15 71 0
-845 15 -71 0
-845 16 40 72 -39 0
-845 16 40 -72 39 0
-845 16 -40 72 39 0
-845 16 -40 -72 -39 0
-845 -16 40 72 39 0
-845 -16 40 -72 -39 0
-845 -16 -40 72 -39 0
-845 -16 -40 -72 39 0
846 845 0
-846 -845 0
16 40 72 847 0
-16 -40 -72 847 0
-847 -16 40 0
-847 16 -40 0
-847 -16 72 0
-847 16 -72 0
-847 17 41 73 -40 0
-847 17 41 -73 40 0
-847 17 -41 73 40 0
-847 17 -41 -73 -40 0
-847 -17 41 73 40 0
-847 -17 41 -73 -40 0
-847 -17 -41 73 -40 0
-847 -17 -41 -73 40 0
848 847 0
-848 -847 0
17 41 73 849 0
-17 -41 -73 849 0
-849 -17 41 0
-849 17 -41 0
-849 -17 73 0
-849 17 -73 0
-849 18 42 74 -41 0
-849 18 42 -74 41 0
-849 18 -42 74 41 0
-849 18 -42 -74 -41 0
-849 -18 42 74 41 0
-849 -18 42 -74 -41 0
-849 -18 -42 74 -41 0
-849 -18 -42 -74 41 0
850 849 0
-850 -849 0
18 42 74 851 0
-18 -42 -74 851 0
-851 -18 42 0
-851 18 -42 0
-851 -18 74 0
-851 18 -74 0
-851 19 43 75 -42 0
-851 19 43 -75 42 0
-851 19 -43 75 42 0
-851 19 -43 -75 -42 0
-851 -19 43 75 42 0
-851 -19 43 -75 -42 0
-851 -19 -43 75 -42 0
-851 -19 -43 -75 42 0
852 851 0
-852 -851 0
19 43 75 853 0
-19 -43 -75 853 0
-853 -19 43 0
-853 19 -43 0
-853 -19 75 0
-853 19 -75 0
-853 20 44 76 -43 0
-853 20 44 -76 43 0
-853 20 -44 76 43 0
-853 20 -44 -76 -43 0
-853 -20 44 76 43 0
-853 -20 44 -76 -43 0
-853 -20 -44 76 -43 0
-853 -20 -44 -76 43 0
854 853 0
-854 -853 0
20 44 76 855 0
-20 -44 -76 855 0
-855 -20 44 0
-855 20 -44 0
-855 -20 76 0
-855 20 -76 0
-855 21 45 77 -44 0
-855 21 45 -77 44 0
-855 21 -45 77 44 0
-855 21 -45 -77 -44 0
-855 -21 45 77 44 0
-855 -21 45 -77 -44 0
-855 -21 -45 77 -44 0
-855 -21 -45 -77 44 0
856 855 0
-856 -855 0
21 45 77 857 0
-21 -45 -77 857 0
-857 -21 45 0
-857 21 -45 0
-857 -21 77 0
-857 21 -77 0
-857 22 46 78 -45 0
-857 22 46 -78 45 0
-857 22 -46 78 45 0
-857 22 -46 -78 -45 0
-857 -22 46 78 45 0
-857 -22 46 -78 -45 0
-857 -22 -46 78 -45 0
-857 -22 -46 -78 45 0
858 857 0
-858 -857 0
22 46 78 859 0
-22 -46 -78 859 0
-859 -22 46 0
-859 22 -46 0
-859 -22 78 0
-859 22 -78 0
-859 23 47 79 -46 0
-859 23 47 -79 46 0
-859 23 -47 79 46 0
-859 23 -47 -79 -46 0
-859 -23 47 79 46 0
-859 -23 47 -79 -46 0
-859 -23 -47 79 -46 0
-859 -23 -47 -79 46 0
860 859 0
-860 -859 0
23 47 79 861 0
-23 -47 -79 861 0
-861 -23 47 0
-861 23 -47 0
-861 -23 79 0
-861 23 -79 0
-861 24 48 80 -47 0
-861 24 48 -80 47 0
-861 24 -48 80 47 0
-861 24 -48 -80 -47 0
-861 -24 48 80 47 0
-861 -24 48 -80 -47 0
-861 -24 -48 80 -47 0
-861 -24 -48 -80 47 0
862 861 0
-862 -861 0
24 48 80 863 0
-24 -48 -80 863 0
-863 -24 48 0
-863 24 -48 0
-863 -24 80 0
-863 24 -80 0
-863 25 49 81 -48 0
-863 25 49 -81 48 0
-863 25 -49 81 48 0
-863 25 -49 -81 -48 0
-863 -25 49 81 48 0
-863 -25 49 -81 -48 0
-863 -25 -49 81 -48 0
-863 -25 -49 -81 48 0
864 863 0
-864 -863 0
25 49 81 865 0
-25 -49 -81 865 0
-865 -25 49 0
-865 25 -49 0
-865 -25 81 0
-865 25 -81 0
-865 26 50 82 -49 0
-865 26 50 -82 49 0
-865 26 -50 82 49 0
-865 26 -50 -82 -49 0
-865 -26 50 82 49 0
-865 -26 50 -82 -49 0
-865 -26 -50 82 -49 0
-865 -26 -50 -82 49 0
866 865 0
-866 -865 0
26 50 82 867 0
-26 -50 -82 867 0
-867 -26 50 0
-867 26 -50 0
-867 -26 82 0
-867 26 -82 0
-867 27 51 83 -50 0
-867 27 51 -83 50 0
-867 27 -51 83 50 0
-867 27 -51 -83 -50 0
-867 -27 51 83 50 0
-867 -27 51 -83 -50 0
-867 -27 -51 83 -50 0
-867 -27 -51 -83 50 0
868 867 0
-868 -867 0
27 51 83 869 0
-27 -51 -83 869 0
-869 -27 51 0
-869 27 -51 0
-869 -27 83 0
-869 27 -83 0
-869 28 52 84 -51 0
-869 28 52 -84 51 0
-869 28 -52 84 51 0
-869 28 -52 -84 -51 0
-869 -28 52 84 51 0
-869 -28 52 -84 -51 0
-869 -28 -52 84 -51 0
-869 -28 -52 -84 51 0
870 869 0
-870 -869 0
28 52 84 871 0
-28 -52 -84 871 0
-871 -28 52 0
-871 28 -52 0
-871 -28 84 0
-871 28 -84 0
-871 29 53 85 -52 0
-871 29 53 -85 52 0
-871 29 -53 85 52 0
-871 29 -53 -85 -52 0
-871 -29 53 85 52 0
-871 -29 53 -85 -52 0
-871 -29 -53 85 -52 0
-871 -29 -53 -85 52 0
872 871 0
-872 -871 0
29 53 85 873 0
-29 -53 -85 873 0
-873 -29 53 0
-873 29 -53 0
-873 -29 85 0
-873 29 -85 0
-873 30 54 86 -53 0
-873 30 54 -86 53 0
-873 30 -54 86 53 0
-873 30 -54 -86 -53 0
-873 -30 54 86 53 0
-873 -30 54 -86 -53 0
-873 -30 -54 86 -53 0
-873 -30 -54 -86 53 0
874 873 0
-874 -873 0
30 54 86 875 0
-30 -54 -86 875 0
-875 -30 54 0
-875 30 -54 0
-875 -30 86 0
-875 30 -86 0
-875 31 55 87 -54 0
-875 31 55 -87 54 0
-875 31 -55 87 54 0
-875 31 -55 -87 -54 0
-875 -31 55 87 54 0
-875 -31 55 -87 -54 0
-875 -31 -55 87 -54 0
-875 -31 -55 -87 54 0
876 875 0
-876 -875 0
31 55 87 877 0
-31 -55 -87 877 0
-877 -31 55 0
-877 31 -55 0
-877 -31 87 0
-877 31 -87 0
-877 32 56 88 -55 0
-877 32 56 -88 55 0
-877 32 -56 88 55 0
-877 32 -56 -88 -55 0
-877 -32 56 88 55 0
-877 -32 56 -88 -55 0
-877 -32 -56 88 -55 0
-877 -32 -56 -88 55 0
878 877 0
-878 -877 0
32 56 88 879 0
-32 -56 -88 879 0
-879 -32 56 0
-879 32 -56 0
-879 -32 88 0
-879 32 -88 0
-879 1 57 89 -56 0
-879 1 57 -89 56 0
-879 1 -57 89 56 0
-879 1 -57 -89 -56 0
-879 -1 57 89 56 0
-879 -1 57 -89 -56 0
-879 -1 -57 89 -56 0
-879 -1 -57 -89 56 0
880 879 0
-880 -879 0
1 57 89 881 0
-1 -57 -89 881 0
-881 -1 57 0
-881 1 -57 0
-881 -1 89 0
-881 1 -89 0
-881 2 58 90 -57 0
-881 2 58 -90 57 0
-881 2 -58 90 57 0
-881 2 -58 -90 -57 0
-881 -2 58 90 57 0
-881 -2 58 -90 -57 0
-881 -2 -58 90 -57 0
-881 -2 -58 -90 57 0
882 881 0
-882 -881 0
2 58 90 883 0
-2 -58 -90 883 0
-883 -2 58 0
-883 2 -58 0
-883 -2 90 0
-883 2 -90 0
-883 3 59 91 -58 0
-883 3 59 -91 58 0
-883 3 -59 91 58 0
-883 3 -59 -91 -58 0
-883 -3 59 91 58 0
-883 -3 59 -91 -58 0
-883 -3 -59 91 -58 0
-883 -3 -59 -91 58 0
884 883 0
-884 -883 0
3 59 91 885 0
-3 -59 -91 885 0
-885 -3 59 0
-885 3 -59 0
-885 -3 91 0
-885 3 -91 0
-885 4 60 92 -59 0
-885 4 60 -92 59 0
-885 4 -60 92 59 0
-885 4 -60 -92 -59 0
-885 -4 60 92 59 0
-885 -4 60 -92 -59 0
-885 -4 -60 92 -59 0
-885 -4 -60 -92 59 0
886 885 0
-886 -885 0
4 60 92 887 0
-4 -60 -92 887 0
-887 -4 60 0
-887 4 -60 0
-887 -4 92 0
-887 4 -92 0
-887 5 61 93 -60 0
-887 5 61 -93 60 0
-887 5 -61 93 60 0
-887 5 -61 -93 -60 0
-887 -5 61 93 60 0
-887 -5 61 -93 -60 0
-887 -5 -61 93 -60 0
-887 -5 -61 -93 60 0
888 887 0
-888 -887 0
5 61 93 889 0
-5 -61 -93 889 0
-889 -5 61 0
-889 5 -61 0
-889 -5 93 0
-889 5 -93 0
-889 6 62 94 -61 0
-889 6 62 -94 61 0
-889 6 -62 94 61 0
-889 6 -62 -94 -61 0
-889 -6 62 94 61 0
-889 -6 62 -94 -61 0
-889 -6 -62 94 -61 0
-889 -6 -62 -94 61 0
890 889 0
-890 -889 0
6 62 94 891 0
-6 -62 -94 891 0
-891 -6 62 0
-891 6 -62 0
-891 -6 94 0
-891 6 -94 0
-891 7 63 95 -62 0
-891 7 63 -95 62 0
-891 7 -63 95 62 0
-891 7 -63 -95 -62 0
-891 -7 63 95 62 0
-891 -7 63 -95 -62 0
-891 -7 -63 95 -62 0
-891 -7 -63 -95 62 0
892 891 0
-892 -891 0
7 63 95 893 0
-7 -63 -95 893 0
-893 -7 63 0
-893 7 -63 0
-893 -7 95 0
-893 7 -95 0
-893 8 64 96 -63 0
-893 8 64 -96 63 0
-893 8 -64 96 63 0
-893 8 -64 -96 -63 0
-893 -8 64 96 63 0
-893 -8 64 -96 -63 0
-893 -8 -64 96 -63 0
-893 -8 -64 -96 63 0
894 893 0
-894 -893 0
62 65 -97 0
62 -65 97 0
-62 65 97 0
-62 -65 -97 0
63 66 -98 0
63 -66 98 0
-63 66 98 0
-63 -66 -98 0
64 67 -99 0
64 -67 99 0
-64 67 99 0
-64 -67 -99 0
33 68 -100 0
33 -68 100 0
-33 68 100 0
-33 -68 -100 0
34 69 -101 0
34 -69 101 0
-34 69 101 0
-34 -69 -101 0
35 70 -102 0
35 -70 102 0
-35 70 102 0
-35 -70 -102 0
36 71 -103 0
36 -71 103 0
-36 71 103 0
-36 -71 -103 0
37 72 -104 0
37 -72 104 0
-37 72 104 0
-37 -72 -104 0
38 73 -105 0
38 -73 105 0
-38 73 105 0
-38 -73 -105 0
39 74 -106 0
39 -74 106 0
-39 74 106 0
-39 -74 -106 0
40 75 -107 0
40 -75 107 0
-40 75 107 0
-40 -75 -107 0
41 76 -108 0
41 -76 108 0
-41 76 108 0
-41 -76 -108 0
42 77 -109 0
42 -77 109 0
-42 77 109 0
-42 -77 -109 0
43 78 -110 0
43 -78 110 0
-43 78 110 0
-43 -78 -110 0
44 79 -111 0
44 -79 111 0
-44 79 111 0
-44 -79 -111 0
45 80 -112 0
45 -80 112 0
-45 80 112 0
-45 -80 -112 0
46 81 -113 0
46 -81 113 0
-46 81 113 0
-46 -81 -113 0
47 82 -114 0
47 -82 114 0
-47 82 114 0
-47 -82 -114 0
48 83 -115 0
48 -83 115 0
-48 83 115 0
-48 -83 -115 0
49 84 -116 0
49 -84 116 0
-49 84 116 0
-49 -84 -116 0
50 85 -117 0
50 -85 117 0
-50 85 117 0
-50 -85 -117 0
51 86 -118 0
51 -86 118 0
-51 86 118 0
-51 -86 -118 0
52 87 -119 0
52 -87 119 0
-52 87 119 0
-52 -87 -119 0
53 88 -120 0
53 -88 120 0
-53 88 120 0
-53 -88 -120 0
54 89 -121 0
54 -89 121 0
-54 89 121 0
-54 -89 -121 0
55 90 -122 0
55 -90 122 0
-55 90 122 0
-55 -90 -122 0
56 91 -123 0
56 -91 123 0
-56 91 123 0
-56 -91 -123 0
57 92 -124 0
57 -92 124 0
-57 92 124 0
-57 -92 -124 0
58 93 -125 0
58 -93 125 0
-58 93 125 0
-58 -93 -125 0
59 94 -126 0
59 -94 126 0
-59 94 126 0
-59 -94 -126 0
60 95 -127 0
60 -95 127 0
-60 95 127 0
-60 -95 -127 0
61 96 -128 0
61 -96 128 0
-61 96 128 0
-61 -96 -128 0
73 97 -129 0
73 -97 129 0
-73 97 129 0
-73 -97 -129 0
73 97 129 895 0
-73 -97 -129 895 0
-895 -73 97 0
-895 73 -97 0
-895 -73 129 0
-895 73 -129 0
-895 74 98 130 -97 0
-895 74 98 -130 97 0
-895 74 -98 130 97 0
-895 74 -98 -130 -97 0
-895 -74 98 130 97 0
-895 -74 98 -130 -97 0
-895 -74 -98 130 -97 0
-895 -74 -98 -130 97 0
896 895 0
-896 -895 0
74 98 130 897 0
-74 -98 -130 897 0
-897 -74 98 0
-897 74 -98 0
-897 -74 130 0
-897 74 -130 0
-897 75 99 131 -98 0
-897 75 99 -131 98 0
-897 75 -99 131 98 0
-897 75 -99 -131 -98 0
-897 -75 99 131 98 0
-897 -75 99 -131 -98 0
-897 -75 -99 131 -98 0
-897 -75 -99 -131 98 0
898 897 0
-898 -897 0
75 99 131 899 0
-75 -99 -131 899 0
-899 -75 99 0
-899 75 -99 0
-899 -75 131 0
-899 75 -131 0
-899 76 100 132 -99 0
-899 76 100 -132 99 0
-899 76 -100 132 99 0
-899 76 -100 -132 -99 0
-899 -76 100 132 99 0
-899 -76 100 -132 -99 0
-899 -76 -100 132 -99 0
-899 -76 -100 -132 99 0
900 899 0
-900 -899 0
76 100 132 901 0
-76 -100 -132 901 0
-901 -76 100 0
-901 76 -100 0
-901 -76 132 0
-901 76 -132 0
-901 77 101 133 -100 0
-901 77 101 -133 100 0
-901 77 -101 133 100 0
-901 77 -101 -133 -100 0
-901 -77 101 133 100 0
-901 -77 101 -133 -100 0
-901 -77 -101 133 -100 0
-901 -77 -101 -133 100 0
902 901 0
-902 -901 0
77 101 133 903 0
-77 -101 -133 903 0
-903 -77 101 0
-903 77 -101 0
-903 -77 133 0
-903 77 -133 0
-903 78 102 134 -101 0
-903 78 102 -134 101 0
-903 78 -102 134 101 0
-903 78 -102 -134 -101 0
-903 -78 102 134 101 0
-903 -78 102 -134 -101 0
-903 -78 -102 134 -101 0
-903 -78 -102 -134 101 0
904 903 0
-904 -903 0
78 102 134 905 0
-78 -102 -134 905 0
-905 -78 102 0
-905 78 -102 0
-905 -78 134 0
-905 78 -134 0
-905 79 103 135 -102 0
-905 79 103 -135 102 0
-905 79 -103 135 102 0
-905 79 -103 -135 -102 0
-905 -79 103 135 102 0
-905 -79 103 -135 -102 0
-905 -79 -103 135 -102 0
-905 -79 -103 -135 102 0
906 905 0
-906 -905 0
79 103 135 907 0
-79 -103 -135 907 0
-907 -79 103 0
-907 79 -103 0
-907 -79 135 0
-907 79 -135 0
-907 80 104 136 -103 0
-907 80 104 -136 103 0
-907 80 -104 136 103 0
-907 80 -104 -136 -103 0
-907 -80 104 136 103 0
-907 -80 104 -136 -103 0
-907 -80 -104 136 -103 0
-907 -80 -104 -136 103 0
908 907 0
-908 -907 0
80 104 136 909 0
-80 -104 -136 909 0
-909 -80 104 0
-909 80 -104 0
-909 -80 136 0
-909 80 -136 0
-909 81 105 137 -104 0
-909 81 105 -137 104 0
-909 81 -105 137 104 0
-909 81 -105 -137 -104 0
-909 -81 105 137 104 0
-909 -81 105 -137 -104 0
-909 -81 -105 137 -104 0
-909 -81 -105 -137 104 0
910 909 0
-910 -909 0
81 105 137 911 0
-81 -105 -137 911 0
-911 -81 105 0
-911 81 -105 0
-911 -81 137 0
-911 81 -137 0
-911 82 106 138 -105 0
-911 82 106 -138 105 0
-911 82 -106 138 105 0
-911 82 -106 -138 -105 0
-911 -82 106 138 105 0
-911 -82 106 -138 -105 0
-911 -82 -106 138 -105 0
-911 -82 -106 -138 105 0
912 911 0
-912 -911 0
82 106 138 913 0
-82 -106 -138 913 0
-913 -82 106 0
-913 82 -106 0
-913 -82 138 0
-913 82 -138 0
-913 83 107 139 -106 0
-913 83 107 -139 106 0
-913 83 -107 139 106 0
-913 83 -107 -139 -106 0
-913 -83 107 139 106 0
-913 -83 107 -139 -106 0
-913 -83 -107 139 -106 0
-913 -83 -107 -139 106 0
914 913 0
-914 -913 0
83 107 139 915 0
-83 -107 -139 915 0
-915 -83 107 0
-915 83 -107 0
-915 -83 139 0
-915 83 -139 0
-915 84 108 140 -107 0
-915 84 108 -140 107 0
-915 84 -108 140 107 0
-915 84 -108 -140 -107 0
-915 -84 108 140 107 0
-915 -84 108 -140 -107 0
-915 -84 -108 140 -107 0
-915 -84 -108 -140 107 0
916 915 0
-916 -915 0
84 108 140 917 0
-84 -108 -140 917 0
-917 -84 108 0
-917 84 -108 0
-917 -84 140 0
-917 84 -140 0
-917 85 109 141 -108 0
-917 85 109 -141 108 0
-917 85 -109 141 108 0
-917 85 -109 -141 -108 0
-917 -85 109 141 108 0
-917 -85 109 -141 -108 0
-917 -85 -109 141 -108 0
-917 -85 -109 -141 108 0
918 917 0
-918 -917 0
85 109 141 919 0
-85 -109 -141 919 0
-919 -85 109 0
-919 85 -109 0
-919 -85 141 0
-919 85 -141 0
-919 86 110 142 -109 0
-919 86 110 -142 109 0
-919 86 -110 142 109 0
-919 86 -110 -142 -109 0
-919 -86 110 142 109 0
-919 -86 110 -142 -109 0
-919 -86 -110 142 -109 0
-919 -86 -110 -142 109 0
920 919 0
-920 -919 0
86 110 142 921 0
-86 -110 -142 921 0
-921 -86 110 0
-921 86 -110 0
-921 -86 142 0
-921 86 -142 0
-921 87 111 143 -110 0
-921 87 111 -143 110 0
-921 87 -111 143 110 0
-921 87 -111 -143 -110 0
-921 -87 111 143 110 0
-921 -87 111 -143 -110 0
-921 -87 -111 143 -110 0
-921 -87 -111 -143 110 0
922 921 0
-922 -921 0
87 111 143 923 0
-87 -111 -143 923 0
-923 -87 111 0
-923 87 -111 0
-923 -87 143 0
-923 87 -143 0
-923 88 112 144 -111 0
-923 88 112 -144 111 0
-923 88 -112 144 111 0
-923 88 -112 -144 -111 0
-923 -88 112 144 111 0
-923 -88 112 -144 -111 0
-923 -88 -112 144 -111 0
-923 -88 -112 -144 111 0
924 923 0
-924 -923 0
88 112 144 925 0
-88 -112 -144 925 0
-925 -88 112 0
-925 88 -112 0
-925 -88 144 0
-925 88 -144 0
-925 89 113 145 -112 0
-925 89 113 -145 112 0
-925 89 -113 145 112 0
-925 89 -113 -145 -112 0
-925 -89 113 145 112 0
-925 -89 113 -145 -112 0
-925 -89 -113 145 -112 0
-925 -89 -113 -145 112 0
926 925 0
-926 -925 0
89 113 145 927 0
-89 -113 -145 927 0
-927 -89 113 0
-927 89 -113 0
-927 -89 145 0
-927 89 -145 0
-927 90 114 146 -113 0
-927 90 114 -146 113 0
-927 90 -114 146 113 0
-927 90 -114 -146 -113 0
-927 -90 114 146 113 0
-927 -90 114 -146 -113 0
-927 -90 -114 146 -113 0
-927 -90 -114 -146 113 0
928 927 0
-928 -927 0
90 114 146 929 0
-90 -114 -146 929 0
-929 -90 114 0
-929 90 -114 0
-929 -90 146 0
-929 90 -146 0
-929 91 115 147 -114 0
-929 91 115 -147 114 0
-929 91 -115 147 114 0
-929 91 -115 -147 -114 0
-929 -91 115 147 114 0
-929 -91 115 -147 -114 0
-929 -91 -115 147 -114 0
-929 -91 -115 -147 114 0
930 929 0
-930 -929 0
91 115 147 931 0
-91 -115 -147 931 0
-931 -91 115 0
-931 91 -115 0
-931 -91 147 0
-931 91 -147 0
-931 92 116 148 -115 0
-931 92 116 -148 115 0
-931 92 -116 148 115 0
-931 92 -116 -148 -115 0
-931 -92 116 148 115 0
-931 -92 116 -148 -115 0
-931 -92 -116 148 -115 0
-931 -92 -116 -148 115 0
932 931 0
-932 -931 0
92 116 148 933 0
-92 -116 -148 933 0
-933 -92 116 0
-933 92 -116 0
-933 -92 148 0
-933 92 -148 0
-933 93 117 149 -116 0
-933 93 117 -149 116 0
-933 93 -117 149 116 0
-933 93 -117 -149 -116 0
-933 -93 117 149 116 0
-933 -93 117 -149 -116 0
-933 -93 -117 149 -116 0
-933 -93 -117 -149 116 0
934 933 0
-934 -933 0
93 117 149 935 0
-93 -117 -149 935 0
-935 -93 117 0
-935 93 -117 0
-935 -93 149 0
-935 93 -149 0
-935 94 118 150 -117 0
-935 94 118 -150 117 0
-935 94 -118 150 117 0
-935 94 -118 -150 -117 0
-935 -94 118 150 117 0
-935 -94 118 -150 -117 0
-935 -94 -118 150 -117 0
-935 -94 -118 -150 117 0
936 935 0
-936 -935 0
94 118 150 937 0
-94 -118 -150 937 0
-937 -94 118 0
-937 94 -118 0
-937 -94 150 0
-937 94 -150 0
-937 95 119 151 -118 0
-937 95 119 -151 118 0
-937 95 -119 151 118 0
-937 95 -119 -151 -118 0
-937 -95 119 151 118 0
-937 -95 119 -151 -118 0
-937 -95 -119 151 -118 0
-937 -95 -119 -151 118 0
938 937 0
-938 -937 0
95 119 151 939 0
-95 -119 -151 939 0
-939 -95 119 0
-939 95 -119 0
-939 -95 151 0
-939 95 -151 0
-939 96 120 152 -119 0
-939 96 120 -152 119 0
-939 96 -120 152 119 0
-939 96 -120 -152 -119 0
-939 -96 120 152 119 0
-939 -96 120 -152 -119 0
-939 -96 -120 152 -119 0
-939 -96 -120 -152 119 0
940 939 0
-940 -939 0
96 120 152 941 0
-96 -120 -152 941 0
-941 -96 120 0
-941 96 -120 0
-941 -96 152 0
-941 96 -152 0
-941 65 121 153 -120 0
-941 65 121 -153 120 0
-941 65 -121 153 120 0
-941 65 -121 -153 -120 0
-941 -65 121 153 120 0
-941 -65 121 -153 -120 0
-941 -65 -121 153 -120 0
-941 -65 -121 -153 120 0
942 941 0
-942 -941 0
65 121 153 943 0
-65 -121 -153 943 0
-943 -65 121 0
-943 65 -121 0
-943 -65 153 0
-943 65 -153 0
-943 66 122 154 -121 0
-943 66 122 -154 121 0
-943 66 -122 154 121 0
-943 66 -122 -154 -121 0
-943 -66 122 154 121 0
-943 -66 122 -154 -121 0
-943 -66 -122 154 -121 0
-943 -66 -122 -154 121 0
944 943 0
-944 -943 0
66 122 154 945 0
-66 -122 -154 945 0
-945 -66 122 0
-945 66 -122 0
-945 -66 154 0
-945 66 -154 0
-945 67 123 155 -122 0
-945 67 123 -155 122 0
-945 67 -123 155 122 0
-945 67 -123 -155 -122 0
-945 -67 123 155 122 0
-945 -67 123 -155 -122 0
-945 -67 -123 155 -122 0
-945 -67 -123 -155 122 0
946 945 0
-946 -945 0
67 123 155 947 0
-67 -123 -155 947 0
-947 -67 123 0
-947 67 -123 0
-947 -67 155 0
-947 67 -155 0
-947 68 124 156 -123 0
-947 68 124 -156 123 0
-947 68 -124 156 123 0
-947 68 -124 -156 -123 0
-947 -68 124 156 123 0
-947 -68 124 -156 -123 0
-947 -68 -124 156 -123 0
-947 -68 -124 -156 123 0
948 947 0
-948 -947 0
68 124 156 949 0
-68 -124 -156 949 0
-949 -68 124 0
-949 68 -124 0
-949 -68 156 0
-949 68 -156 0
-949 69 125 157 -124 0
-949 69 125 -157 124 0
-949 69 -125 157 124 0
-949 69 -125 -157 -124 0
-949 -69 125 157 124 0
-949 -69 125 -157 -124 0
-949 -69 -125 157 -124 0
-949 -69 -125 -157 124 0
950 949 0
-950 -949 0
69 125 157 951 0
-69 -125 -157 951 0
-951 -69 125 0
-951 69 -125 0
-951 -69 157 0
-951 69 -157 0
-951 70 126 158 -125 0
-951 70 126 -158 125 0
-951 70 -126 158 125 0
-951 70 -126 -158 -125 0
-951 -70 126 158 125 0
-951 -70 126 -158 -125 0
-951 -70 -126 158 -125 0
-951 -70 -126 -158 125 0
952 951 0
-952 -951 0
70 126 158 953 0
-70 -126 -158 953 0
-953 -70 126 0
-953 70 -126 0
-953 -70 158 0
-953 70 -158 0
-953 71 127 159 -126 0
-953 71 127 -159 126 0
-953 71 -127 159 126 0
-953 71 -127 -159 -126 0
-953 -71 127 159 126 0
-953 -71 127 -159 -126 0
-953 -71 -127 159 -126 0
-953 -71 -127 -159 126 0
954 953 0
-954 -953 0
71 127 159 955 0
-71 -127 -159 955 0
-955 -71 127 0
-955 71 -127 0
-955 -71 159 0
-955 71 -159 0
-955 72 128 160 -127 0
-955 72 128 -160 127 0
-955 72 -128 160 127 0
-955 72 -128 -160 -127 0
-955 -72 128 160 127 0
-955 -72 128 -160 -127 0
-955 -72 -128 160 -127 0
-955 -72 -128 -160 127 0
956 955 0
-956 -955 0
126 129 -161 0
126 -129 161 0
-126 129 161 0
-126 -129 -161 0
127 130 -162 0
127 -130 162 0
-127 130 162 0
-127 -130 -162 0
128 131 -163 0
128 -131 163 0
-128 131 163 0
-128 -131 -163 0
97 132 -164 0
97 -132 164 0
-97 132 164 0
-97 -132 -164 0
98 133 -165 0
98 -133 165 0
-98 133 165 0
-98 -133 -165 0
99 134 -166 0
99 -134 166 0
-99 134 166 0
-99 -134 -166 0
100 135 -167 0
100 -135 167 0
-100 135 167 0
-100 -135 -167 0
101 136 -168 0
101 -136 168 0
-101 136 168 0
-101 -136 -168 0
102 137 -169 0
102 -137 169 0
-102 137 169 0
-102 -137 -169 0
103 138 -170 0
103 -138 170 0
-103 138 170 0
-103 -138 -170 0
104 139 -171 0
104 -139 171 0
-104 139 171 0
-104 -139 -171 0
105 140 -172 0
105 -140 172 0
-105 140 172 0
-105 -140 -172 0
106 141 -173 0
106 -141 173 0
-106 141 173 0
-106 -141 -173 0
107 142 -174 0
107 -142 174 0
-107 142 174 0
-107 -142 -174 0
108 143 -175 0
108 -143 175 0
-108 143 175 0
-108 -143 -175 0
109 144 -176 0
109 -144 176 0
-109 144 176 0
-109 -144 -176 0
110 145 -177 0
110 -145 177 0
-110 145 177 0
-110 -145 -177 0
111 146 -178 0
111 -146 178 0
-111 146 178 0
-111 -146 -178 0
112 147 -179 0
112 -147 179 0
-112 147 179 0
-112 -147 -179 0
113 148 -180 0
113 -148 180 0
-113 148 180 0
-113 -148 -180 0
114 149 -181 0
114 -149 181 0
-114 149 181 0
-114 -149 -181 0
115 150 -182 0
115 -150 182 0
-115 150 182 0
-115 -150 -182 0
116 151 -183 0
116 -151 183 0
-116 151 183 0
-116 -151 -183 0
117 152 -184 0
117 -152 184 0
-117 152 184 0
-117 -152 -184 0
118 153 -185 0
118 -153 185 0
-118 153 185 0
-118 -153 -185 0
119 154 -186 0
119 -154 186 0
-119 154 186 0
-119 -154 -186 0
120 155 -187 0
120 -155 187 0
-120 155 187 0
-120 -155 -187 0
121 156 -188 0
121 -156 188 0
-121 156 188 0
-121 -156 -188 0
122 157 -189 0
122 -157 189 0
-122 157 189 0
-122 -157 -189 0
123 158 -190 0
123 -158 190 0
-123 158 190 0
-123 -158 -190 0
124 159 -191 0
124 -159 191 0
-124 159 191 0
-124 -159 -191 0
125 160 -192 0
125 -160 192 0
-125 160 192 0
-125 -160 -192 0
137 161 -193 0
137 -161 193 0
-137 161 193 0
-137 -161 -193 0
137 161 193 957 0
-137 -161 -193 957 0
-957 -137 161 0
-957 137 -161 0
-957 -137 193 0
-957 137 -193 0
-957 138 162 194 -161 0
-957 138 162 -194 161 0
-957 138 -162 194 161 0
-957 138 -162 -194 -161 0
-957 -138 162 194 161 0
-957 -138 162 -194 -161 0
-957 -138 -162 194 -161 0
-957 -138 -162 -194 161 0
958 957 0
-958 -957 0
138 162 194 959 0
-138 -162 -194 959 0
-959 -138 162 0
-959 138 -162 0
-959 -138 194 0
-959 138 -194 0
-959 139 163 195 -162 0
-959 139 163 -195 162 0
-959 139 -163 195 162 0
-959 139 -163 -195 -162 0
-959 -139 163 195 162 0
-959 -139 163 -195 -162 0
-959 -139 -163 195 -162 0
-959 -139 -163 -195 162 0
960 959 0
-960 -959 0
139 163 195 961 0
-139 -163 -195 961 0
-961 -139 163 0
-961 139 -163 0
-961 -139 195 0
-961 139 -195 0
-961 140 164 196 -163 0
-961 140 164 -196 163 0
-961 140 -164 196 163 0
-961 140 -164 -196 -163 0
-961 -140 164 196 163 0
-961 -140 164 -196 -163 0
-961 -140 -164 196 -163 0
-961 -140 -164 -196 163 0
962 961 0
-962 -961 0
140 164 196 963 0
-140 -164 -196 963 0
-963 -140 164 0
-963 140 -164 0
-963 -140 196 0
-963 140 -196 0
-963 141 165 197 -164 0
-963 141 165 -197 164 0
-963 141 -165 197 164 0
-963 141 -165 -197 -164 0
-963 -141 165 197 164 0
-963 -141 165 -197 -164 0
-963 -141 -165 197 -164 0
-963 -141 -165 -197 164 0
964 963 0
-964 -963 0
141 165 197 965 0
-141 -165 -197 965 0
-965 -141 165 0
-965 141 -165 0
-965 -141 197 0
-965 141 -197 0
-965 142 166 198 -165 0
-965 142 166 -198 165 0
-965 142 -166 198 165 0
-965 142 -166 -198 -165 0
-965 -142 166 198 165 0
-965 -142 166 -198 -165 0
-965 -142 -166 198 -165 0
-965 -142 -166 -198 165 0
966 965 0
-966 -965 0
142 166 198 967 0
-142 -166 -198 967 0
-967 -142 166 0
-967 142 -166 0
-967 -142 198 0
-967 142 -198 0
-967 143 167 199 -166 0
-967 143 167 -199 166 0
-967 143 -167 199 166 0
-967 143 -167 -199 -166 0
-967 -143 167 199 166 0
-967 -143 167 -199 -166 0
-967 -143 -167 199 -166 0
-967 -143 -167 -199 166 0
968 967 0
-968 -967 0
143 167 199 969 0
-143 -167 -199 969 0
-969 -143 167 0
-969 143 -167 0
-969 -143 199 0
-969 143 -199 0
-969 144 168 200 -167 0
-969 144 168 -200 167 0
-969 144 -168 200 167 0
-969 144 -168 -200 -167 0
-969 -144 168 200 167 0
-969 -144 168 -200 -167 0
-969 -144 -168 200 -167 0
-969 -144 -168 -200 167 0
970 969 0
-970 -969 0
144 168 200 971 0
-144 -168 -200 971 0
-971 -144 168 0
-971 144 -168 0
-971 -144 200 0
-971 144 -200 0
-971 145 169 201 -168 0
-971 145 169 -201 168 0
-971 145 -169 201 168 0
-971 145 -169 -201 -168 0
-971 -145 169 201 168 0
-971 -145 169 -201 -168 0
-971 -145 -169 201 -168 0
-971 -145 -169 -201 168 0
972 971 0
-972 -971 0
145 169 201 973 0
-145 -169 -201 973 0
-973 -145 169 0
-973 145 -169 0
-973 -145 201 0
-973 145 -201 0
-973 146 170 202 -169 0
-973 146 170 -202 169 0
-973 146 -170 202 169 0
-973 146 -170 -202 -169 0
-973 -146 170 202 169 0
-973 -146 170 -202 -169 0
-973 -146 -170 202 -169 0
-973 -146 -170 -202 169 0
974 973 0
-974 -973 0
146 170 202 975 0
-146 -170 -202 975 0
-975 -146 170 0
-975 146 -170 0
-975 -146 202 0
-975 146 -202 0
-975 147 171 203 -170 0
-975 147 171 -203 170 0
-975 147 -171 203 170 0
-975 147 -171 -203 -170 0
-975 -147 171 203 170 0
-975 -147 171 -203 -170 0
-975 -147 -171 203 -170 0
-975 -147 -171 -203 170 0
976 975 0
-976 -975 0
147 171 203 977 0
-147 -171 -203 977 0
-977 -147 171 0
-977 147 -171 0
-977 -147 203 0
-977 147 -203 0
-977 148 172 204 -171 0
-977 148 172 -204 171 0
-977 148 -172 204 171 0
-977 148 -172 -204 -171 0
-977 -148 172 204 171 0
-977 -148 172 -204 -171 0
-977 -148 -172 204 -171 0
-977 -148 -172 -204 171 0
978 977 0
-978 -977 0
148 172 204 979 0
-148 -172 -204 979 0
-979 -148 172 0
-979 148 -172 0
-979 -148 204 0
-979 148 -204 0
-979 149 173 205 -172 0
-979 149 173 -205 172 0
-979 149 -173 205 172 0
-979 149 -173 -205 -172 0
-979 -149 173 205 172 0
-979 -149 173 -205 -172 0
-979 -149 -173 205 -172 0
-979 -149 -173 -205 172 0
980 979 0
-980 -979 0
149 173 205 981 0
-149 -173 -205 981 0
-981 -149 173 0
-981 149 -173 0
-981 -149 205 0
-981 149 -205 0
-981 150 174 206 -173 0
-981 150 174 -206 173 0
-981 150 -174 206 173 0
-981 150 -174 -206 -173 0
-981 -150 174 206 173 0
-981 -150 174 -206 -173 0
-981 -150 -174 206 -173 0
-981 -150 -174 -206 173 0
982 981 0
-982 -981 0
150 174 206 983 0
-150 -174 -206 983 0
-983 -150 174 0
-983 150 -174 0
-983 -150 206 0
-983 150 -206 0
-983 151 175 207 -174 0
-983 151 175 -207 174 0
-983 151 -175 207 174 0
-983 151 -175 -207 -174 0
-983 -151 175 207 174 0
-983 -151 175 -207 -174 0
-983 -151 -175 207 -174 0
-983 -151 -175 -207 174 0
984 983 0
-984 -983 0
151 175 207 985 0
-151 -175 -207 985 0
-985 -151 175 0
-985 151 -175 0
-985 -151 207 0
-985 151 -207 0
-985 152 176 208 -175 0
-985 152 176 -208 175 0
-985 152 -176 208 175 0
-985 152 -176 -208 -175 0
-985 -152 176 208 175 0
-985 -152 176 -208 -175 0
-985 -152 -176 208 -175 0
-985 -152 -176 -208 175 0
986 985 0
-986 -985 0
152 176 208 987 0
-152 -176 -208 987 0
-987 -152 176 0
-987 152 -176 0
-987 -152 208 0
-987 152 -208 0
-987 153 177 209 -176 0
-987 153 177 -209 176 0
-987 153 -177 209 176 0
-987 153 -177 -209 -176 0
-987 -153 177 209 176 0
-987 -153 177 -209 -176 0
-987 -153 -177 209 -176 0
-987 -153 -177 -209 176 0
988 987 0
-988 -987 0
153 177 209 989 0
-153 -177 -209 989 0
-989 -153 177 0
-989 153 -177 0
-989 -153 209 0
-989 153 -209 0
-989 154 178 210 -177 0
-989 154 178 -210 177 0
-989 154 -178 210 177 0
-989 154 -178 -210 -177 0
-989 -154 178 210 177 0
-989 -154 178 -210 -177 0
-989 -154 -178 210 -177 0
-989 -154 -178 -210 177 0
990 989 0
-990 -989 0
154 178 210 991 0
-154 -178 -210 991 0
-991 -154 178 0
-991 154 -178 0
-991 -154 210 0
-991 154 -210 0
-991 155 179 211 -178 0
-991 155 179 -211 178 0
-991 155 -179 211 178 0
-991 155 -179 -211 -178 0
-991 -155 179 211 178 0
-991 -155 179 -211 -178 0
-991 -155 -179 211 -178 0
-991 -155 -179 -211 178 0
992 991 0
-992 -991 0
155 179 211 993 0
-155 -179 -211 993 0
-993 -155 179 0
-993 155 -179 0
-993 -155 211 0
-993 155 -211 0
-993 156 180 212 -179 0
-993 156 180 -212 179 0
-993 156 -180 212 179 0
-993 156 -180 -212 -179 0
-993 -156 180 212 179 0
-993 -156 180 -212 -179 0
-993 -156 -180 212 -179 0
-993 -156 -180 -212 179 0
994 993 0
-994 -993 0
156 180 212 995 0
-156 -180 -212 995 0
-995 -156 180 0
-995 156 -180 0
-995 -156 212 0
-995 156 -212 0
-995 157 181 213 -180 0
-995 157 181 -213 180 0
-995 157 -181 213 180 0
-995 157 -181 -213 -180 0
-995 -157 181 213 180 0
-995 -157 181 -213 -180 0
-995 -157 -181 213 -180 0
-995 -157 -181 -213 180 0
996 995 0
-996 -995 0
157 181 213 997 0
-157 -181 -213 997 0
-997 -157 181 0
-997 157 -181 0
-997 -157 213 0
-997 157 -213 0
-997 158 182 214 -181 0
-997 158 182 -214 181 0
-997 158 -182 214 181 0
-997 158 -182 -214 -181 0
-997 -158 182 214 181 0
-997 -158 182 -214 -181 0
-997 -158 -182 214 -181 0
-997 -158 -182 -214 181 0
998 997 0
-998 -997 0
158 182 214 999 0
-158 -182 -214 999 0
-999 -158 182 0
-999 158 -182 0
-999 -158 214 0
-999 158 -214 0
-999 159 183 215 -182 0
-999 159 183 -215 182 0
-999 159 -183 215 182 0
-999 159 -183 -215 -182 0
-999 -159 183 215 182 0
-999 -159 183 -215 -182 0
-999 -159 -183 215 -182 0
-999 -159 -183 -215 182 0
1000 999 0
-1000 -999 0
159 183 215 1001 0
-159 -183 -215 1001 0
-1001 -159 183 0
-1001 159 -183 0
-1001 -159 215 0
-1001 159 -215 0
-1001 160 184 216 -183 0
-1001 160 184 -216 183 0
-1001 160 -184 216 183 0
-1001 160 -184 -216 -183 0
-1001 -160 184 216 183 0
-1001 -160 184 -216 -183 0
-1001 -160 -184 216 -183 0
-1001 -160 -184 -216 183 0
1002 1001 0
-1002 -1001 0
160 184 216 1003 0
-160 -184 -216 1003 0
-1003 -160 184 0
-1003 160 -184 0
-1003 -160 216 0
-1003 160 -216 0
-1003 129 185 217 -184 0
-1003 129 185 -217 184 0
-1003 129 -185 217 184 0
-1003 129 -185 -217 -184 0
-1003 -129 185 217 184 0
-1003 -129 185 -217 -184 0
-1003 -129 -185 217 -184 0
-1003 -129 -185 -217 184 0
1004 1003 0
-1004 -1003 0
129 185 217 1005 0
-129 -185 -217 1005 0
-1005 -129 185 0
-1005 129 -185 0
-1005 -129 217 0
-1005 129 -217 0
-1005 130 186 218 -185 0
-1005 130 186 -218 185 0
-1005 130 -186 218 185 0
-1005 130 -186 -218 -185 0
-1005 -130 186 218 185 0
-1005 -130 186 -218 -185 0
-1005 -130 -186 218 -185 0
-1005 -130 -186 -218 185 0
1006 1005 0
-1006 -1005 0
130 186 218 1007 0
-130 -186 -218 1007 0
-1007 -130 186 0
-1007 130 -186 0
-1007 -130 218 0
-1007 130 -218 0
-1007 131 187 219 -186 0
-1007 131 187 -219 186 0
-1007 131 -187 219 186 0
-1007 131 -187 -219 -186 0
-1007 -131 187 219 186 0
-1007 -131 187 -219 -186 0
-1007 -131 -187 219 -186 0
-1007 -131 -187 -219 186 0
1008 1007 0
-1008 -1007 0
131 187 219 1009 0
-131 -187 -219 1009 0
-1009 -131 187 0
-1009 131 -187 0
-1009 -131 219 0
-1009 131 -219 0
-1009 132 188 220 -187 0
-1009 132 188 -220 187 0
-1009 132 -188 220 187 0
-1009 132 -188 -220 -187 0
-1009 -132 188 220 187 0
-1009 -132 188 -220 -187 0
-1009 -132 -188 220 -187 0
-1009 -132 -188 -220 187 0
1010 1009 0
-1010 -1009 0
132 188 220 1011 0
-132 -188 -220 1011 0
-1011 -132 188 0
-1011 132 -188 0
-1011 -132 220 0
-1011 132 -220 0
-1011 133 189 221 -188 0
-1011 133 189 -221 188 0
-1011 133 -189 221 188 0
-1011 133 -189 -221 -188 0
-1011 -133 189 221 188 0
-1011 -133 189 -221 -188 0
-1011 -133 -189 221 -188 0
-1011 -133 -189 -221 188 0
1012 1011 0
-1012 -1011 0
133 189 221 1013 0
-133 -189 -221 1013 0
-1013 -133 189 0
-1013 133 -189 0
-1013 -133 221 0
-1013 133 -221 0
-1013 134 190 222 -189 0
-1013 134 190 -222 189 0
-1013 134 -190 222 189 0
-1013 134 -190 -222 -189 0
-1013 -134 190 222 189 0
-1013 -134 190 -222 -189 0
-1013 -134 -190 222 -189 0
-1013 -134 -190 -222 189 0
1014 1013 0
-1014 -1013 0
134 190 222 1015 0
-134 -190 -222 1015 0
-1015 -134 190 0
-1015 134 -190 0
-1015 -134 222 0
-1015 134 -222 0
-1015 135 191 223 -190 0
-1015 135 191 -223 190 0
-1015 135 -191 223 190 0
-1015 135 -191 -223 -190 0
-1015 -135 191 223 190 0
-1015 -135 191 -223 -190 0
-1015 -135 -191 223 -190 0
-1015 -135 -191 -223 190 0
1016 1015 0
-1016 -1015 0
135 191 223 1017 0
-135 -191 -223 1017 0
-1017 -135 191 0
-1017 135 -191 0
-1017 -135 223 0
-1017 135 -223 0
-1017 136 192 224 -191 0
-1017 136 192 -224 191 0
-1017 136 -192 224 191 0
-1017 136 -192 -224 -191 0
-1017 -136 192 224 191 0
-1017 -136 192 -224 -191 0
-1017 -136 -192 224 -191 0
-1017 -136 -192 -224 191 0
1018 1017 0
-1018 -1017 0
190 193 -225 0
190 -193 225 0
-190 193 225 0
-190 -193 -225 0
191 194 -226 0
191 -194 226 0
-191 194 226 0
-191 -194 -226 0
192 195 -227 0
192 -195 227 0
-192 195 227 0
-192 -195 -227 0
161 196 -228 0
161 -196 228 0
-161 196 228 0
-161 -196 -228 0
162 197 -229 0
162 -197 229 0
-162 197 229 0
-162 -197 -229 0
163 198 -230 0
163 -198 230 0
-163 198 230 0
-163 -198 -230 0
164 199 -231 0
164 -199 231 0
-164 199 231 0
-164 -199 -231 0
165 200 -232 0
165 -200 232 0
-165 200 232 0
-165 -200 -232 0
166 201 -233 0
166 -201 233 0
-166 201 233 0
-166 -201 -233 0
167 202 -234 0
167 -202 234 0
-167 202 234 0
-167 -202 -234 0
168 203 -235 0
168 -203 235 0
-168 203 235 0
-168 -203 -235 0
169 204 -236 0
169 -204 236 0
-169 204 236 0
-169 -204 -236 0
170 205 -237 0
170 -205 237 0
-170 205 237 0
-170 -205 -237 0
171 206 -238 0
171 -206 238 0
-171 206 238 0
-171 -206 -238 0
172 207 -239 0
172 -207 239 0
-172 207 239 0
-172 -207 -239 0
173 208 -240 0
173 -208 240 0
-173 208 240 0
-173 -208 -240 0
174 209 -241 0
174 -209 241 0
-174 209 241 0
-174 -209 -241 0
175 210 -242 0
175 -210 242 0
-175 210 242 0
-175 -210 -242 0
176 211 -243 0
176 -211 243 0
-176 211 243 0
-176 -211 -243 0
177 212 -244 0
177 -212 244 0
-177 212 244 0
-177 -212 -244 0
178 213 -245 0
178 -213 245 0
-178 213 245 0
-178 -213 -245 0
179 214 -246 0
179 -214 246 0
-179 214 246 0
-179 -214 -246 0
180 215 -247 0
180 -215 247 0
-180 215 247 0
-180 -215 -247 0
181 216 -248 0
181 -216 248 0
-181 216 248 0
-181 -216 -248 0
182 217 -249 0
182 -217 249 0
-182 217 249 0
-182 -217 -249 0
183 218 -250 0
183 -218 250 0
-183 218 250 0
-183 -218 -250 0
184 219 -251 0
184 -219 251 0
-184 219 251 0
-184 -219 -251 0
185 220 -252 0
185 -220 252 0
-185 220 252 0
-185 -220 -252 0
186 221 -253 0
186 -221 253 0
-186 221 253 0
-186 -221 -253 0
187 222 -254 0
187 -222 254 0
-187 222 254 0
-187 -222 -254 0
188 223 -255 0
188 -223 255 0
-188 223 255 0
-188 -223 -255 0
189 224 -256 0
189 -224 256 0
-189 224 256 0
-189 -224 -256 0
201 225 -257 0
201 -225 257 0
-201 225 257 0
-201 -225 -257 0
201 225 257 1019 0
-201 -225 -257 1019 0
-1019 -201 225 0
-1019 201 -225 0
-1019 -201 257 0
-1019 201 -257 0
-1019 202 226 258 -225 0
-1019 202 226 -258 225 0
-1019 202 -226 258 225 0
-1019 202 -226 -258 -225 0
-1019 -202 226 258 225 0
-1019 -202 226 -258 -225 0
-1019 -202 -226 258 -225 0
-1019 -202 -226 -258 225 0
1020 1019 0
-1020 -1019 0
202 226 258 1021 0
-202 -226 -258 1021 0
-1021 -202 226 0
-1021 202 -226 0
-1021 -202 258 0
-1021 202 -258 0
-1021 203 227 259 -226 0
-1021 203 227 -259 226 0
-1021 203 -227 259 226 0
-1021 203 -227 -259 -226 0
-1021 -203 227 259 226 0
-1021 -203 227 -259 -226 0
-1021 -203 -227 259 -226 0
-1021 -203 -227 -259 226 0
1022 1021 0
-1022 -1021 0
203 227 259 1023 0
-203 -227 -259 1023 0
-1023 -203 227 0
-1023 203 -227 0
-1023 -203 259 0
-1023 203 -259 0
-1023 204 228 260 -227 0
-1023 204 228 -260 227 0
-1023 204 -228 260 227 0
-1023 204 -228 -260 -227 0
-1023 -204 228 260 227 0
-1023 -204 228 -260 -227 0
-1023 -204 -228 260 -227 0
-1023 -204 -228 -260 227 0
1024 1023 0
-1024 -1023 0
204 228 260 1025 0
-204 -228 -260 1025 0
-1025 -204 228 0
-1025 204 -228 0
-1025 -204 260 0
-1025 204 -260 0
-1025 205 229 261 -228 0
-1025 205 229 -261 228 0
-1025 205 -229 261 228 0
-1025 205 -229 -261 -228 0
-1025 -205 229 261 228 0
-1025 -205 229 -261 -228 0
-1025 -205 -229 261 -228 0
-1025 -205 -229 -261 228 0
1026 1025 0
-1026 -1025 0
205 229 261 1027 0
-205 -229 -261 1027 0
-1027 -205 229 0
-1027 205 -229 0
-1027 -205 261 0
-1027 205 -261 0
-1027 206 230 262 -229 0
-1027 206 230 -262 229 0
-1027 206 -230 262 229 0
-1027 206 -230 -262 -229 0
-1027 -206 230 262 229 0
-1027 -206 230 -262 -229 0
-1027 -206 -230 262 -229 0
-1027 -206 -230 -262 229 0
1028 1027 0
-1028 -1027 0
206 230 262 1029 0
-206 -230 -262 1029 0
-1029 -206 230 0
-1029 206 -230 0
-1029 -206 262 0
-1029 206 -262 0
-1029 207 231 263 -230 0
-1029 207 231 -263 230 0
-1029 207 -231 263 230 0
-1029 207 -231 -263 -230 0
-1029 -207 231 263 230 0
-1029 -207 231 -263 -230 0
-1029 -207 -231 263 -230 0
-1029 -207 -231 -263 230 0
1030 1029 0
-1030 -1029 0
207 231 263 1031 0
-207 -231 -263 1031 0
-1031 -207 231 0
-1031 207 -231 0
-1031 -207 263 0
-1031 207 -263 0
-1031 208 232 264 -231 0
-1031 208 232 -264 231 0
-1031 208 -232 264 231 0
-1031 208 -232 -264 -231 0
-1031 -208 232 264 231 0
-1031 -208 232 -264 -231 0
-1031 -208 -232 264 -231 0
-1031 -208 -232 -264 231 0
1032 1031 0
-1032 -1031 0
208 232 264 1033 0
-208 -232 -264 1033 0
-1033 -208 232 0
-1033 208 -232 0
-1033 -208 264 0
-1033 208 -264 0
-1033 209 233 265 -232 0
-1033 209 233 -265 232 0
-1033 209 -233 265 232 0
-1033 209 -233 -265 -232 0
-1033 -209 233 265 232 0
-1033 -209 233 -265 -232 0
-1033 -209 -233 265 -232 0
-1033 -209 -233 -265 232 0
1034 1033 0
-1034 -1033 0
209 233 265 1035 0
-209 -233 -265 1035 0
-1035 -209 233 0
-1035 209 -233 0
-1035 -209 265 0
-1035 209 -265 0
-1035 210 234 266 -233 0
-1035 210 234 -266 233 0
-1035 210 -234 266 233 0
-1035 210 -234 -266 -233 0
-1035 -210 234 266 233 0
-1035 -210 234 -266 -233 0
-1035 -210 -234 266 -233 0
-1035 -210 -234 -266 233 0
1036 1035 0
-1036 -1035 0
210 234 266 1037 0
-210 -234 -266 1037 0
-1037 -210 234 0
-1037 210 -234 0
-1037 -210 266 0
-1037 210 -266 0
-1037 211 235 267 -234 0
-1037 211 235 -267 234 0
-1037 211 -235 267 234 0
-1037 211 -235 -267 -234 0
-1037 -211 235 267 234 0
-1037 -211 235 -267 -234 0
-1037 -211 -235 267 -234 0
-1037 -211 -235 -267 234 0
1038 1037 0
-1038 -1037 0
211 235 267 1039 0
-211 -235 -267 1039 0
-1039 -211 235 0
-1039 211 -235 0
-1039 -211 267 0
-1039 211 -267 0
-1039 212 236 268 -235 0
-1039 212 236 -268 235 0
-1039 212 -236 268 235 0
-1039 212 -236 -268 -235 0
-1039 -212 236 268 235 0
-1039 -212 236 -268 -235 0
-1039 -212 -236 268 -235 0
-1039 -212 -236 -268 235 0
1040 1039 0
-1040 -1039 0
212 236 268 1041 0
-212 -236 -268 1041 0
-1041 -212 236 0
-1041 212 -236 0
-1041 -212 268 0
-1041 212 -268 0
-1041 213 237 269 -236 0
-1041 213 237 -269 236 0
-1041 213 -237 269 236 0
-1041 213 -237 -269 -236 0
-1041 -213 237 269 236 0
-1041 -213 237 -269 -236 0
-1041 -213 -237 269 -236 0
-1041 -213 -237 -269 236 0
1042 1041 0
-1042 -1041 0
213 237 269 1043 0
-213 -237 -269 1043 0
-1043 -213 237 0
-1043 213 -237 0
-1043 -213 269 0
-1043 213 -269 0
-1043 214 238 270 -237 0
-1043 214 238 -270 237 0
-1043 214 -238 270 237 0
-1043 214 -238 -270 -237 0
-1043 -214 238 270 237 0
-1043 -214 238 -270 -237 0
-1043 -214 -238 270 -237 0
-1043 -214 -238 -270 237 0
1044 1043 0
-1044 -1043 0
214 238 270 1045 0
-214 -238 -270 1045 0
-1045 -214 238 0
-1045 214 -238 0
-1045 -214 270 0
-1045 214 -270 0
-1045 215 239 271 -238 0
-1045 215 239 -271 238 0
-1045 215 -239 271 238 0
-1045 215 -239 -271 -238 0
-1045 -215 239 271 238 0
-1045 -215 239 -271 -238 0
-1045 -215 -239 271 -238 0
-1045 -215 -239 -271 238 0
1046 1045 0
-1046 -1045 0
215 239 271 1047 0
-215 -239 -271 1047 0
-1047 -215 239 0
-1047 215 -239 0
-1047 -215 271 0
-1047 215 -271 0
-1047 216 240 272 -239 0
-1047 216 240 -272 239 0
-1047 216 -240 272 239 0
-1047 216 -240 -272 -239 0
-1047 -216 240 272 239 0
-1047 -216 240 -272 -239 0
-1047 -216 -240 272 -239 0
-1047 -216 -240 -272 239 0
1048 1047 0
-1048 -1047 0
216 240 272 1049 0
-216 -240 -272 1049 0
-1049 -216 240 0
-1049 216 -240 0
-1049 -216 272 0
-1049 216 -272 0
-1049 217 241 273 -240 0
-1049 217 241 -273 240 0
-1049 217 -241 273 240 0
-1049 217 -241 -273 -240 0
-1049 -217 241 273 240 0
-1049 -217 241 -273 -240 0
-1049 -217 -241 273 -240 0
-1049 -217 -241 -273 240 0
1050 1049 0
-1050 -1049 0
217 241 273 1051 0
-217 -241 -273 1051 0
-1051 -217 241 0
-1051 217 -241 0
-1051 -217 273 0
-1051 217 -273 0
-1051 218 242 274 -241 0
-1051 218 242 -274 241 0
-1051 218 -242 274 241 0
-1051 218 -242 -274 -241 0
-1051 -218 242 274 241 0
-1051 -218 242 -274 -241 0
-1051 -218 -242 274 -241 0
-1051 -218 -242 -274 241 0
1052 1051 0
-1052 -1051 0
218 242 274 1053 0
-218 -242 -274 1053 0
-1053 -218 242 0
-1053 218 -242 0
-1053 -218 274 0
-1053 218 -274 0
-1053 219 243 275 -242 0
-1053 219 243 -275 242 0
-1053 219 -243 275 242 0
-1053 219 -243 -275 -242 0
-1053 -219 243 275 242 0
-1053 -219 243 -275 -242 0
-1053 -219 -243 275 -242 0
-1053 -219 -243 -275 242 0
1054 1053 0
-1054 -1053 0
219 243 275 1055 0
-219 -243 -275 1055 0
-1055 -219 243 0
-1055 219 -243 0
-1055 -219 275 0
-1055 219 -275 0
-1055 220 244 276 -243 0
-1055 220 244 -276 243 0
-1055 220 -244 276 243 0
-1055 220 -244 -276 -243 0
-1055 -220 244 276 243 0
-1055 -220 244 -276 -243 0
-1055 -220 -244 276 -243 0
-1055 -220 -244 -276 243 0
1056 1055 0
-1056 -1055 0
220 244 276 1057 0
-220 -244 -276 1057 0
-1057 -220 244 0
-1057 220 -244 0
-1057 -220 276 0
-1057 220 -276 0
-1057 221 245 277 -244 0
-1057 221 245 -277 244 0
-1057 221 -245 277 244 0
-1057 221 -245 -277 -244 0
-1057 -221 245 277 244 0
-1057 -221 245 -277 -244 0
-1057 -221 -245 277 -244 0
-1057 -221 -245 -277 244 0
1058 1057 0
-1058 -1057 0
221 245 277 1059 0
-221 -245 -277 1059 0
-1059 -221 245 0
-1059 221 -245 0
-1059 -221 277 0
-1059 221 -277 0
-1059 222 246 278 -245 0
-1059 222 246 -278 245 0
-1059 222 -246 278 245 0
-1059 222 -246 -278 -245 0
-1059 -222 246 278 245 0
-1059 -222 246 -278 -245 0
-1059 -222 -246 278 -245 0
-1059 -222 -246 -278 245 0
1060 1059 0
-1060 -1059 0
222 246 278 1061 0
-222 -246 -278 1061 0
-1061 -222 246 0
-1061 222 -246 0
-1061 -222 278 0
-1061 222 -278 0
-1061 223 247 279 -246 0
-1061 223 247 -279 246 0
-1061 223 -247 279 246 0
-1061 223 -247 -279 -246 0
-1061 -223 247 279 246 0
-1061 -223 247 -279 -246 0
-1061 -223 -247 279 -246 0
-1061 -223 -247 -279 246 0
1062 1061 0
-1062 -1061 0
223 247 279 1063 0
-223 -247 -279 1063 0
-1063 -223 247 0
-1063 223 -247 0
-1063 -223 279 0
-1063 223 -279 0
-1063 224 248 280 -247 0
-1063 224 248 -280 247 0
-1063 224 -248 280 247 0
-1063 224 -248 -280 -247 0
-1063 -224 248 280 247 0
-1063 -224 248 -280 -247 0
-1063 -224 -248 280 -247 0
-1063 -224 -248 -280 247 0
1064 1063 0
-1064 -1063 0
224 248 280 1065 0
-224 -248 -280 1065 0
-1065 -224 248 0
-1065 224 -248 0
-1065 -224 280 0
-1065 224 -280 0
-1065 193 249 281 -248 0
-1065 193 249 -281 248 0
-1065 193 -249 281 248 0
-1065 193 -249 -281 -248 0
-1065 -193 249 281 248 0
-1065 -193 249 -281 -248 0
-1065 -193 -249 281 -248 0
-1065 -193 -249 -281 248 0
1066 1065 0
-1066 -1065 0
193 249 281 1067 0
-193 -249 -281 1067 0
-1067 -193 249 0
-1067 193 -249 0
-1067 -193 281 0
-1067 193 -281 0
-1067 194 250 282 -249 0
-1067 194 250 -282 249 0
-1067 194 -250 282 249 0
-1067 194 -250 -282 -249 0
-1067 -194 250 282 249 0
-1067 -194 250 -282 -249 0
-1067 -194 -250 282 -249 0
-1067 -194 -250 -282 249 0
1068 1067 0
-1068 -1067 0
194 250 282 1069 0
-194 -250 -282 1069 0
-1069 -194 250 0
-1069 194 -250 0
-1069 -194 282 0
-1069 194 -282 0
-1069 195 251 283 -250 0
-1069 195 251 -283 250 0
-1069 195 -251 283 250 0
-1069 195 -251 -283 -250 0
-1069 -195 251 283 250 0
-1069 -195 251 -283 -250 0
-1069 -195 -251 283 -250 0
-1069 -195 -251 -283 250 0
1070 1069 0
-1070 -1069 0
195 251 283 1071 0
-195 -251 -283 1071 0
-1071 -195 251 0
-1071 195 -251 0
-1071 -195 283 0
-1071 195 -283 0
-1071 196 252 284 -251 0
-1071 196 252 -284 251 0
-1071 196 -252 284 251 0
-1071 196 -252 -284 -251 0
-1071 -196 252 284 251 0
-1071 -196 252 -284 -251 0
-1071 -196 -252 284 -251 0
-1071 -196 -252 -284 251 0
1072 1071 0
-1072 -1071 0
196 252 284 1073 0
-196 -252 -284 1073 0
-1073 -196 252 0
-1073 196 -252 0
-1073 -196 284 0
-1073 196 -284 0
-1073 197 253 285 -252 0
-1073 197 253 -285 252 0
-1073 197 -253 285 252 0
-1073 197 -253 -285 -252 0
-1073 -197 253 285 252 0
-1073 -197 253 -285 -252 0
-1073 -197 -253 285 -252 0
-1073 -197 -253 -285 252 0
1074 1073 0
-1074 -1073 0
197 253 285 1075 0
-197 -253 -285 1075 0
-1075 -197 253 0
-1075 197 -253 0
-1075 -197 285 0
-1075 197 -285 0
-1075 198 254 286 -253 0
-1075 198 254 -286 253 0
-1075 198 -254 286 253 0
-1075 198 -254 -286 -253 0
-1075 -198 254 286 253 0
-1075 -198 254 -286 -253 0
-1075 -198 -254 286 -253 0
-1075 -198 -254 -286 253 0
1076 1075 0
-1076 -1075 0
198 254 286 1077 0
-198 -254 -286 1077 0
-1077 -198 254 0
-1077 198 -254 0
-1077 -198 286 0
-1077 198 -286 0
-1077 199 255 287 -254 0
-1077 199 255 -287 254 0
-1077 199 -255 287 254 0
-1077 199 -255 -287 -254 0
-1077 -199 255 287 254 0
-1077 -199 255 -287 -254 0
-1077 -199 -255 287 -254 0
-1077 -199 -255 -287 254 0
1078 1077 0
-1078 -1077 0
199 255 287 1079 0
-199 -255 -287 1079 0
-1079 -199 255 0
-1079 199 -255 0
-1079 -199 287 0
-1079 199 -287 0
-1079 200 256 288 -255 0
-1079 200 256 -288 255 0
-1079 200 -256 288 255 0
-1079 200 -256 -288 -255 0
-1079 -200 256 288 255 0
-1079 -200 256 -288 -255 0
-1079 -200 -256 288 -255 0
-1079 -200 -256 -288 255 0
1080 1079 0
-1080 -1079 0
254 257 -289 0
254 -257 289 0
-254 257 289 0
-254 -257 -289 0
255 258 -290 0
255 -258 290 0
-255 258 290 0
-255 -258 -290 0
256 259 -291 0
256 -259 291 0
-256 259 291 0
-256 -259 -291 0
225 260 -292 0
225 -260 292 0
-225 260 292 0
-225 -260 -292 0
226 261 -293 0
226 -261 293 0
-226 261 293 0
-226 -261 -293 0
227 262 -294 0
227 -262 294 0
-227 262 294 0
-227 -262 -294 0
228 263 -295 0
228 -263 295 0
-228 263 295 0
-228 -263 -295 0
229 264 -296 0
229 -264 296 0
-229 264 296 0
-229 -264 -296 0
230 265 -297 0
230 -265 297 0
-230 265 297 0
-230 -265 -297 0
231 266 -298 0
231 -266 298 0
-231 266 298 0
-231 -266 -298 0
232 267 -299 0
232 -267 299 0
-232 267 299 0
-232 -267 -299 0
233 268 -300 0
233 -268 300 0
-233 268 300 0
-233 -268 -300 0
234 269 -301 0
234 -269 301 0
-234 269 301 0
-234 -269 -301 0
235 270 -302 0
235 -270 302 0
-235 270 302 0
-235 -270 -302 0
236 271 -303 0
236 -271 303 0
-236 271 303 0
-236 -271 -303 0
237 272 -304 0
237 -272 304 0
-237 272 304 0
-237 -272 -304 0
238 273 -305 0
238 -273 305 0
-238 273 305 0
-238 -273 -305 0
239 274 -306 0
239 -274 306 0
-239 274 306 0
-239 -274 -306 0
240 275 -307 0
240 -275 307 0
-240 275 307 0
-240 -275 -307 0
241 276 -308 0
241 -276 308 0
-241 276 308 0
-241 -276 -308 0
242 277 -309 0
242 -277 309 0
-242 277 309 0
-242 -277 -309 0
243 278 -310 0
243 -278 310 0
-243 278 310 0
-243 -278 -310 0
244 279 -311 0
244 -279 311 0
-244 279 311 0
-244 -279 -311 0
245 280 -312 0
245 -280 312 0
-245 280 312 0
-245 -280 -312 0
246 281 -313 0
246 -281 313 0
-246 281 313 0
-246 -281 -313 0
247 282 -314 0
247 -282 314 0
-247 282 314 0
-247 -282 -314 0
248 283 -315 0
248 -283 315 0
-248 283 315 0
-248 -283 -315 0
249 284 -316 0
249 -284 316 0
-249 284 316 0
-249 -284 -316 0
250 285 -317 0
250 -285 317 0
-250 285 317 0
-250 -285 -317 0
251 286 -318 0
251 -286 318 0
-251 286 318 0
-251 -286 -318 0
252 287 -319 0
252 -287 319 0
-252 287 319 0
-252 -287 -319 0
253 288 -320 0
253 -288 320 0
-253 288 320 0
-253 -288 -320 0
265 289 -321 0
265 -289 321 0
-265 289 321 0
-265 -289 -321 0
265 289 321 1081 0
-265 -289 -321 1081 0
-1081 -265 289 0
-1081 265 -289 0
-1081 -265 321 0
-1081 265 -321 0
-1081 266 290 322 -289 0
-1081 266 290 -322 289 0
-1081 266 -290 322 289 0
-1081 266 -290 -322 -289 0
-1081 -266 290 322 289 0
-1081 -266 290 -322 -289 0
-1081 -266 -290 322 -289 0
-1081 -266 -290 -322 289 0
1082 1081 0
-1082 -1081 0
266 290 322 1083 0
-266 -290 -322 1083 0
-1083 -266 290 0
-1083 266 -290 0
-1083 -266 322 0
-1083 266 -322 0
-1083 267 291 323 -290 0
-1083 267 291 -323 290 0
-1083 267 -291 323 290 0
-1083 267 -291 -323 -290 0
-1083 -267 291 323 290 0
-1083 -267 291 -323 -290 0
-1083 -267 -291 323 -290 0
-1083 -267 -291 -323 290 0
1084 1083 0
-1084 -1083 0
267 291 323 1085 0
-267 -291 -323 1085 0
-1085 -267 291 0
-1085 267 -291 0
-1085 -267 323 0
-1085 267 -323 0
-1085 268 292 324 -291 0
-1085 268 292 -324 291 0
-1085 268 -292 324 291 0
-1085 268 -292 -324 -291 0
-1085 -268 292 324 291 0
-1085 -268 292 -324 -291 0
-1085 -268 -292 324 -291 0
-1085 -268 -292 -324 291 0
1086 1085 0
-1086 -1085 0
268 292 324 1087 0
-268 -292 -324 1087 0
-1087 -268 292 0
-1087 268 -292 0
-1087 -268 324 0
-1087 268 -324 0
-1087 269 293 325 -292 0
-1087 269 293 -325 292 0
-1087 269 -293 325 292 0
-1087 269 -293 -325 -292 0
-1087 -269 293 325 292 0
-1087 -269 293 -325 -292 0
-1087 -269 -293 325 -292 0
-1087 -269 -293 -325 292 0
1088 1087 0
-1088 -1087 0
269 293 325 1089 0
-269 -293 -325 1089 0
-1089 -269 293 0
-1089 269 -293 0
-1089 -269 325 0
-1089 269 -325 0
-1089 270 294 326 -293 0
-1089 270 294 -326 293 0
-1089 270 -294 326 293 0
-1089 270 -294 -326 -293 0
-1089 -270 294 326 293 0
-1089 -270 294 -326 -293 0
-1089 -270 -294 326 -293 0
-1089 -270 -294 -326 293 0
1090 1089 0
-1090 -1089 0
270 294 326 1091 0
-270 -294 -326 1091 0
-1091 -270 294 0
-1091 270 -294 0
-1091 -270 326 0
-1091 270 -326 0
-1091 271 295 327 -294 0
-1091 271 295 -327 294 0
-1091 271 -295 327 294 0
-1091 271 -295 -327 -294 0
-1091 -271 295 327 294 0
-1091 -271 295 -327 -294 0
-1091 -271 -295 327 -294 0
-1091 -271 -295 -327 294 0
1092 1091 0
-1092 -1091 0
271 295 327 1093 0
-271 -295 -327 1093 0
-1093 -271 295 0
-1093 271 -295 0
-1093 -271 327 0
-1093 271 -327 0
-1093 272 296 328 -295 0
-1093 272 296 -328 295 0
-1093 272 -296 328 295 0
-1093 272 -296 -328 -295 0
-1093 -272 296 328 295 0
-1093 -272 296 -328 -295 0
-1093 -272 -296 328 -295 0
-1093 -272 -296 -328 295 0
1094 1093 0
-1094 -1093 0
272 296 328 1095 0
-272 -296 -328 1095 0
-1095 -272 296 0
-1095 272 -296 0
-1095 -272 328 0
-1095 272 -328 0
-1095 273 297 329 -296 0
-1095 273 297 -329 296 0
-1095 273 -297 329 296 0
-1095 273 -297 -329 -296 0
-1095 -273 297 329 296 0
-1095 -273 297 -329 -296 0
-1095 -273 -297 329 -296 0
-1095 -273 -297 -329 296 0
1096 1095 0
-1096 -1095 0
273 297 329 1097 0
-273 -297 -329 1097 0
-1097 -273 297 0
-1097 273 -297 0
-1097 -273 329 0
-1097 273 -329 0
-1097 274 298 330 -297 0
-1097 274 298 -330 297 0
-1097 274 -298 330 297 0
-1097 274 -298 -330 -297 0
-1097 -274 298 330 297 0
-1097 -274 298 -330 -297 0
-1097 -274 -298 330 -297 0
-1097 -274 -298 -330 297 0
1098 1097 0
-1098 -1097 0
274 298 330 1099 0
-274 -298 -330 1099 0
-1099 -274 298 0
-1099 274 -298 0
-1099 -274 330 0
-1099 274 -330 0
-1099 275 299 331 -298 0
-1099 275 299 -331 298 0
-1099 275 -299 331 298 0
-1099 275 -299 -331 -298 0
-1099 -275 299 331 298 0
-1099 -275 299 -331 -298 0
-1099 -275 -299 331 -298 0
-1099 -275 -299 -331 298 0
1100 1099 0
-1100 -1099 0
275 299 331 1101 0
-275 -299 -331 1101 0
-1101 -275 299 0
-1101 275 -299 0
-1101 -275 331 0
-1101 275 -331 0
-1101 276 300 332 -299 0
-1101 276 300 -332 299 0
-1101 276 -300 332 299 0
-1101 276 -300 -332 -299 0
-1101 -276 300 332 299 0
-1101 -276 300 -332 -299 0
-1101 -276 -300 332 -299 0
-1101 -276 -300 -332 299 0
1102 1101 0
-1102 -1101 0
276 300 332 1103 0
-276 -300 -332 1103 0
-1103 -276 300 0
-1103 276 -300 0
-1103 -276 332 0
-1103 276 -332 0
-1103 277 301 333 -300 0
-1103 277 301 -333 300 0
-1103 277 -301 333 300 0
-1103 277 -301 -333 -300 0
-1103 -277 301 333 300 0
-1103 -277 301 -333 -300 0
-1103 -277 -301 333 -300 0
-1103 -277 -301 -333 300 0
1104 1103 0
-1104 -1103 0
277 301 333 1105 0
-277 -301 -333 1105 0
-1105 -277 301 0
-1105 277 -301 0
-1105 -277 333 0
-1105 277 -333 0
-1105 278 302 334 -301 0
-1105 278 302 -334 301 0
-1105 278 -302 334 301 0
-1105 278 -302 -334 -301 0
-1105 -278 302 334 301 0
-1105 -278 302 -334 -301 0
-1105 -278 -302 334 -301 0
-1105 -278 -302 -334 301 0
1106 1105 0
-1106 -1105 0
278 302 334 1107 0
-278 -302 -334 1107 0
-1107 -278 302 0
-1107 278 -302 0
-1107 -278 334 0
-1107 278 -334 0
-1107 279 303 335 -302 0
-1107 279 303 -335 302 0
-1107 279 -303 335 302 0
-1107 279 -303 -335 -302 0
-1107 -279 303 335 302 0
-1107 -279 303 -335 -302 0
-1107 -279 -303 335 -302 0
-1107 -279 -303 -335 302 0
1108 1107 0
-1108 -1107 0
279 303 335 1109 0
-279 -303 -335 1109 0
-1109 -279 303 0
-1109 279 -303 0
-1109 -279 335 0
-1109 279 -335 0
-1109 280 304 336 -303 0
-1109 280 304 -336 303 0
-1109 280 -304 336 303 0
-1109 280 -304 -336 -303 0
-1109 -280 304 336 303 0
-1109 -280 304 -336 -303 0
-1109 -280 -304 336 -303 0
-1109 -280 -304 -336 303 0
1110 1109 0
-1110 -1109 0
280 304 336 1111 0
-280 -304 -336 1111 0
-1111 -280 304 0
-1111 280 -304 0
-1111 -280 336 0
-1111 280 -336 0
-1111 281 305 337 -304 0
-1111 281 305 -337 304 0
-1111 281 -305 337 304 0
-1111 281 -305 -337 -304 0
-1111 -281 305 337 304 0
-1111 -281 305 -337 -304 0
-1111 -281 -305 337 -304 0
-1111 -281 -305 -337 304 0
1112 1111 0
-1112 -1111 0
281 305 337 1113 0
-281 -305 -337 1113 0
-1113 -281 305 0
-1113 281 -305 0
-1113 -281 337 0
-1113 281 -337 0
-1113 282 306 338 -305 0
-1113 282 306 -338 305 0
-1113 282 -306 338 305 0
-1113 282 -306 -338 -305 0
-1113 -282 306 338 305 0
-1113 -282 306 -338 -305 0
-1113 -282 -306 338 -305 0
-1113 -282 -306 -338 305 0
1114 1113 0
-1114 -1113 0
282 306 338 1115 0
-282 -306 -338 1115 0
-1115 -282 306 0
-1115 282 -306 0
-1115 -282 338 0
-1115 282 -338 0
-1115 283 307 339 -306 0
-1115 283 307 -339 306 0
-1115 283 -307 339 306 0
-1115 283 -307 -339 -306 0
-1115 -283 307 339 306 0
-1115 -283 307 -339 -306 0
-1115 -283 -307 339 -306 0
-1115 -283 -307 -339 306 0
1116 1115 0
-1116 -1115 0
283 307 339 1117 0
-283 -307 -339 1117 0
-1117 -283 307 0
-1117 283 -307 0
-1117 -283 339 0
-1117 283 -339 0
-1117 284 308 340 -307 0
-1117 284 308 -340 307 0
-1117 284 -308 340 307 0
-1117 284 -308 -340 -307 0
-1117 -284 308 340 307 0
-1117 -284 308 -340 -307 0
-1117 -284 -308 340 -307 0
-1117 -284 -308 -340 307 0
1118 1117 0
-1118 -1117 0
284 308 340 1119 0
-284 -308 -340 1119 0
-1119 -284 308 0
-1119 284 -308 0
-1119 -284 340 0
-1119 284 -340 0
-1119 285 309 341 -308 0
-1119 285 309 -341 308 0
-1119 285 -309 341 308 0
-1119 285 -309 -341 -308 0
-1119 -285 309 341 308 0
-1119 -285 309 -341 -308 0
-1119 -285 -309 341 -308 0
-1119 -285 -309 -341 308 0
1120 1119 0
-1120 -1119 0
285 309 341 1121 0
-285 -309 -341 1121 0
-1121 -285 309 0
-1121 285 -309 0
-1121 -285 341 0
-1121 285 -341 0
-1121 286 310 342 -309 0
-1121 286 310 -342 309 0
-1121 286 -310 342 309 0
-1121 286 -310 -342 -309 0
-1121 -286 310 342 309 0
-1121 -286 310 -342 -309 0
-1121 -286 -310 342 -309 0
-1121 -286 -310 -342 309 0
1122 1121 0
-1122 -1121 0
286 310 342 1123 0
-286 -310 -342 1123 0
-1123 -286 310 0
-1123 286 -310 0
-1123 -286 342 0
-1123 286 -342 0
-1123 287 311 343 -310 0
-1123 287 311 -343 310 0
-1123 287 -311 343 310 0
-1123 287 -311 -343 -310 0
-1123 -287 311 343 310 0
-1123 -287 311 -343 -310 0
-1123 -287 -311 343 -310 0
-1123 -287 -311 -343 310 0
1124 1123 0
-1124 -1123 0
287 311 343 1125 0
-287 -311 -343 1125 0
-1125 -287 311 0
-1125 287 -311 0
-1125 -287 343 0
-1125 287 -343 0
-1125 288 312 344 -311 0
-1125 288 312 -344 311 0
-1125 288 -312 344 311 0
-1125 288 -312 -344 -311 0
-1125 -288 312 344 311 0
-1125 -288 312 -344 -311 0
-1125 -288 -312 344 -311 0
-1125 -288 -312 -344 311 0
1126 1125 0
-1126 -1125 0
288 312 344 1127 0
-288 -312 -344 1127 0
-1127 -288 312 0
-1127 288 -312 0
-1127 -288 344 0
-1127 288 -344 0
-1127 257 313 345 -312 0
-1127 257 313 -345 312 0
-1127 257 -313 345 312 0
-1127 257 -313 -345 -312 0
-1127 -257 313 345 312 0
-1127 -257 313 -345 -312 0
-1127 -257 -313 345 -312 0
-1127 -257 -313 -345 312 0
1128 1127 0
-1128 -1127 0
257 313 345 1129 0
-257 -313 -345 1129 0
-1129 -257 313 0
-1129 257 -313 0
-1129 -257 345 0
-1129 257 -345 0
-1129 258 314 346 -313 0
-1129 258 314 -346 313 0
-1129 258 -314 346 313 0
-1129 258 -314 -346 -313 0
-1129 -258 314 346 313 0
-1129 -258 314 -346 -313 0
-1129 -258 -314 346 -313 0
-1129 -258 -314 -346 313 0
1130 1129 0
-1130 -1129 0
258 314 346 1131 0
-258 -314 -346 1131 0
-1131 -258 314 0
-1131 258 -314 0
-1131 -258 346 0
-1131 258 -346 0
-1131 259 315 347 -314 0
-1131 259 315 -347 314 0
-1131 259 -315 347 314 0
-1131 259 -315 -347 -314 0
-1131 -259 315 347 314 0
-1131 -259 315 -347 -314 0
-1131 -259 -315 347 -314 0
-1131 -259 -315 -347 314 0
1132 1131 0
-1132 -1131 0
259 315 347 1133 0
-259 -315 -347 1133 0
-1133 -259 315 0
-1133 259 -315 0
-1133 -259 347 0
-1133 259 -347 0
-1133 260 316 348 -315 0
-1133 260 316 -348 315 0
-1133 260 -316 348 315 0
-1133 260 -316 -348 -315 0
-1133 -260 316 348 315 0
-1133 -260 316 -348 -315 0
-1133 -260 -316 348 -315 0
-1133 -260 -316 -348 315 0
1134 1133 0
-1134 -1133 0
260 316 348 1135 0
-260 -316 -348 1135 0
-1135 -260 316 0
-1135 260 -316 0
-1135 -260 348 0
-1135 260 -348 0
-1135 261 317 349 -316 0
-1135 261 317 -349 316 0
-1135 261 -317 349 316 0
-1135 261 -317 -349 -316 0
-1135 -261 317 349 316 0
-1135 -261 317 -349 -316 0
-1135 -261 -317 349 -316 0
-1135 -261 -317 -349 316 0
1136 1135 0
-1136 -1135 0
261 317 349 1137 0
-261 -317 -349 1137 0
-1137 -261 317 0
-1137 261 -317 0
-1137 -261 349 0
-1137 261 -349 0
-1137 262 318 350 -317 0
-1137 262 318 -350 317 0
-1137 262 -318 350 317 0
-1137 262 -318 -350 -317 0
-1137 -262 318 350 317 0
-1137 -262 318 -350 -317 0
-1137 -262 -318 350 -317 0
-1137 -262 -318 -350 317 0
1138 1137 0
-1138 -1137 0
262 318 350 1139 0
-262 -318 -350 1139 0
-1139 -262 318 0
-1139 262 -318 0
-1139 -262 350 0
-1139 262 -350 0
-1139 263 319 351 -318 0
-1139 263 319 -351 318 0
-1139 263 -319 351 318 0
-1139 263 -319 -351 -318 0
-1139 -263 319 351 318 0
-1139 -263 319 -351 -318 0
-1139 -263 -319 351 -318 0
-1139 -263 -319 -351 318 0
1140 1139 0
-1140 -1139 0
263 319 351 1141 0
-263 -319 -351 1141 0
-1141 -263 319 0
-1141 263 -319 0
-1141 -263 351 0
-1141 263 -351 0
-1141 264 320 352 -319 0
-1141 264 320 -352 319 0
-1141 264 -320 352 319 0
-1141 264 -320 -352 -319 0
-1141 -264 320 352 319 0
-1141 -264 320 -352 -319 0
-1141 -264 -320 352 -319 0
-1141 -264 -320 -352 319 0
1142 1141 0
-1142 -1141 0
318 321 -353 0
318 -321 353 0
-318 321 353 0
-318 -321 -353 0
319 322 -354 0
319 -322 354 0
-319 322 354 0
-319 -322 -354 0
320 323 -355 0
320 -323 355 0
-320 323 355 0
-320 -323 -355 0
289 324 -356 0
289 -324 356 0
-289 324 356 0
-289 -324 -356 0
290 325 -357 0
290 -325 357 0
-290 325 357 0
-290 -325 -357 0
291 326 -358 0
291 -326 358 0
-291 326 358 0
-291 -326 -358 0
292 327 -359 0
292 -327 359 0
-292 327 359 0
-292 -327 -359 0
293 328 -360 0
293 -328 360 0
-293 328 360 0
-293 -328 -360 0
294 329 -361 0
294 -329 361 0
-294 329 361 0
-294 -329 -361 0
295 330 -362 0
295 -330 362 0
-295 330 362 0
-295 -330 -362 0
296 331 -363 0
296 -331 363 0
-296 331 363 0
-296 -331 -363 0
297 332 -364 0
297 -332 364 0
-297 332 364 0
-297 -332 -364 0
298 333 -365 0
298 -333 365 0
-298 333 365 0
-298 -333 -365 0
299 334 -366 0
299 -334 366 0
-299 334 366 0
-299 -334 -366 0
300 335 -367 0
300 -335 367 0
-300 335 367 0
-300 -335 -367 0
301 336 -368 0
301 -336 368 0
-301 336 368 0
-301 -336 -368 0
302 337 -369 0
302 -337 369 0
-302 337 369 0
-302 -337 -369 0
303 338 -370 0
303 -338 370 0
-303 338 370 0
-303 -338 -370 0
304 339 -371 0
304 -339 371 0
-304 339 371 0
-304 -339 -371 0
305 340 -372 0
305 -340 372 0
-305 340 372 0
-305 -340 -372 0
306 341 -373 0
306 -341 373 0
-306 341 373 0
-306 -341 -373 0
307 342 -374 0
307 -342 374 0
-307 342 374 0
-307 -342 -374 0
308 343 -375 0
308 -343 375 0
-308 343 375 0
-308 -343 -375 0
309 344 -376 0
309 -344 376 0
-309 344 376 0
-309 -344 -376 0
310 345 -377 0
310 -345 377 0
-310 345 377 0
-310 -345 -377 0
311 346 -378 0
311 -346 378 0
-311 346 378 0
-311 -346 -378 0
312 347 -379 0
312 -347 379 0
-312 347 379 0
-312 -347 -379 0
313 348 -380 0
313 -348 380 0
-313 348 380 0
-313 -348 -380 0
314 349 -381 0
314 -349 381 0
-314 349 381 0
-314 -349 -381 0
315 350 -382 0
315 -350 382 0
-315 350 382 0
-315 -350 -382 0
316 351 -383 0
316 -351 383 0
-316 351 383 0
-316 -351 -383 0
317 352 -384 0
317 -352 384 0
-317 352 384 0
-317 -352 -384 0
329 353 -385 0
329 -353 385 0
-329 353 385 0
-329 -353 -385 0
329 353 385 1143 0
-329 -353 -385 1143 0
-1143 -329 353 0
-1143 329 -353 0
-1143 -329 385 0
-1143 329 -385 0
-1143 330 354 386 -353 0
-1143 330 354 -386 353 0
-1143 330 -354 386 353 0
-1143 330 -354 -386 -353 0
-1143 -330 354 386 353 0
-1143 -330 354 -386 -353 0
-1143 -330 -354 386 -353 0
-1143 -330 -354 -386 353 0
1144 1143 0
-1144 -1143 0
330 354 386 1145 0
-330 -354 -386 1145 0
-1145 -330 354 0
-1145 330 -354 0
-1145 -330 386 0
-1145 330 -386 0
-1145 331 355 387 -354 0
-1145 331 355 -387 354 0
-1145 331 -355 387 354 0
-1145 331 -355 -387 -354 0
-1145 -331 355 387 354 0
-1145 -331 355 -387 -354 0
-1145 -331 -355 387 -354 0
-1145 -331 -355 -387 354 0
1146 1145 0
-1146 -1145 0
331 355 387 1147 0
-331 -355 -387 1147 0
-1147 -331 355 0
-1147 331 -355 0
-1147 -331 387 0
-1147 331 -387 0
-1147 332 356 388 -355 0
-1147 332 356 -388 355 0
-1147 332 -356 388 355 0
-1147 332 -356 -388 -355 0
-1147 -332 356 388 355 0
-1147 -332 356 -388 -355 0
-1147 -332 -356 388 -355 0
-1147 -332 -356 -388 355 0
1148 1147 0
-1148 -1147 0
332 356 388 1149 0
-332 -356 -388 1149 0
-1149 -332 356 0
-1149 332 -356 0
-1149 -332 388 0
-1149 332 -388 0
-1149 333 357 389 -356 0
-1149 333 357 -389 356 0
-1149 333 -357 389 356 0
-1149 333 -357 -389 -356 0
-1149 -333 357 389 356 0
-1149 -333 357 -389 -356 0
-1149 -333 -357 389 -356 0
-1149 -333 -357 -389 356 0
1150 1149 0
-1150 -1149 0
333 357 389 1151 0
-333 -357 -389 1151 0
-1151 -333 357 0
-1151 333 -357 0
-1151 -333 389 0
-1151 333 -389 0
-1151 334 358 390 -357 0
-1151 334 358 -390 357 0
-1151 334 -358 390 357 0
-1151 334 -358 -390 -357 0
-1151 -334 358 390 357 0
-1151 -334 358 -390 -357 0
-1151 -334 -358 390 -357 0
-1151 -334 -358 -390 357 0
1152 1151 0
-1152 -1151 0
334 358 390 1153 0
-334 -358 -390 1153 0
-1153 -334 358 0
-1153 334 -358 0
-1153 -334 390 0
-1153 334 -390 0
-1153 335 359 391 -358 0
-1153 335 359 -391 358 0
-1153 335 -359 391 358 0
-1153 335 -359 -391 -358 0
-1153 -335 359 391 358 0
-1153 -335 359 -391 -358 0
-1153 -335 -359 391 -358 0
-1153 -335 -359 -391 358 0
1154 1153 0
-1154 -1153 0
335 359 391 1155 0
-335 -359 -391 1155 0
-1155 -335 359 0
-1155 335 -359 0
-1155 -335 391 0
-1155 335 -391 0
-1155 336 360 392 -359 0
-1155 336 360 -392 359 0
-1155 336 -360 392 359 0
-1155 336 -360 -392 -359 0
-1155 -336 360 392 359 0
-1155 -336 360 -392 -359 0
-1155 -336 -360 392 -359 0
-1155 -336 -360 -392 359 0
1156 1155 0
-1156 -1155 0
336 360 392 1157 0
-336 -360 -392 1157 0
-1157 -336 360 0
-1157 336 -360 0
-1157 -336 392 0
-1157 336 -392 0
-1157 337 361 393 -360 0
-1157 337 361 -393 360 0
-1157 337 -361 393 360 0
-1157 337 -361 -393 -360 0
-1157 -337 361 393 360 0
-1157 -337 361 -393 -360 0
-1157 -337 -361 393 -360 0
-1157 -337 -361 -393 360 0
1158 1157 0
-1158 -1157 0
337 361 393 1159 0
-337 -361 -393 1159 0
-1159 -337 361 0
-1159 337 -361 0
-1159 -337 393 0
-1159 337 -393 0
-1159 338 362 394 -361 0
-1159 338 362 -394 361 0
-1159 338 -362 394 361 0
-1159 338 -362 -394 -361 0
-1159 -338 362 394 361 0
-1159 -338 362 -394 -361 0
-1159 -338 -362 394 -361 0
-1159 -338 -362 -394 361 0
1160 1159 0
-1160 -1159 0
338 362 394 1161 0
-338 -362 -394 1161 0
-1161 -338 362 0
-1161 338 -362 0
-1161 -338 394 0
-1161 338 -394 0
-1161 339 363 395 -362 0
-1161 339 363 -395 362 0
-1161 339 -363 395 362 0
-1161 339 -363 -395 -362 0
-1161 -339 363 395 362 0
-1161 -339 363 -395 -362 0
-1161 -339 -363 395 -362 0
-1161 -339 -363 -395 362 0
1162 1161 0
-1162 -1161 0
339 363 395 1163 0
-339 -363 -395 1163 0
-1163 -339 363 0
-1163 339 -363 0
-1163 -339 395 0
-1163 339 -395 0
-1163 340 364 396 -363 0
-1163 340 364 -396 363 0
-1163 340 -364 396 363 0
-1163 340 -364 -396 -363 0
-1163 -340 364 396 363 0
-1163 -340 364 -396 -363 0
-1163 -340 -364 396 -363 0
-1163 -340 -364 -396 363 0
1164 1163 0
-1164 -1163 0
340 364 396 1165 0
-340 -364 -396 1165 0
-1165 -340 364 0
-1165 340 -364 0
-1165 -340 396 0
-1165 340 -396 0
-1165 341 365 397 -364 0
-1165 341 365 -397 364 0
-1165 341 -365 397 364 0
-1165 341 -365 -397 -364 0
-1165 -341 365 397 364 0
-1165 -341 365 -397 -364 0
-1165 -341 -365 397 -364 0
-1165 -341 -365 -397 364 0
1166 1165 0
-1166 -1165 0
341 365 397 1167 0
-341 -365 -397 1167 0
-1167 -341 365 0
-1167 341 -365 0
-1167 -341 397 0
-1167 341 -397 0
-1167 342 366 398 -365 0
-1167 342 366 -398 365 0
-1167 342 -366 398 365 0
-1167 342 -366 -398 -365 0
-1167 -342 366 398 365 0
-1167 -342 366 -398 -365 0
-1167 -342 -366 398 -365 0
-1167 -342 -366 -398 365 0
1168 1167 0
-1168 -1167 0
342 366 398 1169 0
-342 -366 -398 1169 0
-1169 -342 366 0
-1169 342 -366 0
-1169 -342 398 0
-1169 342 -398 0
-1169 343 367 399 -366 0
-1169 343 367 -399 366 0
-1169 343 -367 399 366 0
-1169 343 -367 -399 -366 0
-1169 -343 367 399 366 0
-1169 -343 367 -399 -366 0
-1169 -343 -367 399 -366 0
-1169 -343 -367 -399 366 0
1170 1169 0
-1170 -1169 0
343 367 399 1171 0
-343 -367 -399 1171 0
-1171 -343 367 0
-1171 343 -367 0
-1171 -343 399 0
-1171 343 -399 0
-1171 344 368 400 -367 0
-1171 344 368 -400 367 0
-1171 344 -368 400 367 0
-1171 344 -368 -400 -367 0
-1171 -344 368 400 367 0
-1171 -344 368 -400 -367 0
-1171 -344 -368 400 -367 0
-1171 -344 -368 -400 367 0
1172 1171 0
-1172 -1171 0
344 368 400 1173 0
-344 -368 -400 1173 0
-1173 -344 368 0
-1173 344 -368 0
-1173 -344 400 0
-1173 344 -400 0
-1173 345 369 401 -368 0
-1173 345 369 -401 368 0
-1173 345 -369 401 368 0
-1173 345 -369 -401 -368 0
-1173 -345 369 401 368 0
-1173 -345 369 -401 -368 0
-1173 -345 -369 401 -368 0
-1173 -345 -369 -401 368 0
1174 1173 0
-1174 -1173 0
345 369 401 1175 0
-345 -369 -401 1175 0
-1175 -345 369 0
-1175 345 -369 0
-1175 -345 401 0
-1175 345 -401 0
-1175 346 370 402 -369 0
-1175 346 370 -402 369 0
-1175 346 -370 402 369 0
-1175 346 -370 -402 -369 0
-1175 -346 370 402 369 0
-1175 -346 370 -402 -369 0
-1175 -346 -370 402 -369 0
-1175 -346 -370 -402 369 0
1176 1175 0
-1176 -1175 0
346 370 402 1177 0
-346 -370 -402 1177 0
-1177 -346 370 0
-1177 346 -370 0
-1177 -346 402 0
-1177 346 -402 0
-1177 347 371 403 -370 0
-1177 347 371 -403 370 0
-1177 347 -371 403 370 0
-1177 347 -371 -403 -370 0
-1177 -347 371 403 370 0
-1177 -347 371 -403 -370 0
-1177 -347 -371 403 -370 0
-1177 -347 -371 -403 370 0
1178 1177 0
-1178 -1177 0
347 371 403 1179 0
-347 -371 -403 1179 0
-1179 -347 371 0
-1179 347 -371 0
-1179 -347 403 0
-1179 347 -403 0
-1179 348 372 404 -371 0
-1179 348 372 -404 371 0
-1179 348 -372 404 371 0
-1179 348 -372 -404 -371 0
-1179 -348 372 404 371 0
-1179 -348 372 -404 -371 0
-1179 -348 -372 404 -371 0
-1179 -348 -372 -404 371 0
1180 1179 0
-1180 -1179 0
348 372 404 1181 0
-348 -372 -404 1181 0
-1181 -348 372 0
-1181 348 -372 0
-1181 -348 404 0
-1181 348 -404 0
-1181 349 373 405 -372 0
-1181 349 373 -405 372 0
-1181 349 -373 405 372 0
-1181 349 -373 -405 -372 0
-1181 -349 373 405 372 0
-1181 -349 373 -405 -372 0
-1181 -349 -373 405 -372 0
-1181 -349 -373 -405 372 0
1182 1181 0
-1182 -1181 0
349 373 405 1183 0
-349 -373 -405 1183 0
-1183 -349 373 0
-1183 349 -373 0
-1183 -349 405 0
-1183 349 -405 0
-1183 350 374 406 -373 0
-1183 350 374 -406 373 0
-1183 350 -374 406 373 0
-1183 350 -374 -406 -373 0
-1183 -350 374 406 373 0
-1183 -350 374 -406 -373 0
-1183 -350 -374 406 -373 0
-1183 -350 -374 -406 373 0
1184 1183 0
-1184 -1183 0
350 374 406 1185 0
-350 -374 -406 1185 0
-1185 -350 374 0
-1185 350 -374 0
-1185 -350 406 0
-1185 350 -406 0
-1185 351 375 407 -374 0
-1185 351 375 -407 374 0
-1185 351 -375 407 374 0
-1185 351 -375 -407 -374 0
-1185 -351 375 407 374 0
-1185 -351 375 -407 -374 0
-1185 -351 -375 407 -374 0
-1185 -351 -375 -407 374 0
1186 1185 0
-1186 -1185 0
351 375 407 1187 0
-351 -375 -407 1187 0
-1187 -351 375 0
-1187 351 -375 0
-1187 -351 407 0
-1187 351 -407 0
-1187 352 376 408 -375 0
-1187 352 376 -408 375 0
-1187 352 -376 408 375 0
-1187 352 -376 -408 -375 0
-1187 -352 376 408 375 0
-1187 -352 376 -408 -375 0
-1187 -352 -376 408 -375 0
-1187 -352 -376 -408 375 0
1188 1187 0
-1188 -1187 0
352 376 408 1189 0
-352 -376 -408 1189 0
-1189 -352 376 0
-1189 352 -376 0
-1189 -352 408 0
-1189 352 -408 0
-1189 321 377 409 -376 0
-1189 321 377 -409 376 0
-1189 321 -377 409 376 0
-1189 321 -377 -409 -376 0
-1189 -321 377 409 376 0
-1189 -321 377 -409 -376 0
-1189 -321 -377 409 -376 0
-1189 -321 -377 -409 376 0
1190 1189 0
-1190 -1189 0
321 377 409 1191 0
-321 -377 -409 1191 0
-1191 -321 377 0
-1191 321 -377 0
-1191 -321 409 0
-1191 321 -409 0
-1191 322 378 410 -377 0
-1191 322 378 -410 377 0
-1191 322 -378 410 377 0
-1191 322 -378 -410 -377 0
-1191 -322 378 410 377 0
-1191 -322 378 -410 -377 0
-1191 -322 -378 410 -377 0
-1191 -322 -378 -410 377 0
1192 1191 0
-1192 -1191 0
322 378 410 1193 0
-322 -378 -410 1193 0
-1193 -322 378 0
-1193 322 -378 0
-1193 -322 410 0
-1193 322 -410 0
-1193 323 379 411 -378 0
-1193 323 379 -411 378 0
-1193 323 -379 411 378 0
-1193 323 -379 -411 -378 0
-1193 -323 379 411 378 0
-1193 -323 379 -411 -378 0
-1193 -323 -379 411 -378 0
-1193 -323 -379 -411 378 0
1194 1193 0
-1194 -1193 0
323 379 411 1195 0
-323 -379 -411 1195 0
-1195 -323 379 0
-1195 323 -379 0
-1195 -323 411 0
-1195 323 -411 0
-1195 324 380 412 -379 0
-1195 324 380 -412 379 0
-1195 324 -380 412 379 0
-1195 324 -380 -412 -379 0
-1195 -324 380 412 379 0
-1195 -324 380 -412 -379 0
-1195 -324 -380 412 -379 0
-1195 -324 -380 -412 379 0
1196 1195 0
-1196 -1195 0
324 380 412 1197 0
-324 -380 -412 1197 0
-1197 -324 380 0
-1197 324 -380 0
-1197 -324 412 0
-1197 324 -412 0
-1197 325 381 413 -380 0
-1197 325 381 -413 380 0
-1197 325 -381 413 380 0
-1197 325 -381 -413 -380 0
-1197 -325 381 413 380 0
-1197 -325 381 -413 -380 0
-1197 -325 -381 413 -380 0
-1197 -325 -381 -413 380 0
1198 1197 0
-1198 -1197 0
325 381 413 1199 0
-325 -381 -413 1199 0
-1199 -325 381 0
-1199 325 -381 0
-1199 -325 413 0
-1199 325 -413 0
-1199 326 382 414 -381 0
-1199 326 382 -414 381 0
-1199 326 -382 414 381 0
-1199 326 -382 -414 -381 0
-1199 -326 382 414 381 0
-1199 -326 382 -414 -381 0
-1199 -326 -382 414 -381 0
-1199 -326 -382 -414 381 0
1200 1199 0
-1200 -1199 0
326 382 414 1201 0
-326 -382 -414 1201 0
-1201 -326 382 0
-1201 326 -382 0
-1201 -326 414 0
-1201 326 -414 0
-1201 327 383 415 -382 0
-1201 327 383 -415 382 0
-1201 327 -383 415 382 0
-1201 327 -383 -415 -382 0
-1201 -327 383 415 382 0
-1201 -327 383 -415 -382 0
-1201 -327 -383 415 -382 0
-1201 -327 -383 -415 382 0
1202 1201 0
-1202 -1201 0
327 383 415 1203 0
-327 -383 -415 1203 0
-1203 -327 383 0
-1203 327 -383 0
-1203 -327 415 0
-1203 327 -415 0
-1203 328 384 416 -383 0
-1203 328 384 -416 383 0
-1203 328 -384 416 383 0
-1203 328 -384 -416 -383 0
-1203 -328 384 416 383 0
-1203 -328 384 -416 -383 0
-1203 -328 -384 416 -383 0
-1203 -328 -384 -416 383 0
1204 1203 0
-1204 -1203 0
382 385 -417 0
382 -385 417 0
-382 385 417 0
-382 -385 -417 0
383 386 -418 0
383 -386 418 0
-383 386 418 0
-383 -386 -418 0
384 387 -419 0
384 -387 419 0
-384 387 419 0
-384 -387 -419 0
353 388 -420 0
353 -388 420 0
-353 388 420 0
-353 -388 -420 0
354 389 -421 0
354 -389 421 0
-354 389 421 0
-354 -389 -421 0
355 390 -422 0
355 -390 422 0
-355 390 422 0
-355 -390 -422 0
356 391 -423 0
356 -391 423 0
-356 391 423 0
-356 -391 -423 0
357 392 -424 0
357 -392 424 0
-357 392 424 0
-357 -392 -424 0
358 393 -425 0
358 -393 425 0
-358 393 425 0
-358 -393 -425 0
359 394 -426 0
359 -394 426 0
-359 394 426 0
-359 -394 -426 0
360 395 -427 0
360 -395 427 0
-360 395 427 0
-360 -395 -427 0
361 396 -428 0
361 -396 428 0
-361 396 428 0
-361 -396 -428 0
362 397 -429 0
362 -397 429 0
-362 397 429 0
-362 -397 -429 0
363 398 -430 0
363 -398 430 0
-363 398 430 0
-363 -398 -430 0
364 399 -431 0
364 -399 431 0
-364 399 431 0
-364 -399 -431 0
365 400 -432 0
365 -400 432 0
-365 400 432 0
-365 -400 -432 0
366 401 -433 0
366 -401 433 0
-366 401 433 0
-366 -401 -433 0
367 402 -434 0
367 -402 434 0
-367 402 434 0
-367 -402 -434 0
368 403 -435 0
368 -403 435 0
-368 403 435 0
-368 -403 -435 0
369 404 -436 0
369 -404 436 0
-369 404 436 0
-369 -404 -436 0
370 405 -437 0
370 -405 437 0
-370 405 437 0
-370 -405 -437 0
371 406 -438 0
371 -406 438 0
-371 406 438 0
-371 -406 -438 0
372 407 -439 0
372 -407 439 0
-372 407 439 0
-372 -407 -439 0
373 408 -440 0
373 -408 440 0
-373 408 440 0
-373 -408 -440 0
374 409 -441 0
374 -409 441 0
-374 409 441 0
-374 -409 -441 0
375 410 -442 0
375 -410 442 0
-375 410 442 0
-375 -410 -442 0
376 411 -443 0
376 -411 443 0
-376 411 443 0
-376 -411 -443 0
377 412 -444 0
377 -412 444 0
-377 412 444 0
-377 -412 -444 0
378 413 -445 0
378 -413 445 0
-378 413 445 0
-378 -413 -445 0
379 414 -446 0
379 -414 446 0
-379 414 446 0
-379 -414 -446 0
380 415 -447 0
380 -415 447 0
-380 415 447 0
-380 -415 -447 0
381 416 -448 0
381 -416 448 0
-381 416 448 0
-381 -416 -448 0
393 417 -449 0
393 -417 449 0
-393 417 449 0
-393 -417 -449 0
393 417 449 1205 0
-393 -417 -449 1205 0
-1205 -393 417 0
-1205 393 -417 0
-1205 -393 449 0
-1205 393 -449 0
-1205 394 418 450 -417 0
-1205 394 418 -450 417 0
-1205 394 -418 450 417 0
-1205 394 -418 -450 -417 0
-1205 -394 418 450 417 0
-1205 -394 418 -450 -417 0
-1205 -394 -418 450 -417 0
-1205 -394 -418 -450 417 0
1206 1205 0
-1206 -1205 0
394 418 450 1207 0
-394 -418 -450 1207 0
-1207 -394 418 0
-1207 394 -418 0
-1207 -394 450 0
-1207 394 -450 0
-1207 395 419 451 -418 0
-1207 395 419 -451 418 0
-1207 395 -419 451 418 0
-1207 395 -419 -451 -418 0
-1207 -395 419 451 418 0
-1207 -395 419 -451 -418 0
-1207 -395 -419 451 -418 0
-1207 -395 -419 -451 418 0
1208 1207 0
-1208 -1207 0
395 419 451 1209 0
-395 -419 -451 1209 0
-1209 -395 419 0
-1209 395 -419 0
-1209 -395 451 0
-1209 395 -451 0
-1209 396 420 452 -419 0
-1209 396 420 -452 419 0
-1209 396 -420 452 419 0
-1209 396 -420 -452 -419 0
-1209 -396 420 452 419 0
-1209 -396 420 -452 -419 0
-1209 -396 -420 452 -419 0
-1209 -396 -420 -452 419 0
1210 1209 0
-1210 -1209 0
396 420 452 1211 0
-396 -420 -452 1211 0
-1211 -396 420 0
-1211 396 -420 0
-1211 -396 452 0
-1211 396 -452 0
-1211 397 421 453 -420 0
-1211 397 421 -453 420 0
-1211 397 -421 453 420 0
-1211 397 -421 -453 -420 0
-1211 -397 421 453 420 0
-1211 -397 421 -453 -420 0
-1211 -397 -421 453 -420 0
-1211 -397 -421 -453 420 0
1212 1211 0
-1212 -1211 0
397 421 453 1213 0
-397 -421 -453 1213 0
-1213 -397 421 0
-1213 397 -421 0
-1213 -397 453 0
-1213 397 -453 0
-1213 398 422 454 -421 0
-1213 398 422 -454 421 0
-1213 398 -422 454 421 0
-1213 398 -422 -454 -421 0
-1213 -398 422 454 421 0
-1213 -398 422 -454 -421 0
-1213 -398 -422 454 -421 0
-1213 -398 -422 -454 421 0
1214 1213 0
-1214 -1213 0
398 422 454 1215 0
-398 -422 -454 1215 0
-1215 -398 422 0
-1215 398 -422 0
-1215 -398 454 0
-1215 398 -454 0
-1215 399 423 455 -422 0
-1215 399 423 -455 422 0
-1215 399 -423 455 422 0
-1215 399 -423 -455 -422 0
-1215 -399 423 455 422 0
-1215 -399 423 -455 -422 0
-1215 -399 -423 455 -422 0
-1215 -399 -423 -455 422 0
1216 1215 0
-1216 -1215 0
399 423 455 1217 0
-399 -423 -455 1217 0
-1217 -399 423 0
-1217 399 -423 0
-1217 -399 455 0
-1217 399 -455 0
-1217 400 424 456 -423 0
-1217 400 424 -456 423 0
-1217 400 -424 456 423 0
-1217 400 -424 -456 -423 0
-1217 -400 424 456 423 0
-1217 -400 424 -456 -423 0
-1217 -400 -424 456 -423 0
-1217 -400 -424 -456 423 0
1218 1217 0
-1218 -1217 0
400 424 456 1219 0
-400 -424 -456 1219 0
-1219 -400 424 0
-1219 400 -424 0
-1219 -400 456 0
-1219 400 -456 0
-1219 401 425 457 -424 0
-1219 401 425 -457 424 0
-1219 401 -425 457 424 0
-1219 401 -425 -457 -424 0
-1219 -401 425 457 424 0
-1219 -401 425 -457 -424 0
-1219 -401 -425 457 -424 0
-1219 -401 -425 -457 424 0
1220 1219 0
-1220 -1219 0
401 425 457 1221 0
-401 -425 -457 1221 0
-1221 -401 425 0
-1221 401 -425 0
-1221 -401 457 0
-1221 401 -457 0
-1221 402 426 458 -425 0
-1221 402 426 -458 425 0
-1221 402 -426 458 425 0
-1221 402 -426 -458 -425 0
-1221 -402 426 458 425 0
-1221 -402 426 -458 -425 0
-1221 -402 -426 458 -425 0
-1221 -402 -426 -458 425 0
1222 1221 0
-1222 -1221 0
402 426 458 1223 0
-402 -426 -458 1223 0
-1223 -402 426 0
-1223 402 -426 0
-1223 -402 458 0
-1223 402 -458 0
-1223 403 427 459 -426 0
-1223 403 427 -459 426 0
-1223 403 -427 459 426 0
-1223 403 -427 -459 -426 0
-1223 -403 427 459 426 0
-1223 -403 427 -459 -426 0
-1223 -403 -427 459 -426 0
-1223 -403 -427 -459 426 0
1224 1223 0
-1224 -1223 0
403 427 459 1225 0
-403 -427 -459 1225 0
-1225 -403 427 0
-1225 403 -427 0
-1225 -403 459 0
-1225 403 -459 0
-1225 404 428 460 -427 0
-1225 404 428 -460 427 0
-1225 404 -428 460 427 0
-1225 404 -428 -460 -427 0
-1225 -404 428 460 427 0
-1225 -404 428 -460 -427 0
-1225 -404 -428 460 -427 0
-1225 -404 -428 -460 427 0
1226 1225 0
-1226 -1225 0
404 428 460 1227 0
-404 -428 -460 1227 0
-1227 -404 428 0
-1227 404 -428 0
-1227 -404 460 0
-1227 404 -460 0
-1227 405 429 461 -428 0
-1227 405 429 -461 428 0
-1227 405 -429 461 428 0
-1227 405 -429 -461 -428 0
-1227 -405 429 461 428 0
-1227 -405 429 -461 -428 0
-1227 -405 -429 461 -428 0
-1227 -405 -429 -461 428 0
1228 1227 0
-1228 -1227 0
405 429 461 1229 0
-405 -429 -461 1229 0
-1229 -405 429 0
-1229 405 -429 0
-1229 -405 461 0
-1229 405 -461 0
-1229 406 430 462 -429 0
-1229 406 430 -462 429 0
-1229 406 -430 462 429 0
-1229 406 -430 -462 -429 0
-1229 -406 430 462 429 0
-1229 -406 430 -462 -429 0
-1229 -406 -430 462 -429 0
-1229 -406 -430 -462 429 0
1230 1229 0
-1230 -1229 0
406 430 462 1231 0
-406 -430 -462 1231 0
-1231 -406 430 0
-1231 406 -430 0
-1231 -406 462 0
-1231 406 -462 0
-1231 407 431 463 -430 0
-1231 407 431 -463 430 0
-1231 407 -431 463 430 0
-1231 407 -431 -463 -430 0
-1231 -407 431 463 430 0
-1231 -407 431 -463 -430 0
-1231 -407 -431 463 -430 0
-1231 -407 -431 -463 430 0
1232 1231 0
-1232 -1231 0
407 431 463 1233 0
-407 -431 -463 1233 0
-1233 -407 431 0
-1233 407 -431 0
-1233 -407 463 0
-1233 407 -463 0
-1233 408 432 464 -431 0
-1233 408 432 -464 431 0
-1233 408 -432 464 431 0
-1233 408 -432 -464 -431 0
-1233 -408 432 464 431 0
-1233 -408 432 -464 -431 0
-1233 -408 -432 464 -431 0
-1233 -408 -432 -464 431 0
1234 1233 0
-1234 -1233 0
408 432 464 1235 0
-408 -432 -464 1235 0
-1235 -408 432 0
-1235 408 -432 0
-1235 -408 464 0
-1235 408 -464 0
-1235 409 433 465 -432 0
-1235 409 433 -465 432 0
-1235 409 -433 465 432 0
-1235 409 -433 -465 -432 0
-1235 -409 433 465 432 0
-1235 -409 433 -465 -432 0
-1235 -409 -433 465 -432 0
-1235 -409 -433 -465 432 0
1236 1235 0
-1236 -1235 0
409 433 465 1237 0
-409 -433 -465 1237 0
-1237 -409 433 0
-1237 409 -433 0
-1237 -409 465 0
-1237 409 -465 0
-1237 410 434 466 -433 0
-1237 410 434 -466 433 0
-1237 410 -434 466 433 0
-1237 410 -434 -466 -433 0
-1237 -410 434 466 433 0
-1237 -410 434 -466 -433 0
-1237 -410 -434 466 -433 0
-1237 -410 -434 -466 433 0
1238 1237 0
-1238 -1237 0
410 434 466 1239 0
-410 -434 -466 1239 0
-1239 -410 434 0
-1239 410 -434 0
-1239 -410 466 0
-1239 410 -466 0
-1239 411 435 467 -434 0
-1239 411 435 -467 434 0
-1239 411 -435 467 434 0
-1239 411 -435 -467 -434 0
-1239 -411 435 467 434 0
-1239 -411 435 -467 -434 0
-1239 -411 -435 467 -434 0
-1239 -411 -435 -467 434 0
1240 1239 0
-1240 -1239 0
411 435 467 1241 0
-411 -435 -467 1241 0
-1241 -411 435 0
-1241 411 -435 0
-1241 -411 467 0
-1241 411 -467 0
-1241 412 436 468 -435 0
-1241 412 436 -468 435 0
-1241 412 -436 468 435 0
-1241 412 -436 -468 -435 0
-1241 -412 436 468 435 0
-1241 -412 436 -468 -435 0
-1241 -412 -436 468 -435 0
-1241 -412 -436 -468 435 0
1242 1241 0
-1242 -1241 0
412 436 468 1243 0
-412 -436 -468 1243 0
-1243 -412 436 0
-1243 412 -436 0
-1243 -412 468 0
-1243 412 -468 0
-1243 413 437 469 -436 0
-1243 413 437 -469 436 0
-1243 413 -437 469 436 0
-1243 413 -437 -469 -436 0
-1243 -413 437 469 436 0
-1243 -413 437 -469 -436 0
-1243 -413 -437 469 -436 0
-1243 -413 -437 -469 436 0
1244 1243 0
-1244 -1243 0
413 437 469 1245 0
-413 -437 -469 1245 0
-1245 -413 437 0
-1245 413 -437 0
-1245 -413 469 0
-1245 413 -469 0
-1245 414 438 470 -437 0
-1245 414 438 -470 437 0
-1245 414 -438 470 437 0
-1245 414 -438 -470 -437 0
-1245 -414 438 470 437 0
-1245 -414 438 -470 -437 0
-1245 -414 -438 470 -437 0
-1245 -414 -438 -470 437 0
1246 1245 0
-1246 -1245 0
414 438 470 1247 0
-414 -438 -470 1247 0
-1247 -414 438 0
-1247 414 -438 0
-1247 -414 470 0
-1247 414 -470 0
-1247 415 439 471 -438 0
-1247 415 439 -471 438 0
-1247 415 -439 471 438 0
-1247 415 -439 -471 -438 0
-1247 -415 439 471 438 0
-1247 -415 439 -471 -438 0
-1247 -415 -439 471 -438 0
-1247 -415 -439 -471 438 0
1248 1247 0
-1248 -1247 0
415 439 471 1249 0
-415 -439 -471 1249 0
-1249 -415 439 0
-1249 415 -439 0
-1249 -415 471 0
-1249 415 -471 0
-1249 416 440 472 -439 0
-1249 416 440 -472 439 0
-1249 416 -440 472 439 0
-1249 416 -440 -472 -439 0
-1249 -416 440 472 439 0
-1249 -416 440 -472 -439 0
-1249 -416 -440 472 -439 0
-1249 -416 -440 -472 439 0
1250 1249 0
-1250 -1249 0
416 440 472 1251 0
-416 -440 -472 1251 0
-1251 -416 440 0
-1251 416 -440 0
-1251 -416 472 0
-1251 416 -472 0
-1251 385 441 473 -440 0
-1251 385 441 -473 440 0
-1251 385 -441 473 440 0
-1251 385 -441 -473 -440 0
-1251 -385 441 473 440 0
-1251 -385 441 -473 -440 0
-1251 -385 -441 473 -440 0
-1251 -385 -441 -473 440 0
1252 1251 0
-1252 -1251 0
385 441 473 1253 0
-385 -441 -473 1253 0
-1253 -385 441 0
-1253 385 -441 0
-1253 -385 473 0
-1253 385 -473 0
-1253 386 442 474 -441 0
-1253 386 442 -474 441 0
-1253 386 -442 474 441 0
-1253 386 -442 -474 -441 0
-1253 -386 442 474 441 0
-1253 -386 442 -474 -441 0
-1253 -386 -442 474 -441 0
-1253 -386 -442 -474 441 0
1254 1253 0
-1254 -1253 0
386 442 474 1255 0
-386 -442 -474 1255 0
-1255 -386 442 0
-1255 386 -442 0
-1255 -386 474 0
-1255 386 -474 0
-1255 387 443 475 -442 0
-1255 387 443 -475 442 0
-1255 387 -443 475 442 0
-1255 387 -443 -475 -442 0
-1255 -387 443 475 442 0
-1255 -387 443 -475 -442 0
-1255 -387 -443 475 -442 0
-1255 -387 -443 -475 442 0
1256 1255 0
-1256 -1255 0
387 443 475 1257 0
-387 -443 -475 1257 0
-1257 -387 443 0
-1257 387 -443 0
-1257 -387 475 0
-1257 387 -475 0
-1257 388 444 476 -443 0
-1257 388 444 -476 443 0
-1257 388 -444 476 443 0
-1257 388 -444 -476 -443 0
-1257 -388 444 476 443 0
-1257 -388 444 -476 -443 0
-1257 -388 -444 476 -443 0
-1257 -388 -444 -476 443 0
1258 1257 0
-1258 -1257 0
388 444 476 1259 0
-388 -444 -476 1259 0
-1259 -388 444 0
-1259 388 -444 0
-1259 -388 476 0
-1259 388 -476 0
-1259 389 445 477 -444 0
-1259 389 445 -477 444 0
-1259 389 -445 477 444 0
-1259 389 -445 -477 -444 0
-1259 -389 445 477 444 0
-1259 -389 445 -477 -444 0
-1259 -389 -445 477 -444 0
-1259 -389 -445 -477 444 0
1260 1259 0
-1260 -1259 0
389 445 477 1261 0
-389 -445 -477 1261 0
-1261 -389 445 0
-1261 389 -445 0
-1261 -389 477 0
-1261 389 -477 0
-1261 390 446 478 -445 0
-1261 390 446 -478 445 0
-1261 390 -446 478 445 0
-1261 390 -446 -478 -445 0
-1261 -390 446 478 445 0
-1261 -390 446 -478 -445 0
-1261 -390 -446 478 -445 0
-1261 -390 -446 -478 445 0
1262 1261 0
-1262 -1261 0
390 446 478 1263 0
-390 -446 -478 1263 0
-1263 -390 446 0
-1263 390 -446 0
-1263 -390 478 0
-1263 390 -478 0
-1263 391 447 479 -446 0
-1263 391 447 -479 446 0
-1263 391 -447 479 446 0
-1263 391 -447 -479 -446 0
-1263 -391 447 479 446 0
-1263 -391 447 -479 -446 0
-1263 -391 -447 479 -446 0
-1263 -391 -447 -479 446 0
1264 1263 0
-1264 -1263 0
391 447 479 1265 0
-391 -447 -479 1265 0
-1265 -391 447 0
-1265 391 -447 0
-1265 -391 479 0
-1265 391 -479 0
-1265 392 448 480 -447 0
-1265 392 448 -480 447 0
-1265 392 -448 480 447 0
-1265 392 -448 -480 -447 0
-1265 -392 448 480 447 0
-1265 -392 448 -480 -447 0
-1265 -392 -448 480 -447 0
-1265 -392 -448 -480 447 0
1266 1265 0
-1266 -1265 0
446 449 -481 0
446 -449 481 0
-446 449 481 0
-446 -449 -481 0
447 450 -482 0
447 -450 482 0
-447 450 482 0
-447 -450 -482 0
448 451 -483 0
448 -451 483 0
-448 451 483 0
-448 -451 -483 0
417 452 -484 0
417 -452 484 0
-417 452 484 0
-417 -452 -484 0
418 453 -485 0
418 -453 485 0
-418 453 485 0
-418 -453 -485 0
419 454 -486 0
419 -454 486 0
-419 454 486 0
-419 -454 -486 0
420 455 -487 0
420 -455 487 0
-420 455 487 0
-420 -455 -487 0
421 456 -488 0
421 -456 488 0
-421 456 488 0
-421 -456 -488 0
422 457 -489 0
422 -457 489 0
-422 457 489 0
-422 -457 -489 0
423 458 -490 0
423 -458 490 0
-423 458 490 0
-423 -458 -490 0
424 459 -491 0
424 -459 491 0
-424 459 491 0
-424 -459 -491 0
425 460 -492 0
425 -460 492 0
-425 460 492 0
-425 -460 -492 0
426 461 -493 0
426 -461 493 0
-426 461 493 0
-426 -461 -493 0
427 462 -494 0
427 -462 494 0
-427 462 494 0
-427 -462 -494 0
428 463 -495 0
428 -463 495 0
-428 463 495 0
-428 -463 -495 0
429 464 -496 0
429 -464 496 0
-429 464 496 0
-429 -464 -496 0
430 465 -497 0
430 -465 497 0
-430 465 497 0
-430 -465 -497 0
431 466 -498 0
431 -466 498 0
-431 466 498 0
-431 -466 -498 0
432 467 -499 0
432 -467 499 0
-432 467 499 0
-432 -467 -499 0
433 468 -500 0
433 -468 500 0
-433 468 500 0
-433 -468 -500 0
434 469 -501 0
434 -469 501 0
-434 469 501 0
-434 -469 -501 0
435 470 -502 0
435 -470 502 0
-435 470 502 0
-435 -470 -502 0
436 471 -503 0
436 -471 503 0
-436 471 503 0
-436 -471 -503 0
437 472 -504 0
437 -472 504 0
-437 472 504 0
-437 -472 -504 0
438 473 -505 0
438 -473 505 0
-438 473 505 0
-438 -473 -505 0
439 474 -506 0
439 -474 506 0
-439 474 506 0
-439 -474 -506 0
440 475 -507 0
440 -475 507 0
-440 475 507 0
-440 -475 -507 0
441 476 -508 0
441 -476 508 0
-441 476 508 0
-441 -476 -508 0
442 477 -509 0
442 -477 509 0
-442 477 509 0
-442 -477 -509 0
443 478 -510 0
443 -478 510 0
-443 478 510 0
-443 -478 -510 0
444 479 -511 0
444 -479 511 0
-444 479 511 0
-444 -479 -511 0
445 480 -512 0
445 -480 512 0
-445 480 512 0
-445 -480 -512 0
457 481 -513 0
457 -481 513 0
-457 481 513 0
-457 -481 -513 0
457 481 513 1267 0
-457 -481 -513 1267 0
-1267 -457 481 0
-1267 457 -481 0
-1267 -457 513 0
-1267 457 -513 0
-1267 458 482 514 -481 0
-1267 458 482 -514 481 0
-1267 458 -482 514 481 0
-1267 458 -482 -514 -481 0
-1267 -458 482 514 481 0
-1267 -458 482 -514 -481 0
-1267 -458 -482 514 -481 0
-1267 -458 -482 -514 481 0
1268 1267 0
-1268 -1267 0
458 482 514 1269 0
-458 -482 -514 1269 0
-1269 -458 482 0
-1269 458 -482 0
-1269 -458 514 0
-1269 458 -514 0
-1269 459 483 515 -482 0
-1269 459 483 -515 482 0
-1269 459 -483 515 482 0
-1269 459 -483 -515 -482 0
-1269 -459 483 515 482 0
-1269 -459 483 -515 -482 0
-1269 -459 -483 515 -482 0
-1269 -459 -483 -515 482 0
1270 1269 0
-1270 -1269 0
459 483 515 1271 0
-459 -483 -515 1271 0
-1271 -459 483 0
-1271 459 -483 0
-1271 -459 515 0
-1271 459 -515 0
-1271 460 484 516 -483 0
-1271 460 484 -516 483 0
-1271 460 -484 516 483 0
-1271 460 -484 -516 -483 0
-1271 -460 484 516 483 0
-1271 -460 484 -516 -483 0
-1271 -460 -484 516 -483 0
-1271 -460 -484 -516 483 0
1272 1271 0
-1272 -1271 0
460 484 516 1273 0
-460 -484 -516 1273 0
-1273 -460 484 0
-1273 460 -484 0
-1273 -460 516 0
-1273 460 -516 0
-1273 461 485 517 -484 0
-1273 461 485 -517 484 0
-1273 461 -485 517 484 0
-1273 461 -485 -517 -484 0
-1273 -461 485 517 484 0
-1273 -461 485 -517 -484 0
-1273 -461 -485 517 -484 0
-1273 -461 -485 -517 484 0
1274 1273 0
-1274 -1273 0
461 485 517 1275 0
-461 -485 -517 1275 0
-1275 -461 485 0
-1275 461 -485 0
-1275 -461 517 0
-1275 461 -517 0
-1275 462 486 518 -485 0
-1275 462 486 -518 485 0
-1275 462 -486 518 485 0
-1275 462 -486 -518 -485 0
-1275 -462 486 518 485 0
-1275 -462 486 -518 -485 0
-1275 -462 -486 518 -485 0
-1275 -462 -486 -518 485 0
1276 1275 0
-1276 -1275 0
462 486 518 1277 0
-462 -486 -518 1277 0
-1277 -462 486 0
-1277 462 -486 0
-1277 -462 518 0
-1277 462 -518 0
-1277 463 487 519 -486 0
-1277 463 487 -519 486 0
-1277 463 -487 519 486 0
-1277 463 -487 -519 -486 0
-1277 -463 487 519 486 0
-1277 -463 487 -519 -486 0
-1277 -463 -487 519 -486 0
-1277 -463 -487 -519 486 0
1278 1277 0
-1278 -1277 0
463 487 519 1279 0
-463 -487 -519 1279 0
-1279 -463 487 0
-1279 463 -487 0
-1279 -463 519 0
-1279 463 -519 0
-1279 464 488 520 -487 0
-1279 464 488 -520 487 0
-1279 464 -488 520 487 0
-1279 464 -488 -520 -487 0
-1279 -464 488 520 487 0
-1279 -464 488 -520 -487 0
-1279 -464 -488 520 -487 0
-1279 -464 -488 -520 487 0
1280 1279 0
-1280 -1279 0
464 488 520 1281 0
-464 -488 -520 1281 0
-1281 -464 488 0
-1281 464 -488 0
-1281 -464 520 0
-1281 464 -520 0
-1281 465 489 521 -488 0
-1281 465 489 -521 488 0
-1281 465 -489 521 488 0
-1281 465 -489 -521 -488 0
-1281 -465 489 521 488 0
-1281 -465 489 -521 -488 0
-1281 -465 -489 521 -488 0
-1281 -465 -489 -521 488 0
1282 1281 0
-1282 -1281 0
465 489 521 1283 0
-465 -489 -521 1283 0
-1283 -465 489 0
-1283 465 -489 0
-1283 -465 521 0
-1283 465 -521 0
-1283 466 490 522 -489 0
-1283 466 490 -522 489 0
-1283 466 -490 522 489 0
-1283 466 -490 -522 -489 0
-1283 -466 490 522 489 0
-1283 -466 490 -522 -489 0
-1283 -466 -490 522 -489 0
-1283 -466 -490 -522 489 0
1284 1283 0
-1284 -1283 0
466 490 522 1285 0
-466 -490 -522 1285 0
-1285 -466 490 0
-1285 466 -490 0
-1285 -466 522 0
-1285 466 -522 0
-1285 467 491 523 -490 0
-1285 467 491 -523 490 0
-1285 467 -491 523 490 0
-1285 467 -491 -523 -490 0
-1285 -467 491 523 490 0
-1285 -467 491 -523 -490 0
-1285 -467 -491 523 -490 0
-1285 -467 -491 -523 490 0
1286 1285 0
-1286 -1285 0
467 491 523 1287 0
-467 -491 -523 1287 0
-1287 -467 491 0
-1287 467 -491 0
-1287 -467 523 0
-1287 467 -523 0
-1287 468 492 524 -491 0
-1287 468 492 -524 491 0
-1287 468 -492 524 491 0
-1287 468 -492 -524 -491 0
-1287 -468 492 524 491 0
-1287 -468 492 -524 -491 0
-1287 -468 -492 524 -491 0
-1287 -468 -492 -524 491 0
1288 1287 0
-1288 -1287 0
468 492 524 1289 0
-468 -492 -524 1289 0
-1289 -468 492 0
-1289 468 -492 0
-1289 -468 524 0
-1289 468 -524 0
-1289 469 493 525 -492 0
-1289 469 493 -525 492 0
-1289 469 -493 525 492 0
-1289 469 -493 -525 -492 0
-1289 -469 493 525 492 0
-1289 -469 493 -525 -492 0
-1289 -469 -493 525 -492 0
-1289 -469 -493 -525 492 0
1290 1289 0
-1290 -1289 0
469 493 525 1291 0
-469 -493 -525 1291 0
-1291 -469 493 0
-1291 469 -493 0
-1291 -469 525 0
-1291 469 -525 0
-1291 470 494 526 -493 0
-1291 470 494 -526 493 0
-1291 470 -494 526 493 0
-1291 470 -494 -526 -493 0
-1291 -470 494 526 493 0
-1291 -470 494 -526 -493 0
-1291 -470 -494 526 -493 0
-1291 -470 -494 -526 493 0
1292 1291 0
-1292 -1291 0
470 494 526 1293 0
-470 -494 -526 1293 0
-1293 -470 494 0
-1293 470 -494 0
-1293 -470 526 0
-1293 470 -526 0
-1293 471 495 527 -494 0
-1293 471 495 -527 494 0
-1293 471 -495 527 494 0
-1293 471 -495 -527 -494 0
-1293 -471 495 527 494 0
-1293 -471 495 -527 -494 0
-1293 -471 -495 527 -494 0
-1293 -471 -495 -527 494 0
1294 1293 0
-1294 -1293 0
471 495 527 1295 0
-471 -495 -527 1295 0
-1295 -471 495 0
-1295 471 -495 0
-1295 -471 527 0
-1295 471 -527 0
-1295 472 496 528 -495 0
-1295 472 496 -528 495 0
-1295 472 -496 528 495 0
-1295 472 -496 -528 -495 0
-1295 -472 496 528 495 0
-1295 -472 496 -528 -495 0
-1295 -472 -496 528 -495 0
-1295 -472 -496 -528 495 0
1296 1295 0
-1296 -1295 0
472 496 528 1297 0
-472 -496 -528 1297 0
-1297 -472 496 0
-1297 472 -496 0
-1297 -472 528 0
-1297 472 -528 0
-1297 473 497 529 -496 0
-1297 473 497 -529 496 0
-1297 473 -497 529 496 0
-1297 473 -497 -529 -496 0
-1297 -473 497 529 496 0
-1297 -473 497 -529 -496 0
-1297 -473 -497 529 -496 0
-1297 -473 -497 -529 496 0
1298 1297 0
-1298 -1297 0
473 497 529 1299 0
-473 -497 -529 1299 0
-1299 -473 497 0
-1299 473 -497 0
-1299 -473 529 0
-1299 473 -529 0
-1299 474 498 530 -497 0
-1299 474 498 -530 497 0
-1299 474 -498 530 497 0
-1299 474 -498 -530 -497 0
-1299 -474 498 530 497 0
-1299 -474 498 -530 -497 0
-1299 -474 -498 530 -497 0
-1299 -474 -498 -530 497 0
1300 1299 0
-1300 -1299 0
474 498 530 1301 0
-474 -498 -530 1301 0
-1301 -474 498 0
-1301 474 -498 0
-1301 -474 530 0
-1301 474 -530 0
-1301 475 499 531 -498 0
-1301 475 499 -531 498 0
-1301 475 -499 531 498 0
-1301 475 -499 -531 -498 0
-1301 -475 499 531 498 0
-1301 -475 499 -531 -498 0
-1301 -475 -499 531 -498 0
-1301 -475 -499 -531 498 0
1302 1301 0
-1302 -1301 0
475 499 531 1303 0
-475 -499 -531 1303 0
-1303 -475 499 0
-1303 475 -499 0
-1303 -475 531 0
-1303 475 -531 0
-1303 476 500 532 -499 0
-1303 476 500 -532 499 0
-1303 476 -500 532 499 0
-1303 476 -500 -532 -499 0
-1303 -476 500 532 499 0
-1303 -476 500 -532 -499 0
-1303 -476 -500 532 -499 0
-1303 -476 -500 -532 499 0
1304 1303 0
-1304 -1303 0
476 500 532 1305 0
-476 -500 -532 1305 0
-1305 -476 500 0
-1305 476 -500 0
-1305 -476 532 0
-1305 476 -532 0
-1305 477 501 533 -500 0
-1305 477 501 -533 500 0
-1305 477 -501 533 500 0
-1305 477 -501 -533 -500 0
-1305 -477 501 533 500 0
-1305 -477 501 -533 -500 0
-1305 -477 -501 533 -500 0
-1305 -477 -501 -533 500 0
1306 1305 0
-1306 -1305 0
477 501 533 1307 0
-477 -501 -533 1307 0
-1307 -477 501 0
-1307 477 -501 0
-1307 -477 533 0
-1307 477 -533 0
-1307 478 502 534 -501 0
-1307 478 502 -534 501 0
-1307 478 -502 534 501 0
-1307 478 -502 -534 -501 0
-1307 -478 502 534 501 0
-1307 -478 502 -534 -501 0
-1307 -478 -502 534 -501 0
-1307 -478 -502 -534 501 0
1308 1307 0
-1308 -1307 0
478 502 534 1309 0
-478 -502 -534 1309 0
-1309 -478 502 0
-1309 478 -502 0
-1309 -478 534 0
-1309 478 -534 0
-1309 479 503 535 -502 0
-1309 479 503 -535 502 0
-1309 479 -503 535 502 0
-1309 479 -503 -535 -502 0
-1309 -479 503 535 502 0
-1309 -479 503 -535 -502 0
-1309 -479 -503 535 -502 0
-1309 -479 -503 -535 502 0
1310 1309 0
-1310 -1309 0
479 503 535 1311 0
-479 -503 -535 1311 0
-1311 -479 503 0
-1311 479 -503 0
-1311 -479 535 0
-1311 479 -535 0
-1311 480 504 536 -503 0
-1311 480 504 -536 503 0
-1311 480 -504 536 503 0
-1311 480 -504 -536 -503 0
-1311 -480 504 536 503 0
-1311 -480 504 -536 -503 0
-1311 -480 -504 536 -503 0
-1311 -480 -504 -536 503 0
1312 1311 0
-1312 -1311 0
480 504 536 1313 0
-480 -504 -536 1313 0
-1313 -480 504 0
-1313 480 -504 0
-1313 -480 536 0
-1313 480 -536 0
-1313 449 505 537 -504 0
-1313 449 505 -537 504 0
-1313 449 -505 537 504 0
-1313 449 -505 -537 -504 0
-1313 -449 505 537 504 0
-1313 -449 505 -537 -504 0
-1313 -449 -505 537 -504 0
-1313 -449 -505 -537 504 0
1314 1313 0
-1314 -1313 0
449 505 537 1315 0
-449 -505 -537 1315 0
-1315 -449 505 0
-1315 449 -505 0
-1315 -449 537 0
-1315 449 -537 0
-1315 450 506 538 -505 0
-1315 450 506 -538 505 0
-1315 450 -506 538 505 0
-1315 450 -506 -538 -505 0
-1315 -450 506 538 505 0
-1315 -450 506 -538 -505 0
-1315 -450 -506 538 -505 0
-1315 -450 -506 -538 505 0
1316 1315 0
-1316 -1315 0
450 506 538 1317 0
-450 -506 -538 1317 0
-1317 -450 506 0
-1317 450 -506 0
-1317 -450 538 0
-1317 450 -538 0
-1317 451 507 539 -506 0
-1317 451 507 -539 506 0
-1317 451 -507 539 506 0
-1317 451 -507 -539 -506 0
-1317 -451 507 539 506 0
-1317 -451 507 -539 -506 0
-1317 -451 -507 539 -506 0
-1317 -451 -507 -539 506 0
1318 1317 0
-1318 -1317 0
451 507 539 1319 0
-451 -507 -539 1319 0
-1319 -451 507 0
-1319 451 -507 0
-1319 -451 539 0
-1319 451 -539 0
-1319 452 508 540 -507 0
-1319 452 508 -540 507 0
-1319 452 -508 540 507 0
-1319 452 -508 -540 -507 0
-1319 -452 508 540 507 0
-1319 -452 508 -540 -507 0
-1319 -452 -508 540 -507 0
-1319 -452 -508 -540 507 0
1320 1319 0
-1320 -1319 0
452 508 540 1321 0
-452 -508 -540 1321 0
-1321 -452 508 0
-1321 452 -508 0
-1321 -452 540 0
-1321 452 -540 0
-1321 453 509 541 -508 0
-1321 453 509 -541 508 0
-1321 453 -509 541 508 0
-1321 453 -509 -541 -508 0
-1321 -453 509 541 508 0
-1321 -453 509 -541 -508 0
-1321 -453 -509 541 -508 0
-1321 -453 -509 -541 508 0
1322 1321 0
-1322 -1321 0
453 509 541 1323 0
-453 -509 -541 1323 0
-1323 -453 509 0
-1323 453 -509 0
-1323 -453 541 0
-1323 453 -541 0
-1323 454 510 542 -509 0
-1323 454 510 -542 509 0
-1323 454 -510 542 509 0
-1323 454 -510 -542 -509 0
-1323 -454 510 542 509 0
-1323 -454 510 -542 -509 0
-1323 -454 -510 542 -509 0
-1323 -454 -510 -542 509 0
1324 1323 0
-1324 -1323 0
454 510 542 1325 0
-454 -510 -542 1325 0
-1325 -454 510 0
-1325 454 -510 0
-1325 -454 542 0
-1325 454 -542 0
-1325 455 511 543 -510 0
-1325 455 511 -543 510 0
-1325 455 -511 543 510 0
-1325 455 -511 -543 -510 0
-1325 -455 511 543 510 0
-1325 -455 511 -543 -510 0
-1325 -455 -511 543 -510 0
-1325 -455 -511 -543 510 0
1326 1325 0
-1326 -1325 0
455 511 543 1327 0
-455 -511 -543 1327 0
-1327 -455 511 0
-1327 455 -511 0
-1327 -455 543 0
-1327 455 -543 0
-1327 456 512 544 -511 0
-1327 456 512 -544 511 0
-1327 456 -512 544 511 0
-1327 456 -512 -544 -511 0
-1327 -456 512 544 511 0
-1327 -456 512 -544 -511 0
-1327 -456 -512 544 -511 0
-1327 -456 -512 -544 511 0
1328 1327 0
-1328 -1327 0
510 513 -545 0
510 -513 545 0
-510 513 545 0
-510 -513 -545 0
511 514 -546 0
511 -514 546 0
-511 514 546 0
-511 -514 -546 0
512 515 -547 0
512 -515 547 0
-512 515 547 0
-512 -515 -547 0
481 516 -548 0
481 -516 548 0
-481 516 548 0
-481 -516 -548 0
482 517 -549 0
482 -517 549 0
-482 517 549 0
-482 -517 -549 0
483 518 -550 0
483 -518 550 0
-483 518 550 0
-483 -518 -550 0
484 519 -551 0
484 -519 551 0
-484 519 551 0
-484 -519 -551 0
485 520 -552 0
485 -520 552 0
-485 520 552 0
-485 -520 -552 0
486 521 -553 0
486 -521 553 0
-486 521 553 0
-486 -521 -553 0
487 522 -554 0
487 -522 554 0
-487 522 554 0
-487 -522 -554 0
488 523 -555 0
488 -523 555 0
-488 523 555 0
-488 -523 -555 0
489 524 -556 0
489 -524 556 0
-489 524 556 0
-489 -524 -556 0
490 525 -557 0
490 -525 557 0
-490 525 557 0
-490 -525 -557 0
491 526 -558 0
491 -526 558 0
-491 526 558 0
-491 -526 -558 0
492 527 -559 0
492 -527 559 0
-492 527 559 0
-492 -527 -559 0
493 528 -560 0
493 -528 560 0
-493 528 560 0
-493 -528 -560 0
494 529 -561 0
494 -529 561 0
-494 529 561 0
-494 -529 -561 0
495 530 -562 0
495 -530 562 0
-495 530 562 0
-495 -530 -562 0
496 531 -563 0
496 -531 563 0
-496 531 563 0
-496 -531 -563 0
497 532 -564 0
497 -532 564 0
-497 532 564 0
-497 -532 -564 0
498 533 -565 0
498 -533 565 0
-498 533 565 0
-498 -533 -565 0
499 534 -566 0
499 -534 566 0
-499 534 566 0
-499 -534 -566 0
500 535 -567 0
500 -535 567 0
-500 535 567 0
-500 -535 -567 0
501 536 -568 0
501 -536 568 0
-501 536 568 0
-501 -536 -568 0
502 537 -569 0
502 -537 569 0
-502 537 569 0
-502 -537 -569 0
503 538 -570 0
503 -538 570 0
-503 538 570 0
-503 -538 -570 0
504 539 -571 0
504 -539 571 0
-504 539 571 0
-504 -539 -571 0
505 540 -572 0
505 -540 572 0
-505 540 572 0
-505 -540 -572 0
506 541 -573 0
506 -541 573 0
-506 541 573 0
-506 -541 -573 0
507 542 -574 0
507 -542 574 0
-507 542 574 0
-507 -542 -574 0
508 543 -575 0
508 -543 575 0
-508 543 575 0
-508 -543 -575 0
509 544 -576 0
509 -544 576 0
-509 544 576 0
-509 -544 -576 0
521 545 -577 0
521 -545 577 0
-521 545 577 0
-521 -545 -577 0
521 545 577 1329 0
-521 -545 -577 1329 0
-1329 -521 545 0
-1329 521 -545 0
-1329 -521 577 0
-1329 521 -577 0
-1329 522 546 578 -545 0
-1329 522 546 -578 545 0
-1329 522 -546 578 545 0
-1329 522 -546 -578 -545 0
-1329 -522 546 578 545 0
-1329 -522 546 -578 -545 0
-1329 -522 -546 578 -545 0
-1329 -522 -546 -578 545 0
1330 1329 0
-1330 -1329 0
522 546 578 1331 0
-522 -546 -578 1331 0
-1331 -522 546 0
-1331 522 -546 0
-1331 -522 578 0
-1331 522 -578 0
-1331 523 547 579 -546 0
-1331 523 547 -579 546 0
-1331 523 -547 579 546 0
-1331 523 -547 -579 -546 0
-1331 -523 547 579 546 0
-1331 -523 547 -579 -546 0
-1331 -523 -547 579 -546 0
-1331 -523 -547 -579 546 0
1332 1331 0
-1332 -1331 0
523 547 579 1333 0
-523 -547 -579 1333 0
-1333 -523 547 0
-1333 523 -547 0
-1333 -523 579 0
-1333 523 -579 0
-1333 524 548 580 -547 0
-1333 524 548 -580 547 0
-1333 524 -548 580 547 0
-1333 524 -548 -580 -547 0
-1333 -524 548 580 547 0
-1333 -524 548 -580 -547 0
-1333 -524 -548 580 -547 0
-1333 -524 -548 -580 547 0
1334 1333 0
-1334 -1333 0
524 548 580 1335 0
-524 -548 -580 1335 0
-1335 -524 548 0
-1335 524 -548 0
-1335 -524 580 0
-1335 524 -580 0
-1335 525 549 581 -548 0
-1335 525 549 -581 548 0
-1335 525 -549 581 548 0
-1335 525 -549 -581 -548 0
-1335 -525 549 581 548 0
-1335 -525 549 -581 -548 0
-1335 -525 -549 581 -548 0
-1335 -525 -549 -581 548 0
1336 1335 0
-1336 -1335 0
525 549 581 1337 0
-525 -549 -581 1337 0
-1337 -525 549 0
-1337 525 -549 0
-1337 -525 581 0
-1337 525 -581 0
-1337 526 550 582 -549 0
-1337 526 550 -582 549 0
-1337 526 -550 582 549 0
-1337 526 -550 -582 -549 0
-1337 -526 550 582 549 0
-1337 -526 550 -582 -549 0
-1337 -526 -550 582 -549 0
-1337 -526 -550 -582 549 0
1338 1337 0
-1338 -1337 0
526 550 582 1339 0
-526 -550 -582 1339 0
-1339 -526 550 0
-1339 526 -550 0
-1339 -526 582 0
-1339 526 -582 0
-1339 527 551 583 -550 0
-1339 527 551 -583 550 0
-1339 527 -551 583 550 0
-1339 527 -551 -583 -550 0
-1339 -527 551 583 550 0
-1339 -527 551 -583 -550 0
-1339 -527 -551 583 -550 0
-1339 -527 -551 -583 550 0
1340 1339 0
-1340 -1339 0
527 551 583 1341 0
-527 -551 -583 1341 0
-1341 -527 551 0
-1341 527 -551 0
-1341 -527 583 0
-1341 527 -583 0
-1341 528 552 584 -551 0
-1341 528 552 -584 551 0
-1341 528 -552 584 551 0
-1341 528 -552 -584 -551 0
-1341 -528 552 584 551 0
-1341 -528 552 -584 -551 0
-1341 -528 -552 584 -551 0
-1341 -528 -552 -584 551 0
1342 1341 0
-1342 -1341 0
528 552 584 1343 0
-528 -552 -584 1343 0
-1343 -528 552 0
-1343 528 -552 0
-1343 -528 584 0
-1343 528 -584 0
-1343 529 553 585 -552 0
-1343 529 553 -585 552 0
-1343 529 -553 585 552 0
-1343 529 -553 -585 -552 0
-1343 -529 553 585 552 0
-1343 -529 553 -585 -552 0
-1343 -529 -553 585 -552 0
-1343 -529 -553 -585 552 0
1344 1343 0
-1344 -1343 0
529 553 585 1345 0
-529 -553 -585 1345 0
-1345 -529 553 0
-1345 529 -553 0
-1345 -529 585 0
-1345 529 -585 0
-1345 530 554 586 -553 0
-1345 530 554 -586 553 0
-1345 530 -554 586 553 0
-1345 530 -554 -586 -553 0
-1345 -530 554 586 553 0
-1345 -530 554 -586 -553 0
-1345 -530 -554 586 -553 0
-1345 -530 -554 -586 553 0
1346 1345 0
-1346 -1345 0
530 554 586 1347 0
-530 -554 -586 1347 0
-1347 -530 554 0
-1347 530 -554 0
-1347 -530 586 0
-1347 530 -586 0
-1347 531 555 587 -554 0
-1347 531 555 -587 554 0
-1347 531 -555 587 554 0
-1347 531 -555 -587 -554 0
-1347 -531 555 587 554 0
-1347 -531 555 -587 -554 0
-1347 -531 -555 587 -554 0
-1347 -531 -555 -587 554 0
1348 1347 0
-1348 -1347 0
531 555 587 1349 0
-531 -555 -587 1349 0
-1349 -531 555 0
-1349 531 -555 0
-1349 -531 587 0
-1349 531 -587 0
-1349 532 556 588 -555 0
-1349 532 556 -588 555 0
-1349 532 -556 588 555 0
-1349 532 -556 -588 -555 0
-1349 -532 556 588 555 0
-1349 -532 556 -588 -555 0
-1349 -532 -556 588 -555 0
-1349 -532 -556 -588 555 0
1350 1349 0
-1350 -1349 0
532 556 588 1351 0
-532 -556 -588 1351 0
-1351 -532 556 0
-1351 532 -556 0
-1351 -532 588 0
-1351 532 -588 0
-1351 533 557 589 -556 0
-1351 533 557 -589 556 0
-1351 533 -557 589 556 0
-1351 533 -557 -589 -556 0
-1351 -533 557 589 556 0
-1351 -533 557 -589 -556 0
-1351 -533 -557 589 -556 0
-1351 -533 -557 -589 556 0
1352 1351 0
-1352 -1351 0
533 557 589 1353 0
-533 -557 -589 1353 0
-1353 -533 557 0
-1353 533 -557 0
-1353 -533 589 0
-1353 533 -589 0
-1353 534 558 590 -557 0
-1353 534 558 -590 557 0
-1353 534 -558 590 557 0
-1353 534 -558 -590 -557 0
-1353 -534 558 590 557 0
-1353 -534 558 -590 -557 0
-1353 -534 -558 590 -557 0
-1353 -534 -558 -590 557 0
1354 1353 0
-1354 -1353 0
534 558 590 1355 0
-534 -558 -590 1355 0
-1355 -534 558 0
-1355 534 -558 0
-1355 -534 590 0
-1355 534 -590 0
-1355 535 559 591 -558 0
-1355 535 559 -591 558 0
-1355 535 -559 591 558 0
-1355 535 -559 -591 -558 0
-1355 -535 559 591 558 0
-1355 -535 559 -591 -558 0
-1355 -535 -559 591 -558 0
-1355 -535 -559 -591 558 0
1356 1355 0
-1356 -1355 0
535 559 591 1357 0
-535 -559 -591 1357 0
-1357 -535 559 0
-1357 535 -559 0
-1357 -535 591 0
-1357 535 -591 0
-1357 536 560 592 -559 0
-1357 536 560 -592 559 0
-1357 536 -560 592 559 0
-1357 536 -560 -592 -559 0
-1357 -536 560 592 559 0
-1357 -536 560 -592 -559 0
-1357 -536 -560 592 -559 0
-1357 -536 -560 -592 559 0
1358 1357 0
-1358 -1357 0
536 560 592 1359 0
-536 -560 -592 1359 0
-1359 -536 560 0
-1359 536 -560 0
-1359 -536 592 0
-1359 536 -592 0
-1359 537 561 593 -560 0
-1359 537 561 -593 560 0
-1359 537 -561 593 560 0
-1359 537 -561 -593 -560 0
-1359 -537 561 593 560 0
-1359 -537 561 -593 -560 0
-1359 -537 -561 593 -560 0
-1359 -537 -561 -593 560 0
1360 1359 0
-1360 -1359 0
537 561 593 1361 0
-537 -561 -593 1361 0
-1361 -537 561 0
-1361 537 -561 0
-1361 -537 593 0
-1361 537 -593 0
-1361 538 562 594 -561 0
-1361 538 562 -594 561 0
-1361 538 -562 594 561 0
-1361 538 -562 -594 -561 0
-1361 -538 562 594 561 0
-1361 -538 562 -594 -561 0
-1361 -538 -562 594 -561 0
-1361 -538 -562 -594 561 0
1362 1361 0
-1362 -1361 0
538 562 594 1363 0
-538 -562 -594 1363 0
-1363 -538 562 0
-1363 538 -562 0
-1363 -538 594 0
-1363 538 -594 0
-1363 539 563 595 -562 0
-1363 539 563 -595 562 0
-1363 539 -563 595 562 0
-1363 539 -563 -595 -562 0
-1363 -539 563 595 562 0
-1363 -539 563 -595 -562 0
-1363 -539 -563 595 -562 0
-1363 -539 -563 -595 562 0
1364 1363 0
-1364 -1363 0
539 563 595 1365 0
-539 -563 -595 1365 0
-1365 -539 563 0
-1365 539 -563 0
-1365 -539 595 0
-1365 539 -595 0
-1365 540 564 596 -563 0
-1365 540 564 -596 563 0
-1365 540 -564 596 563 0
-1365 540 -564 -596 -563 0
-1365 -540 564 596 563 0
-1365 -540 564 -596 -563 0
-1365 -540 -564 596 -563 0
-1365 -540 -564 -596 563 0
1366 1365 0
-1366 -1365 0
540 564 596 1367 0
-540 -564 -596 1367 0
-1367 -540 564 0
-1367 540 -564 0
-1367 -540 596 0
-1367 540 -596 0
-1367 541 565 597 -564 0
-1367 541 565 -597 564 0
-1367 541 -565 597 564 0
-1367 541 -565 -597 -564 0
-1367 -541 565 597 564 0
-1367 -541 565 -597 -564 0
-1367 -541 -565 597 -564 0
-1367 -541 -565 -597 564 0
1368 1367 0
-1368 -1367 0
541 565 597 1369 0
-541 -565 -597 1369 0
-1369 -541 565 0
-1369 541 -565 0
-1369 -541 597 0
-1369 541 -597 0
-1369 542 566 598 -565 0
-1369 542 566 -598 565 0
-1369 542 -566 598 565 0
-1369 542 -566 -598 -565 0
-1369 -542 566 598 565 0
-1369 -542 566 -598 -565 0
-1369 -542 -566 598 -565 0
-1369 -542 -566 -598 565 0
1370 1369 0
-1370 -1369 0
542 566 598 1371 0
-542 -566 -598 1371 0
-1371 -542 566 0
-1371 542 -566 0
-1371 -542 598 0
-1371 542 -598 0
-1371 543 567 599 -566 0
-1371 543 567 -599 566 0
-1371 543 -567 599 566 0
-1371 543 -567 -599 -566 0
-1371 -543 567 599 566 0
-1371 -543 567 -599 -566 0
-1371 -543 -567 599 -566 0
-1371 -543 -567 -599 566 0
1372 1371 0
-1372 -1371 0
543 567 599 1373 0
-543 -567 -599 1373 0
-1373 -543 567 0
-1373 543 -567 0
-1373 -543 599 0
-1373 543 -599 0
-1373 544 568 600 -567 0
-1373 544 568 -600 567 0
-1373 544 -568 600 567 0
-1373 544 -568 -600 -567 0
-1373 -544 568 600 567 0
-1373 -544 568 -600 -567 0
-1373 -544 -568 600 -567 0
-1373 -544 -568 -600 567 0
1374 1373 0
-1374 -1373 0
544 568 600 1375 0
-544 -568 -600 1375 0
-1375 -544 568 0
-1375 544 -568 0
-1375 -544 600 0
-1375 544 -600 0
-1375 513 569 601 -568 0
-1375 513 569 -601 568 0
-1375 513 -569 601 568 0
-1375 513 -569 -601 -568 0
-1375 -513 569 601 568 0
-1375 -513 569 -601 -568 0
-1375 -513 -569 601 -568 0
-1375 -513 -569 -601 568 0
1376 1375 0
-1376 -1375 0
513 569 601 1377 0
-513 -569 -601 1377 0
-1377 -513 569 0
-1377 513 -569 0
-1377 -513 601 0
-1377 513 -601 0
-1377 514 570 602 -569 0
-1377 514 570 -602 569 0
-1377 514 -570 602 569 0
-1377 514 -570 -602 -569 0
-1377 -514 570 602 569 0
-1377 -514 570 -602 -569 0
-1377 -514 -570 602 -569 0
-1377 -514 -570 -602 569 0
1378 1377 0
-1378 -1377 0
514 570 602 1379 0
-514 -570 -602 1379 0
-1379 -514 570 0
-1379 514 -570 0
-1379 -514 602 0
-1379 514 -602 0
-1379 515 571 603 -570 0
-1379 515 571 -603 570 0
-1379 515 -571 603 570 0
-1379 515 -571 -603 -570 0
-1379 -515 571 603 570 0
-1379 -515 571 -603 -570 0
-1379 -515 -571 603 -570 0
-1379 -515 -571 -603 570 0
1380 1379 0
-1380 -1379 0
515 571 603 1381 0
-515 -571 -603 1381 0
-1381 -515 571 0
-1381 515 -571 0
-1381 -515 603 0
-1381 515 -603 0
-1381 516 572 604 -571 0
-1381 516 572 -604 571 0
-1381 516 -572 604 571 0
-1381 516 -572 -604 -571 0
-1381 -516 572 604 571 0
-1381 -516 572 -604 -571 0
-1381 -516 -572 604 -571 0
-1381 -516 -572 -604 571 0
1382 1381 0
-1382 -1381 0
516 572 604 1383 0
-516 -572 -604 1383 0
-1383 -516 572 0
-1383 516 -572 0
-1383 -516 604 0
-1383 516 -604 0
-1383 517 573 605 -572 0
-1383 517 573 -605 572 0
-1383 517 -573 605 572 0
-1383 517 -573 -605 -572 0
-1383 -517 573 605 572 0
-1383 -517 573 -605 -572 0
-1383 -517 -573 605 -572 0
-1383 -517 -573 -605 572 0
1384 1383 0
-1384 -1383 0
517 573 605 1385 0
-517 -573 -605 1385 0
-1385 -517 573 0
-1385 517 -573 0
-1385 -517 605 0
-1385 517 -605 0
-1385 518 574 606 -573 0
-1385 518 574 -606 573 0
-1385 518 -574 606 573 0
-1385 518 -574 -606 -573 0
-1385 -518 574 606 573 0
-1385 -518 574 -606 -573 0
-1385 -518 -574 606 -573 0
-1385 -518 -574 -606 573 0
1386 1385 0
-1386 -1385 0
518 574 606 1387 0
-518 -574 -606 1387 0
-1387 -518 574 0
-1387 518 -574 0
-1387 -518 606 0
-1387 518 -606 0
-1387 519 575 607 -574 0
-1387 519 575 -607 574 0
-1387 519 -575 607 574 0
-1387 519 -575 -607 -574 0
-1387 -519 575 607 574 0
-1387 -519 575 -607 -574 0
-1387 -519 -575 607 -574 0
-1387 -519 -575 -607 574 0
1388 1387 0
-1388 -1387 0
519 575 607 1389 0
-519 -575 -607 1389 0
-1389 -519 575 0
-1389 519 -575 0
-1389 -519 607 0
-1389 519 -607 0
-1389 520 576 608 -575 0
-1389 520 576 -608 575 0
-1389 520 -576 608 575 0
-1389 520 -576 -608 -575 0
-1389 -520 576 608 575 0
-1389 -520 576 -608 -575 0
-1389 -520 -576 608 -575 0
-1389 -520 -576 -608 575 0
1390 1389 0
-1390 -1389 0
574 577 -609 0
574 -577 609 0
-574 577 609 0
-574 -577 -609 0
575 578 -610 0
575 -578 610 0
-575 578 610 0
-575 -578 -610 0
576 579 -611 0
576 -579 611 0
-576 579 611 0
-576 -579 -611 0
545 580 -612 0
545 -580 612 0
-545 580 612 0
-545 -580 -612 0
546 581 -613 0
546 -581 613 0
-546 581 613 0
-546 -581 -613 0
547 582 -614 0
547 -582 614 0
-547 582 614 0
-547 -582 -614 0
548 583 -615 0
548 -583 615 0
-548 583 615 0
-548 -583 -615 0
549 584 -616 0
549 -584 616 0
-549 584 616 0
-549 -584 -616 0
550 585 -617 0
550 -585 617 0
-550 585 617 0
-550 -585 -617 0
551 586 -618 0
551 -586 618 0
-551 586 618 0
-551 -586 -618 0
552 587 -619 0
552 -587 619 0
-552 587 619 0
-552 -587 -619 0
553 588 -620 0
553 -588 620 0
-553 588 620 0
-553 -588 -620 0
554 589 -621 0
554 -589 621 0
-554 589 621 0
-554 -589 -621 0
555 590 -622 0
555 -590 622 0
-555 590 622 0
-555 -590 -622 0
556 591 -623 0
556 -591 623 0
-556 591 623 0
-556 -591 -623 0
557 592 -624 0
557 -592 624 0
-557 592 624 0
-557 -592 -624 0
558 593 -625 0
558 -593 625 0
-558 593 625 0
-558 -593 -625 0
559 594 -626 0
559 -594 626 0
-559 594 626 0
-559 -594 -626 0
560 595 -627 0
560 -595 627 0
-560 595 627 0
-560 -595 -627 0
561 596 -628 0
561 -596 628 0
-561 596 628 0
-561 -596 -628 0
562 597 -629 0
562 -597 629 0
-562 597 629 0
-562 -597 -629 0
563 598 -630 0
563 -598 630 0
-563 598 630 0
-563 -598 -630 0
564 599 -631 0
564 -599 631 0
-564 599 631 0
-564 -599 -631 0
565 600 -632 0
565 -600 632 0
-565 600 632 0
-565 -600 -632 0
566 601 -633 0
566 -601 633 0
-566 601 633 0
-566 -601 -633 0
567 602 -634 0
567 -602 634 0
-567 602 634 0
-567 -602 -634 0
568 603 -635 0
568 -603 635 0
-568 603 635 0
-568 -603 -635 0
569 604 -636 0
569 -604 636 0
-569 604 636 0
-569 -604 -636 0
570 605 -637 0
570 -605 637 0
-570 605 637 0
-570 -605 -637 0
571 606 -638 0
571 -606 638 0
-571 606 638 0
-571 -606 -638 0
572 607 -639 0
572 -607 639 0
-572 607 639 0
-572 -607 -639 0
573 608 -640 0
573 -608 640 0
-573 608 640 0
-573 -608 -640 0
585 609 -641 0
585 -609 641 0
-585 609 641 0
-585 -609 -641 0
585 609 641 1391 0
-585 -609 -641 1391 0
-1391 -585 609 0
-1391 585 -609 0
-1391 -585 641 0
-1391 585 -641 0
-1391 586 610 642 -609 0
-1391 586 610 -642 609 0
-1391 586 -610 642 609 0
-1391 586 -610 -642 -609 0
-1391 -586 610 642 609 0
-1391 -586 610 -642 -609 0
-1391 -586 -610 642 -609 0
-1391 -586 -610 -642 609 0
1392 1391 0
-1392 -1391 0
586 610 642 1393 0
-586 -610 -642 1393 0
-1393 -586 610 0
-1393 586 -610 0
-1393 -586 642 0
-1393 586 -642 0
-1393 587 611 643 -610 0
-1393 587 611 -643 610 0
-1393 587 -611 643 610 0
-1393 587 -611 -643 -610 0
-1393 -587 611 643 610 0
-1393 -587 611 -643 -610 0
-1393 -587 -611 643 -610 0
-1393 -587 -611 -643 610 0
1394 1393 0
-1394 -1393 0
587 611 643 1395 0
-587 -611 -643 1395 0
-1395 -587 611 0
-1395 587 -611 0
-1395 -587 643 0
-1395 587 -643 0
-1395 588 612 644 -611 0
-1395 588 612 -644 611 0
-1395 588 -612 644 611 0
-1395 588 -612 -644 -611 0
-1395 -588 612 644 611 0
-1395 -588 612 -644 -611 0
-1395 -588 -612 644 -611 0
-1395 -588 -612 -644 611 0
1396 1395 0
-1396 -1395 0
588 612 644 1397 0
-588 -612 -644 1397 0
-1397 -588 612 0
-1397 588 -612 0
-1397 -588 644 0
-1397 588 -644 0
-1397 589 613 645 -612 0
-1397 589 613 -645 612 0
-1397 589 -613 645 612 0
-1397 589 -613 -645 -612 0
-1397 -589 613 645 612 0
-1397 -589 613 -645 -612 0
-1397 -589 -613 645 -612 0
-1397 -589 -613 -645 612 0
1398 1397 0
-1398 -1397 0
589 613 645 1399 0
-589 -613 -645 1399 0
-1399 -589 613 0
-1399 589 -613 0
-1399 -589 645 0
-1399 589 -645 0
-1399 590 614 646 -613 0
-1399 590 614 -646 613 0
-1399 590 -614 646 613 0
-1399 590 -614 -646 -613 0
-1399 -590 614 646 613 0
-1399 -590 614 -646 -613 0
-1399 -590 -614 646 -613 0
-1399 -590 -614 -646 613 0
1400 1399 0
-1400 -1399 0
590 614 646 1401 0
-590 -614 -646 1401 0
-1401 -590 614 0
-1401 590 -614 0
-1401 -590 646 0
-1401 590 -646 0
-1401 591 615 647 -614 0
-1401 591 615 -647 614 0
-1401 591 -615 647 614 0
-1401 591 -615 -647 -614 0
-1401 -591 615 647 614 0
-1401 -591 615 -647 -614 0
-1401 -591 -615 647 -614 0
-1401 -591 -615 -647 614 0
1402 1401 0
-1402 -1401 0
591 615 647 1403 0
-591 -615 -647 1403 0
-1403 -591 615 0
-1403 591 -615 0
-1403 -591 647 0
-1403 591 -647 0
-1403 592 616 648 -615 0
-1403 592 616 -648 615 0
-1403 592 -616 648 615 0
-1403 592 -616 -648 -615 0
-1403 -592 616 648 615 0
-1403 -592 616 -648 -615 0
-1403 -592 -616 648 -615 0
-1403 -592 -616 -648 615 0
1404 1403 0
-1404 -1403 0
592 616 648 1405 0
-592 -616 -648 1405 0
-1405 -592 616 0
-1405 592 -616 0
-1405 -592 648 0
-1405 592 -648 0
-1405 593 617 649 -616 0
-1405 593 617 -649 616 0
-1405 593 -617 649 616 0
-1405 593 -617 -649 -616 0
-1405 -593 617 649 616 0
-1405 -593 617 -649 -616 0
-1405 -593 -617 649 -616 0
-1405 -593 -617 -649 616 0
1406 1405 0
-1406 -1405 0
593 617 649 1407 0
-593 -617 -649 1407 0
-1407 -593 617 0
-1407 593 -617 0
-1407 -593 649 0
-1407 593 -649 0
-1407 594 618 650 -617 0
-1407 594 618 -650 617 0
-1407 594 -618 650 617 0
-1407 594 -618 -650 -617 0
-1407 -594 618 650 617 0
-1407 -594 618 -650 -617 0
-1407 -594 -618 650 -617 0
-1407 -594 -618 -650 617 0
1408 1407 0
-1408 -1407 0
594 618 650 1409 0
-594 -618 -650 1409 0
-1409 -594 618 0
-1409 594 -618 0
-1409 -594 650 0
-1409 594 -650 0
-1409 595 619 651 -618 0
-1409 595 619 -651 618 0
-1409 595 -619 651 618 0
-1409 595 -619 -651 -618 0
-1409 -595 619 651 618 0
-1409 -595 619 -651 -618 0
-1409 -595 -619 651 -618 0
-1409 -595 -619 -651 618 0
1410 1409 0
-1410 -1409 0
595 619 651 1411 0
-595 -619 -651 1411 0
-1411 -595 619 0
-1411 595 -619 0
-1411 -595 651 0
-1411 595 -651 0
-1411 596 620 652 -619 0
-1411 596 620 -652 619 0
-1411 596 -620 652 619 0
-1411 596 -620 -652 -619 0
-1411 -596 620 652 619 0
-1411 -596 620 -652 -619 0
-1411 -596 -620 652 -619 0
-1411 -596 -620 -652 619 0
1412 1411 0
-1412 -1411 0
596 620 652 1413 0
-596 -620 -652 1413 0
-1413 -596 620 0
-1413 596 -620 0
-1413 -596 652 0
-1413 596 -652 0
-1413 597 621 653 -620 0
-1413 597 621 -653 620 0
-1413 597 -621 653 620 0
-1413 597 -621 -653 -620 0
-1413 -597 621 653 620 0
-1413 -597 621 -653 -620 0
-1413 -597 -621 653 -620 0
-1413 -597 -621 -653 620 0
1414 1413 0
-1414 -1413 0
597 621 653 1415 0
-597 -621 -653 1415 0
-1415 -597 621 0
-1415 597 -621 0
-1415 -597 653 0
-1415 597 -653 0
-1415 598 622 654 -621 0
-1415 598 622 -654 621 0
-1415 598 -622 654 621 0
-1415 598 -622 -654 -621 0
-1415 -598 622 654 621 0
-1415 -598 622 -654 -621 0
-1415 -598 -622 654 -621 0
-1415 -598 -622 -654 621 0
1416 1415 0
-1416 -1415 0
598 622 654 1417 0
-598 -622 -654 1417 0
-1417 -598 622 0
-1417 598 -622 0
-1417 -598 654 0
-1417 598 -654 0
-1417 599 623 655 -622 0
-1417 599 623 -655 622 0
-1417 599 -623 655 622 0
-1417 599 -623 -655 -622 0
-1417 -599 623 655 622 0
-1417 -599 623 -655 -622 0
-1417 -599 -623 655 -622 0
-1417 -599 -623 -655 622 0
1418 1417 0
-1418 -1417 0
599 623 655 1419 0
-599 -623 -655 1419 0
-1419 -599 623 0
-1419 599 -623 0
-1419 -599 655 0
-1419 599 -655 0
-1419 600 624 656 -623 0
-1419 600 624 -656 623 0
-1419 600 -624 656 623 0
-1419 600 -624 -656 -623 0
-1419 -600 624 656 623 0
-1419 -600 624 -656 -623 0
-1419 -600 -624 656 -623 0
-1419 -600 -624 -656 623 0
1420 1419 0
-1420 -1419 0
600 624 656 1421 0
-600 -624 -656 1421 0
-1421 -600 624 0
-1421 600 -624 0
-1421 -600 656 0
-1421 600 -656 0
-1421 601 625 657 -624 0
-1421 601 625 -657 624 0
-1421 601 -625 657 624 0
-1421 601 -625 -657 -624 0
-1421 -601 625 657 624 0
-1421 -601 625 -657 -624 0
-1421 -601 -625 657 -624 0
-1421 -601 -625 -657 624 0
1422 1421 0
-1422 -1421 0
601 625 657 1423 0
-601 -625 -657 1423 0
-1423 -601 625 0
-1423 601 -625 0
-1423 -601 657 0
-1423 601 -657 0
-1423 602 626 658 -625 0
-1423 602 626 -658 625 0
-1423 602 -626 658 625 0
-1423 602 -626 -658 -625 0
-1423 -602 626 658 625 0
-1423 -602 626 -658 -625 0
-1423 -602 -626 658 -625 0
-1423 -602 -626 -658 625 0
1424 1423 0
-1424 -1423 0
602 626 658 1425 0
-602 -626 -658 1425 0
-1425 -602 626 0
-1425 602 -626 0
-1425 -602 658 0
-1425 602 -658 0
-1425 603 627 659 -626 0
-1425 603 627 -659 626 0
-1425 603 -627 659 626 0
-1425 603 -627 -659 -626 0
-1425 -603 627 659 626 0
-1425 -603 627 -659 -626 0
-1425 -603 -627 659 -626 0
-1425 -603 -627 -659 626 0
1426 1425 0
-1426 -1425 0
603 627 659 1427 0
-603 -627 -659 1427 0
-1427 -603 627 0
-1427 603 -627 0
-1427 -603 659 0
-1427 603 -659 0
-1427 604 628 660 -627 0
-1427 604 628 -660 627 0
-1427 604 -628 660 627 0
-1427 604 -628 -660 -627 0
-1427 -604 628 660 627 0
-1427 -604 628 -660 -627 0
-1427 -604 -628 660 -627 0
-1427 -604 -628 -660 627 0
1428 1427 0
-1428 -1427 0
604 628 660 1429 0
-604 -628 -660 1429 0
-1429 -604 628 0
-1429 604 -628 0
-1429 -604 660 0
-1429 604 -660 0
-1429 605 629 661 -628 0
-1429 605 629 -661 628 0
-1429 605 -629 661 628 0
-1429 605 -629 -661 -628 0
-1429 -605 629 661 628 0
-1429 -605 629 -661 -628 0
-1429 -605 -629 661 -628 0
-1429 -605 -629 -661 628 0
1430 1429 0
-1430 -1429 0
605 629 661 1431 0
-605 -629 -661 1431 0
-1431 -605 629 0
-1431 605 -629 0
-1431 -605 661 0
-1431 605 -661 0
-1431 606 630 662 -629 0
-1431 606 630 -662 629 0
-1431 606 -630 662 629 0
-1431 606 -630 -662 -629 0
-1431 -606 630 662 629 0
-1431 -606 630 -662 -629 0
-1431 -606 -630 662 -629 0
-1431 -606 -630 -662 629 0
1432 1431 0
-1432 -1431 0
606 630 662 1433 0
-606 -630 -662 1433 0
-1433 -606 630 0
-1433 606 -630 0
-1433 -606 662 0
-1433 606 -662 0
-1433 607 631 663 -630 0
-1433 607 631 -663 630 0
-1433 607 -631 663 630 0
-1433 607 -631 -663 -630 0
-1433 -607 631 663 630 0
-1433 -607 631 -663 -630 0
-1433 -607 -631 663 -630 0
-1433 -607 -631 -663 630 0
1434 1433 0
-1434 -1433 0
607 631 663 1435 0
-607 -631 -663 1435 0
-1435 -607 631 0
-1435 607 -631 0
-1435 -607 663 0
-1435 607 -663 0
-1435 608 632 664 -631 0
-1435 608 632 -664 631 0
-1435 608 -632 664 631 0
-1435 608 -632 -664 -631 0
-1435 -608 632 664 631 0
-1435 -608 632 -664 -631 0
-1435 -608 -632 664 -631 0
-1435 -608 -632 -664 631 0
1436 1435 0
-1436 -1435 0
608 632 664 1437 0
-608 -632 -664 1437 0
-1437 -608 632 0
-1437 608 -632 0
-1437 -608 664 0
-1437 608 -664 0
-1437 577 633 665 -632 0
-1437 577 633 -665 632 0
-1437 577 -633 665 632 0
-1437 577 -633 -665 -632 0
-1437 -577 633 665 632 0
-1437 -577 633 -665 -632 0
-1437 -577 -633 665 -632 0
-1437 -577 -633 -665 632 0
1438 1437 0
-1438 -1437 0
577 633 665 1439 0
-577 -633 -665 1439 0
-1439 -577 633 0
-1439 577 -633 0
-1439 -577 665 0
-1439 577 -665 0
-1439 578 634 666 -633 0
-1439 578 634 -666 633 0
-1439 578 -634 666 633 0
-1439 578 -634 -666 -633 0
-1439 -578 634 666 633 0
-1439 -578 634 -666 -633 0
-1439 -578 -634 666 -633 0
-1439 -578 -634 -666 633 0
1440 1439 0
-1440 -1439 0
578 634 666 1441 0
-578 -634 -666 1441 0
-1441 -578 634 0
-1441 578 -634 0
-1441 -578 666 0
-1441 578 -666 0
-1441 579 635 667 -634 0
-1441 579 635 -667 634 0
-1441 579 -635 667 634 0
-1441 579 -635 -667 -634 0
-1441 -579 635 667 634 0
-1441 -579 635 -667 -634 0
-1441 -579 -635 667 -634 0
-1441 -579 -635 -667 634 0
1442 1441 0
-1442 -1441 0
579 635 667 1443 0
-579 -635 -667 1443 0
-1443 -579 635 0
-1443 579 -635 0
-1443 -579 667 0
-1443 579 -667 0
-1443 580 636 668 -635 0
-1443 580 636 -668 635 0
-1443 580 -636 668 635 0
-1443 580 -636 -668 -635 0
-1443 -580 636 668 635 0
-1443 -580 636 -668 -635 0
-1443 -580 -636 668 -635 0
-1443 -580 -636 -668 635 0
1444 1443 0
-1444 -1443 0
580 636 668 1445 0
-580 -636 -668 1445 0
-1445 -580 636 0
-1445 580 -636 0
-1445 -580 668 0
-1445 580 -668 0
-1445 581 637 669 -636 0
-1445 581 637 -669 636 0
-1445 581 -637 669 636 0
-1445 581 -637 -669 -636 0
-1445 -581 637 669 636 0
-1445 -581 637 -669 -636 0
-1445 -581 -637 669 -636 0
-1445 -581 -637 -669 636 0
1446 1445 0
-1446 -1445 0
581 637 669 1447 0
-581 -637 -669 1447 0
-1447 -581 637 0
-1447 581 -637 0
-1447 -581 669 0
-1447 581 -669 0
-1447 582 638 670 -637 0
-1447 582 638 -670 637 0
-1447 582 -638 670 637 0
-1447 582 -638 -670 -637 0
-1447 -582 638 670 637 0
-1447 -582 638 -670 -637 0
-1447 -582 -638 670 -637 0
-1447 -582 -638 -670 637 0
1448 1447 0
-1448 -1447 0
582 638 670 1449 0
-582 -638 -670 1449 0
-1449 -582 638 0
-1449 582 -638 0
-1449 -582 670 0
-1449 582 -670 0
-1449 583 639 671 -638 0
-1449 583 639 -671 638 0
-1449 583 -639 671 638 0
-1449 583 -639 -671 -638 0
-1449 -583 639 671 638 0
-1449 -583 639 -671 -638 0
-1449 -583 -639 671 -638 0
-1449 -583 -639 -671 638 0
1450 1449 0
-1450 -1449 0
583 639 671 1451 0
-583 -639 -671 1451 0
-1451 -583 639 0
-1451 583 -639 0
-1451 -583 671 0
-1451 583 -671 0
-1451 584 640 672 -639 0
-1451 584 640 -672 639 0
-1451 584 -640 672 639 0
-1451 584 -640 -672 -639 0
-1451 -584 640 672 639 0
-1451 -584 640 -672 -639 0
-1451 -584 -640 672 -639 0
-1451 -584 -640 -672 639 0
1452 1451 0
-1452 -1451 0
638 641 -673 0
638 -641 673 0
-638 641 673 0
-638 -641 -673 0
639 642 -674 0
639 -642 674 0
-639 642 674 0
-639 -642 -674 0
640 643 -675 0
640 -643 675 0
-640 643 675 0
-640 -643 -675 0
609 644 -676 0
609 -644 676 0
-609 644 676 0
-609 -644 -676 0
610 645 -677 0
610 -645 677 0
-610 645 677 0
-610 -645 -677 0
611 646 -678 0
611 -646 678 0
-611 646 678 0
-611 -646 -678 0
612 647 -679 0
612 -647 679 0
-612 647 679 0
-612 -647 -679 0
613 648 -680 0
613 -648 680 0
-613 648 680 0
-613 -648 -680 0
614 649 -681 0
614 -649 681 0
-614 649 681 0
-614 -649 -681 0
615 650 -682 0
615 -650 682 0
-615 650 682 0
-615 -650 -682 0
616 651 -683 0
616 -651 683 0
-616 651 683 0
-616 -651 -683 0
617 652 -684 0
617 -652 684 0
-617 652 684 0
-617 -652 -684 0
618 653 -685 0
618 -653 685 0
-618 653 685 0
-618 -653 -685 0
619 654 -686 0
619 -654 686 0
-619 654 686 0
-619 -654 -686 0
620 655 -687 0
620 -655 687 0
-620 655 687 0
-620 -655 -687 0
621 656 -688 0
621 -656 688 0
-621 656 688 0
-621 -656 -688 0
622 657 -689 0
622 -657 689 0
-622 657 689 0
-622 -657 -689 0
623 658 -690 0
623 -658 690 0
-623 658 690 0
-623 -658 -690 0
624 659 -691 0
624 -659 691 0
-624 659 691 0
-624 -659 -691 0
625 660 -692 0
625 -660 692 0
-625 660 692 0
-625 -660 -692 0
626 661 -693 0
626 -661 693 0
-626 661 693 0
-626 -661 -693 0
627 662 -694 0
627 -662 694 0
-627 662 694 0
-627 -662 -694 0
628 663 -695 0
628 -663 695 0
-628 663 695 0
-628 -663 -695 0
629 664 -696 0
629 -664 696 0
-629 664 696 0
-629 -664 -696 0
630 665 -697 0
630 -665 697 0
-630 665 697 0
-630 -665 -697 0
631 666 -698 0
631 -666 698 0
-631 666 698 0
-631 -666 -698 0
632 667 -699 0
632 -667 699 0
-632 667 699 0
-632 -667 -699 0
633 668 -700 0
633 -668 700 0
-633 668 700 0
-633 -668 -700 0
634 669 -701 0
634 -669 701 0
-634 669 701 0
-634 -669 -701 0
635 670 -702 0
635 -670 702 0
-635 670 702 0
-635 -670 -702 0
636 671 -703 0
636 -671 703 0
-636 671 703 0
-636 -671 -703 0
637 672 -704 0
637 -672 704 0
-637 672 704 0
-637 -672 -704 0
649 673 -705 0
649 -673 705 0
-649 673 705 0
-649 -673 -705 0
649 673 705 1453 0
-649 -673 -705 1453 0
-1453 -649 673 0
-1453 649 -673 0
-1453 -649 705 0
-1453 649 -705 0
-1453 650 674 706 -673 0
-1453 650 674 -706 673 0
-1453 650 -674 706 673 0
-1453 650 -674 -706 -673 0
-1453 -650 674 706 673 0
-1453 -650 674 -706 -673 0
-1453 -650 -674 706 -673 0
-1453 -650 -674 -706 673 0
1454 1453 0
-1454 -1453 0
650 674 706 1455 0
-650 -674 -706 1455 0
-1455 -650 674 0
-1455 650 -674 0
-1455 -650 706 0
-1455 650 -706 0
-1455 651 675 707 -674 0
-1455 651 675 -707 674 0
-1455 651 -675 707 674 0
-1455 651 -675 -707 -674 0
-1455 -651 675 707 674 0
-1455 -651 675 -707 -674 0
-1455 -651 -675 707 -674 0
-1455 -651 -675 -707 674 0
1456 1455 0
-1456 -1455 0
651 675 707 1457 0
-651 -675 -707 1457 0
-1457 -651 675 0
-1457 651 -675 0
-1457 -651 707 0
-1457 651 -707 0
-1457 652 676 708 -675 0
-1457 652 676 -708 675 0
-1457 652 -676 708 675 0
-1457 652 -676 -708 -675 0
-1457 -652 676 708 675 0
-1457 -652 676 -708 -675 0
-1457 -652 -676 708 -675 0
-1457 -652 -676 -708 675 0
1458 1457 0
-1458 -1457 0
652 676 708 1459 0
-652 -676 -708 1459 0
-1459 -652 676 0
-1459 652 -676 0
-1459 -652 708 0
-1459 652 -708 0
-1459 653 677 709 -676 0
-1459 653 677 -709 676 0
-1459 653 -677 709 676 0
-1459 653 -677 -709 -676 0
-1459 -653 677 709 676 0
-1459 -653 677 -709 -676 0
-1459 -653 -677 709 -676 0
-1459 -653 -677 -709 676 0
1460 1459 0
-1460 -1459 0
653 677 709 1461 0
-653 -677 -709 1461 0
-1461 -653 677 0
-1461 653 -677 0
-1461 -653 709 0
-1461 653 -709 0
-1461 654 678 710 -677 0
-1461 654 678 -710 677 0
-1461 654 -678 710 677 0
-1461 654 -678 -710 -677 0
-1461 -654 678 710 677 0
-1461 -654 678 -710 -677 0
-1461 -654 -678 710 -677 0
-1461 -654 -678 -710 677 0
1462 1461 0
-1462 -1461 0
654 678 710 1463 0
-654 -678 -710 1463 0
-1463 -654 678 0
-1463 654 -678 0
-1463 -654 710 0
-1463 654 -710 0
-1463 655 679 711 -678 0
-1463 655 679 -711 678 0
-1463 655 -679 711 678 0
-1463 655 -679 -711 -678 0
-1463 -655 679 711 678 0
-1463 -655 679 -711 -678 0
-1463 -655 -679 711 -678 0
-1463 -655 -679 -711 678 0
1464 1463 0
-1464 -1463 0
655 679 711 1465 0
-655 -679 -711 1465 0
-1465 -655 679 0
-1465 655 -679 0
-1465 -655 711 0
-1465 655 -711 0
-1465 656 680 712 -679 0
-1465 656 680 -712 679 0
-1465 656 -680 712 679 0
-1465 656 -680 -712 -679 0
-1465 -656 680 712 679 0
-1465 -656 680 -712 -679 0
-1465 -656 -680 712 -679 0
-1465 -656 -680 -712 679 0
1466 1465 0
-1466 -1465 0
656 680 712 1467 0
-656 -680 -712 1467 0
-1467 -656 680 0
-1467 656 -680 0
-1467 -656 712 0
-1467 656 -712 0
-1467 657 681 713 -680 0
-1467 657 681 -713 680 0
-1467 657 -681 713 680 0
-1467 657 -681 -713 -680 0
-1467 -657 681 713 680 0
-1467 -657 681 -713 -680 0
-1467 -657 -681 713 -680 0
-1467 -657 -681 -713 680 0
1468 1467 0
-1468 -1467 0
657 681 713 1469 0
-657 -681 -713 1469 0
-1469 -657 681 0
-1469 657 -681 0
-1469 -657 713 0
-1469 657 -713 0
-1469 658 682 714 -681 0
-1469 658 682 -714 681 0
-1469 658 -682 714 681 0
-1469 658 -682 -714 -681 0
-1469 -658 682 714 681 0
-1469 -658 682 -714 -681 0
-1469 -658 -682 714 -681 0
-1469 -658 -682 -714 681 0
1470 1469 0
-1470 -1469 0
658 682 714 1471 0
-658 -682 -714 1471 0
-1471 -658 682 0
-1471 658 -682 0
-1471 -658 714 0
-1471 658 -714 0
-1471 659 683 715 -682 0
-1471 659 683 -715 682 0
-1471 659 -683 715 682 0
-1471 659 -683 -715 -682 0
-1471 -659 683 715 682 0
-1471 -659 683 -715 -682 0
-1471 -659 -683 715 -682 0
-1471 -659 -683 -715 682 0
1472 1471 0
-1472 -1471 0
659 683 715 1473 0
-659 -683 -715 1473 0
-1473 -659 683 0
-1473 659 -683 0
-1473 -659 715 0
-1473 659 -715 0
-1473 660 684 716 -683 0
-1473 660 684 -716 683 0
-1473 660 -684 716 683 0
-1473 660 -684 -716 -683 0
-1473 -660 684 716 683 0
-1473 -660 684 -716 -683 0
-1473 -660 -684 716 -683 0
-1473 -660 -684 -716 683 0
1474 1473 0
-1474 -1473 0
660 684 716 1475 0
-660 -684 -716 1475 0
-1475 -660 684 0
-1475 660 -684 0
-1475 -660 716 0
-1475 660 -716 0
-1475 661 685 717 -684 0
-1475 661 685 -717 684 0
-1475 661 -685 717 684 0
-1475 661 -685 -717 -684 0
-1475 -661 685 717 684 0
-1475 -661 685 -717 -684 0
-1475 -661 -685 717 -684 0
-1475 -661 -685 -717 684 0
1476 1475 0
-1476 -1475 0
661 685 717 1477 0
-661 -685 -717 1477 0
-1477 -661 685 0
-1477 661 -685 0
-1477 -661 717 0
-1477 661 -717 0
-1477 662 686 718 -685 0
-1477 662 686 -718 685 0
-1477 662 -686 718 685 0
-1477 662 -686 -718 -685 0
-1477 -662 686 718 685 0
-1477 -662 686 -718 -685 0
-1477 -662 -686 718 -685 0
-1477 -662 -686 -718 685 0
1478 1477 0
-1478 -1477 0
662 686 718 1479 0
-662 -686 -718 1479 0
-1479 -662 686 0
-1479 662 -686 0
-1479 -662 718 0
-1479 662 -718 0
-1479 663 687 719 -686 0
-1479 663 687 -719 686 0
-1479 663 -687 719 686 0
-1479 663 -687 -719 -686 0
-1479 -663 687 719 686 0
-1479 -663 687 -719 -686 0
-1479 -663 -687 719 -686 0
-1479 -663 -687 -719 686 0
1480 1479 0
-1480 -1479 0
663 687 719 1481 0
-663 -687 -719 1481 0
-1481 -663 687 0
-1481 663 -687 0
-1481 -663 719 0
-1481 663 -719 0
-1481 664 688 720 -687 0
-1481 664 688 -720 687 0
-1481 664 -688 720 687 0
-1481 664 -688 -720 -687 0
-1481 -664 688 720 687 0
-1481 -664 688 -720 -687 0
-1481 -664 -688 720 -687 0
-1481 -664 -688 -720 687 0
1482 1481 0
-1482 -1481 0
664 688 720 1483 0
-664 -688 -720 1483 0
-1483 -664 688 0
-1483 664 -688 0
-1483 -664 720 0
-1483 664 -720 0
-1483 665 689 721 -688 0
-1483 665 689 -721 688 0
-1483 665 -689 721 688 0
-1483 665 -689 -721 -688 0
-1483 -665 689 721 688 0
-1483 -665 689 -721 -688 0
-1483 -665 -689 721 -688 0
-1483 -665 -689 -721 688 0
1484 1483 0
-1484 -1483 0
665 689 721 1485 0
-665 -689 -721 1485 0
-1485 -665 689 0
-1485 665 -689 0
-1485 -665 721 0
-1485 665 -721 0
-1485 666 690 722 -689 0
-1485 666 690 -722 689 0
-1485 666 -690 722 689 0
-1485 666 -690 -722 -689 0
-1485 -666 690 722 689 0
-1485 -666 690 -722 -689 0
-1485 -666 -690 722 -689 0
-1485 -666 -690 -722 689 0
1486 1485 0
-1486 -1485 0
666 690 722 1487 0
-666 -690 -722 1487 0
-1487 -666 690 0
-1487 666 -690 0
-1487 -666 722 0
-1487 666 -722 0
-1487 667 691 723 -690 0
-1487 667 691 -723 690 0
-1487 667 -691 723 690 0
-1487 667 -691 -723 -690 0
-1487 -667 691 723 690 0
-1487 -667 691 -723 -690 0
-1487 -667 -691 723 -690 0
-1487 -667 -691 -723 690 0
1488 1487 0
-1488 -1487 0
667 691 723 1489 0
-667 -691 -723 1489 0
-1489 -667 691 0
-1489 667 -691 0
-1489 -667 723 0
-1489 667 -723 0
-1489 668 692 724 -691 0
-1489 668 692 -724 691 0
-1489 668 -692 724 691 0
-1489 668 -692 -724 -691 0
-1489 -668 692 724 691 0
-1489 -668 692 -724 -691 0
-1489 -668 -692 724 -691 0
-1489 -668 -692 -724 691 0
1490 1489 0
-1490 -1489 0
668 692 724 1491 0
-668 -692 -724 1491 0
-1491 -668 692 0
-1491 668 -692 0
-1491 -668 724 0
-1491 668 -724 0
-1491 669 693 725 -692 0
-1491 669 693 -725 692 0
-1491 669 -693 725 692 0
-1491 669 -693 -725 -692 0
-1491 -669 693 725 692 0
-1491 -669 693 -725 -692 0
-1491 -669 -693 725 -692 0
-1491 -669 -693 -725 692 0
1492 1491 0
-1492 -1491 0
669 693 725 1493 0
-669 -693 -725 1493 0
-1493 -669 693 0
-1493 669 -693 0
-1493 -669 725 0
-1493 669 -725 0
-1493 670 694 726 -693 0
-1493 670 694 -726 693 0
-1493 670 -694 726 693 0
-1493 670 -694 -726 -693 0
-1493 -670 694 726 693 0
-1493 -670 694 -726 -693 0
-1493 -670 -694 726 -693 0
-1493 -670 -694 -726 693 0
1494 1493 0
-1494 -1493 0
670 694 726 1495 0
-670 -694 -726 1495 0
-1495 -670 694 0
-1495 670 -694 0
-1495 -670 726 0
-1495 670 -726 0
-1495 671 695 727 -694 0
-1495 671 695 -727 694 0
-1495 671 -695 727 694 0
-1495 671 -695 -727 -694 0
-1495 -671 695 727 694 0
-1495 -671 695 -727 -694 0
-1495 -671 -695 727 -694 0
-1495 -671 -695 -727 694 0
1496 1495 0
-1496 -1495 0
671 695 727 1497 0
-671 -695 -727 1497 0
-1497 -671 695 0
-1497 671 -695 0
-1497 -671 727 0
-1497 671 -727 0
-1497 672 696 728 -695 0
-1497 672 696 -728 695 0
-1497 672 -696 728 695 0
-1497 672 -696 -728 -695 0
-1497 -672 696 728 695 0
-1497 -672 696 -728 -695 0
-1497 -672 -696 728 -695 0
-1497 -672 -696 -728 695 0
1498 1497 0
-1498 -1497 0
672 696 728 1499 0
-672 -696 -728 1499 0
-1499 -672 696 0
-1499 672 -696 0
-1499 -672 728 0
-1499 672 -728 0
-1499 641 697 729 -696 0
-1499 641 697 -729 696 0
-1499 641 -697 729 696 0
-1499 641 -697 -729 -696 0
-1499 -641 697 729 696 0
-1499 -641 697 -729 -696 0
-1499 -641 -697 729 -696 0
-1499 -641 -697 -729 696 0
1500 1499 0
-1500 -1499 0
641 697 729 1501 0
-641 -697 -729 1501 0
-1501 -641 697 0
-1501 641 -697 0
-1501 -641 729 0
-1501 641 -729 0
-1501 642 698 730 -697 0
-1501 642 698 -730 697 0
-1501 642 -698 730 697 0
-1501 642 -698 -730 -697 0
-1501 -642 698 730 697 0
-1501 -642 698 -730 -697 0
-1501 -642 -698 730 -697 0
-1501 -642 -698 -730 697 0
1502 1501 0
-1502 -1501 0
642 698 730 1503 0
-642 -698 -730 1503 0
-1503 -642 698 0
-1503 642 -698 0
-1503 -642 730 0
-1503 642 -730 0
-1503 643 699 731 -698 0
-1503 643 699 -731 698 0
-1503 643 -699 731 698 0
-1503 643 -699 -731 -698 0
-1503 -643 699 731 698 0
-1503 -643 699 -731 -698 0
-1503 -643 -699 731 -698 0
-1503 -643 -699 -731 698 0
1504 1503 0
-1504 -1503 0
643 699 731 1505 0
-643 -699 -731 1505 0
-1505 -643 699 0
-1505 643 -699 0
-1505 -643 731 0
-1505 643 -731 0
-1505 644 700 732 -699 0
-1505 644 700 -732 699 0
-1505 644 -700 732 699 0
-1505 644 -700 -732 -699 0
-1505 -644 700 732 699 0
-1505 -644 700 -732 -699 0
-1505 -644 -700 732 -699 0
-1505 -644 -700 -732 699 0
1506 1505 0
-1506 -1505 0
644 700 732 1507 0
-644 -700 -732 1507 0
-1507 -644 700 0
-1507 644 -700 0
-1507 -644 732 0
-1507 644 -732 0
-1507 645 701 733 -700 0
-1507 645 701 -733 700 0
-1507 645 -701 733 700 0
-1507 645 -701 -733 -700 0
-1507 -645 701 733 700 0
-1507 -645 701 -733 -700 0
-1507 -645 -701 733 -700 0
-1507 -645 -701 -733 700 0
1508 1507 0
-1508 -1507 0
645 701 733 1509 0
-645 -701 -733 1509 0
-1509 -645 701 0
-1509 645 -701 0
-1509 -645 733 0
-1509 645 -733 0
-1509 646 702 734 -701 0
-1509 646 702 -734 701 0
-1509 646 -702 734 701 0
-1509 646 -702 -734 -701 0
-1509 -646 702 734 701 0
-1509 -646 702 -734 -701 0
-1509 -646 -702 734 -701 0
-1509 -646 -702 -734 701 0
1510 1509 0
-1510 -1509 0
646 702 734 1511 0
-646 -702 -734 1511 0
-1511 -646 702 0
-1511 646 -702 0
-1511 -646 734 0
-1511 646 -734 0
-1511 647 703 735 -702 0
-1511 647 703 -735 702 0
-1511 647 -703 735 702 0
-1511 647 -703 -735 -702 0
-1511 -647 703 735 702 0
-1511 -647 703 -735 -702 0
-1511 -647 -703 735 -702 0
-1511 -647 -703 -735 702 0
1512 1511 0
-1512 -1511 0
647 703 735 1513 0
-647 -703 -735 1513 0
-1513 -647 703 0
-1513 647 -703 0
-1513 -647 735 0
-1513 647 -735 0
-1513 648 704 736 -703 0
-1513 648 704 -736 703 0
-1513 648 -704 736 703 0
-1513 648 -704 -736 -703 0
-1513 -648 704 736 703 0
-1513 -648 704 -736 -703 0
-1513 -648 -704 736 -703 0
-1513 -648 -704 -736 703 0
1514 1513 0
-1514 -1513 0
702 705 -737 0
702 -705 737 0
-702 705 737 0
-702 -705 -737 0
703 706 -738 0
703 -706 738 0
-703 706 738 0
-703 -706 -738 0
704 707 -739 0
704 -707 739 0
-704 707 739 0
-704 -707 -739 0
673 708 -740 0
673 -708 740 0
-673 708 740 0
-673 -708 -740 0
674 709 -741 0
674 -709 741 0
-674 709 741 0
-674 -709 -741 0
675 710 -742 0
675 -710 742 0
-675 710 742 0
-675 -710 -742 0
676 711 -743 0
676 -711 743 0
-676 711 743 0
-676 -711 -743 0
677 712 -744 0
677 -712 744 0
-677 712 744 0
-677 -712 -744 0
678 713 -745 0
678 -713 745 0
-678 713 745 0
-678 -713 -745 0
679 714 -746 0
679 -714 746 0
-679 714 746 0
-679 -714 -746 0
680 715 -747 0
680 -715 747 0
-680 715 747 0
-680 -715 -747 0
681 716 -748 0
681 -716 748 0
-681 716 748 0
-681 -716 -748 0
682 717 -749 0
682 -717 749 0
-682 717 749 0
-682 -717 -749 0
683 718 -750 0
683 -718 750 0
-683 718 750 0
-683 -718 -750 0
684 719 -751 0
684 -719 751 0
-684 719 751 0
-684 -719 -751 0
685 720 -752 0
685 -720 752 0
-685 720 752 0
-685 -720 -752 0
686 721 -753 0
686 -721 753 0
-686 721 753 0
-686 -721 -753 0
687 722 -754 0
687 -722 754 0
-687 722 754 0
-687 -722 -754 0
688 723 -755 0
688 -723 755 0
-688 723 755 0
-688 -723 -755 0
689 724 -756 0
689 -724 756 0
-689 724 756 0
-689 -724 -756 0
690 725 -757 0
690 -725 757 0
-690 725 757 0
-690 -725 -757 0
691 726 -758 0
691 -726 758 0
-691 726 758 0
-691 -726 -758 0
692 727 -759 0
692 -727 759 0
-692 727 759 0
-692 -727 -759 0
693 728 -760 0
693 -728 760 0
-693 728 760 0
-693 -728 -760 0
694 729 -761 0
694 -729 761 0
-694 729 761 0
-694 -729 -761 0
695 730 -762 0
695 -730 762 0
-695 730 762 0
-695 -730 -762 0
696 731 -763 0
696 -731 763 0
-696 731 763 0
-696 -731 -763 0
697 732 -764 0
697 -732 764 0
-697 732 764 0
-697 -732 -764 0
698 733 -765 0
698 -733 765 0
-698 733 765 0
-698 -733 -765 0
699 734 -766 0
699 -734 766 0
-699 734 766 0
-699 -734 -766 0
700 735 -767 0
700 -735 767 0
-700 735 767 0
-700 -735 -767 0
701 736 -768 0
701 -736 768 0
-701 736 768 0
-701 -736 -768 0
713 737 -769 0
713 -737 769 0
-713 737 769 0
-713 -737 -769 0
713 737 769 1515 0
-713 -737 -769 1515 0
-1515 -713 737 0
-1515 713 -737 0
-1515 -713 769 0
-1515 713 -769 0
-1515 714 738 770 -737 0
-1515 714 738 -770 737 0
-1515 714 -738 770 737 0
-1515 714 -738 -770 -737 0
-1515 -714 738 770 737 0
-1515 -714 738 -770 -737 0
-1515 -714 -738 770 -737 0
-1515 -714 -738 -770 737 0
1516 1515 0
-1516 -1515 0
714 738 770 1517 0
-714 -738 -770 1517 0
-1517 -714 738 0
-1517 714 -738 0
-1517 -714 770 0
-1517 714 -770 0
-1517 715 739 771 -738 0
-1517 715 739 -771 738 0
-1517 715 -739 771 738 0
-1517 715 -739 -771 -738 0
-1517 -715 739 771 738 0
-1517 -715 739 -771 -738 0
-1517 -715 -739 771 -738 0
-1517 -715 -739 -771 738 0
1518 1517 0
-1518 -1517 0
715 739 771 1519 0
-715 -739 -771 1519 0
-1519 -715 739 0
-1519 715 -739 0
-1519 -715 771 0
-1519 715 -771 0
-1519 716 740 772 -739 0
-1519 716 740 -772 739 0
-1519 716 -740 772 739 0
-1519 716 -740 -772 -739 0
-1519 -716 740 772 739 0
-1519 -716 740 -772 -739 0
-1519 -716 -740 772 -739 0
-1519 -716 -740 -772 739 0
1520 1519 0
-1520 -1519 0
716 740 772 1521 0
-716 -740 -772 1521 0
-1521 -716 740 0
-1521 716 -740 0
-1521 -716 772 0
-1521 716 -772 0
-1521 717 741 773 -740 0
-1521 717 741 -773 740 0
-1521 717 -741 773 740 0
-1521 717 -741 -773 -740 0
-1521 -717 741 773 740 0
-1521 -717 741 -773 -740 0
-1521 -717 -741 773 -740 0
-1521 -717 -741 -773 740 0
1522 1521 0
-1522 -1521 0
717 741 773 1523 0
-717 -741 -773 1523 0
-1523 -717 741 0
-1523 717 -741 0
-1523 -717 773 0
-1523 717 -773 0
-1523 718 742 774 -741 0
-1523 718 742 -774 741 0
-1523 718 -742 774 741 0
-1523 718 -742 -774 -741 0
-1523 -718 742 774 741 0
-1523 -718 742 -774 -741 0
-1523 -718 -742 774 -741 0
-1523 -718 -742 -774 741 0
1524 1523 0
-1524 -1523 0
718 742 774 1525 0
-718 -742 -774 1525 0
-1525 -718 742 0
-1525 718 -742 0
-1525 -718 774 0
-1525 718 -774 0
-1525 719 743 775 -742 0
-1525 719 743 -775 742 0
-1525 719 -743 775 742 0
-1525 719 -743 -775 -742 0
-1525 -719 743 775 742 0
-1525 -719 743 -775 -742 0
-1525 -719 -743 775 -742 0
-1525 -719 -743 -775 742 0
1526 1525 0
-1526 -1525 0
719 743 775 1527 0
-719 -743 -775 1527 0
-1527 -719 743 0
-1527 719 -743 0
-1527 -719 775 0
-1527 719 -775 0
-1527 720 744 776 -743 0
-1527 720 744 -776 743 0
-1527 720 -744 776 743 0
-1527 720 -744 -776 -743 0
-1527 -720 744 776 743 0
-1527 -720 744 -776 -743 0
-1527 -720 -744 776 -743 0
-1527 -720 -744 -776 743 0
1528 1527 0
-1528 -1527 0
720 744 776 1529 0
-720 -744 -776 1529 0
-1529 -720 744 0
-1529 720 -744 0
-1529 -720 776 0
-1529 720 -776 0
-1529 721 745 777 -744 0
-1529 721 745 -777 744 0
-1529 721 -745 777 744 0
-1529 721 -745 -777 -744 0
-1529 -721 745 777 744 0
-1529 -721 745 -777 -744 0
-1529 -721 -745 777 -744 0
-1529 -721 -745 -777 744 0
1530 1529 0
-1530 -1529 0
721 745 777 1531 0
-721 -745 -777 1531 0
-1531 -721 745 0
-1531 721 -745 0
-1531 -721 777 0
-1531 721 -777 0
-1531 722 746 778 -745 0
-1531 722 746 -778 745 0
-1531 722 -746 778 745 0
-1531 722 -746 -778 -745 0
-1531 -722 746 778 745 0
-1531 -722 746 -778 -745 0
-1531 -722 -746 778 -745 0
-1531 -722 -746 -778 745 0
1532 1531 0
-1532 -1531 0
722 746 778 1533 0
-722 -746 -778 1533 0
-1533 -722 746 0
-1533 722 -746 0
-1533 -722 778 0
-1533 722 -778 0
-1533 723 747 779 -746 0
-1533 723 747 -779 746 0
-1533 723 -747 779 746 0
-1533 723 -747 -779 -746 0
-1533 -723 747 779 746 0
-1533 -723 747 -779 -746 0
-1533 -723 -747 779 -746 0
-1533 -723 -747 -779 746 0
1534 1533 0
-1534 -1533 0
723 747 779 1535 0
-723 -747 -779 1535 0
-1535 -723 747 0
-1535 723 -747 0
-1535 -723 779 0
-1535 723 -779 0
-1535 724 748 780 -747 0
-1535 724 748 -780 747 0
-1535 724 -748 780 747 0
-1535 724 -748 -780 -747 0
-1535 -724 748 780 747 0
-1535 -724 748 -780 -747 0
-1535 -724 -748 780 -747 0
-1535 -724 -748 -780 747 0
1536 1535 0
-1536 -1535 0
724 748 780 1537 0
-724 -748 -780 1537 0
-1537 -724 748 0
-1537 724 -748 0
-1537 -724 780 0
-1537 724 -780 0
-1537 725 749 781 -748 0
-1537 725 749 -781 748 0
-1537 725 -749 781 748 0
-1537 725 -749 -781 -748 0
-1537 -725 749 781 748 0
-1537 -725 749 -781 -748 0
-1537 -725 -749 781 -748 0
-1537 -725 -749 -781 748 0
1538 1537 0
-1538 -1537 0
725 749 781 1539 0
-725 -749 -781 1539 0
-1539 -725 749 0
-1539 725 -749 0
-1539 -725 781 0
-1539 725 -781 0
-1539 726 750 782 -749 0
-1539 726 750 -782 749 0
-1539 726 -750 782 749 0
-1539 726 -750 -782 -749 0
-1539 -726 750 782 749 0
-1539 -726 750 -782 -749 0
-1539 -726 -750 782 -749 0
-1539 -726 -750 -782 749 0
1540 1539 0
-1540 -1539 0
726 750 782 1541 0
-726 -750 -782 1541 0
-1541 -726 750 0
-1541 726 -750 0
-1541 -726 782 0
-1541 726 -782 0
-1541 727 751 783 -750 0
-1541 727 751 -783 750 0
-1541 727 -751 783 750 0
-1541 727 -751 -783 -750 0
-1541 -727 751 783 750 0
-1541 -727 751 -783 -750 0
-1541 -727 -751 783 -750 0
-1541 -727 -751 -783 750 0
1542 1541 0
-1542 -1541 0
727 751 783 1543 0
-727 -751 -783 1543 0
-1543 -727 751 0
-1543 727 -751 0
-1543 -727 783 0
-1543 727 -783 0
-1543 728 752 784 -751 0
-1543 728 752 -784 751 0
-1543 728 -752 784 751 0
-1543 728 -752 -784 -751 0
-1543 -728 752 784 751 0
-1543 -728 752 -784 -751 0
-1543 -728 -752 784 -751 0
-1543 -728 -752 -784 751 0
1544 1543 0
-1544 -1543 0
728 752 784 1545 0
-728 -752 -784 1545 0
-1545 -728 752 0
-1545 728 -752 0
-1545 -728 784 0
-1545 728 -784 0
-1545 729 753 785 -752 0
-1545 729 753 -785 752 0
-1545 729 -753 785 752 0
-1545 729 -753 -785 -752 0
-1545 -729 753 785 752 0
-1545 -729 753 -785 -752 0
-1545 -729 -753 785 -752 0
-1545 -729 -753 -785 752 0
1546 1545 0
-1546 -1545 0
729 753 785 1547 0
-729 -753 -785 1547 0
-1547 -729 753 0
-1547 729 -753 0
-1547 -729 785 0
-1547 729 -785 0
-1547 730 754 786 -753 0
-1547 730 754 -786 753 0
-1547 730 -754 786 753 0
-1547 730 -754 -786 -753 0
-1547 -730 754 786 753 0
-1547 -730 754 -786 -753 0
-1547 -730 -754 786 -753 0
-1547 -730 -754 -786 753 0
1548 1547 0
-1548 -1547 0
730 754 786 1549 0
-730 -754 -786 1549 0
-1549 -730 754 0
-1549 730 -754 0
-1549 -730 786 0
-1549 730 -786 0
-1549 731 755 787 -754 0
-1549 731 755 -787 754 0
-1549 731 -755 787 754 0
-1549 731 -755 -787 -754 0
-1549 -731 755 787 754 0
-1549 -731 755 -787 -754 0
-1549 -731 -755 787 -754 0
-1549 -731 -755 -787 754 0
1550 1549 0
-1550 -1549 0
731 755 787 1551 0
-731 -755 -787 1551 0
-1551 -731 755 0
-1551 731 -755 0
-1551 -731 787 0
-1551 731 -787 0
-1551 732 756 788 -755 0
-1551 732 756 -788 755 0
-1551 732 -756 788 755 0
-1551 732 -756 -788 -755 0
-1551 -732 756 788 755 0
-1551 -732 756 -788 -755 0
-1551 -732 -756 788 -755 0
-1551 -732 -756 -788 755 0
1552 1551 0
-1552 -1551 0
732 756 788 1553 0
-732 -756 -788 1553 0
-1553 -732 756 0
-1553 732 -756 0
-1553 -732 788 0
-1553 732 -788 0
-1553 733 757 789 -756 0
-1553 733 757 -789 756 0
-1553 733 -757 789 756 0
-1553 733 -757 -789 -756 0
-1553 -733 757 789 756 0
-1553 -733 757 -789 -756 0
-1553 -733 -757 789 -756 0
-1553 -733 -757 -789 756 0
1554 1553 0
-1554 -1553 0
733 757 789 1555 0
-733 -757 -789 1555 0
-1555 -733 757 0
-1555 733 -757 0
-1555 -733 789 0
-1555 733 -789 0
-1555 734 758 790 -757 0
-1555 734 758 -790 757 0
-1555 734 -758 790 757 0
-1555 734 -758 -790 -757 0
-1555 -734 758 790 757 0
-1555 -734 758 -790 -757 0
-1555 -734 -758 790 -757 0
-1555 -734 -758 -790 757 0
1556 1555 0
-1556 -1555 0
734 758 790 1557 0
-734 -758 -790 1557 0
-1557 -734 758 0
-1557 734 -758 0
-1557 -734 790 0
-1557 734 -790 0
-1557 735 759 791 -758 0
-1557 735 759 -791 758 0
-1557 735 -759 791 758 0
-1557 735 -759 -791 -758 0
-1557 -735 759 791 758 0
-1557 -735 759 -791 -758 0
-1557 -735 -759 791 -758 0
-1557 -735 -759 -791 758 0
1558 1557 0
-1558 -1557 0
735 759 791 1559 0
-735 -759 -791 1559 0
-1559 -735 759 0
-1559 735 -759 0
-1559 -735 791 0
-1559 735 -791 0
-1559 736 760 792 -759 0
-1559 736 760 -792 759 0
-1559 736 -760 792 759 0
-1559 736 -760 -792 -759 0
-1559 -736 760 792 759 0
-1559 -736 760 -792 -759 0
-1559 -736 -760 792 -759 0
-1559 -736 -760 -792 759 0
1560 1559 0
-1560 -1559 0
736 760 792 1561 0
-736 -760 -792 1561 0
-1561 -736 760 0
-1561 736 -760 0
-1561 -736 792 0
-1561 736 -792 0
-1561 705 761 793 -760 0
-1561 705 761 -793 760 0
-1561 705 -761 793 760 0
-1561 705 -761 -793 -760 0
-1561 -705 761 793 760 0
-1561 -705 761 -793 -760 0
-1561 -705 -761 793 -760 0
-1561 -705 -761 -793 760 0
1562 1561 0
-1562 -1561 0
705 761 793 1563 0
-705 -761 -793 1563 0
-1563 -705 761 0
-1563 705 -761 0
-1563 -705 793 0
-1563 705 -793 0
-1563 706 762 794 -761 0
-1563 706 762 -794 761 0
-1563 706 -762 794 761 0
-1563 706 -762 -794 -761 0
-1563 -706 762 794 761 0
-1563 -706 762 -794 -761 0
-1563 -706 -762 794 -761 0
-1563 -706 -762 -794 761 0
1564 1563 0
-1564 -1563 0
706 762 794 1565 0
-706 -762 -794 1565 0
-1565 -706 762 0
-1565 706 -762 0
-1565 -706 794 0
-1565 706 -794 0
-1565 707 763 795 -762 0
-1565 707 763 -795 762 0
-1565 707 -763 795 762 0
-1565 707 -763 -795 -762 0
-1565 -707 763 795 762 0
-1565 -707 763 -795 -762 0
-1565 -707 -763 795 -762 0
-1565 -707 -763 -795 762 0
1566 1565 0
-1566 -1565 0
707 763 795 1567 0
-707 -763 -795 1567 0
-1567 -707 763 0
-1567 707 -763 0
-1567 -707 795 0
-1567 707 -795 0
-1567 708 764 796 -763 0
-1567 708 764 -796 763 0
-1567 708 -764 796 763 0
-1567 708 -764 -796 -763 0
-1567 -708 764 796 763 0
-1567 -708 764 -796 -763 0
-1567 -708 -764 796 -763 0
-1567 -708 -764 -796 763 0
1568 1567 0
-1568 -1567 0
708 764 796 1569 0
-708 -764 -796 1569 0
-1569 -708 764 0
-1569 708 -764 0
-1569 -708 796 0
-1569 708 -796 0
-1569 709 765 797 -764 0
-1569 709 765 -797 764 0
-1569 709 -765 797 764 0
-1569 709 -765 -797 -764 0
-1569 -709 765 797 764 0
-1569 -709 765 -797 -764 0
-1569 -709 -765 797 -764 0
-1569 -709 -765 -797 764 0
1570 1569 0
-1570 -1569 0
709 765 797 1571 0
-709 -765 -797 1571 0
-1571 -709 765 0
-1571 709 -765 0
-1571 -709 797 0
-1571 709 -797 0
-1571 710 766 798 -765 0
-1571 710 766 -798 765 0
-1571 710 -766 798 765 0
-1571 710 -766 -798 -765 0
-1571 -710 766 798 765 0
-1571 -710 766 -798 -765 0
-1571 -710 -766 798 -765 0
-1571 -710 -766 -798 765 0
1572 1571 0
-1572 -1571 0
710 766 798 1573 0
-710 -766 -798 1573 0
-1573 -710 766 0
-1573 710 -766 0
-1573 -710 798 0
-1573 710 -798 0
-1573 711 767 799 -766 0
-1573 711 767 -799 766 0
-1573 711 -767 799 766 0
-1573 711 -767 -799 -766 0
-1573 -711 767 799 766 0
-1573 -711 767 -799 -766 0
-1573 -711 -767 799 -766 0
-1573 -711 -767 -799 766 0
1574 1573 0
-1574 -1573 0
711 767 799 1575 0
-711 -767 -799 1575 0
-1575 -711 767 0
-1575 711 -767 0
-1575 -711 799 0
-1575 711 -799 0
-1575 712 768 800 -767 0
-1575 712 768 -800 767 0
-1575 712 -768 800 767 0
-1575 712 -768 -800 -767 0
-1575 -712 768 800 767 0
-1575 -712 768 -800 -767 0
-1575 -712 -768 800 -767 0
-1575 -712 -768 -800 767 0
1576 1575 0
-1576 -1575 0
766 769 -801 0
766 -769 801 0
-766 769 801 0
-766 -769 -801 0
767 770 -802 0
767 -770 802 0
-767 770 802 0
-767 -770 -802 0
768 771 -803 0
768 -771 803 0
-768 771 803 0
-768 -771 -803 0
737 772 -804 0
737 -772 804 0
-737 772 804 0
-737 -772 -804 0
738 773 -805 0
738 -773 805 0
-738 773 805 0
-738 -773 -805 0
739 774 -806 0
739 -774 806 0
-739 774 806 0
-739 -774 -806 0
740 775 -807 0
740 -775 807 0
-740 775 807 0
-740 -775 -807 0
741 776 -808 0
741 -776 808 0
-741 776 808 0
-741 -776 -808 0
742 777 -809 0
742 -777 809 0
-742 777 809 0
-742 -777 -809 0
743 778 -810 0
743 -778 810 0
-743 778 810 0
-743 -778 -810 0
744 779 -811 0
744 -779 811 0
-744 779 811 0
-744 -779 -811 0
745 780 -812 0
745 -780 812 0
-745 780 812 0
-745 -780 -812 0
746 781 -813 0
746 -781 813 0
-746 781 813 0
-746 -781 -813 0
747 782 -814 0
747 -782 814 0
-747 782 814 0
-747 -782 -814 0
748 783 -815 0
748 -783 815 0
-748 783 815 0
-748 -783 -815 0
749 784 -816 0
749 -784 816 0
-749 784 816 0
-749 -784 -816 0
750 785 -817 0
750 -785 817 0
-750 785 817 0
-750 -785 -817 0
751 786 -818 0
751 -786 818 0
-751 786 818 0
-751 -786 -818 0
752 787 -819 0
752 -787 819 0
-752 787 819 0
-752 -787 -819 0
753 788 -820 0
753 -788 820 0
-753 788 820 0
-753 -788 -820 0
754 789 -821 0
754 -789 821 0
-754 789 821 0
-754 -789 -821 0
755 790 -822 0
755 -790 822 0
-755 790 822 0
-755 -790 -822 0
756 791 -823 0
756 -791 823 0
-756 791 823 0
-756 -791 -823 0
757 792 -824 0
757 -792 824 0
-757 792 824 0
-757 -792 -824 0
758 793 -825 0
758 -793 825 0
-758 793 825 0
-758 -793 -825 0
759 794 -826 0
759 -794 826 0
-759 794 826 0
-759 -794 -826 0
760 795 -827 0
760 -795 827 0
-760 795 827 0
-760 -795 -827 0
761 796 -828 0
761 -796 828 0
-761 796 828 0
-761 -796 -828 0
762 797 -829 0
762 -797 829 0
-762 797 829 0
-762 -797 -829 0
763 798 -830 0
763 -798 830 0
-763 798 830 0
-763 -798 -830 0
764 799 -831 0
764 -799 831 0
-764 799 831 0
-764 -799 -831 0
765 800 -832 0
765 -800 832 0
-765 800 832 0
-765 -800 -832 0
-1578 0
-1579 0
-1580 0
-1581 0
-1582 0
-1583 0
-1584 0
-1585 0
-1586 0
-1587 0
-1588 0
-1589 0
-1590 0
-1591 0
-1592 0
-1593 0
-1594 0
-1595 0
-1596 0
-1597 0
-1598 0
-1599 0
-1600 0
-1601 0
-1602 0
-1603 0
-1604 0
-1605 0
-1606 0
-1607 0
-1608 0
-1609 0
-1610 0
-1611 0
-1612 0
-1613 0
-1614 0
-1615 0
-1616 0
-1617 0
-1618 0
-1619 0
-1620 0
-1621 0
-1622 0
-1623 0
-1624 0
-1625 0
-1626 0
-1627 0
-1628 0
-1629 0
-1630 0
-1631 0
-1632 0
-834 1577 0
-836 1633 0
-838 1689 0
-840 1745 0
-842 1801 0
-844 1857 0
-846 1913 0
-848 1969 0
-850 2025 0
-852 2081 0
-854 2137 0
-856 2193 0
-858 2249 0
-860 2305 0
-862 2361 0
-864 2417 0
-866 2473 0
-868 2529 0
-870 2585 0
-872 2641 0
-874 2697 0
-876 2753 0
-878 2809 0
-880 2865 0
-882 2921 0
-884 2977 0
-886 3033 0
-888 3089 0
-890 3145 0
-892 3201 0
-894 3257 0
-896 3313 0
-898 3369 0
-900 3425 0
-902 3481 0
-904 3537 0
-906 3593 0
-908 3649 0
-910 3705 0
-912 3761 0
-914 3817 0
-916 3873 0
-918 3929 0
-920 3985 0
-922 4041 0
-924 4097 0
-926 4153 0
-928 4209 0
-930 4265 0
-932 4321 0
-934 4377 0
-936 4433 0
-938 4489 0
-940 4545 0
-942 4601 0
-944 4657 0
-946 4713 0
-948 4769 0
-950 4825 0
-952 4881 0
-954 4937 0
-956 4993 0
-958 5049 0
-960 5105 0
-962 5161 0
-964 5217 0
-966 5273 0
-968 5329 0
-970 5385 0
-972 5441 0
-974 5497 0
-976 5553 0
-978 5609 0
-980 5665 0
-982 5721 0
-984 5777 0
-986 5833 0
-988 5889 0
-990 5945 0
-992 6001 0
-994 6057 0
-996 6113 0
-998 6169 0
-1000 6225 0
-1002 6281 0
-1004 6337 0
-1006 6393 0
-1008 6449 0
-1010 6505 0
-1012 6561 0
-1014 6617 0
-1016 6673 0
-1018 6729 0
-1020 6785 0
-1022 6841 0
-1024 6897 0
-1026 6953 0
-1028 7009 0
-1030 7065 0
-1032 7121 0
-1034 7177 0
-1036 7233 0
-1038 7289 0
-1040 7345 0
-1042 7401 0
-1044 7457 0
-1046 7513 0
-1048 7569 0
-1050 7625 0
-1052 7681 0
-1054 7737 0
-1056 7793 0
-1058 7849 0
-1060 7905 0
-1062 7961 0
-1064 8017 0
-1066 8073 0
-1068 8129 0
-1070 8185 0
-1072 8241 0
-1074 8297 0
-1076 8353 0
-1078 8409 0
-1080 8465 0
-1082 8521 0
-1084 8577 0
-1086 8633 0
-1088 8689 0
-1090 8745 0
-1092 8801 0
-1094 8857 0
-1096 8913 0
-1098 8969 0
-1100 9025 0
-1102 9081 0
-1104 9137 0
-1106 9193 0
-1108 9249 0
-1110 9305 0
-1112 9361 0
-1114 9417 0
-1116 9473 0
-1118 9529 0
-1120 9585 0
-1122 9641 0
-1124 9697 0
-1126 9753 0
-1128 9809 0
-1130 9865 0
-1132 9921 0
-1134 9977 0
-1136 10033 0
-1138 10089 0
-1140 10145 0
-1142 10201 0
-1144 10257 0
-1146 10313 0
-1148 10369 0
-1150 10425 0
-1152 10481 0
-1154 10537 0
-1156 10593 0
-1158 10649 0
-1160 10705 0
-1162 10761 0
-1164 10817 0
-1166 10873 0
-1168 10929 0
-1170 10985 0
-1172 11041 0
-1174 11097 0
-1176 11153 0
-1178 11209 0
-1180 11265 0
-1182 11321 0
-1184 11377 0
-1186 11433 0
-1188 11489 0
-1190 11545 0
-1192 11601 0
-1194 11657 0
-1196 11713 0
-1198 11769 0
-1200 11825 0
-1202 11881 0
-1204 11937 0
-1206 11993 0
-1208 12049 0
-1210 12105 0
-1212 12161 0
-1214 12217 0
-1216 12273 0
-1218 12329 0
-1220 12385 0
-1222 12441 0
-1224 12497 0
-1226 12553 0
-1228 12609 0
-1230 12665 0
-1232 12721 0
-1234 12777 0
-1236 12833 0
-1238 12889 0
-1240 12945 0
-1242 13001 0
-1244 13057 0
-1246 13113 0
-1248 13169 0
-1250 13225 0
-1252 13281 0
-1254 13337 0
-1256 13393 0
-1258 13449 0
-1260 13505 0
-1262 13561 0
-1264 13617 0
-1266 13673 0
-1268 13729 0
-1270 13785 0
-1272 13841 0
-1274 13897 0
-1276 13953 0
-1278 14009 0
-1280 14065 0
-1282 14121 0
-1284 14177 0
-1286 14233 0
-1288 14289 0
-1290 14345 0
-1292 14401 0
-1294 14457 0
-1296 14513 0
-1298 14569 0
-1300 14625 0
-1302 14681 0
-1304 14737 0
-1306 14793 0
-1308 14849 0
-1310 14905 0
-1312 14961 0
-1314 15017 0
-1316 15073 0
-1318 15129 0
-1320 15185 0
-1322 15241 0
-1324 15297 0
-1326 15353 0
-1328 15409 0
-1330 15465 0
-1332 15521 0
-1334 15577 0
-1336 15633 0
-1338 15689 0
-1340 15745 0
-1342 15801 0
-1344 15857 0
-1346 15913 0
-1348 15969 0
-1350 16025 0
-1352 16081 0
-1354 16137 0
-1356 16193 0
-1358 16249 0
-1360 16305 0
-1362 16361 0
-1364 16417 0
-1366 16473 0
-1368 16529 0
-1370 16585 0
-1372 16641 0
-1374 16697 0
-1376 16753 0
-1378 16809 0
-1380 16865 0
-1382 16921 0
-1384 16977 0
-1386 17033 0
-1388 17089 0
-1390 17145 0
-1392 17201 0
-1394 17257 0
-1396 17313 0
-1398 17369 0
-1400 17425 0
-1402 17481 0
-1404 17537 0
-1406 17593 0
-1408 17649 0
-1410 17705 0
-1412 17761 0
-1414 17817 0
-1416 17873 0
-1418 17929 0
-1420 17985 0
-1422 18041 0
-1424 18097 0
-1426 18153 0
-1428 18209 0
-1430 18265 0
-1432 18321 0
-1434 18377 0
-1436 18433 0
-1438 18489 0
-1440 18545 0
-1442 18601 0
-1444 18657 0
-1446 18713 0
-1448 18769 0
-1450 18825 0
-1452 18881 0
-1454 18937 0
-1456 18993 0
-1458 19049 0
-1460 19105 0
-1462 19161 0
-1464 19217 0
-1466 19273 0
-1468 19329 0
-1470 19385 0
-1472 19441 0
-1474 19497 0
-1476 19553 0
-1478 19609 0
-1480 19665 0
-1482 19721 0
-1484 19777 0
-1486 19833 0
-1488 19889 0
-1490 19945 0
-1492 20001 0
-1494 20057 0
-1496 20113 0
-1498 20169 0
-1500 20225 0
-1502 20281 0
-1504 20337 0
-1506 20393 0
-1508 20449 0
-1510 20505 0
-1512 20561 0
-1514 20617 0
-1516 20673 0
-1518 20729 0
-1520 20785 0
-1522 20841 0
-1524 20897 0
-1526 20953 0
-1528 21009 0
-1530 21065 0
-1532 21121 0
-1534 21177 0
-1536 21233 0
-1538 21289 0
-1540 21345 0
-1542 21401 0
-1544 21457 0
-1546 21513 0
-1548 21569 0
-1550 21625 0
-1552 21681 0
-1554 21737 0
-1556 21793 0
-1558 21849 0
-1560 21905 0
-1562 21961 0
-1564 22017 0
-1566 22073 0
-1568 22129 0
-1570 22185 0
-1572 22241 0
-1574 22297 0
-1576 22353 0
-1577 1633 0
-1578 1634 0
-1579 1635 0
-1580 1636 0
-1581 1637 0
-1582 1638 0
-1583 1639 0
-1584 1640 0
-1585 1641 0
-1586 1642 0
-1587 1643 0
-1588 1644 0
-1589 1645 0
-1590 1646 0
-1591 1647 0
-1592 1648 0
-1593 1649 0
-1594 1650 0
-1595 1651 0
-1596 1652 0
-1597 1653 0
-1598 1654 0
-1599 1655 0
-1600 1656 0
-1601 1657 0
-1602 1658 0
-1603 1659 0
-1604 1660 0
-1605 1661 0
-1606 1662 0
-1607 1663 0
-1608 1664 0
-1609 1665 0
-1610 1666 0
-1611 1667 0
-1612 1668 0
-1613 1669 0
-1614 1670 0
-1615 1671 0
-1616 1672 0
-1617 1673 0
-1618 1674 0
-1619 1675 0
-1620 1676 0
-1621 1677 0
-1622 1678 0
-1623 1679 0
-1624 1680 0
-1625 1681 0
-1626 1682 0
-1627 1683 0
-1628 1684 0
-1629 1685 0
-1630 1686 0
-1631 1687 0
-1632 1688 0
-836 -1577 1634 0
-836 -1578 1635 0
-836 -1579 1636 0
-836 -1580 1637 0
-836 -1581 1638 0
-836 -1582 1639 0
-836 -1583 1640 0
-836 -1584 1641 0
-836 -1585 1642 0
-836 -1586 1643 0
-836 -1587 1644 0
-836 -1588 1645 0
-836 -1589 1646 0
-836 -1590 1647 0
-836 -1591 1648 0
-836 -1592 1649 0
-836 -1593 1650 0
-836 -1594 1651 0
-836 -1595 1652 0
-836 -1596 1653 0
-836 -1597 1654 0
-836 -1598 1655 0
-836 -1599 1656 0
-836 -1600 1657 0
-836 -1601 1658 0
-836 -1602 1659 0
-836 -1603 1660 0
-836 -1604 1661 0
-836 -1605 1662 0
-836 -1606 1663 0
-836 -1607 1664 0
-836 -1608 1665 0
-836 -1609 1666 0
-836 -1610 1667 0
-836 -1611 1668 0
-836 -1612 1669 0
-836 -1613 1670 0
-836 -1614 1671 0
-836 -1615 1672 0
-836 -1616 1673 0
-836 -1617 1674 0
-836 -1618 1675 0
-836 -1619 1676 0
-836 -1620 1677 0
-836 -1621 1678 0
-836 -1622 1679 0
-836 -1623 1680 0
-836 -1624 1681 0
-836 -1625 1682 0
-836 -1626 1683 0
-836 -1627 1684 0
-836 -1628 1685 0
-836 -1629 1686 0
-836 -1630 1687 0
-836 -1631 1688 0
-836 -1632 0
-1633 1689 0
-1634 1690 0
-1635 1691 0
-1636 1692 0
-1637 1693 0
-1638 1694 0
-1639 1695 0
-1640 1696 0
-1641 1697 0
-1642 1698 0
-1643 1699 0
-1644 1700 0
-1645 1701 0
-1646 1702 0
-1647 1703 0
-1648 1704 0
-1649 1705 0
-1650 1706 0
-1651 1707 0
-1652 1708 0
-1653 1709 0
-1654 1710 0
-1655 1711 0
-1656 1712 0
-1657 1713 0
-1658 1714 0
-1659 1715 0
-1660 1716 0
-1661 1717 0
-1662 1718 0
-1663 1719 0
-1664 1720 0
-1665 1721 0
-1666 1722 0
-1667 1723 0
-1668 1724 0
-1669 1725 0
-1670 1726 0
-1671 1727 0
-1672 1728 0
-1673 1729 0
-1674 1730 0
-1675 1731 0
-1676 1732 0
-1677 1733 0
-1678 1734 0
-1679 1735 0
-1680 1736 0
-1681 1737 0
-1682 1738 0
-1683 1739 0
-1684 1740 0
-1685 1741 0
-1686 1742 0
-1687 1743 0
-1688 1744 0
-838 -1633 1690 0
-838 -1634 1691 0
-838 -1635 1692 0
-838 -1636 1693 0
-838 -1637 1694 0
-838 -1638 1695 0
-838 -1639 1696 0
-838 -1640 1697 0
-838 -1641 1698 0
-838 -1642 1699 0
-838 -1643 1700 0
-838 -1644 1701 0
-838 -1645 1702 0
-838 -1646 1703 0
-838 -1647 1704 0
-838 -1648 1705 0
-838 -1649 1706 0
-838 -1650 1707 0
-838 -1651 1708 0
-838 -1652 1709 0
-838 -1653 1710 0
-838 -1654 1711 0
-838 -1655 1712 0
-838 -1656 1713 0
-838 -1657 1714 0
-838 -1658 1715 0
-838 -1659 1716 0
-838 -1660 1717 0
-838 -1661 1718 0
-838 -1662 1719 0
-838 -1663 1720 0
-838 -1664 1721 0
-838 -1665 1722 0
-838 -1666 1723 0
-838 -1667 1724 0
-838 -1668 1725 0
-838 -1669 1726 0
-838 -1670 1727 0
-838 -1671 1728 0
-838 -1672 1729 0
-838 -1673 1730 0
-838 -1674 1731 0
-838 -1675 1732 0
-838 -1676 1733 0
-838 -1677 1734 0
-838 -1678 1735 0
-838 -1679 1736 0
-838 -1680 1737 0
-838 -1681 1738 0
-838 -1682 1739 0
-838 -1683 1740 0
-838 -1684 1741 0
-838 -1685 1742 0
-838 -1686 1743 0
-838 -1687 1744 0
-838 -1688 0
-1689 1745 0
-1690 1746 0
-1691 1747 0
-1692 1748 0
-1693 1749 0
-1694 1750 0
-1695 1751 0
-1696 1752 0
-1697 1753 0
-1698 1754 0
-1699 1755 0
-1700 1756 0
-1701 1757 0
-1702 1758 0
-1703 1759 0
-1704 1760 0
-1705 1761 0
-1706 1762 0
-1707 1763 0
-1708 1764 0
-1709 1765 0
-1710 1766 0
-1711 1767 0
-1712 1768 0
-1713 1769 0
-1714 1770 0
-1715 1771 0
-1716 1772 0
-1717 1773 0
-1718 1774 0
-1719 1775 0
-1720 1776 0
-1721 1777 0
-1722 1778 0
-1723 1779 0
-1724 1780 0
-1725 1781 0
-1726 1782 0
-1727 1783 0
-1728 1784 0
-1729 1785 0
-1730 1786 0
-1731 1787 0
-1732 1788 0
-1733 1789 0
-1734 1790 0
-1735 1791 0
-1736 1792 0
-1737 1793 0
-1738 1794 0
-1739 1795 0
-1740 1796 0
-1741 1797 0
-1742 1798 0
-1743 1799 0
-1744 1800 0
-840 -1689 1746 0
-840 -1690 1747 0
-840 -1691 1748 0
-840 -1692 1749 0
-840 -1693 1750 0
-840 -1694 1751 0
-840 -1695 1752 0
-840 -1696 1753 0
-840 -1697 1754 0
-840 -1698 1755 0
-840 -1699 1756 0
-840 -1700 1757 0
-840 -1701 1758 0
-840 -1702 1759 0
-840 -1703 1760 0
-840 -1704 1761 0
-840 -1705 1762 0
-840 -1706 1763 0
-840 -1707 1764 0
-840 -1708 1765 0
-840 -1709 1766 0
-840 -1710 1767 0
-840 -1711 1768 0
-840 -1712 1769 0
-840 -1713 1770 0
-840 -1714 1771 0
-840 -1715 1772 0
-840 -1716 1773 0
-840 -1717 1774 0
-840 -1718 1775 0
-840 -1719 1776 0
-840 -1720 1777 0
-840 -1721 1778 0
-840 -1722 1779 0
-840 -1723 1780 0
-840 -1724 1781 0
-840 -1725 1782 0
-840 -1726 1783 0
-840 -1727 1784 0
-840 -1728 1785 0
-840 -1729 1786 0
-840 -1730 1787 0
-840 -1731 1788 0
-840 -1732 1789 0
-840 -1733 1790 0
-840 -1734 1791 0
-840 -1735 1792 0
-840 -1736 1793 0
-840 -1737 1794 0
-840 -1738 1795 0
-840 -1739 1796 0
-840 -1740 1797 0
-840 -1741 1798 0
-840 -1742 1799 0
-840 -1743 1800 0
-840 -1744 0
-1745 1801 0
-1746 1802 0
-1747 1803 0
-1748 1804 0
-1749 1805 0
-1750 1806 0
-1751 1807 0
-1752 1808 0
-1753 1809 0
-1754 1810 0
-1755 1811 0
-1756 1812 0
-1757 1813 0
-1758 1814 0
-1759 1815 0
-1760 1816 0
-1761 1817 0
-1762 1818 0
-1763 1819 0
-1764 1820 0
-1765 1821 0
-1766 1822 0
-1767 1823 0
-1768 1824 0
-1769 1825 0
-1770 1826 0
-1771 1827 0
-1772 1828 0
-1773 1829 0
-1774 1830 0
-1775 1831 0
-1776 1832 0
-1777 1833 0
-1778 1834 0
-1779 1835 0
-1780 1836 0
-1781 1837 0
-1782 1838 0
-1783 1839 0
-1784 1840 0
-1785 1841 0
-1786 1842 0
-1787 1843 0
-1788 1844 0
-1789 1845 0
-1790 1846 0
-1791 1847 0
-1792 1848 0
-1793 1849 0
-1794 1850 0
-1795 1851 0
-1796 1852 0
-1797 1853 0
-1798 1854 0
-1799 1855 0
-1800 1856 0
-842 -1745 1802 0
-842 -1746 1803 0
-842 -1747 1804 0
-842 -1748 1805 0
-842 -1749 1806 0
-842 -1750 1807 0
-842 -1751 1808 0
-842 -1752 1809 0
-842 -1753 1810 0
-842 -1754 1811 0
-842 -1755 1812 0
-842 -1756 1813 0
-842 -1757 1814 0
-842 -1758 1815 0
-842 -1759 1816 0
-842 -1760 1817 0
-842 -1761 1818 0
-842 -1762 1819 0
-842 -1763 1820 0
-842 -1764 1821 0
-842 -1765 1822 0
-842 -1766 1823 0
-842 -1767 1824 0
-842 -1768 1825 0
-842 -1769 1826 0
-842 -1770 1827 0
-842 -1771 1828 0
-842 -1772 1829 0
-842 -1773 1830 0
-842 -1774 1831 0
-842 -1775 1832 0
-842 -1776 1833 0
-842 -1777 1834 0
-842 -1778 1835 0
-842 -1779 1836 0
-842 -1780 1837 0
-842 -1781 1838 0
-842 -1782 1839 0
-842 -1783 1840 0
-842 -1784 1841 0
-842 -1785 1842 0
-842 -1786 1843 0
-842 -1787 1844 0
-842 -1788 1845 0
-842 -1789 1846 0
-842 -1790 1847 0
-842 -1791 1848 0
-842 -1792 1849 0
-842 -1793 1850 0
-842 -1794 1851 0
-842 -1795 1852 0
-842 -1796 1853 0
-842 -1797 1854 0
-842 -1798 1855 0
-842 -1799 1856 0
-842 -1800 0
-1801 1857 0
-1802 1858 0
-1803 1859 0
-1804 1860 0
-1805 1861 0
-1806 1862 0
-1807 1863 0
-1808 1864 0
-1809 1865 0
-1810 1866 0
-1811 1867 0
-1812 1868 0
-1813 1869 0
-1814 1870 0
-1815 1871 0
-1816 1872 0
-1817 1873 0
-1818 1874 0
-1819 1875 0
-1820 1876 0
-1821 1877 0
-1822 1878 0
-1823 1879 0
-1824 1880 0
-1825 1881 0
-1826 1882 0
-1827 1883 0
-1828 1884 0
-1829 1885 0
-1830 1886 0
-1831 1887 0
-1832 1888 0
-1833 1889 0
-1834 1890 0
-1835 1891 0
-1836 1892 0
-1837 1893 0
-1838 1894 0
-1839 1895 0
-1840 1896 0
-1841 1897 0
-1842 1898 0
-1843 1899 0
-1844 1900 0
-1845 1901 0
-1846 1902 0
-1847 1903 0
-1848 1904 0
-1849 1905 0
-1850 1906 0
-1851 1907 0
-1852 1908 0
-1853 1909 0
-1854 1910 0
-1855 1911 0
-1856 1912 0
-844 -1801 1858 0
-844 -1802 1859 0
-844 -1803 1860 0
-844 -1804 1861 0
-844 -1805 1862 0
-844 -1806 1863 0
-844 -1807 1864 0
-844 -1808 1865 0
-844 -1809 1866 0
-844 -1810 1867 0
-844 -1811 1868 0
-844 -1812 1869 0
-844 -1813 1870 0
-844 -1814 1871 0
-844 -1815 1872 0
-844 -1816 1873 0
-844 -1817 1874 0
-844 -1818 1875 0
-844 -1819 1876 0
-844 -1820 1877 0
-844 -1821 1878 0
-844 -1822 1879 0
-844 -1823 1880 0
-844 -1824 1881 0
-844 -1825 1882 0
-844 -1826 1883 0
-844 -1827 1884 0
-844 -1828 1885 0
-844 -1829 1886 0
-844 -1830 1887 0
-844 -1831 1888 0
-844 -1832 1889 0
-844 -1833 1890 0
-844 -1834 1891 0
-844 -1835 1892 0
-844 -1836 1893 0
-844 -1837 1894 0
-844 -1838 1895 0
-844 -1839 1896 0
-844 -1840 1897 0
-844 -1841 1898 0
-844 -1842 1899 0
-844 -1843 1900 0
-844 -1844 1901 0
-844 -1845 1902 0
-844 -1846 1903 0
-844 -1847 1904 0
-844 -1848 1905 0
-844 -1849 1906 0
-844 -1850 1907 0
-844 -1851 1908 0
-844 -1852 1909 0
-844 -1853 1910 0
-844 -1854 1911 0
-844 -1855 1912 0
-844 -1856 0
-1857 1913 0
-1858 1914 0
-1859 1915 0
-1860 1916 0
-1861 1917 0
-1862 1918 0
-1863 1919 0
-1864 1920 0
-1865 1921 0
-1866 1922 0
-1867 1923 0
-1868 1924 0
-1869 1925 0
-1870 1926 0
-1871 1927 0
-1872 1928 0
-1873 1929 0
-1874 1930 0
-1875 1931 0
-1876 1932 0
-1877 1933 0
-1878 1934 0
-1879 1935 0
-1880 1936 0
-1881 1937 0
-1882 1938 0
-1883 1939 0
-1884 1940 0
-1885 1941 0
-1886 1942 0
-1887 1943 0
-1888 1944 0
-1889 1945 0
-1890 1946 0
-1891 1947 0
-1892 1948 0
-1893 1949 0
-1894 1950 0
-1895 1951 0
-1896 1952 0
-1897 1953 0
-1898 1954 0
-1899 1955 0
-1900 1956 0
-1901 1957 0
-1902 1958 0
-1903 1959 0
-1904 1960 0
-1905 1961 0
-1906 1962 0
-1907 1963 0
-1908 1964 0
-1909 1965 0
-1910 1966 0
-1911 1967 0
-1912 1968 0
-846 -1857 1914 0
-846 -1858 1915 0
-846 -1859 1916 0
-846 -1860 1917 0
-846 -1861 1918 0
-846 -1862 1919 0
-846 -1863 1920 0
-846 -1864 1921 0
-846 -1865 1922 0
-846 -1866 1923 0
-846 -1867 1924 0
-846 -1868 1925 0
-846 -1869 1926 0
-846 -1870 1927 0
-846 -1871 1928 0
-846 -1872 1929 0
-846 -1873 1930 0
-846 -1874 1931 0
-846 -1875 1932 0
-846 -1876 1933 0
-846 -1877 1934 0
-846 -1878 1935 0
-846 -1879 1936 0
-846 -1880 1937 0
-846 -1881 1938 0
-846 -1882 1939 0
-846 -1883 1940 0
-846 -1884 1941 0
-846 -1885 1942 0
-846 -1886 1943 0
-846 -1887 1944 0
-846 -1888 1945 0
-846 -1889 1946 0
-846 -1890 1947 0
-846 -1891 1948 0
-846 -1892 1949 0
-846 -1893 1950 0
-846 -1894 1951 0
-846 -1895 1952 0
-846 -1896 1953 0
-846 -1897 1954 0
-846 -1898 1955 0
-846 -1899 1956 0
-846 -1900 1957 0
-846 -1901 1958 0
-846 -1902 1959 0
-846 -1903 1960 0
-846 -1904 1961 0
-846 -1905 1962 0
-846 -1906 1963 0
-846 -1907 1964 0
-846 -1908 1965 0
-846 -1909 1966 0
-846 -1910 1967 0
-846 -1911 1968 0
-846 -1912 0
-1913 1969 0
-1914 1970 0
-1915 1971 0
-1916 1972 0
-1917 1973 0
-1918 1974 0
-1919 1975 0
-1920 1976 0
-1921 1977 0
-1922 1978 0
-1923 1979 0
-1924 1980 0
-1925 1981 0
-1926 1982 0
-1927 1983 0
-1928 1984 0
-1929 1985 0
-1930 1986 0
-1931 1987 0
-1932 1988 0
-1933 1989 0
-1934 1990 0
-1935 1991 0
-1936 1992 0
-1937 1993 0
-1938 1994 0
-1939 1995 0
-1940 1996 0
-1941 1997 0
-1942 1998 0
-1943 1999 0
-1944 2000 0
-1945 2001 0
-1946 2002 0
-1947 2003 0
-1948 2004 0
-1949 2005 0
-1950 2006 0
-1951 2007 0
-1952 2008 0
-1953 2009 0
-1954 2010 0
-1955 2011 0
-1956 2012 0
-1957 2013 0
-1958 2014 0
-1959 2015 0
-1960 2016 0
-1961 2017 0
-1962 2018 0
-1963 2019 0
-1964 2020 0
-1965 2021 0
-1966 2022 0
-1967 2023 0
-1968 2024 0
-848 -1913 1970 0
-848 -1914 1971 0
-848 -1915 1972 0
-848 -1916 1973 0
-848 -1917 1974 0
-848 -1918 1975 0
-848 -1919 1976 0
-848 -1920 1977 0
-848 -1921 1978 0
-848 -1922 1979 0
-848 -1923 1980 0
-848 -1924 1981 0
-848 -1925 1982 0
-848 -1926 1983 0
-848 -1927 1984 0
-848 -1928 1985 0
-848 -1929 1986 0
-848 -1930 1987 0
-848 -1931 1988 0
-848 -1932 1989 0
-848 -1933 1990 0
-848 -1934 1991 0
-848 -1935 1992 0
-848 -1936 1993 0
-848 -1937 1994 0
-848 -1938 1995 0
-848 -1939 1996 0
-848 -1940 1997 0
-848 -1941 1998 0
-848 -1942 1999 0
-848 -1943 2000 0
-848 -1944 2001 0
-848 -1945 2002 0
-848 -1946 2003 0
-848 -1947 2004 0
-848 -1948 2005 0
-848 -1949 2006 0
-848 -1950 2007 0
-848 -1951 2008 0
-848 -1952 2009 0
-848 -1953 2010 0
-848 -1954 2011 0
-848 -1955 2012 0
-848 -1956 2013 0
-848 -1957 2014 0
-848 -1958 2015 0
-848 -1959 2016 0
-848 -1960 2017 0
-848 -1961 2018 0
-848 -1962 2019 0
-848 -1963 2020 0
-848 -1964 2021 0
-848 -1965 2022 0
-848 -1966 2023 0
-848 -1967 2024 0
-848 -1968 0
-1969 2025 0
-1970 2026 0
-1971 2027 0
-1972 2028 0
-1973 2029 0
-1974 2030 0
-1975 2031 0
-1976 2032 0
-1977 2033 0
-1978 2034 0
-1979 2035 0
-1980 2036 0
-1981 2037 0
-1982 2038 0
-1983 2039 0
-1984 2040 0
-1985 2041 0
-1986 2042 0
-1987 2043 0
-1988 2044 0
-1989 2045 0
-1990 2046 0
-1991 2047 0
-1992 2048 0
-1993 2049 0
-1994 2050 0
-1995 2051 0
-1996 2052 0
-1997 2053 0
-1998 2054 0
-1999 2055 0
-2000 2056 0
-2001 2057 0
-2002 2058 0
-2003 2059 0
-2004 2060 0
-2005 2061 0
-2006 2062 0
-2007 2063 0
-2008 2064 0
-2009 2065 0
-2010 2066 0
-2011 2067 0
-2012 2068 0
-2013 2069 0
-2014 2070 0
-2015 2071 0
-2016 2072 0
-2017 2073 0
-2018 2074 0
-2019 2075 0
-2020 2076 0
-2021 2077 0
-2022 2078 0
-2023 2079 0
-2024 2080 0
-850 -1969 2026 0
-850 -1970 2027 0
-850 -1971 2028 0
-850 -1972 2029 0
-850 -1973 2030 0
-850 -1974 2031 0
-850 -1975 2032 0
-850 -1976 2033 0
-850 -1977 2034 0
-850 -1978 2035 0
-850 -1979 2036 0
-850 -1980 2037 0
-850 -1981 2038 0
-850 -1982 2039 0
-850 -1983 2040 0
-850 -1984 2041 0
-850 -1985 2042 0
-850 -1986 2043 0
-850 -1987 2044 0
-850 -1988 2045 0
-850 -1989 2046 0
-850 -1990 2047 0
-850 -1991 2048 0
-850 -1992 2049 0
-850 -1993 2050 0
-850 -1994 2051 0
-850 -1995 2052 0
-850 -1996 2053 0
-850 -1997 2054 0
-850 -1998 2055 0
-850 -1999 2056 0
-850 -2000 2057 0
-850 -2001 2058 0
-850 -2002 2059 0
-850 -2003 2060 0
-850 -2004 2061 0
-850 -2005 2062 0
-850 -2006 2063 0
-850 -2007 2064 0
-850 -2008 2065 0
-850 -2009 2066 0
-850 -2010 2067 0
-850 -2011 2068 0
-850 -2012 2069 0
-850 -2013 2070 0
-850 -2014 2071 0
-850 -2015 2072 0
-850 -2016 2073 0
-850 -2017 2074 0
-850 -2018 2075 0
-850 -2019 2076 0
-850 -2020 2077 0
-850 -2021 2078 0
-850 -2022 2079 0
-850 -2023 2080 0
-850 -2024 0
-2025 2081 0
-2026 2082 0
-2027 2083 0
-2028 2084 0
-2029 2085 0
-2030 2086 0
-2031 2087 0
-2032 2088 0
-2033 2089 0
-2034 2090 0
-2035 2091 0
-2036 2092 0
-2037 2093 0
-2038 2094 0
-2039 2095 0
-2040 2096 0
-2041 2097 0
-2042 2098 0
-2043 2099 0
-2044 2100 0
-2045 2101 0
-2046 2102 0
-2047 2103 0
-2048 2104 0
-2049 2105 0
-2050 2106 0
-2051 2107 0
-2052 2108 0
-2053 2109 0
-2054 2110 0
-2055 2111 0
-2056 2112 0
-2057 2113 0
-2058 2114 0
-2059 2115 0
-2060 2116 0
-2061 2117 0
-2062 2118 0
-2063 2119 0
-2064 2120 0
-2065 2121 0
-2066 2122 0
-2067 2123 0
-2068 2124 0
-2069 2125 0
-2070 2126 0
-2071 2127 0
-2072 2128 0
-2073 2129 0
-2074 2130 0
-2075 2131 0
-2076 2132 0
-2077 2133 0
-2078 2134 0
-2079 2135 0
-2080 2136 0
-852 -2025 2082 0
-852 -2026 2083 0
-852 -2027 2084 0
-852 -2028 2085 0
-852 -2029 2086 0
-852 -2030 2087 0
-852 -2031 2088 0
-852 -2032 2089 0
-852 -2033 2090 0
-852 -2034 2091 0
-852 -2035 2092 0
-852 -2036 2093 0
-852 -2037 2094 0
-852 -2038 2095 0
-852 -2039 2096 0
-852 -2040 2097 0
-852 -2041 2098 0
-852 -2042 2099 0
-852 -2043 2100 0
-852 -2044 2101 0
-852 -2045 2102 0
-852 -2046 2103 0
-852 -2047 2104 0
-852 -2048 2105 0
-852 -2049 2106 0
-852 -2050 2107 0
-852 -2051 2108 0
-852 -2052 2109 0
-852 -2053 2110 0
-852 -2054 2111 0
-852 -2055 2112 0
-852 -2056 2113 0
-852 -2057 2114 0
-852 -2058 2115 0
-852 -2059 2116 0
-852 -2060 2117 0
-852 -2061 2118 0
-852 -2062 2119 0
-852 -2063 2120 0
-852 -2064 2121 0
-852 -2065 2122 0
-852 -2066 2123 0
-852 -2067 2124 0
-852 -2068 2125 0
-852 -2069 2126 0
-852 -2070 2127 0
-852 -2071 2128 0
-852 -2072 2129 0
-852 -2073 2130 0
-852 -2074 2131 0
-852 -2075 2132 0
-852 -2076 2133 0
-852 -2077 2134 0
-852 -2078 2135 0
-852 -2079 2136 0
-852 -2080 0
-2081 2137 0
-2082 2138 0
-2083 2139 0
-2084 2140 0
-2085 2141 0
-2086 2142 0
-2087 2143 0
-2088 2144 0
-2089 2145 0
-2090 2146 0
-2091 2147 0
-2092 2148 0
-2093 2149 0
-2094 2150 0
-2095 2151 0
-2096 2152 0
-2097 2153 0
-2098 2154 0
-2099 2155 0
-2100 2156 0
-2101 2157 0
-2102 2158 0
-2103 2159 0
-2104 2160 0
-2105 2161 0
-2106 2162 0
-2107 2163 0
-2108 2164 0
-2109 2165 0
-2110 2166 0
-2111 2167 0
-2112 2168 0
-2113 2169 0
-2114 2170 0
-2115 2171 0
-2116 2172 0
-2117 2173 0
-2118 2174 0
-2119 2175 0
-2120 2176 0
-2121 2177 0
-2122 2178 0
-2123 2179 0
-2124 2180 0
-2125 2181 0
-2126 2182 0
-2127 2183 0
-2128 2184 0
-2129 2185 0
-2130 2186 0
-2131 2187 0
-2132 2188 0
-2133 2189 0
-2134 2190 0
-2135 2191 0
-2136 2192 0
-854 -2081 2138 0
-854 -2082 2139 0
-854 -2083 2140 0
-854 -2084 2141 0
-854 -2085 2142 0
-854 -2086 2143 0
-854 -2087 2144 0
-854 -2088 2145 0
-854 -2089 2146 0
-854 -2090 2147 0
-854 -2091 2148 0
-854 -2092 2149 0
-854 -2093 2150 0
-854 -2094 2151 0
-854 -2095 2152 0
-854 -2096 2153 0
-854 -2097 2154 0
-854 -2098 2155 0
-854 -2099 2156 0
-854 -2100 2157 0
-854 -2101 2158 0
-854 -2102 2159 0
-854 -2103 2160 0
-854 -2104 2161 0
-854 -2105 2162 0
-854 -2106 2163 0
-854 -2107 2164 0
-854 -2108 2165 0
-854 -2109 2166 0
-854 -2110 2167 0
-854 -2111 2168 0
-854 -2112 2169 0
-854 -2113 2170 0
-854 -2114 2171 0
-854 -2115 2172 0
-854 -2116 2173 0
-854 -2117 2174 0
-854 -2118 2175 0
-854 -2119 2176 0
-854 -2120 2177 0
-854 -2121 2178 0
-854 -2122 2179 0
-854 -2123 2180 0
-854 -2124 2181 0
-854 -2125 2182 0
-854 -2126 2183 0
-854 -2127 2184 0
-854 -2128 2185 0
-854 -2129 2186 0
-854 -2130 2187 0
-854 -2131 2188 0
-854 -2132 2189 0
-854 -2133 2190 0
-854 -2134 2191 0
-854 -2135 2192 0
-854 -2136 0
-2137 2193 0
-2138 2194 0
-2139 2195 0
-2140 2196 0
-2141 2197 0
-2142 2198 0
-2143 2199 0
-2144 2200 0
-2145 2201 0
-2146 2202 0
-2147 2203 0
-2148 2204 0
-2149 2205 0
-2150 2206 0
-2151 2207 0
-2152 2208 0
-2153 2209 0
-2154 2210 0
-2155 2211 0
-2156 2212 0
-2157 2213 0
-2158 2214 0
-2159 2215 0
-2160 2216 0
-2161 2217 0
-2162 2218 0
-2163 2219 0
-2164 2220 0
-2165 2221 0
-2166 2222 0
-2167 2223 0
-2168 2224 0
-2169 2225 0
-2170 2226 0
-2171 2227 0
-2172 2228 0
-2173 2229 0
-2174 2230 0
-2175 2231 0
-2176 2232 0
-2177 2233 0
-2178 2234 0
-2179 2235 0
-2180 2236 0
-2181 2237 0
-2182 2238 0
-2183 2239 0
-2184 2240 0
-2185 2241 0
-2186 2242 0
-2187 2243 0
-2188 2244 0
-2189 2245 0
-2190 2246 0
-2191 2247 0
-2192 2248 0
-856 -2137 2194 0
-856 -2138 2195 0
-856 -2139 2196 0
-856 -2140 2197 0
-856 -2141 2198 0
-856 -2142 2199 0
-856 -2143 2200 0
-856 -2144 2201 0
-856 -2145 2202 0
-856 -2146 2203 0
-856 -2147 2204 0
-856 -2148 2205 0
-856 -2149 2206 0
-856 -2150 2207 0
-856 -2151 2208 0
-856 -2152 2209 0
-856 -2153 2210 0
-856 -2154 2211 0
-856 -2155 2212 0
-856 -2156 2213 0
-856 -2157 2214 0
-856 -2158 2215 0
-856 -2159 2216 0
-856 -2160 2217 0
-856 -2161 2218 0
-856 -2162 2219 0
-856 -2163 2220 0
-856 -2164 2221 0
-856 -2165 2222 0
-856 -2166 2223 0
-856 -2167 2224 0
-856 -2168 2225 0
-856 -2169 2226 0
-856 -2170 2227 0
-856 -2171 2228 0
-856 -2172 2229 0
-856 -2173 2230 0
-856 -2174 2231 0
-856 -2175 2232 0
-856 -2176 2233 0
-856 -2177 2234 0
-856 -2178 2235 0
-856 -2179 2236 0
-856 -2180 2237 0
-856 -2181 2238 0
-856 -2182 2239 0
-856 -2183 2240 0
-856 -2184 2241 0
-856 -2185 2242 0
-856 -2186 2243 0
-856 -2187 2244 0
-856 -2188 2245 0
-856 -2189 2246 0
-856 -2190 2247 0
-856 -2191 2248 0
-856 -2192 0
-2193 2249 0
-2194 2250 0
-2195 2251 0
-2196 2252 0
-2197 2253 0
-2198 2254 0
-2199 2255 0
-2200 2256 0
-2201 2257 0
-2202 2258 0
-2203 2259 0
-2204 2260 0
-2205 2261 0
-2206 2262 0
-2207 2263 0
-2208 2264 0
-2209 2265 0
-2210 2266 0
-2211 2267 0
-2212 2268 0
-2213 2269 0
-2214 2270 0
-2215 2271 0
-2216 2272 0
-2217 2273 0
-2218 2274 0
-2219 2275 0
-2220 2276 0
-2221 2277 0
-2222 2278 0
-2223 2279 0
-2224 2280 0
-2225 2281 0
-2226 2282 0
-2227 2283 0
-2228 2284 0
-2229 2285 0
-2230 2286 0
-2231 2287 0
-2232 2288 0
-2233 2289 0
-2234 2290 0
-2235 2291 0
-2236 2292 0
-2237 2293 0
-2238 2294 0
-2239 2295 0
-2240 2296 0
-2241 2297 0
-2242 2298 0
-2243 2299 0
-2244 2300 0
-2245 2301 0
-2246 2302 0
-2247 2303 0
-2248 2304 0
-858 -2193 2250 0
-858 -2194 2251 0
-858 -2195 2252 0
-858 -2196 2253 0
-858 -2197 2254 0
-858 -2198 2255 0
-858 -2199 2256 0
-858 -2200 2257 0
-858 -2201 2258 0
-858 -2202 2259 0
-858 -2203 2260 0
-858 -2204 2261 0
-858 -2205 2262 0
-858 -2206 2263 0
-858 -2207 2264 0
-858 -2208 2265 0
-858 -2209 2266 0
-858 -2210 2267 0
-858 -2211 2268 0
-858 -2212 2269 0
-858 -2213 2270 0
-858 -2214 2271 0
-858 -2215 2272 0
-858 -2216 2273 0
-858 -2217 2274 0
-858 -2218 2275 0
-858 -2219 2276 0
-858 -2220 2277 0
-858 -2221 2278 0
-858 -2222 2279 0
-858 -2223 2280 0
-858 -2224 2281 0
-858 -2225 2282 0
-858 -2226 2283 0
-858 -2227 2284 0
-858 -2228 2285 0
-858 -2229 2286 0
-858 -2230 2287 0
-858 -2231 2288 0
-858 -2232 2289 0
-858 -2233 2290 0
-858 -2234 2291 0
-858 -2235 2292 0
-858 -2236 2293 0
-858 -2237 2294 0
-858 -2238 2295 0
-858 -2239 2296 0
-858 -2240 2297 0
-858 -2241 2298 0
-858 -2242 2299 0
-858 -2243 2300 0
-858 -2244 2301 0
-858 -2245 2302 0
-858 -2246 2303 0
-858 -2247 2304 0
-858 -2248 0
-2249 2305 0
-2250 2306 0
-2251 2307 0
-2252 2308 0
-2253 2309 0
-2254 2310 0
-2255 2311 0
-2256 2312 0
-2257 2313 0
-2258 2314 0
-2259 2315 0
-2260 2316 0
-2261 2317 0
-2262 2318 0
-2263 2319 0
-2264 2320 0
-2265 2321 0
-2266 2322 0
-2267 2323 0
-2268 2324 0
-2269 2325 0
-2270 2326 0
-2271 2327 0
-2272 2328 0
-2273 2329 0
-2274 2330 0
-2275 2331 0
-2276 2332 0
-2277 2333 0
-2278 2334 0
-2279 2335 0
-2280 2336 0
-2281 2337 0
-2282 2338 0
-2283 2339 0
-2284 2340 0
-2285 2341 0
-2286 2342 0
-2287 2343 0
-2288 2344 0
-2289 2345 0
-2290 2346 0
-2291 2347 0
-2292 2348 0
-2293 2349 0
-2294 2350 0
-2295 2351 0
-2296 2352 0
-2297 2353 0
-2298 2354 0
-2299 2355 0
-2300 2356 0
-2301 2357 0
-2302 2358 0
-2303 2359 0
-2304 2360 0
-860 -2249 2306 0
-860 -2250 2307 0
-860 -2251 2308 0
-860 -2252 2309 0
-860 -2253 2310 0
-860 -2254 2311 0
-860 -2255 2312 0
-860 -2256 2313 0
-860 -2257 2314 0
-860 -2258 2315 0
-860 -2259 2316 0
-860 -2260 2317 0
-860 -2261 2318 0
-860 -2262 2319 0
-860 -2263 2320 0
-860 -2264 2321 0
-860 -2265 2322 0
-860 -2266 2323 0
-860 -2267 2324 0
-860 -2268 2325 0
-860 -2269 2326 0
-860 -2270 2327 0
-860 -2271 2328 0
-860 -2272 2329 0
-860 -2273 2330 0
-860 -2274 2331 0
-860 -2275 2332 0
-860 -2276 2333 0
-860 -2277 2334 0
-860 -2278 2335 0
-860 -2279 2336 0
-860 -2280 2337 0
-860 -2281 2338 0
-860 -2282 2339 0
-860 -2283 2340 0
-860 -2284 2341 0
-860 -2285 2342 0
-860 -2286 2343 0
-860 -2287 2344 0
-860 -2288 2345 0
-860 -2289 2346 0
-860 -2290 2347 0
-860 -2291 2348 0
-860 -2292 2349 0
-860 -2293 2350 0
-860 -2294 2351 0
-860 -2295 2352 0
-860 -2296 2353 0
-860 -2297 2354 0
-860 -2298 2355 0
-860 -2299 2356 0
-860 -2300 2357 0
-860 -2301 2358 0
-860 -2302 2359 0
-860 -2303 2360 0
-860 -2304 0
-2305 2361 0
-2306 2362 0
-2307 2363 0
-2308 2364 0
-2309 2365 0
-2310 2366 0
-2311 2367 0
-2312 2368 0
-2313 2369 0
-2314 2370 0
-2315 2371 0
-2316 2372 0
-2317 2373 0
-2318 2374 0
-2319 2375 0
-2320 2376 0
-2321 2377 0
-2322 2378 0
-2323 2379 0
-2324 2380 0
-2325 2381 0
-2326 2382 0
-2327 2383 0
-2328 2384 0
-2329 2385 0
-2330 2386 0
-2331 2387 0
-2332 2388 0
-2333 2389 0
-2334 2390 0
-2335 2391 0
-2336 2392 0
-2337 2393 0
-2338 2394 0
-2339 2395 0
-2340 2396 0
-2341 2397 0
-2342 2398 0
-2343 2399 0
-2344 2400 0
-2345 2401 0
-2346 2402 0
-2347 2403 0
-2348 2404 0
-2349 2405 0
-2350 2406 0
-2351 2407 0
-2352 2408 0
-2353 2409 0
-2354 2410 0
-2355 2411 0
-2356 2412 0
-2357 2413 0
-2358 2414 0
-2359 2415 0
-2360 2416 0
-862 -2305 2362 0
-862 -2306 2363 0
-862 -2307 2364 0
-862 -2308 2365 0
-862 -2309 2366 0
-862 -2310 2367 0
-862 -2311 2368 0
-862 -2312 2369 0
-862 -2313 2370 0
-862 -2314 2371 0
-862 -2315 2372 0
-862 -2316 2373 0
-862 -2317 2374 0
-862 -2318 2375 0
-862 -2319 2376 0
-862 -2320 2377 0
-862 -2321 2378 0
-862 -2322 2379 0
-862 -2323 2380 0
-862 -2324 2381 0
-862 -2325 2382 0
-862 -2326 2383 0
-862 -2327 2384 0
-862 -2328 2385 0
-862 -2329 2386 0
-862 -2330 2387 0
-862 -2331 2388 0
-862 -2332 2389 0
-862 -2333 2390 0
-862 -2334 2391 0
-862 -2335 2392 0
-862 -2336 2393 0
-862 -2337 2394 0
-862 -2338 2395 0
-862 -2339 2396 0
-862 -2340 2397 0
-862 -2341 2398 0
-862 -2342 2399 0
-862 -2343 2400 0
-862 -2344 2401 0
-862 -2345 2402 0
-862 -2346 2403 0
-862 -2347 2404 0
-862 -2348 2405 0
-862 -2349 2406 0
-862 -2350 2407 0
-862 -2351 2408 0
-862 -2352 2409 0
-862 -2353 2410 0
-862 -2354 2411 0
-862 -2355 2412 0
-862 -2356 2413 0
-862 -2357 2414 0
-862 -2358 2415 0
-862 -2359 2416 0
-862 -2360 0
-2361 2417 0
-2362 2418 0
-2363 2419 0
-2364 2420 0
-2365 2421 0
-2366 2422 0
-2367 2423 0
-2368 2424 0
-2369 2425 0
-2370 2426 0
-2371 2427 0
-2372 2428 0
-2373 2429 0
-2374 2430 0
-2375 2431 0
-2376 2432 0
-2377 2433 0
-2378 2434 0
-2379 2435 0
-2380 2436 0
-2381 2437 0
-2382 2438 0
-2383 2439 0
-2384 2440 0
-2385 2441 0
-2386 2442 0
-2387 2443 0
-2388 2444 0
-2389 2445 0
-2390 2446 0
-2391 2447 0
-2392 2448 0
-2393 2449 0
-2394 2450 0
-2395 2451 0
-2396 2452 0
-2397 2453 0
-2398 2454 0
-2399 2455 0
-2400 2456 0
-2401 2457 0
-2402 2458 0
-2403 2459 0
-2404 2460 0
-2405 2461 0
-2406 2462 0
-2407 2463 0
-2408 2464 0
-2409 2465 0
-2410 2466 0
-2411 2467 0
-2412 2468 0
-2413 2469 0
-2414 2470 0
-2415 2471 0
-2416 2472 0
-864 -2361 2418 0
-864 -2362 2419 0
-864 -2363 2420 0
-864 -2364 2421 0
-864 -2365 2422 0
-864 -2366 2423 0
-864 -2367 2424 0
-864 -2368 2425 0
-864 -2369 2426 0
-864 -2370 2427 0
-864 -2371 2428 0
-864 -2372 2429 0
-864 -2373 2430 0
-864 -2374 2431 0
-864 -2375 2432 0
-864 -2376 2433 0
-864 -2377 2434 0
-864 -2378 2435 0
-864 -2379 2436 0
-864 -2380 2437 0
-864 -2381 2438 0
-864 -2382 2439 0
-864 -2383 2440 0
-864 -2384 2441 0
-864 -2385 2442 0
-864 -2386 2443 0
-864 -2387 2444 0
-864 -2388 2445 0
-864 -2389 2446 0
-864 -2390 2447 0
-864 -2391 2448 0
-864 -2392 2449 0
-864 -2393 2450 0
-864 -2394 2451 0
-864 -2395 2452 0
-864 -2396 2453 0
-864 -2397 2454 0
-864 -2398 2455 0
-864 -2399 2456 0
-864 -2400 2457 0
-864 -2401 2458 0
-864 -2402 2459 0
-864 -2403 2460 0
-864 -2404 2461 0
-864 -2405 2462 0
-864 -2406 2463 0
-864 -2407 2464 0
-864 -2408 2465 0
-864 -2409 2466 0
-864 -2410 2467 0
-864 -2411 2468 0
-864 -2412 2469 0
-864 -2413 2470 0
-864 -2414 2471 0
-864 -2415 2472 0
-864 -2416 0
-2417 2473 0
-2418 2474 0
-2419 2475 0
-2420 2476 0
-2421 2477 0
-2422 2478 0
-2423 2479 0
-2424 2480 0
-2425 2481 0
-2426 2482 0
-2427 2483 0
-2428 2484 0
-2429 2485 0
-2430 2486 0
-2431 2487 0
-2432 2488 0
-2433 2489 0
-2434 2490 0
-2435 2491 0
-2436 2492 0
-2437 2493 0
-2438 2494 0
-2439 2495 0
-2440 2496 0
-2441 2497 0
-2442 2498 0
-2443 2499 0
-2444 2500 0
-2445 2501 0
-2446 2502 0
-2447 2503 0
-2448 2504 0
-2449 2505 0
-2450 2506 0
-2451 2507 0
-2452 2508 0
-2453 2509 0
-2454 2510 0
-2455 2511 0
-2456 2512 0
-2457 2513 0
-2458 2514 0
-2459 2515 0
-2460 2516 0
-2461 2517 0
-2462 2518 0
-2463 2519 0
-2464 2520 0
-2465 2521 0
-2466 2522 0
-2467 2523 0
-2468 2524 0
-2469 2525 0
-2470 2526 0
-2471 2527 0
-2472 2528 0
-866 -2417 2474 0
-866 -2418 2475 0
-866 -2419 2476 0
-866 -2420 2477 0
-866 -2421 2478 0
-866 -2422 2479 0
-866 -2423 2480 0
-866 -2424 2481 0
-866 -2425 2482 0
-866 -2426 2483 0
-866 -2427 2484 0
-866 -2428 2485 0
-866 -2429 2486 0
-866 -2430 2487 0
-866 -2431 2488 0
-866 -2432 2489 0
-866 -2433 2490 0
-866 -2434 2491 0
-866 -2435 2492 0
-866 -2436 2493 0
-866 -2437 2494 0
-866 -2438 2495 0
-866 -2439 2496 0
-866 -2440 2497 0
-866 -2441 2498 0
-866 -2442 2499 0
-866 -2443 2500 0
-866 -2444 2501 0
-866 -2445 2502 0
-866 -2446 2503 0
-866 -2447 2504 0
-866 -2448 2505 0
-866 -2449 2506 0
-866 -2450 2507 0
-866 -2451 2508 0
-866 -2452 2509 0
-866 -2453 2510 0
-866 -2454 2511 0
-866 -2455 2512 0
-866 -2456 2513 0
-866 -2457 2514 0
-866 -2458 2515 0
-866 -2459 2516 0
-866 -2460 2517 0
-866 -2461 2518 0
-866 -2462 2519 0
-866 -2463 2520 0
-866 -2464 2521 0
-866 -2465 2522 0
-866 -2466 2523 0
-866 -2467 2524 0
-866 -2468 2525 0
-866 -2469 2526 0
-866 -2470 2527 0
-866 -2471 2528 0
-866 -2472 0
-2473 2529 0
-2474 2530 0
-2475 2531 0
-2476 2532 0
-2477 2533 0
-2478 2534 0
-2479 2535 0
-2480 2536 0
-2481 2537 0
-2482 2538 0
-2483 2539 0
-2484 2540 0
-2485 2541 0
-2486 2542 0
-2487 2543 0
-2488 2544 0
-2489 2545 0
-2490 2546 0
-2491 2547 0
-2492 2548 0
-2493 2549 0
-2494 2550 0
-2495 2551 0
-2496 2552 0
-2497 2553 0
-2498 2554 0
-2499 2555 0
-2500 2556 0
-2501 2557 0
-2502 2558 0
-2503 2559 0
-2504 2560 0
-2505 2561 0
-2506 2562 0
-2507 2563 0
-2508 2564 0
-2509 2565 0
-2510 2566 0
-2511 2567 0
-2512 2568 0
-2513 2569 0
-2514 2570 0
-2515 2571 0
-2516 2572 0
-2517 2573 0
-2518 2574 0
-2519 2575 0
-2520 2576 0
-2521 2577 0
-2522 2578 0
-2523 2579 0
-2524 2580 0
-2525 2581 0
-2526 2582 0
-2527 2583 0
-2528 2584 0
-868 -2473 2530 0
-868 -2474 2531 0
-868 -2475 2532 0
-868 -2476 2533 0
-868 -2477 2534 0
-868 -2478 2535 0
-868 -2479 2536 0
-868 -2480 2537 0
-868 -2481 2538 0
-868 -2482 2539 0
-868 -2483 2540 0
-868 -2484 2541 0
-868 -2485 2542 0
-868 -2486 2543 0
-868 -2487 2544 0
-868 -2488 2545 0
-868 -2489 2546 0
-868 -2490 2547 0
-868 -2491 2548 0
-868 -2492 2549 0
-868 -2493 2550 0
-868 -2494 2551 0
-868 -2495 2552 0
-868 -2496 2553 0
-868 -2497 2554 0
-868 -2498 2555 0
-868 -2499 2556 0
-868 -2500 2557 0
-868 -2501 2558 0
-868 -2502 2559 0
-868 -2503 2560 0
-868 -2504 2561 0
-868 -2505 2562 0
-868 -2506 2563 0
-868 -2507 2564 0
-868 -2508 2565 0
-868 -2509 2566 0
-868 -2510 2567 0
-868 -2511 2568 0
-868 -2512 2569 0
-868 -2513 2570 0
-868 -2514 2571 0
-868 -2515 2572 0
-868 -2516 2573 0
-868 -2517 2574 0
-868 -2518 2575 0
-868 -2519 2576 0
-868 -2520 2577 0
-868 -2521 2578 0
-868 -2522 2579 0
-868 -2523 2580 0
-868 -2524 2581 0
-868 -2525 2582 0
-868 -2526 2583 0
-868 -2527 2584 0
-868 -2528 0
-2529 2585 0
-2530 2586 0
-2531 2587 0
-2532 2588 0
-2533 2589 0
-2534 2590 0
-2535 2591 0
-2536 2592 0
-2537 2593 0
-2538 2594 0
-2539 2595 0
-2540 2596 0
-2541 2597 0
-2542 2598 0
-2543 2599 0
-2544 2600 0
-2545 2601 0
-2546 2602 0
-2547 2603 0
-2548 2604 0
-2549 2605 0
-2550 2606 0
-2551 2607 0
-2552 2608 0
-2553 2609 0
-2554 2610 0
-2555 2611 0
-2556 2612 0
-2557 2613 0
-2558 2614 0
-2559 2615 0
-2560 2616 0
-2561 2617 0
-2562 2618 0
-2563 2619 0
-2564 2620 0
-2565 2621 0
-2566 2622 0
-2567 2623 0
-2568 2624 0
-2569 2625 0
-2570 2626 0
-2571 2627 0
-2572 2628 0
-2573 2629 0
-2574 2630 0
-2575 2631 0
-2576 2632 0
-2577 2633 0
-2578 2634 0
-2579 2635 0
-2580 2636 0
-2581 2637 0
-2582 2638 0
-2583 2639 0
-2584 2640 0
-870 -2529 2586 0
-870 -2530 2587 0
-870 -2531 2588 0
-870 -2532 2589 0
-870 -2533 2590 0
-870 -2534 2591 0
-870 -2535 2592 0
-870 -2536 2593 0
-870 -2537 2594 0
-870 -2538 2595 0
-870 -2539 2596 0
-870 -2540 2597 0
-870 -2541 2598 0
-870 -2542 2599 0
-870 -2543 2600 0
-870 -2544 2601 0
-870 -2545 2602 0
-870 -2546 2603 0
-870 -2547 2604 0
-870 -2548 2605 0
-870 -2549 2606 0
-870 -2550 2607 0
-870 -2551 2608 0
-870 -2552 2609 0
-870 -2553 2610 0
-870 -2554 2611 0
-870 -2555 2612 0
-870 -2556 2613 0
-870 -2557 2614 0
-870 -2558 2615 0
-870 -2559 2616 0
-870 -2560 2617 0
-870 -2561 2618 0
-870 -2562 2619 0
-870 -2563 2620 0
-870 -2564 2621 0
-870 -2565 2622 0
-870 -2566 2623 0
-870 -2567 2624 0
-870 -2568 2625 0
-870 -2569 2626 0
-870 -2570 2627 0
-870 -2571 2628 0
-870 -2572 2629 0
-870 -2573 2630 0
-870 -2574 2631 0
-870 -2575 2632 0
-870 -2576 2633 0
-870 -2577 2634 0
-870 -2578 2635 0
-870 -2579 2636 0
-870 -2580 2637 0
-870 -2581 2638 0
-870 -2582 2639 0
-870 -2583 2640 0
-870 -2584 0
-2585 2641 0
-2586 2642 0
-2587 2643 0
-2588 2644 0
-2589 2645 0
-2590 2646 0
-2591 2647 0
-2592 2648 0
-2593 2649 0
-2594 2650 0
-2595 2651 0
-2596 2652 0
-2597 2653 0
-2598 2654 0
-2599 2655 0
-2600 2656 0
-2601 2657 0
-2602 2658 0
-2603 2659 0
-2604 2660 0
-2605 2661 0
-2606 2662 0
-2607 2663 0
-2608 2664 0
-2609 2665 0
-2610 2666 0
-2611 2667 0
-2612 2668 0
-2613 2669 0
-2614 2670 0
-2615 2671 0
-2616 2672 0
-2617 2673 0
-2618 2674 0
-2619 2675 0
-2620 2676 0
-2621 2677 0
-2622 2678 0
-2623 2679 0
-2624 2680 0
-2625 2681 0
-2626 2682 0
-2627 2683 0
-2628 2684 0
-2629 2685 0
-2630 2686 0
-2631 2687 0
-2632 2688 0
-2633 2689 0
-2634 2690 0
-2635 2691 0
-2636 2692 0
-2637 2693 0
-2638 2694 0
-2639 2695 0
-2640 2696 0
-872 -2585 2642 0
-872 -2586 2643 0
-872 -2587 2644 0
-872 -2588 2645 0
-872 -2589 2646 0
-872 -2590 2647 0
-872 -2591 2648 0
-872 -2592 2649 0
-872 -2593 2650 0
-872 -2594 2651 0
-872 -2595 2652 0
-872 -2596 2653 0
-872 -2597 2654 0
-872 -2598 2655 0
-872 -2599 2656 0
-872 -2600 2657 0
-872 -2601 2658 0
-872 -2602 2659 0
-872 -2603 2660 0
-872 -2604 2661 0
-872 -2605 2662 0
-872 -2606 2663 0
-872 -2607 2664 0
-872 -2608 2665 0
-872 -2609 2666 0
-872 -2610 2667 0
-872 -2611 2668 0
-872 -2612 2669 0
-872 -2613 2670 0
-872 -2614 2671 0
-872 -2615 2672 0
-872 -2616 2673 0
-872 -2617 2674 0
-872 -2618 2675 0
-872 -2619 2676 0
-872 -2620 2677 0
-872 -2621 2678 0
-872 -2622 2679 0
-872 -2623 2680 0
-872 -2624 2681 0
-872 -2625 2682 0
-872 -2626 2683 0
-872 -2627 2684 0
-872 -2628 2685 0
-872 -2629 2686 0
-872 -2630 2687 0
-872 -2631 2688 0
-872 -2632 2689 0
-872 -2633 2690 0
-872 -2634 2691 0
-872 -2635 2692 0
-872 -2636 2693 0
-872 -2637 2694 0
-872 -2638 2695 0
-872 -2639 2696 0
-872 -2640 0
-2641 2697 0
-2642 2698 0
-2643 2699 0
-2644 2700 0
-2645 2701 0
-2646 2702 0
-2647 2703 0
-2648 2704 0
-2649 2705 0
-2650 2706 0
-2651 2707 0
-2652 2708 0
-2653 2709 0
-2654 2710 0
-2655 2711 0
-2656 2712 0
-2657 2713 0
-2658 2714 0
-2659 2715 0
-2660 2716 0
-2661 2717 0
-2662 2718 0
-2663 2719 0
-2664 2720 0
-2665 2721 0
-2666 2722 0
-2667 2723 0
-2668 2724 0
-2669 2725 0
-2670 2726 0
-2671 2727 0
-2672 2728 0
-2673 2729 0
-2674 2730 0
-2675 2731 0
-2676 2732 0
-2677 2733 0
-2678 2734 0
-2679 2735 0
-2680 2736 0
-2681 2737 0
-2682 2738 0
-2683 2739 0
-2684 2740 0
-2685 2741 0
-2686 2742 0
-2687 2743 0
-2688 2744 0
-2689 2745 0
-2690 2746 0
-2691 2747 0
-2692 2748 0
-2693 2749 0
-2694 2750 0
-2695 2751 0
-2696 2752 0
-874 -2641 2698 0
-874 -2642 2699 0
-874 -2643 2700 0
-874 -2644 2701 0
-874 -2645 2702 0
-874 -2646 2703 0
-874 -2647 2704 0
-874 -2648 2705 0
-874 -2649 2706 0
-874 -2650 2707 0
-874 -2651 2708 0
-874 -2652 2709 0
-874 -2653 2710 0
-874 -2654 2711 0
-874 -2655 2712 0
-874 -2656 2713 0
-874 -2657 2714 0
-874 -2658 2715 0
-874 -2659 2716 0
-874 -2660 2717 0
-874 -2661 2718 0
-874 -2662 2719 0
-874 -2663 2720 0
-874 -2664 2721 0
-874 -2665 2722 0
-874 -2666 2723 0
-874 -2667 2724 0
-874 -2668 2725 0
-874 -2669 2726 0
-874 -2670 2727 0
-874 -2671 2728 0
-874 -2672 2729 0
-874 -2673 2730 0
-874 -2674 2731 0
-874 -2675 2732 0
-874 -2676 2733 0
-874 -2677 2734 0
-874 -2678 2735 0
-874 -2679 2736 0
-874 -2680 2737 0
-874 -2681 2738 0
-874 -2682 2739 0
-874 -2683 2740 0
-874 -2684 2741 0
-874 -2685 2742 0
-874 -2686 2743 0
-874 -2687 2744 0
-874 -2688 2745 0
-874 -2689 2746 0
-874 -2690 2747 0
-874 -2691 2748 0
-874 -2692 2749 0
-874 -2693 2750 0
-874 -2694 2751 0
-874 -2695 2752 0
-874 -2696 0
-2697 2753 0
-2698 2754 0
-2699 2755 0
-2700 2756 0
-2701 2757 0
-2702 2758 0
-2703 2759 0
-2704 2760 0
-2705 2761 0
-2706 2762 0
-2707 2763 0
-2708 2764 0
-2709 2765 0
-2710 2766 0
-2711 2767 0
-2712 2768 0
-2713 2769 0
-2714 2770 0
-2715 2771 0
-2716 2772 0
-2717 2773 0
-2718 2774 0
-2719 2775 0
-2720 2776 0
-2721 2777 0
-2722 2778 0
-2723 2779 0
-2724 2780 0
-2725 2781 0
-2726 2782 0
-2727 2783 0
-2728 2784 0
-2729 2785 0
-2730 2786 0
-2731 2787 0
-2732 2788 0
-2733 2789 0
-2734 2790 0
-2735 2791 0
-2736 2792 0
-2737 2793 0
-2738 2794 0
-2739 2795 0
-2740 2796 0
-2741 2797 0
-2742 2798 0
-2743 2799 0
-2744 2800 0
-2745 2801 0
-2746 2802 0
-2747 2803 0
-2748 2804 0
-2749 2805 0
-2750 2806 0
-2751 2807 0
-2752 2808 0
-876 -2697 2754 0
-876 -2698 2755 0
-876 -2699 2756 0
-876 -2700 2757 0
-876 -2701 2758 0
-876 -2702 2759 0
-876 -2703 2760 0
-876 -2704 2761 0
-876 -2705 2762 0
-876 -2706 2763 0
-876 -2707 2764 0
-876 -2708 2765 0
-876 -2709 2766 0
-876 -2710 2767 0
-876 -2711 2768 0
-876 -2712 2769 0
-876 -2713 2770 0
-876 -2714 2771 0
-876 -2715 2772 0
-876 -2716 2773 0
-876 -2717 2774 0
-876 -2718 2775 0
-876 -2719 2776 0
-876 -2720 2777 0
-876 -2721 2778 0
-876 -2722 2779 0
-876 -2723 2780 0
-876 -2724 2781 0
-876 -2725 2782 0
-876 -2726 2783 0
-876 -2727 2784 0
-876 -2728 2785 0
-876 -2729 2786 0
-876 -2730 2787 0
-876 -2731 2788 0
-876 -2732 2789 0
-876 -2733 2790 0
-876 -2734 2791 0
-876 -2735 2792 0
-876 -2736 2793 0
-876 -2737 2794 0
-876 -2738 2795 0
-876 -2739 2796 0
-876 -2740 2797 0
-876 -2741 2798 0
-876 -2742 2799 0
-876 -2743 2800 0
-876 -2744 2801 0
-876 -2745 2802 0
-876 -2746 2803 0
-876 -2747 2804 0
-876 -2748 2805 0
-876 -2749 2806 0
-876 -2750 2807 0
-876 -2751 2808 0
-876 -2752 0
-2753 2809 0
-2754 2810 0
-2755 2811 0
-2756 2812 0
-2757 2813 0
-2758 2814 0
-2759 2815 0
-2760 2816 0
-2761 2817 0
-2762 2818 0
-2763 2819 0
-2764 2820 0
-2765 2821 0
-2766 2822 0
-2767 2823 0
-2768 2824 0
-2769 2825 0
-2770 2826 0
-2771 2827 0
-2772 2828 0
-2773 2829 0
-2774 2830 0
-2775 2831 0
-2776 2832 0
-2777 2833 0
-2778 2834 0
-2779 2835 0
-2780 2836 0
-2781 2837 0
-2782 2838 0
-2783 2839 0
-2784 2840 0
-2785 2841 0
-2786 2842 0
-2787 2843 0
-2788 2844 0
-2789 2845 0
-2790 2846 0
-2791 2847 0
-2792 2848 0
-2793 2849 0
-2794 2850 0
-2795 2851 0
-2796 2852 0
-2797 2853 0
-2798 2854 0
-2799 2855 0
-2800 2856 0
-2801 2857 0
-2802 2858 0
-2803 2859 0
-2804 2860 0
-2805 2861 0
-2806 2862 0
-2807 2863 0
-2808 2864 0
-878 -2753 2810 0
-878 -2754 2811 0
-878 -2755 2812 0
-878 -2756 2813 0
-878 -2757 2814 0
-878 -2758 2815 0
-878 -2759 2816 0
-878 -2760 2817 0
-878 -2761 2818 0
-878 -2762 2819 0
-878 -2763 2820 0
-878 -2764 2821 0
-878 -2765 2822 0
-878 -2766 2823 0
-878 -2767 2824 0
-878 -2768 2825 0
-878 -2769 2826 0
-878 -2770 2827 0
-878 -2771 2828 0
-878 -2772 2829 0
-878 -2773 2830 0
-878 -2774 2831 0
-878 -2775 2832 0
-878 -2776 2833 0
-878 -2777 2834 0
-878 -2778 2835 0
-878 -2779 2836 0
-878 -2780 2837 0
-878 -2781 2838 0
-878 -2782 2839 0
-878 -2783 2840 0
-878 -2784 2841 0
-878 -2785 2842 0
-878 -2786 2843 0
-878 -2787 2844 0
-878 -2788 2845 0
-878 -2789 2846 0
-878 -2790 2847 0
-878 -2791 2848 0
-878 -2792 2849 0
-878 -2793 2850 0
-878 -2794 2851 0
-878 -2795 2852 0
-878 -2796 2853 0
-878 -2797 2854 0
-878 -2798 2855 0
-878 -2799 2856 0
-878 -2800 2857 0
-878 -2801 2858 0
-878 -2802 2859 0
-878 -2803 2860 0
-878 -2804 2861 0
-878 -2805 2862 0
-878 -2806 2863 0
-878 -2807 2864 0
-878 -2808 0
-2809 2865 0
-2810 2866 0
-2811 2867 0
-2812 2868 0
-2813 2869 0
-2814 2870 0
-2815 2871 0
-2816 2872 0
-2817 2873 0
-2818 2874 0
-2819 2875 0
-2820 2876 0
-2821 2877 0
-2822 2878 0
-2823 2879 0
-2824 2880 0
-2825 2881 0
-2826 2882 0
-2827 2883 0
-2828 2884 0
-2829 2885 0
-2830 2886 0
-2831 2887 0
-2832 2888 0
-2833 2889 0
-2834 2890 0
-2835 2891 0
-2836 2892 0
-2837 2893 0
-2838 2894 0
-2839 2895 0
-2840 2896 0
-2841 2897 0
-2842 2898 0
-2843 2899 0
-2844 2900 0
-2845 2901 0
-2846 2902 0
-2847 2903 0
-2848 2904 0
-2849 2905 0
-2850 2906 0
-2851 2907 0
-2852 2908 0
-2853 2909 0
-2854 2910 0
-2855 2911 0
-2856 2912 0
-2857 2913 0
-2858 2914 0
-2859 2915 0
-2860 2916 0
-2861 2917 0
-2862 2918 0
-2863 2919 0
-2864 2920 0
-880 -2809 2866 0
-880 -2810 2867 0
-880 -2811 2868 0
-880 -2812 2869 0
-880 -2813 2870 0
-880 -2814 2871 0
-880 -2815 2872 0
-880 -2816 2873 0
-880 -2817 2874 0
-880 -2818 2875 0
-880 -2819 2876 0
-880 -2820 2877 0
-880 -2821 2878 0
-880 -2822 2879 0
-880 -2823 2880 0
-880 -2824 2881 0
-880 -2825 2882 0
-880 -2826 2883 0
-880 -2827 2884 0
-880 -2828 2885 0
-880 -2829 2886 0
-880 -2830 2887 0
-880 -2831 2888 0
-880 -2832 2889 0
-880 -2833 2890 0
-880 -2834 2891 0
-880 -2835 2892 0
-880 -2836 2893 0
-880 -2837 2894 0
-880 -2838 2895 0
-880 -2839 2896 0
-880 -2840 2897 0
-880 -2841 2898 0
-880 -2842 2899 0
-880 -2843 2900 0
-880 -2844 2901 0
-880 -2845 2902 0
-880 -2846 2903 0
-880 -2847 2904 0
-880 -2848 2905 0
-880 -2849 2906 0
-880 -2850 2907 0
-880 -2851 2908 0
-880 -2852 2909 0
-880 -2853 2910 0
-880 -2854 2911 0
-880 -2855 2912 0
-880 -2856 2913 0
-880 -2857 2914 0
-880 -2858 2915 0
-880 -2859 2916 0
-880 -2860 2917 0
-880 -2861 2918 0
-880 -2862 2919 0
-880 -2863 2920 0
-880 -2864 0
-2865 2921 0
-2866 2922 0
-2867 2923 0
-2868 2924 0
-2869 2925 0
-2870 2926 0
-2871 2927 0
-2872 2928 0
-2873 2929 0
-2874 2930 0
-2875 2931 0
-2876 2932 0
-2877 2933 0
-2878 2934 0
-2879 2935 0
-2880 2936 0
-2881 2937 0
-2882 2938 0
-2883 2939 0
-2884 2940 0
-2885 2941 0
-2886 2942 0
-2887 2943 0
-2888 2944 0
-2889 2945 0
-2890 2946 0
-2891 2947 0
-2892 2948 0
-2893 2949 0
-2894 2950 0
-2895 2951 0
-2896 2952 0
-2897 2953 0
-2898 2954 0
-2899 2955 0
-2900 2956 0
-2901 2957 0
-2902 2958 0
-2903 2959 0
-2904 2960 0
-2905 2961 0
-2906 2962 0
-2907 2963 0
-2908 2964 0
-2909 2965 0
-2910 2966 0
-2911 2967 0
-2912 2968 0
-2913 2969 0
-2914 2970 0
-2915 2971 0
-2916 2972 0
-2917 2973 0
-2918 2974 0
-2919 2975 0
-2920 2976 0
-882 -2865 2922 0
-882 -2866 2923 0
-882 -2867 2924 0
-882 -2868 2925 0
-882 -2869 2926 0
-882 -2870 2927 0
-882 -2871 2928 0
-882 -2872 2929 0
-882 -2873 2930 0
-882 -2874 2931 0
-882 -2875 2932 0
-882 -2876 2933 0
-882 -2877 2934 0
-882 -2878 2935 0
-882 -2879 2936 0
-882 -2880 2937 0
-882 -2881 2938 0
-882 -2882 2939 0
-882 -2883 2940 0
-882 -2884 2941 0
-882 -2885 2942 0
-882 -2886 2943 0
-882 -2887 2944 0
-882 -2888 2945 0
-882 -2889 2946 0
-882 -2890 2947 0
-882 -2891 2948 0
-882 -2892 2949 0
-882 -2893 2950 0
-882 -2894 2951 0
-882 -2895 2952 0
-882 -2896 2953 0
-882 -2897 2954 0
-882 -2898 2955 0
-882 -2899 2956 0
-882 -2900 2957 0
-882 -2901 2958 0
-882 -2902 2959 0
-882 -2903 2960 0
-882 -2904 2961 0
-882 -2905 2962 0
-882 -2906 2963 0
-882 -2907 2964 0
-882 -2908 2965 0
-882 -2909 2966 0
-882 -2910 2967 0
-882 -2911 2968 0
-882 -2912 2969 0
-882 -2913 2970 0
-882 -2914 2971 0
-882 -2915 2972 0
-882 -2916 2973 0
-882 -2917 2974 0
-882 -2918 2975 0
-882 -2919 2976 0
-882 -2920 0
-2921 2977 0
-2922 2978 0
-2923 2979 0
-2924 2980 0
-2925 2981 0
-2926 2982 0
-2927 2983 0
-2928 2984 0
-2929 2985 0
-2930 2986 0
-2931 2987 0
-2932 2988 0
-2933 2989 0
-2934 2990 0
-2935 2991 0
-2936 2992 0
-2937 2993 0
-2938 2994 0
-2939 2995 0
-2940 2996 0
-2941 2997 0
-2942 2998 0
-2943 2999 0
-2944 3000 0
-2945 3001 0
-2946 3002 0
-2947 3003 0
-2948 3004 0
-2949 3005 0
-2950 3006 0
-2951 3007 0
-2952 3008 0
-2953 3009 0
-2954 3010 0
-2955 3011 0
-2956 3012 0
-2957 3013 0
-2958 3014 0
-2959 3015 0
-2960 3016 0
-2961 3017 0
-2962 3018 0
-2963 3019 0
-2964 3020 0
-2965 3021 0
-2966 3022 0
-2967 3023 0
-2968 3024 0
-2969 3025 0
-2970 3026 0
-2971 3027 0
-2972 3028 0
-2973 3029 0
-2974 3030 0
-2975 3031 0
-2976 3032 0
-884 -2921 2978 0
-884 -2922 2979 0
-884 -2923 2980 0
-884 -2924 2981 0
-884 -2925 2982 0
-884 -2926 2983 0
-884 -2927 2984 0
-884 -2928 2985 0
-884 -2929 2986 0
-884 -2930 2987 0
-884 -2931 2988 0
-884 -2932 2989 0
-884 -2933 2990 0
-884 -2934 2991 0
-884 -2935 2992 0
-884 -2936 2993 0
-884 -2937 2994 0
-884 -2938 2995 0
-884 -2939 2996 0
-884 -2940 2997 0
-884 -2941 2998 0
-884 -2942 2999 0
-884 -2943 3000 0
-884 -2944 3001 0
-884 -2945 3002 0
-884 -2946 3003 0
-884 -2947 3004 0
-884 -2948 3005 0
-884 -2949 3006 0
-884 -2950 3007 0
-884 -2951 3008 0
-884 -2952 3009 0
-884 -2953 3010 0
-884 -2954 3011 0
-884 -2955 3012 0
-884 -2956 3013 0
-884 -2957 3014 0
-884 -2958 3015 0
-884 -2959 3016 0
-884 -2960 3017 0
-884 -2961 3018 0
-884 -2962 3019 0
-884 -2963 3020 0
-884 -2964 3021 0
-884 -2965 3022 0
-884 -2966 3023 0
-884 -2967 3024 0
-884 -2968 3025 0
-884 -2969 3026 0
-884 -2970 3027 0
-884 -2971 3028 0
-884 -2972 3029 0
-884 -2973 3030 0
-884 -2974 3031 0
-884 -2975 3032 0
-884 -2976 0
-2977 3033 0
-2978 3034 0
-2979 3035 0
-2980 3036 0
-2981 3037 0
-2982 3038 0
-2983 3039 0
-2984 3040 0
-2985 3041 0
-2986 3042 0
-2987 3043 0
-2988 3044 0
-2989 3045 0
-2990 3046 0
-2991 3047 0
-2992 3048 0
-2993 3049 0
-2994 3050 0
-2995 3051 0
-2996 3052 0
-2997 3053 0
-2998 3054 0
-2999 3055 0
-3000 3056 0
-3001 3057 0
-3002 3058 0
-3003 3059 0
-3004 3060 0
-3005 3061 0
-3006 3062 0
-3007 3063 0
-3008 3064 0
-3009 3065 0
-3010 3066 0
-3011 3067 0
-3012 3068 0
-3013 3069 0
-3014 3070 0
-3015 3071 0
-3016 3072 0
-3017 3073 0
-3018 3074 0
-3019 3075 0
-3020 3076 0
-3021 3077 0
-3022 3078 0
-3023 3079 0
-3024 3080 0
-3025 3081 0
-3026 3082 0
-3027 3083 0
-3028 3084 0
-3029 3085 0
-3030 3086 0
-3031 3087 0
-3032 3088 0
-886 -2977 3034 0
-886 -2978 3035 0
-886 -2979 3036 0
-886 -2980 3037 0
-886 -2981 3038 0
-886 -2982 3039 0
-886 -2983 3040 0
-886 -2984 3041 0
-886 -2985 3042 0
-886 -2986 3043 0
-886 -2987 3044 0
-886 -2988 3045 0
-886 -2989 3046 0
-886 -2990 3047 0
-886 -2991 3048 0
-886 -2992 3049 0
-886 -2993 3050 0
-886 -2994 3051 0
-886 -2995 3052 0
-886 -2996 3053 0
-886 -2997 3054 0
-886 -2998 3055 0
-886 -2999 3056 0
-886 -3000 3057 0
-886 -3001 3058 0
-886 -3002 3059 0
-886 -3003 3060 0
-886 -3004 3061 0
-886 -3005 3062 0
-886 -3006 3063 0
-886 -3007 3064 0
-886 -3008 3065 0
-886 -3009 3066 0
-886 -3010 3067 0
-886 -3011 3068 0
-886 -3012 3069 0
-886 -3013 3070 0
-886 -3014 3071 0
-886 -3015 3072 0
-886 -3016 3073 0
-886 -3017 3074 0
-886 -3018 3075 0
-886 -3019 3076 0
-886 -3020 3077 0
-886 -3021 3078 0
-886 -3022 3079 0
-886 -3023 3080 0
-886 -3024 3081 0
-886 -3025 3082 0
-886 -3026 3083 0
-886 -3027 3084 0
-886 -3028 3085 0
-886 -3029 3086 0
-886 -3030 3087 0
-886 -3031 3088 0
-886 -3032 0
-3033 3089 0
-3034 3090 0
-3035 3091 0
-3036 3092 0
-3037 3093 0
-3038 3094 0
-3039 3095 0
-3040 3096 0
-3041 3097 0
-3042 3098 0
-3043 3099 0
-3044 3100 0
-3045 3101 0
-3046 3102 0
-3047 3103 0
-3048 3104 0
-3049 3105 0
-3050 3106 0
-3051 3107 0
-3052 3108 0
-3053 3109 0
-3054 3110 0
-3055 3111 0
-3056 3112 0
-3057 3113 0
-3058 3114 0
-3059 3115 0
-3060 3116 0
-3061 3117 0
-3062 3118 0
-3063 3119 0
-3064 3120 0
-3065 3121 0
-3066 3122 0
-3067 3123 0
-3068 3124 0
-3069 3125 0
-3070 3126 0
-3071 3127 0
-3072 3128 0
-3073 3129 0
-3074 3130 0
-3075 3131 0
-3076 3132 0
-3077 3133 0
-3078 3134 0
-3079 3135 0
-3080 3136 0
-3081 3137 0
-3082 3138 0
-3083 3139 0
-3084 3140 0
-3085 3141 0
-3086 3142 0
-3087 3143 0
-3088 3144 0
-888 -3033 3090 0
-888 -3034 3091 0
-888 -3035 3092 0
-888 -3036 3093 0
-888 -3037 3094 0
-888 -3038 3095 0
-888 -3039 3096 0
-888 -3040 3097 0
-888 -3041 3098 0
-888 -3042 3099 0
-888 -3043 3100 0
-888 -3044 3101 0
-888 -3045 3102 0
-888 -3046 3103 0
-888 -3047 3104 0
-888 -3048 3105 0
-888 -3049 3106 0
-888 -3050 3107 0
-888 -3051 3108 0
-888 -3052 3109 0
-888 -3053 3110 0
-888 -3054 3111 0
-888 -3055 3112 0
-888 -3056 3113 0
-888 -3057 3114 0
-888 -3058 3115 0
-888 -3059 3116 0
-888 -3060 3117 0
-888 -3061 3118 0
-888 -3062 3119 0
-888 -3063 3120 0
-888 -3064 3121 0
-888 -3065 3122 0
-888 -3066 3123 0
-888 -3067 3124 0
-888 -3068 3125 0
-888 -3069 3126 0
-888 -3070 3127 0
-888 -3071 3128 0
-888 -3072 3129 0
-888 -3073 3130 0
-888 -3074 3131 0
-888 -3075 3132 0
-888 -3076 3133 0
-888 -3077 3134 0
-888 -3078 3135 0
-888 -3079 3136 0
-888 -3080 3137 0
-888 -3081 3138 0
-888 -3082 3139 0
-888 -3083 3140 0
-888 -3084 3141 0
-888 -3085 3142 0
-888 -3086 3143 0
-888 -3087 3144 0
-888 -3088 0
-3089 3145 0
-3090 3146 0
-3091 3147 0
-3092 3148 0
-3093 3149 0
-3094 3150 0
-3095 3151 0
-3096 3152 0
-3097 3153 0
-3098 3154 0
-3099 3155 0
-3100 3156 0
-3101 3157 0
-3102 3158 0
-3103 3159 0
-3104 3160 0
-3105 3161 0
-3106 3162 0
-3107 3163 0
-3108 3164 0
-3109 3165 0
-3110 3166 0
-3111 3167 0
-3112 3168 0
-3113 3169 0
-3114 3170 0
-3115 3171 0
-3116 3172 0
-3117 3173 0
-3118 3174 0
-3119 3175 0
-3120 3176 0
-3121 3177 0
-3122 3178 0
-3123 3179 0
-3124 3180 0
-3125 3181 0
-3126 3182 0
-3127 3183 0
-3128 3184 0
-3129 3185 0
-3130 3186 0
-3131 3187 0
-3132 3188 0
-3133 3189 0
-3134 3190 0
-3135 3191 0
-3136 3192 0
-3137 3193 0
-3138 3194 0
-3139 3195 0
-3140 3196 0
-3141 3197 0
-3142 3198 0
-3143 3199 0
-3144 3200 0
-890 -3089 3146 0
-890 -3090 3147 0
-890 -3091 3148 0
-890 -3092 3149 0
-890 -3093 3150 0
-890 -3094 3151 0
-890 -3095 3152 0
-890 -3096 3153 0
-890 -3097 3154 0
-890 -3098 3155 0
-890 -3099 3156 0
-890 -3100 3157 0
-890 -3101 3158 0
-890 -3102 3159 0
-890 -3103 3160 0
-890 -3104 3161 0
-890 -3105 3162 0
-890 -3106 3163 0
-890 -3107 3164 0
-890 -3108 3165 0
-890 -3109 3166 0
-890 -3110 3167 0
-890 -3111 3168 0
-890 -3112 3169 0
-890 -3113 3170 0
-890 -3114 3171 0
-890 -3115 3172 0
-890 -3116 3173 0
-890 -3117 3174 0
-890 -3118 3175 0
-890 -3119 3176 0
-890 -3120 3177 0
-890 -3121 3178 0
-890 -3122 3179 0
-890 -3123 3180 0
-890 -3124 3181 0
-890 -3125 3182 0
-890 -3126 3183 0
-890 -3127 3184 0
-890 -3128 3185 0
-890 -3129 3186 0
-890 -3130 3187 0
-890 -3131 3188 0
-890 -3132 3189 0
-890 -3133 3190 0
-890 -3134 3191 0
-890 -3135 3192 0
-890 -3136 3193 0
-890 -3137 3194 0
-890 -3138 3195 0
-890 -3139 3196 0
-890 -3140 3197 0
-890 -3141 3198 0
-890 -3142 3199 0
-890 -3143 3200 0
-890 -3144 0
-3145 3201 0
-3146 3202 0
-3147 3203 0
-3148 3204 0
-3149 3205 0
-3150 3206 0
-3151 3207 0
-3152 3208 0
-3153 3209 0
-3154 3210 0
-3155 3211 0
-3156 3212 0
-3157 3213 0
-3158 3214 0
-3159 3215 0
-3160 3216 0
-3161 3217 0
-3162 3218 0
-3163 3219 0
-3164 3220 0
-3165 3221 0
-3166 3222 0
-3167 3223 0
-3168 3224 0
-3169 3225 0
-3170 3226 0
-3171 3227 0
-3172 3228 0
-3173 3229 0
-3174 3230 0
-3175 3231 0
-3176 3232 0
-3177 3233 0
-3178 3234 0
-3179 3235 0
-3180 3236 0
-3181 3237 0
-3182 3238 0
-3183 3239 0
-3184 3240 0
-3185 3241 0
-3186 3242 0
-3187 3243 0
-3188 3244 0
-3189 3245 0
-3190 3246 0
-3191 3247 0
-3192 3248 0
-3193 3249 0
-3194 3250 0
-3195 3251 0
-3196 3252 0
-3197 3253 0
-3198 3254 0
-3199 3255 0
-3200 3256 0
-892 -3145 3202 0
-892 -3146 3203 0
-892 -3147 3204 0
-892 -3148 3205 0
-892 -3149 3206 0
-892 -3150 3207 0
-892 -3151 3208 0
-892 -3152 3209 0
-892 -3153 3210 0
-892 -3154 3211 0
-892 -3155 3212 0
-892 -3156 3213 0
-892 -3157 3214 0
-892 -3158 3215 0
-892 -3159 3216 0
-892 -3160 3217 0
-892 -3161 3218 0
-892 -3162 3219 0
-892 -3163 3220 0
-892 -3164 3221 0
-892 -3165 3222 0
-892 -3166 3223 0
-892 -3167 3224 0
-892 -3168 3225 0
-892 -3169 3226 0
-892 -3170 3227 0
-892 -3171 3228 0
-892 -3172 3229 0
-892 -3173 3230 0
-892 -3174 3231 0
-892 -3175 3232 0
-892 -3176 3233 0
-892 -3177 3234 0
-892 -3178 3235 0
-892 -3179 3236 0
-892 -3180 3237 0
-892 -3181 3238 0
-892 -3182 3239 0
-892 -3183 3240 0
-892 -3184 3241 0
-892 -3185 3242 0
-892 -3186 3243 0
-892 -3187 3244 0
-892 -3188 3245 0
-892 -3189 3246 0
-892 -3190 3247 0
-892 -3191 3248 0
-892 -3192 3249 0
-892 -3193 3250 0
-892 -3194 3251 0
-892 -3195 3252 0
-892 -3196 3253 0
-892 -3197 3254 0
-892 -3198 3255 0
-892 -3199 3256 0
-892 -3200 0
-3201 3257 0
-3202 3258 0
-3203 3259 0
-3204 3260 0
-3205 3261 0
-3206 3262 0
-3207 3263 0
-3208 3264 0
-3209 3265 0
-3210 3266 0
-3211 3267 0
-3212 3268 0
-3213 3269 0
-3214 3270 0
-3215 3271 0
-3216 3272 0
-3217 3273 0
-3218 3274 0
-3219 3275 0
-3220 3276 0
-3221 3277 0
-3222 3278 0
-3223 3279 0
-3224 3280 0
-3225 3281 0
-3226 3282 0
-3227 3283 0
-3228 3284 0
-3229 3285 0
-3230 3286 0
-3231 3287 0
-3232 3288 0
-3233 3289 0
-3234 3290 0
-3235 3291 0
-3236 3292 0
-3237 3293 0
-3238 3294 0
-3239 3295 0
-3240 3296 0
-3241 3297 0
-3242 3298 0
-3243 3299 0
-3244 3300 0
-3245 3301 0
-3246 3302 0
-3247 3303 0
-3248 3304 0
-3249 3305 0
-3250 3306 0
-3251 3307 0
-3252 3308 0
-3253 3309 0
-3254 3310 0
-3255 3311 0
-3256 3312 0
-894 -3201 3258 0
-894 -3202 3259 0
-894 -3203 3260 0
-894 -3204 3261 0
-894 -3205 3262 0
-894 -3206 3263 0
-894 -3207 3264 0
-894 -3208 3265 0
-894 -3209 3266 0
-894 -3210 3267 0
-894 -3211 3268 0
-894 -3212 3269 0
-894 -3213 3270 0
-894 -3214 3271 0
-894 -3215 3272 0
-894 -3216 3273 0
-894 -3217 3274 0
-894 -3218 3275 0
-894 -3219 3276 0
-894 -3220 3277 0
-894 -3221 3278 0
-894 -3222 3279 0
-894 -3223 3280 0
-894 -3224 3281 0
-894 -3225 3282 0
-894 -3226 3283 0
-894 -3227 3284 0
-894 -3228 3285 0
-894 -3229 3286 0
-894 -3230 3287 0
-894 -3231 3288 0
-894 -3232 3289 0
-894 -3233 3290 0
-894 -3234 3291 0
-894 -3235 3292 0
-894 -3236 3293 0
-894 -3237 3294 0
-894 -3238 3295 0
-894 -3239 3296 0
-894 -3240 3297 0
-894 -3241 3298 0
-894 -3242 3299 0
-894 -3243 3300 0
-894 -3244 3301 0
-894 -3245 3302 0
-894 -3246 3303 0
-894 -3247 3304 0
-894 -3248 3305 0
-894 -3249 3306 0
-894 -3250 3307 0
-894 -3251 3308 0
-894 -3252 3309 0
-894 -3253 3310 0
-894 -3254 3311 0
-894 -3255 3312 0
-894 -3256 0
-3257 3313 0
-3258 3314 0
-3259 3315 0
-3260 3316 0
-3261 3317 0
-3262 3318 0
-3263 3319 0
-3264 3320 0
-3265 3321 0
-3266 3322 0
-3267 3323 0
-3268 3324 0
-3269 3325 0
-3270 3326 0
-3271 3327 0
-3272 3328 0
-3273 3329 0
-3274 3330 0
-3275 3331 0
-3276 3332 0
-3277 3333 0
-3278 3334 0
-3279 3335 0
-3280 3336 0
-3281 3337 0
-3282 3338 0
-3283 3339 0
-3284 3340 0
-3285 3341 0
-3286 3342 0
-3287 3343 0
-3288 3344 0
-3289 3345 0
-3290 3346 0
-3291 3347 0
-3292 3348 0
-3293 3349 0
-3294 3350 0
-3295 3351 0
-3296 3352 0
-3297 3353 0
-3298 3354 0
-3299 3355 0
-3300 3356 0
-3301 3357 0
-3302 3358 0
-3303 3359 0
-3304 3360 0
-3305 3361 0
-3306 3362 0
-3307 3363 0
-3308 3364 0
-3309 3365 0
-3310 3366 0
-3311 3367 0
-3312 3368 0
-896 -3257 3314 0
-896 -3258 3315 0
-896 -3259 3316 0
-896 -3260 3317 0
-896 -3261 3318 0
-896 -3262 3319 0
-896 -3263 3320 0
-896 -3264 3321 0
-896 -3265 3322 0
-896 -3266 3323 0
-896 -3267 3324 0
-896 -3268 3325 0
-896 -3269 3326 0
-896 -3270 3327 0
-896 -3271 3328 0
-896 -3272 3329 0
-896 -3273 3330 0
-896 -3274 3331 0
-896 -3275 3332 0
-896 -3276 3333 0
-896 -3277 3334 0
-896 -3278 3335 0
-896 -3279 3336 0
-896 -3280 3337 0
-896 -3281 3338 0
-896 -3282 3339 0
-896 -3283 3340 0
-896 -3284 3341 0
-896 -3285 3342 0
-896 -3286 3343 0
-896 -3287 3344 0
-896 -3288 3345 0
-896 -3289 3346 0
-896 -3290 3347 0
-896 -3291 3348 0
-896 -3292 3349 0
-896 -3293 3350 0
-896 -3294 3351 0
-896 -3295 3352 0
-896 -3296 3353 0
-896 -3297 3354 0
-896 -3298 3355 0
-896 -3299 3356 0
-896 -3300 3357 0
-896 -3301 3358 0
-896 -3302 3359 0
-896 -3303 3360 0
-896 -3304 3361 0
-896 -3305 3362 0
-896 -3306 3363 0
-896 -3307 3364 0
-896 -3308 3365 0
-896 -3309 3366 0
-896 -3310 3367 0
-896 -3311 3368 0
-896 -3312 0
-3313 3369 0
-3314 3370 0
-3315 3371 0
-3316 3372 0
-3317 3373 0
-3318 3374 0
-3319 3375 0
-3320 3376 0
-3321 3377 0
-3322 3378 0
-3323 3379 0
-3324 3380 0
-3325 3381 0
-3326 3382 0
-3327 3383 0
-3328 3384 0
-3329 3385 0
-3330 3386 0
-3331 3387 0
-3332 3388 0
-3333 3389 0
-3334 3390 0
-3335 3391 0
-3336 3392 0
-3337 3393 0
-3338 3394 0
-3339 3395 0
-3340 3396 0
-3341 3397 0
-3342 3398 0
-3343 3399 0
-3344 3400 0
-3345 3401 0
-3346 3402 0
-3347 3403 0
-3348 3404 0
-3349 3405 0
-3350 3406 0
-3351 3407 0
-3352 3408 0
-3353 3409 0
-3354 3410 0
-3355 3411 0
-3356 3412 0
-3357 3413 0
-3358 3414 0
-3359 3415 0
-3360 3416 0
-3361 3417 0
-3362 3418 0
-3363 3419 0
-3364 3420 0
-3365 3421 0
-3366 3422 0
-3367 3423 0
-3368 3424 0
-898 -3313 3370 0
-898 -3314 3371 0
-898 -3315 3372 0
-898 -3316 3373 0
-898 -3317 3374 0
-898 -3318 3375 0
-898 -3319 3376 0
-898 -3320 3377 0
-898 -3321 3378 0
-898 -3322 3379 0
-898 -3323 3380 0
-898 -3324 3381 0
-898 -3325 3382 0
-898 -3326 3383 0
-898 -3327 3384 0
-898 -3328 3385 0
-898 -3329 3386 0
-898 -3330 3387 0
-898 -3331 3388 0
-898 -3332 3389 0
-898 -3333 3390 0
-898 -3334 3391 0
-898 -3335 3392 0
-898 -3336 3393 0
-898 -3337 3394 0
-898 -3338 3395 0
-898 -3339 3396 0
-898 -3340 3397 0
-898 -3341 3398 0
-898 -3342 3399 0
-898 -3343 3400 0
-898 -3344 3401 0
-898 -3345 3402 0
-898 -3346 3403 0
-898 -3347 3404 0
-898 -3348 3405 0
-898 -3349 3406 0
-898 -3350 3407 0
-898 -3351 3408 0
-898 -3352 3409 0
-898 -3353 3410 0
-898 -3354 3411 0
-898 -3355 3412 0
-898 -3356 3413 0
-898 -3357 3414 0
-898 -3358 3415 0
-898 -3359 3416 0
-898 -3360 3417 0
-898 -3361 3418 0
-898 -3362 3419 0
-898 -3363 3420 0
-898 -3364 3421 0
-898 -3365 3422 0
-898 -3366 3423 0
-898 -3367 3424 0
-898 -3368 0
-3369 3425 0
-3370 3426 0
-3371 3427 0
-3372 3428 0
-3373 3429 0
-3374 3430 0
-3375 3431 0
-3376 3432 0
-3377 3433 0
-3378 3434 0
-3379 3435 0
-3380 3436 0
-3381 3437 0
-3382 3438 0
-3383 3439 0
-3384 3440 0
-3385 3441 0
-3386 3442 0
-3387 3443 0
-3388 3444 0
-3389 3445 0
-3390 3446 0
-3391 3447 0
-3392 3448 0
-3393 3449 0
-3394 3450 0
-3395 3451 0
-3396 3452 0
-3397 3453 0
-3398 3454 0
-3399 3455 0
-3400 3456 0
-3401 3457 0
-3402 3458 0
-3403 3459 0
-3404 3460 0
-3405 3461 0
-3406 3462 0
-3407 3463 0
-3408 3464 0
-3409 3465 0
-3410 3466 0
-3411 3467 0
-3412 3468 0
-3413 3469 0
-3414 3470 0
-3415 3471 0
-3416 3472 0
-3417 3473 0
-3418 3474 0
-3419 3475 0
-3420 3476 0
-3421 3477 0
-3422 3478 0
-3423 3479 0
-3424 3480 0
-900 -3369 3426 0
-900 -3370 3427 0
-900 -3371 3428 0
-900 -3372 3429 0
-900 -3373 3430 0
-900 -3374 3431 0
-900 -3375 3432 0
-900 -3376 3433 0
-900 -3377 3434 0
-900 -3378 3435 0
-900 -3379 3436 0
-900 -3380 3437 0
-900 -3381 3438 0
-900 -3382 3439 0
-900 -3383 3440 0
-900 -3384 3441 0
-900 -3385 3442 0
-900 -3386 3443 0
-900 -3387 3444 0
-900 -3388 3445 0
-900 -3389 3446 0
-900 -3390 3447 0
-900 -3391 3448 0
-900 -3392 3449 0
-900 -3393 3450 0
-900 -3394 3451 0
-900 -3395 3452 0
-900 -3396 3453 0
-900 -3397 3454 0
-900 -3398 3455 0
-900 -3399 3456 0
-900 -3400 3457 0
-900 -3401 3458 0
-900 -3402 3459 0
-900 -3403 3460 0
-900 -3404 3461 0
-900 -3405 3462 0
-900 -3406 3463 0
-900 -3407 3464 0
-900 -3408 3465 0
-900 -3409 3466 0
-900 -3410 3467 0
-900 -3411 3468 0
-900 -3412 3469 0
-900 -3413 3470 0
-900 -3414 3471 0
-900 -3415 3472 0
-900 -3416 3473 0
-900 -3417 3474 0
-900 -3418 3475 0
-900 -3419 3476 0
-900 -3420 3477 0
-900 -3421 3478 0
-900 -3422 3479 0
-900 -3423 3480 0
-900 -3424 0
-3425 3481 0
-3426 3482 0
-3427 3483 0
-3428 3484 0
-3429 3485 0
-3430 3486 0
-3431 3487 0
-3432 3488 0
-3433 3489 0
-3434 3490 0
-3435 3491 0
-3436 3492 0
-3437 3493 0
-3438 3494 0
-3439 3495 0
-3440 3496 0
-3441 3497 0
-3442 3498 0
-3443 3499 0
-3444 3500 0
-3445 3501 0
-3446 3502 0
-3447 3503 0
-3448 3504 0
-3449 3505 0
-3450 3506 0
-3451 3507 0
-3452 3508 0
-3453 3509 0
-3454 3510 0
-3455 3511 0
-3456 3512 0
-3457 3513 0
-3458 3514 0
-3459 3515 0
-3460 3516 0
-3461 3517 0
-3462 3518 0
-3463 3519 0
-3464 3520 0
-3465 3521 0
-3466 3522 0
-3467 3523 0
-3468 3524 0
-3469 3525 0
-3470 3526 0
-3471 3527 0
-3472 3528 0
-3473 3529 0
-3474 3530 0
-3475 3531 0
-3476 3532 0
-3477 3533 0
-3478 3534 0
-3479 3535 0
-3480 3536 0
-902 -3425 3482 0
-902 -3426 3483 0
-902 -3427 3484 0
-902 -3428 3485 0
-902 -3429 3486 0
-902 -3430 3487 0
-902 -3431 3488 0
-902 -3432 3489 0
-902 -3433 3490 0
-902 -3434 3491 0
-902 -3435 3492 0
-902 -3436 3493 0
-902 -3437 3494 0
-902 -3438 3495 0
-902 -3439 3496 0
-902 -3440 3497 0
-902 -3441 3498 0
-902 -3442 3499 0
-902 -3443 3500 0
-902 -3444 3501 0
-902 -3445 3502 0
-902 -3446 3503 0
-902 -3447 3504 0
-902 -3448 3505 0
-902 -3449 3506 0
-902 -3450 3507 0
-902 -3451 3508 0
-902 -3452 3509 0
-902 -3453 3510 0
-902 -3454 3511 0
-902 -3455 3512 0
-902 -3456 3513 0
-902 -3457 3514 0
-902 -3458 3515 0
-902 -3459 3516 0
-902 -3460 3517 0
-902 -3461 3518 0
-902 -3462 3519 0
-902 -3463 3520 0
-902 -3464 3521 0
-902 -3465 3522 0
-902 -3466 3523 0
-902 -3467 3524 0
-902 -3468 3525 0
-902 -3469 3526 0
-902 -3470 3527 0
-902 -3471 3528 0
-902 -3472 3529 0
-902 -3473 3530 0
-902 -3474 3531 0
-902 -3475 3532 0
-902 -3476 3533 0
-902 -3477 3534 0
-902 -3478 3535 0
-902 -3479 3536 0
-902 -3480 0
-3481 3537 0
-3482 3538 0
-3483 3539 0
-3484 3540 0
-3485 3541 0
-3486 3542 0
-3487 3543 0
-3488 3544 0
-3489 3545 0
-3490 3546 0
-3491 3547 0
-3492 3548 0
-3493 3549 0
-3494 3550 0
-3495 3551 0
-3496 3552 0
-3497 3553 0
-3498 3554 0
-3499 3555 0
-3500 3556 0
-3501 3557 0
-3502 3558 0
-3503 3559 0
-3504 3560 0
-3505 3561 0
-3506 3562 0
-3507 3563 0
-3508 3564 0
-3509 3565 0
-3510 3566 0
-3511 3567 0
-3512 3568 0
-3513 3569 0
-3514 3570 0
-3515 3571 0
-3516 3572 0
-3517 3573 0
-3518 3574 0
-3519 3575 0
-3520 3576 0
-3521 3577 0
-3522 3578 0
-3523 3579 0
-3524 3580 0
-3525 3581 0
-3526 3582 0
-3527 3583 0
-3528 3584 0
-3529 3585 0
-3530 3586 0
-3531 3587 0
-3532 3588 0
-3533 3589 0
-3534 3590 0
-3535 3591 0
-3536 3592 0
-904 -3481 3538 0
-904 -3482 3539 0
-904 -3483 3540 0
-904 -3484 3541 0
-904 -3485 3542 0
-904 -3486 3543 0
-904 -3487 3544 0
-904 -3488 3545 0
-904 -3489 3546 0
-904 -3490 3547 0
-904 -3491 3548 0
-904 -3492 3549 0
-904 -3493 3550 0
-904 -3494 3551 0
-904 -3495 3552 0
-904 -3496 3553 0
-904 -3497 3554 0
-904 -3498 3555 0
-904 -3499 3556 0
-904 -3500 3557 0
-904 -3501 3558 0
-904 -3502 3559 0
-904 -3503 3560 0
-904 -3504 3561 0
-904 -3505 3562 0
-904 -3506 3563 0
-904 -3507 3564 0
-904 -3508 3565 0
-904 -3509 3566 0
-904 -3510 3567 0
-904 -3511 3568 0
-904 -3512 3569 0
-904 -3513 3570 0
-904 -3514 3571 0
-904 -3515 3572 0
-904 -3516 3573 0
-904 -3517 3574 0
-904 -3518 3575 0
-904 -3519 3576 0
-904 -3520 3577 0
-904 -3521 3578 0
-904 -3522 3579 0
-904 -3523 3580 0
-904 -3524 3581 0
-904 -3525 3582 0
-904 -3526 3583 0
-904 -3527 3584 0
-904 -3528 3585 0
-904 -3529 3586 0
-904 -3530 3587 0
-904 -3531 3588 0
-904 -3532 3589 0
-904 -3533 3590 0
-904 -3534 3591 0
-904 -3535 3592 0
-904 -3536 0
-3537 3593 0
-3538 3594 0
-3539 3595 0
-3540 3596 0
-3541 3597 0
-3542 3598 0
-3543 3599 0
-3544 3600 0
-3545 3601 0
-3546 3602 0
-3547 3603 0
-3548 3604 0
-3549 3605 0
-3550 3606 0
-3551 3607 0
-3552 3608 0
-3553 3609 0
-3554 3610 0
-3555 3611 0
-3556 3612 0
-3557 3613 0
-3558 3614 0
-3559 3615 0
-3560 3616 0
-3561 3617 0
-3562 3618 0
-3563 3619 0
-3564 3620 0
-3565 3621 0
-3566 3622 0
-3567 3623 0
-3568 3624 0
-3569 3625 0
-3570 3626 0
-3571 3627 0
-3572 3628 0
-3573 3629 0
-3574 3630 0
-3575 3631 0
-3576 3632 0
-3577 3633 0
-3578 3634 0
-3579 3635 0
-3580 3636 0
-3581 3637 0
-3582 3638 0
-3583 3639 0
-3584 3640 0
-3585 3641 0
-3586 3642 0
-3587 3643 0
-3588 3644 0
-3589 3645 0
-3590 3646 0
-3591 3647 0
-3592 3648 0
-906 -3537 3594 0
-906 -3538 3595 0
-906 -3539 3596 0
-906 -3540 3597 0
-906 -3541 3598 0
-906 -3542 3599 0
-906 -3543 3600 0
-906 -3544 3601 0
-906 -3545 3602 0
-906 -3546 3603 0
-906 -3547 3604 0
-906 -3548 3605 0
-906 -3549 3606 0
-906 -3550 3607 0
-906 -3551 3608 0
-906 -3552 3609 0
-906 -3553 3610 0
-906 -3554 3611 0
-906 -3555 3612 0
-906 -3556 3613 0
-906 -3557 3614 0
-906 -3558 3615 0
-906 -3559 3616 0
-906 -3560 3617 0
-906 -3561 3618 0
-906 -3562 3619 0
-906 -3563 3620 0
-906 -3564 3621 0
-906 -3565 3622 0
-906 -3566 3623 0
-906 -3567 3624 0
-906 -3568 3625 0
-906 -3569 3626 0
-906 -3570 3627 0
-906 -3571 3628 0
-906 -3572 3629 0
-906 -3573 3630 0
-906 -3574 3631 0
-906 -3575 3632 0
-906 -3576 3633 0
-906 -3577 3634 0
-906 -3578 3635 0
-906 -3579 3636 0
-906 -3580 3637 0
-906 -3581 3638 0
-906 -3582 3639 0
-906 -3583 3640 0
-906 -3584 3641 0
-906 -3585 3642 0
-906 -3586 3643 0
-906 -3587 3644 0
-906 -3588 3645 0
-906 -3589 3646 0
-906 -3590 3647 0
-906 -3591 3648 0
-906 -3592 0
-3593 3649 0
-3594 3650 0
-3595 3651 0
-3596 3652 0
-3597 3653 0
-3598 3654 0
-3599 3655 0
-3600 3656 0
-3601 3657 0
-3602 3658 0
-3603 3659 0
-3604 3660 0
-3605 3661 0
-3606 3662 0
-3607 3663 0
-3608 3664 0
-3609 3665 0
-3610 3666 0
-3611 3667 0
-3612 3668 0
-3613 3669 0
-3614 3670 0
-3615 3671 0
-3616 3672 0
-3617 3673 0
-3618 3674 0
-3619 3675 0
-3620 3676 0
-3621 3677 0
-3622 3678 0
-3623 3679 0
-3624 3680 0
-3625 3681 0
-3626 3682 0
-3627 3683 0
-3628 3684 0
-3629 3685 0
-3630 3686 0
-3631 3687 0
-3632 3688 0
-3633 3689 0
-3634 3690 0
-3635 3691 0
-3636 3692 0
-3637 3693 0
-3638 3694 0
-3639 3695 0
-3640 3696 0
-3641 3697 0
-3642 3698 0
-3643 3699 0
-3644 3700 0
-3645 3701 0
-3646 3702 0
-3647 3703 0
-3648 3704 0
-908 -3593 3650 0
-908 -3594 3651 0
-908 -3595 3652 0
-908 -3596 3653 0
-908 -3597 3654 0
-908 -3598 3655 0
-908 -3599 3656 0
-908 -3600 3657 0
-908 -3601 3658 0
-908 -3602 3659 0
-908 -3603 3660 0
-908 -3604 3661 0
-908 -3605 3662 0
-908 -3606 3663 0
-908 -3607 3664 0
-908 -3608 3665 0
-908 -3609 3666 0
-908 -3610 3667 0
-908 -3611 3668 0
-908 -3612 3669 0
-908 -3613 3670 0
-908 -3614 3671 0
-908 -3615 3672 0
-908 -3616 3673 0
-908 -3617 3674 0
-908 -3618 3675 0
-908 -3619 3676 0
-908 -3620 3677 0
-908 -3621 3678 0
-908 -3622 3679 0
-908 -3623 3680 0
-908 -3624 3681 0
-908 -3625 3682 0
-908 -3626 3683 0
-908 -3627 3684 0
-908 -3628 3685 0
-908 -3629 3686 0
-908 -3630 3687 0
-908 -3631 3688 0
-908 -3632 3689 0
-908 -3633 3690 0
-908 -3634 3691 0
-908 -3635 3692 0
-908 -3636 3693 0
-908 -3637 3694 0
-908 -3638 3695 0
-908 -3639 3696 0
-908 -3640 3697 0
-908 -3641 3698 0
-908 -3642 3699 0
-908 -3643 3700 0
-908 -3644 3701 0
-908 -3645 3702 0
-908 -3646 3703 0
-908 -3647 3704 0
-908 -3648 0
-3649 3705 0
-3650 3706 0
-3651 3707 0
-3652 3708 0
-3653 3709 0
-3654 3710 0
-3655 3711 0
-3656 3712 0
-3657 3713 0
-3658 3714 0
-3659 3715 0
-3660 3716 0
-3661 3717 0
-3662 3718 0
-3663 3719 0
-3664 3720 0
-3665 3721 0
-3666 3722 0
-3667 3723 0
-3668 3724 0
-3669 3725 0
-3670 3726 0
-3671 3727 0
-3672 3728 0
-3673 3729 0
-3674 3730 0
-3675 3731 0
-3676 3732 0
-3677 3733 0
-3678 3734 0
-3679 3735 0
-3680 3736 0
-3681 3737 0
-3682 3738 0
-3683 3739 0
-3684 3740 0
-3685 3741 0
-3686 3742 0
-3687 3743 0
-3688 3744 0
-3689 3745 0
-3690 3746 0
-3691 3747 0
-3692 3748 0
-3693 3749 0
-3694 3750 0
-3695 3751 0
-3696 3752 0
-3697 3753 0
-3698 3754 0
-3699 3755 0
-3700 3756 0
-3701 3757 0
-3702 3758 0
-3703 3759 0
-3704 3760 0
-910 -3649 3706 0
-910 -3650 3707 0
-910 -3651 3708 0
-910 -3652 3709 0
-910 -3653 3710 0
-910 -3654 3711 0
-910 -3655 3712 0
-910 -3656 3713 0
-910 -3657 3714 0
-910 -3658 3715 0
-910 -3659 3716 0
-910 -3660 3717 0
-910 -3661 3718 0
-910 -3662 3719 0
-910 -3663 3720 0
-910 -3664 3721 0
-910 -3665 3722 0
-910 -3666 3723 0
-910 -3667 3724 0
-910 -3668 3725 0
-910 -3669 3726 0
-910 -3670 3727 0
-910 -3671 3728 0
-910 -3672 3729 0
-910 -3673 3730 0
-910 -3674 3731 0
-910 -3675 3732 0
-910 -3676 3733 0
-910 -3677 3734 0
-910 -3678 3735 0
-910 -3679 3736 0
-910 -3680 3737 0
-910 -3681 3738 0
-910 -3682 3739 0
-910 -3683 3740 0
-910 -3684 3741 0
-910 -3685 3742 0
-910 -3686 3743 0
-910 -3687 3744 0
-910 -3688 3745 0
-910 -3689 3746 0
-910 -3690 3747 0
-910 -3691 3748 0
-910 -3692 3749 0
-910 -3693 3750 0
-910 -3694 3751 0
-910 -3695 3752 0
-910 -3696 3753 0
-910 -3697 3754 0
-910 -3698 3755 0
-910 -3699 3756 0
-910 -3700 3757 0
-910 -3701 3758 0
-910 -3702 3759 0
-910 -3703 3760 0
-910 -3704 0
-3705 3761 0
-3706 3762 0
-3707 3763 0
-3708 3764 0
-3709 3765 0
-3710 3766 0
-3711 3767 0
-3712 3768 0
-3713 3769 0
-3714 3770 0
-3715 3771 0
-3716 3772 0
-3717 3773 0
-3718 3774 0
-3719 3775 0
-3720 3776 0
-3721 3777 0
-3722 3778 0
-3723 3779 0
-3724 3780 0
-3725 3781 0
-3726 3782 0
-3727 3783 0
-3728 3784 0
-3729 3785 0
-3730 3786 0
-3731 3787 0
-3732 3788 0
-3733 3789 0
-3734 3790 0
-3735 3791 0
-3736 3792 0
-3737 3793 0
-3738 3794 0
-3739 3795 0
-3740 3796 0
-3741 3797 0
-3742 3798 0
-3743 3799 0
-3744 3800 0
-3745 3801 0
-3746 3802 0
-3747 3803 0
-3748 3804 0
-3749 3805 0
-3750 3806 0
-3751 3807 0
-3752 3808 0
-3753 3809 0
-3754 3810 0
-3755 3811 0
-3756 3812 0
-3757 3813 0
-3758 3814 0
-3759 3815 0
-3760 3816 0
-912 -3705 3762 0
-912 -3706 3763 0
-912 -3707 3764 0
-912 -3708 3765 0
-912 -3709 3766 0
-912 -3710 3767 0
-912 -3711 3768 0
-912 -3712 3769 0
-912 -3713 3770 0
-912 -3714 3771 0
-912 -3715 3772 0
-912 -3716 3773 0
-912 -3717 3774 0
-912 -3718 3775 0
-912 -3719 3776 0
-912 -3720 3777 0
-912 -3721 3778 0
-912 -3722 3779 0
-912 -3723 3780 0
-912 -3724 3781 0
-912 -3725 3782 0
-912 -3726 3783 0
-912 -3727 3784 0
-912 -3728 3785 0
-912 -3729 3786 0
-912 -3730 3787 0
-912 -3731 3788 0
-912 -3732 3789 0
-912 -3733 3790 0
-912 -3734 3791 0
-912 -3735 3792 0
-912 -3736 3793 0
-912 -3737 3794 0
-912 -3738 3795 0
-912 -3739 3796 0
-912 -3740 3797 0
-912 -3741 3798 0
-912 -3742 3799 0
-912 -3743 3800 0
-912 -3744 3801 0
-912 -3745 3802 0
-912 -3746 3803 0
-912 -3747 3804 0
-912 -3748 3805 0
-912 -3749 3806 0
-912 -3750 3807 0
-912 -3751 3808 0
-912 -3752 3809 0
-912 -3753 3810 0
-912 -3754 3811 0
-912 -3755 3812 0
-912 -3756 3813 0
-912 -3757 3814 0
-912 -3758 3815 0
-912 -3759 3816 0
-912 -3760 0
-3761 3817 0
-3762 3818 0
-3763 3819 0
-3764 3820 0
-3765 3821 0
-3766 3822 0
-3767 3823 0
-3768 3824 0
-3769 3825 0
-3770 3826 0
-3771 3827 0
-3772 3828 0
-3773 3829 0
-3774 3830 0
-3775 3831 0
-3776 3832 0
-3777 3833 0
-3778 3834 0
-3779 3835 0
-3780 3836 0
-3781 3837 0
-3782 3838 0
-3783 3839 0
-3784 3840 0
-3785 3841 0
-3786 3842 0
-3787 3843 0
-3788 3844 0
-3789 3845 0
-3790 3846 0
-3791 3847 0
-3792 3848 0
-3793 3849 0
-3794 3850 0
-3795 3851 0
-3796 3852 0
-3797 3853 0
-3798 3854 0
-3799 3855 0
-3800 3856 0
-3801 3857 0
-3802 3858 0
-3803 3859 0
-3804 3860 0
-3805 3861 0
-3806 3862 0
-3807 3863 0
-3808 3864 0
-3809 3865 0
-3810 3866 0
-3811 3867 0
-3812 3868 0
-3813 3869 0
-3814 3870 0
-3815 3871 0
-3816 3872 0
-914 -3761 3818 0
-914 -3762 3819 0
-914 -3763 3820 0
-914 -3764 3821 0
-914 -3765 3822 0
-914 -3766 3823 0
-914 -3767 3824 0
-914 -3768 3825 0
-914 -3769 3826 0
-914 -3770 3827 0
-914 -3771 3828 0
-914 -3772 3829 0
-914 -3773 3830 0
-914 -3774 3831 0
-914 -3775 3832 0
-914 -3776 3833 0
-914 -3777 3834 0
-914 -3778 3835 0
-914 -3779 3836 0
-914 -3780 3837 0
-914 -3781 3838 0
-914 -3782 3839 0
-914 -3783 3840 0
-914 -3784 3841 0
-914 -3785 3842 0
-914 -3786 3843 0
-914 -3787 3844 0
-914 -3788 3845 0
-914 -3789 3846 0
-914 -3790 3847 0
-914 -3791 3848 0
-914 -3792 3849 0
-914 -3793 3850 0
-914 -3794 3851 0
-914 -3795 3852 0
-914 -3796 3853 0
-914 -3797 3854 0
-914 -3798 3855 0
-914 -3799 3856 0
-914 -3800 3857 0
-914 -3801 3858 0
-914 -3802 3859 0
-914 -3803 3860 0
-914 -3804 3861 0
-914 -3805 3862 0
-914 -3806 3863 0
-914 -3807 3864 0
-914 -3808 3865 0
-914 -3809 3866 0
-914 -3810 3867 0
-914 -3811 3868 0
-914 -3812 3869 0
-914 -3813 3870 0
-914 -3814 3871 0
-914 -3815 3872 0
-914 -3816 0
-3817 3873 0
-3818 3874 0
-3819 3875 0
-3820 3876 0
-3821 3877 0
-3822 3878 0
-3823 3879 0
-3824 3880 0
-3825 3881 0
-3826 3882 0
-3827 3883 0
-3828 3884 0
-3829 3885 0
-3830 3886 0
-3831 3887 0
-3832 3888 0
-3833 3889 0
-3834 3890 0
-3835 3891 0
-3836 3892 0
-3837 3893 0
-3838 3894 0
-3839 3895 0
-3840 3896 0
-3841 3897 0
-3842 3898 0
-3843 3899 0
-3844 3900 0
-3845 3901 0
-3846 3902 0
-3847 3903 0
-3848 3904 0
-3849 3905 0
-3850 3906 0
-3851 3907 0
-3852 3908 0
-3853 3909 0
-3854 3910 0
-3855 3911 0
-3856 3912 0
-3857 3913 0
-3858 3914 0
-3859 3915 0
-3860 3916 0
-3861 3917 0
-3862 3918 0
-3863 3919 0
-3864 3920 0
-3865 3921 0
-3866 3922 0
-3867 3923 0
-3868 3924 0
-3869 3925 0
-3870 3926 0
-3871 3927 0
-3872 3928 0
-916 -3817 3874 0
-916 -3818 3875 0
-916 -3819 3876 0
-916 -3820 3877 0
-916 -3821 3878 0
-916 -3822 3879 0
-916 -3823 3880 0
-916 -3824 3881 0
-916 -3825 3882 0
-916 -3826 3883 0
-916 -3827 3884 0
-916 -3828 3885 0
-916 -3829 3886 0
-916 -3830 3887 0
-916 -3831 3888 0
-916 -3832 3889 0
-916 -3833 3890 0
-916 -3834 3891 0
-916 -3835 3892 0
-916 -3836 3893 0
-916 -3837 3894 0
-916 -3838 3895 0
-916 -3839 3896 0
-916 -3840 3897 0
-916 -3841 3898 0
-916 -3842 3899 0
-916 -3843 3900 0
-916 -3844 3901 0
-916 -3845 3902 0
-916 -3846 3903 0
-916 -3847 3904 0
-916 -3848 3905 0
-916 -3849 3906 0
-916 -3850 3907 0
-916 -3851 3908 0
-916 -3852 3909 0
-916 -3853 3910 0
-916 -3854 3911 0
-916 -3855 3912 0
-916 -3856 3913 0
-916 -3857 3914 0
-916 -3858 3915 0
-916 -3859 3916 0
-916 -3860 3917 0
-916 -3861 3918 0
-916 -3862 3919 0
-916 -3863 3920 0
-916 -3864 3921 0
-916 -3865 3922 0
-916 -3866 3923 0
-916 -3867 3924 0
-916 -3868 3925 0
-916 -3869 3926 0
-916 -3870 3927 0
-916 -3871 3928 0
-916 -3872 0
-3873 3929 0
-3874 3930 0
-3875 3931 0
-3876 3932 0
-3877 3933 0
-3878 3934 0
-3879 3935 0
-3880 3936 0
-3881 3937 0
-3882 3938 0
-3883 3939 0
-3884 3940 0
-3885 3941 0
-3886 3942 0
-3887 3943 0
-3888 3944 0
-3889 3945 0
-3890 3946 0
-3891 3947 0
-3892 3948 0
-3893 3949 0
-3894 3950 0
-3895 3951 0
-3896 3952 0
-3897 3953 0
-3898 3954 0
-3899 3955 0
-3900 3956 0
-3901 3957 0
-3902 3958 0
-3903 3959 0
-3904 3960 0
-3905 3961 0
-3906 3962 0
-3907 3963 0
-3908 3964 0
-3909 3965 0
-3910 3966 0
-3911 3967 0
-3912 3968 0
-3913 3969 0
-3914 3970 0
-3915 3971 0
-3916 3972 0
-3917 3973 0
-3918 3974 0
-3919 3975 0
-3920 3976 0
-3921 3977 0
-3922 3978 0
-3923 3979 0
-3924 3980 0
-3925 3981 0
-3926 3982 0
-3927 3983 0
-3928 3984 0
-918 -3873 3930 0
-918 -3874 3931 0
-918 -3875 3932 0
-918 -3876 3933 0
-918 -3877 3934 0
-918 -3878 3935 0
-918 -3879 3936 0
-918 -3880 3937 0
-918 -3881 3938 0
-918 -3882 3939 0
-918 -3883 3940 0
-918 -3884 3941 0
-918 -3885 3942 0
-918 -3886 3943 0
-918 -3887 3944 0
-918 -3888 3945 0
-918 -3889 3946 0
-918 -3890 3947 0
-918 -3891 3948 0
-918 -3892 3949 0
-918 -3893 3950 0
-918 -3894 3951 0
-918 -3895 3952 0
-918 -3896 3953 0
-918 -3897 3954 0
-918 -3898 3955 0
-918 -3899 3956 0
-918 -3900 3957 0
-918 -3901 3958 0
-918 -3902 3959 0
-918 -3903 3960 0
-918 -3904 3961 0
-918 -3905 3962 0
-918 -3906 3963 0
-918 -3907 3964 0
-918 -3908 3965 0
-918 -3909 3966 0
-918 -3910 3967 0
-918 -3911 3968 0
-918 -3912 3969 0
-918 -3913 3970 0
-918 -3914 3971 0
-918 -3915 3972 0
-918 -3916 3973 0
-918 -3917 3974 0
-918 -3918 3975 0
-918 -3919 3976 0
-918 -3920 3977 0
-918 -3921 3978 0
-918 -3922 3979 0
-918 -3923 3980 0
-918 -3924 3981 0
-918 -3925 3982 0
-918 -3926 3983 0
-918 -3927 3984 0
-918 -3928 0
-3929 3985 0
-3930 3986 0
-3931 3987 0
-3932 3988 0
-3933 3989 0
-3934 3990 0
-3935 3991 0
-3936 3992 0
-3937 3993 0
-3938 3994 0
-3939 3995 0
-3940 3996 0
-3941 3997 0
-3942 3998 0
-3943 3999 0
-3944 4000 0
-3945 4001 0
-3946 4002 0
-3947 4003 0
-3948 4004 0
-3949 4005 0
-3950 4006 0
-3951 4007 0
-3952 4008 0
-3953 4009 0
-3954 4010 0
-3955 4011 0
-3956 4012 0
-3957 4013 0
-3958 4014 0
-3959 4015 0
-3960 4016 0
-3961 4017 0
-3962 4018 0
-3963 4019 0
-3964 4020 0
-3965 4021 0
-3966 4022 0
-3967 4023 0
-3968 4024 0
-3969 4025 0
-3970 4026 0
-3971 4027 0
-3972 4028 0
-3973 4029 0
-3974 4030 0
-3975 4031 0
-3976 4032 0
-3977 4033 0
-3978 4034 0
-3979 4035 0
-3980 4036 0
-3981 4037 0
-3982 4038 0
-3983 4039 0
-3984 4040 0
-920 -3929 3986 0
-920 -3930 3987 0
-920 -3931 3988 0
-920 -3932 3989 0
-920 -3933 3990 0
-920 -3934 3991 0
-920 -3935 3992 0
-920 -3936 3993 0
-920 -3937 3994 0
-920 -3938 3995 0
-920 -3939 3996 0
-920 -3940 3997 0
-920 -3941 3998 0
-920 -3942 3999 0
-920 -3943 4000 0
-920 -3944 4001 0
-920 -3945 4002 0
-920 -3946 4003 0
-920 -3947 4004 0
-920 -3948 4005 0
-920 -3949 4006 0
-920 -3950 4007 0
-920 -3951 4008 0
-920 -3952 4009 0
-920 -3953 4010 0
-920 -3954 4011 0
-920 -3955 4012 0
-920 -3956 4013 0
-920 -3957 4014 0
-920 -3958 4015 0
-920 -3959 4016 0
-920 -3960 4017 0
-920 -3961 4018 0
-920 -3962 4019 0
-920 -3963 4020 0
-920 -3964 4021 0
-920 -3965 4022 0
-920 -3966 4023 0
-920 -3967 4024 0
-920 -3968 4025 0
-920 -3969 4026 0
-920 -3970 4027 0
-920 -3971 4028 0
-920 -3972 4029 0
-920 -3973 4030 0
-920 -3974 4031 0
-920 -3975 4032 0
-920 -3976 4033 0
-920 -3977 4034 0
-920 -3978 4035 0
-920 -3979 4036 0
-920 -3980 4037 0
-920 -3981 4038 0
-920 -3982 4039 0
-920 -3983 4040 0
-920 -3984 0
-3985 4041 0
-3986 4042 0
-3987 4043 0
-3988 4044 0
-3989 4045 0
-3990 4046 0
-3991 4047 0
-3992 4048 0
-3993 4049 0
-3994 4050 0
-3995 4051 0
-3996 4052 0
-3997 4053 0
-3998 4054 0
-3999 4055 0
-4000 4056 0
-4001 4057 0
-4002 4058 0
-4003 4059 0
-4004 4060 0
-4005 4061 0
-4006 4062 0
-4007 4063 0
-4008 4064 0
-4009 4065 0
-4010 4066 0
-4011 4067 0
-4012 4068 0
-4013 4069 0
-4014 4070 0
-4015 4071 0
-4016 4072 0
-4017 4073 0
-4018 4074 0
-4019 4075 0
-4020 4076 0
-4021 4077 0
-4022 4078 0
-4023 4079 0
-4024 4080 0
-4025 4081 0
-4026 4082 0
-4027 4083 0
-4028 4084 0
-4029 4085 0
-4030 4086 0
-4031 4087 0
-4032 4088 0
-4033 4089 0
-4034 4090 0
-4035 4091 0
-4036 4092 0
-4037 4093 0
-4038 4094 0
-4039 4095 0
-4040 4096 0
-922 -3985 4042 0
-922 -3986 4043 0
-922 -3987 4044 0
-922 -3988 4045 0
-922 -3989 4046 0
-922 -3990 4047 0
-922 -3991 4048 0
-922 -3992 4049 0
-922 -3993 4050 0
-922 -3994 4051 0
-922 -3995 4052 0
-922 -3996 4053 0
-922 -3997 4054 0
-922 -3998 4055 0
-922 -3999 4056 0
-922 -4000 4057 0
-922 -4001 4058 0
-922 -4002 4059 0
-922 -4003 4060 0
-922 -4004 4061 0
-922 -4005 4062 0
-922 -4006 4063 0
-922 -4007 4064 0
-922 -4008 4065 0
-922 -4009 4066 0
-922 -4010 4067 0
-922 -4011 4068 0
-922 -4012 4069 0
-922 -4013 4070 0
-922 -4014 4071 0
-922 -4015 4072 0
-922 -4016 4073 0
-922 -4017 4074 0
-922 -4018 4075 0
-922 -4019 4076 0
-922 -4020 4077 0
-922 -4021 4078 0
-922 -4022 4079 0
-922 -4023 4080 0
-922 -4024 4081 0
-922 -4025 4082 0
-922 -4026 4083 0
-922 -4027 4084 0
-922 -4028 4085 0
-922 -4029 4086 0
-922 -4030 4087 0
-922 -4031 4088 0
-922 -4032 4089 0
-922 -4033 4090 0
-922 -4034 4091 0
-922 -4035 4092 0
-922 -4036 4093 0
-922 -4037 4094 0
-922 -4038 4095 0
-922 -4039 4096 0
-922 -4040 0
-4041 4097 0
-4042 4098 0
-4043 4099 0
-4044 4100 0
-4045 4101 0
-4046 4102 0
-4047 4103 0
-4048 4104 0
-4049 4105 0
-4050 4106 0
-4051 4107 0
-4052 4108 0
-4053 4109 0
-4054 4110 0
-4055 4111 0
-4056 4112 0
-4057 4113 0
-4058 4114 0
-4059 4115 0
-4060 4116 0
-4061 4117 0
-4062 4118 0
-4063 4119 0
-4064 4120 0
-4065 4121 0
-4066 4122 0
-4067 4123 0
-4068 4124 0
-4069 4125 0
-4070 4126 0
-4071 4127 0
-4072 4128 0
-4073 4129 0
-4074 4130 0
-4075 4131 0
-4076 4132 0
-4077 4133 0
-4078 4134 0
-4079 4135 0
-4080 4136 0
-4081 4137 0
-4082 4138 0
-4083 4139 0
-4084 4140 0
-4085 4141 0
-4086 4142 0
-4087 4143 0
-4088 4144 0
-4089 4145 0
-4090 4146 0
-4091 4147 0
-4092 4148 0
-4093 4149 0
-4094 4150 0
-4095 4151 0
-4096 4152 0
-924 -4041 4098 0
-924 -4042 4099 0
-924 -4043 4100 0
-924 -4044 4101 0
-924 -4045 4102 0
-924 -4046 4103 0
-924 -4047 4104 0
-924 -4048 4105 0
-924 -4049 4106 0
-924 -4050 4107 0
-924 -4051 4108 0
-924 -4052 4109 0
-924 -4053 4110 0
-924 -4054 4111 0
-924 -4055 4112 0
-924 -4056 4113 0
-924 -4057 4114 0
-924 -4058 4115 0
-924 -4059 4116 0
-924 -4060 4117 0
-924 -4061 4118 0
-924 -4062 4119 0
-924 -4063 4120 0
-924 -4064 4121 0
-924 -4065 4122 0
-924 -4066 4123 0
-924 -4067 4124 0
-924 -4068 4125 0
-924 -4069 4126 0
-924 -4070 4127 0
-924 -4071 4128 0
-924 -4072 4129 0
-924 -4073 4130 0
-924 -4074 4131 0
-924 -4075 4132 0
-924 -4076 4133 0
-924 -4077 4134 0
-924 -4078 4135 0
-924 -4079 4136 0
-924 -4080 4137 0
-924 -4081 4138 0
-924 -4082 4139 0
-924 -4083 4140 0
-924 -4084 4141 0
-924 -4085 4142 0
-924 -4086 4143 0
-924 -4087 4144 0
-924 -4088 4145 0
-924 -4089 4146 0
-924 -4090 4147 0
-924 -4091 4148 0
-924 -4092 4149 0
-924 -4093 4150 0
-924 -4094 4151 0
-924 -4095 4152 0
-924 -4096 0
-4097 4153 0
-4098 4154 0
-4099 4155 0
-4100 4156 0
-4101 4157 0
-4102 4158 0
-4103 4159 0
-4104 4160 0
-4105 4161 0
-4106 4162 0
-4107 4163 0
-4108 4164 0
-4109 4165 0
-4110 4166 0
-4111 4167 0
-4112 4168 0
-4113 4169 0
-4114 4170 0
-4115 4171 0
-4116 4172 0
-4117 4173 0
-4118 4174 0
-4119 4175 0
-4120 4176 0
-4121 4177 0
-4122 4178 0
-4123 4179 0
-4124 4180 0
-4125 4181 0
-4126 4182 0
-4127 4183 0
-4128 4184 0
-4129 4185 0
-4130 4186 0
-4131 4187 0
-4132 4188 0
-4133 4189 0
-4134 4190 0
-4135 4191 0
-4136 4192 0
-4137 4193 0
-4138 4194 0
-4139 4195 0
-4140 4196 0
-4141 4197 0
-4142 4198 0
-4143 4199 0
-4144 4200 0
-4145 4201 0
-4146 4202 0
-4147 4203 0
-4148 4204 0
-4149 4205 0
-4150 4206 0
-4151 4207 0
-4152 4208 0
-926 -4097 4154 0
-926 -4098 4155 0
-926 -4099 4156 0
-926 -4100 4157 0
-926 -4101 4158 0
-926 -4102 4159 0
-926 -4103 4160 0
-926 -4104 4161 0
-926 -4105 4162 0
-926 -4106 4163 0
-926 -4107 4164 0
-926 -4108 4165 0
-926 -4109 4166 0
-926 -4110 4167 0
-926 -4111 4168 0
-926 -4112 4169 0
-926 -4113 4170 0
-926 -4114 4171 0
-926 -4115 4172 0
-926 -4116 4173 0
-926 -4117 4174 0
-926 -4118 4175 0
-926 -4119 4176 0
-926 -4120 4177 0
-926 -4121 4178 0
-926 -4122 4179 0
-926 -4123 4180 0
-926 -4124 4181 0
-926 -4125 4182 0
-926 -4126 4183 0
-926 -4127 4184 0
-926 -4128 4185 0
-926 -4129 4186 0
-926 -4130 4187 0
-926 -4131 4188 0
-926 -4132 4189 0
-926 -4133 4190 0
-926 -4134 4191 0
-926 -4135 4192 0
-926 -4136 4193 0
-926 -4137 4194 0
-926 -4138 4195 0
-926 -4139 4196 0
-926 -4140 4197 0
-926 -4141 4198 0
-926 -4142 4199 0
-926 -4143 4200 0
-926 -4144 4201 0
-926 -4145 4202 0
-926 -4146 4203 0
-926 -4147 4204 0
-926 -4148 4205 0
-926 -4149 4206 0
-926 -4150 4207 0
-926 -4151 4208 0
-926 -4152 0
-4153 4209 0
-4154 4210 0
-4155 4211 0
-4156 4212 0
-4157 4213 0
-4158 4214 0
-4159 4215 0
-4160 4216 0
-4161 4217 0
-4162 4218 0
-4163 4219 0
-4164 4220 0
-4165 4221 0
-4166 4222 0
-4167 4223 0
-4168 4224 0
-4169 4225 0
-4170 4226 0
-4171 4227 0
-4172 4228 0
-4173 4229 0
-4174 4230 0
-4175 4231 0
-4176 4232 0
-4177 4233 0
-4178 4234 0
-4179 4235 0
-4180 4236 0
-4181 4237 0
-4182 4238 0
-4183 4239 0
-4184 4240 0
-4185 4241 0
-4186 4242 0
-4187 4243 0
-4188 4244 0
-4189 4245 0
-4190 4246 0
-4191 4247 0
-4192 4248 0
-4193 4249 0
-4194 4250 0
-4195 4251 0
-4196 4252 0
-4197 4253 0
-4198 4254 0
-4199 4255 0
-4200 4256 0
-4201 4257 0
-4202 4258 0
-4203 4259 0
-4204 4260 0
-4205 4261 0
-4206 4262 0
-4207 4263 0
-4208 4264 0
-928 -4153 4210 0
-928 -4154 4211 0
-928 -4155 4212 0
-928 -4156 4213 0
-928 -4157 4214 0
-928 -4158 4215 0
-928 -4159 4216 0
-928 -4160 4217 0
-928 -4161 4218 0
-928 -4162 4219 0
-928 -4163 4220 0
-928 -4164 4221 0
-928 -4165 4222 0
-928 -4166 4223 0
-928 -4167 4224 0
-928 -4168 4225 0
-928 -4169 4226 0
-928 -4170 4227 0
-928 -4171 4228 0
-928 -4172 4229 0
-928 -4173 4230 0
-928 -4174 4231 0
-928 -4175 4232 0
-928 -4176 4233 0
-928 -4177 4234 0
-928 -4178 4235 0
-928 -4179 4236 0
-928 -4180 4237 0
-928 -4181 4238 0
-928 -4182 4239 0
-928 -4183 4240 0
-928 -4184 4241 0
-928 -4185 4242 0
-928 -4186 4243 0
-928 -4187 4244 0
-928 -4188 4245 0
-928 -4189 4246 0
-928 -4190 4247 0
-928 -4191 4248 0
-928 -4192 4249 0
-928 -4193 4250 0
-928 -4194 4251 0
-928 -4195 4252 0
-928 -4196 4253 0
-928 -4197 4254 0
-928 -4198 4255 0
-928 -4199 4256 0
-928 -4200 4257 0
-928 -4201 4258 0
-928 -4202 4259 0
-928 -4203 4260 0
-928 -4204 4261 0
-928 -4205 4262 0
-928 -4206 4263 0
-928 -4207 4264 0
-928 -4208 0
-4209 4265 0
-4210 4266 0
-4211 4267 0
-4212 4268 0
-4213 4269 0
-4214 4270 0
-4215 4271 0
-4216 4272 0
-4217 4273 0
-4218 4274 0
-4219 4275 0
-4220 4276 0
-4221 4277 0
-4222 4278 0
-4223 4279 0
-4224 4280 0
-4225 4281 0
-4226 4282 0
-4227 4283 0
-4228 4284 0
-4229 4285 0
-4230 4286 0
-4231 4287 0
-4232 4288 0
-4233 4289 0
-4234 4290 0
-4235 4291 0
-4236 4292 0
-4237 4293 0
-4238 4294 0
-4239 4295 0
-4240 4296 0
-4241 4297 0
-4242 4298 0
-4243 4299 0
-4244 4300 0
-4245 4301 0
-4246 4302 0
-4247 4303 0
-4248 4304 0
-4249 4305 0
-4250 4306 0
-4251 4307 0
-4252 4308 0
-4253 4309 0
-4254 4310 0
-4255 4311 0
-4256 4312 0
-4257 4313 0
-4258 4314 0
-4259 4315 0
-4260 4316 0
-4261 4317 0
-4262 4318 0
-4263 4319 0
-4264 4320 0
-930 -4209 4266 0
-930 -4210 4267 0
-930 -4211 4268 0
-930 -4212 4269 0
-930 -4213 4270 0
-930 -4214 4271 0
-930 -4215 4272 0
-930 -4216 4273 0
-930 -4217 4274 0
-930 -4218 4275 0
-930 -4219 4276 0
-930 -4220 4277 0
-930 -4221 4278 0
-930 -4222 4279 0
-930 -4223 4280 0
-930 -4224 4281 0
-930 -4225 4282 0
-930 -4226 4283 0
-930 -4227 4284 0
-930 -4228 4285 0
-930 -4229 4286 0
-930 -4230 4287 0
-930 -4231 4288 0
-930 -4232 4289 0
-930 -4233 4290 0
-930 -4234 4291 0
-930 -4235 4292 0
-930 -4236 4293 0
-930 -4237 4294 0
-930 -4238 4295 0
-930 -4239 4296 0
-930 -4240 4297 0
-930 -4241 4298 0
-930 -4242 4299 0
-930 -4243 4300 0
-930 -4244 4301 0
-930 -4245 4302 0
-930 -4246 4303 0
-930 -4247 4304 0
-930 -4248 4305 0
-930 -4249 4306 0
-930 -4250 4307 0
-930 -4251 4308 0
-930 -4252 4309 0
-930 -4253 4310 0
-930 -4254 4311 0
-930 -4255 4312 0
-930 -4256 4313 0
-930 -4257 4314 0
-930 -4258 4315 0
-930 -4259 4316 0
-930 -4260 4317 0
-930 -4261 4318 0
-930 -4262 4319 0
-930 -4263 4320 0
-930 -4264 0
-4265 4321 0
-4266 4322 0
-4267 4323 0
-4268 4324 0
-4269 4325 0
-4270 4326 0
-4271 4327 0
-4272 4328 0
-4273 4329 0
-4274 4330 0
-4275 4331 0
-4276 4332 0
-4277 4333 0
-4278 4334 0
-4279 4335 0
-4280 4336 0
-4281 4337 0
-4282 4338 0
-4283 4339 0
-4284 4340 0
-4285 4341 0
-4286 4342 0
-4287 4343 0
-4288 4344 0
-4289 4345 0
-4290 4346 0
-4291 4347 0
-4292 4348 0
-4293 4349 0
-4294 4350 0
-4295 4351 0
-4296 4352 0
-4297 4353 0
-4298 4354 0
-4299 4355 0
-4300 4356 0
-4301 4357 0
-4302 4358 0
-4303 4359 0
-4304 4360 0
-4305 4361 0
-4306 4362 0
-4307 4363 0
-4308 4364 0
-4309 4365 0
-4310 4366 0
-4311 4367 0
-4312 4368 0
-4313 4369 0
-4314 4370 0
-4315 4371 0
-4316 4372 0
-4317 4373 0
-4318 4374 0
-4319 4375 0
-4320 4376 0
-932 -4265 4322 0
-932 -4266 4323 0
-932 -4267 4324 0
-932 -4268 4325 0
-932 -4269 4326 0
-932 -4270 4327 0
-932 -4271 4328 0
-932 -4272 4329 0
-932 -4273 4330 0
-932 -4274 4331 0
-932 -4275 4332 0
-932 -4276 4333 0
-932 -4277 4334 0
-932 -4278 4335 0
-932 -4279 4336 0
-932 -4280 4337 0
-932 -4281 4338 0
-932 -4282 4339 0
-932 -4283 4340 0
-932 -4284 4341 0
-932 -4285 4342 0
-932 -4286 4343 0
-932 -4287 4344 0
-932 -4288 4345 0
-932 -4289 4346 0
-932 -4290 4347 0
-932 -4291 4348 0
-932 -4292 4349 0
-932 -4293 4350 0
-932 -4294 4351 0
-932 -4295 4352 0
-932 -4296 4353 0
-932 -4297 4354 0
-932 -4298 4355 0
-932 -4299 4356 0
-932 -4300 4357 0
-932 -4301 4358 0
-932 -4302 4359 0
-932 -4303 4360 0
-932 -4304 4361 0
-932 -4305 4362 0
-932 -4306 4363 0
-932 -4307 4364 0
-932 -4308 4365 0
-932 -4309 4366 0
-932 -4310 4367 0
-932 -4311 4368 0
-932 -4312 4369 0
-932 -4313 4370 0
-932 -4314 4371 0
-932 -4315 4372 0
-932 -4316 4373 0
-932 -4317 4374 0
-932 -4318 4375 0
-932 -4319 4376 0
-932 -4320 0
-4321 4377 0
-4322 4378 0
-4323 4379 0
-4324 4380 0
-4325 4381 0
-4326 4382 0
-4327 4383 0
-4328 4384 0
-4329 4385 0
-4330 4386 0
-4331 4387 0
-4332 4388 0
-4333 4389 0
-4334 4390 0
-4335 4391 0
-4336 4392 0
-4337 4393 0
-4338 4394 0
-4339 4395 0
-4340 4396 0
-4341 4397 0
-4342 4398 0
-4343 4399 0
-4344 4400 0
-4345 4401 0
-4346 4402 0
-4347 4403 0
-4348 4404 0
-4349 4405 0
-4350 4406 0
-4351 4407 0
-4352 4408 0
-4353 4409 0
-4354 4410 0
-4355 4411 0
-4356 4412 0
-4357 4413 0
-4358 4414 0
-4359 4415 0
-4360 4416 0
-4361 4417 0
-4362 4418 0
-4363 4419 0
-4364 4420 0
-4365 4421 0
-4366 4422 0
-4367 4423 0
-4368 4424 0
-4369 4425 0
-4370 4426 0
-4371 4427 0
-4372 4428 0
-4373 4429 0
-4374 4430 0
-4375 4431 0
-4376 4432 0
-934 -4321 4378 0
-934 -4322 4379 0
-934 -4323 4380 0
-934 -4324 4381 0
-934 -4325 4382 0
-934 -4326 4383 0
-934 -4327 4384 0
-934 -4328 4385 0
-934 -4329 4386 0
-934 -4330 4387 0
-934 -4331 4388 0
-934 -4332 4389 0
-934 -4333 4390 0
-934 -4334 4391 0
-934 -4335 4392 0
-934 -4336 4393 0
-934 -4337 4394 0
-934 -4338 4395 0
-934 -4339 4396 0
-934 -4340 4397 0
-934 -4341 4398 0
-934 -4342 4399 0
-934 -4343 4400 0
-934 -4344 4401 0
-934 -4345 4402 0
-934 -4346 4403 0
-934 -4347 4404 0
-934 -4348 4405 0
-934 -4349 4406 0
-934 -4350 4407 0
-934 -4351 4408 0
-934 -4352 4409 0
-934 -4353 4410 0
-934 -4354 4411 0
-934 -4355 4412 0
-934 -4356 4413 0
-934 -4357 4414 0
-934 -4358 4415 0
-934 -4359 4416 0
-934 -4360 4417 0
-934 -4361 4418 0
-934 -4362 4419 0
-934 -4363 4420 0
-934 -4364 4421 0
-934 -4365 4422 0
-934 -4366 4423 0
-934 -4367 4424 0
-934 -4368 4425 0
-934 -4369 4426 0
-934 -4370 4427 0
-934 -4371 4428 0
-934 -4372 4429 0
-934 -4373 4430 0
-934 -4374 4431 0
-934 -4375 4432 0
-934 -4376 0
-4377 4433 0
-4378 4434 0
-4379 4435 0
-4380 4436 0
-4381 4437 0
-4382 4438 0
-4383 4439 0
-4384 4440 0
-4385 4441 0
-4386 4442 0
-4387 4443 0
-4388 4444 0
-4389 4445 0
-4390 4446 0
-4391 4447 0
-4392 4448 0
-4393 4449 0
-4394 4450 0
-4395 4451 0
-4396 4452 0
-4397 4453 0
-4398 4454 0
-4399 4455 0
-4400 4456 0
-4401 4457 0
-4402 4458 0
-4403 4459 0
-4404 4460 0
-4405 4461 0
-4406 4462 0
-4407 4463 0
-4408 4464 0
-4409 4465 0
-4410 4466 0
-4411 4467 0
-4412 4468 0
-4413 4469 0
-4414 4470 0
-4415 4471 0
-4416 4472 0
-4417 4473 0
-4418 4474 0
-4419 4475 0
-4420 4476 0
-4421 4477 0
-4422 4478 0
-4423 4479 0
-4424 4480 0
-4425 4481 0
-4426 4482 0
-4427 4483 0
-4428 4484 0
-4429 4485 0
-4430 4486 0
-4431 4487 0
-4432 4488 0
-936 -4377 4434 0
-936 -4378 4435 0
-936 -4379 4436 0
-936 -4380 4437 0
-936 -4381 4438 0
-936 -4382 4439 0
-936 -4383 4440 0
-936 -4384 4441 0
-936 -4385 4442 0
-936 -4386 4443 0
-936 -4387 4444 0
-936 -4388 4445 0
-936 -4389 4446 0
-936 -4390 4447 0
-936 -4391 4448 0
-936 -4392 4449 0
-936 -4393 4450 0
-936 -4394 4451 0
-936 -4395 4452 0
-936 -4396 4453 0
-936 -4397 4454 0
-936 -4398 4455 0
-936 -4399 4456 0
-936 -4400 4457 0
-936 -4401 4458 0
-936 -4402 4459 0
-936 -4403 4460 0
-936 -4404 4461 0
-936 -4405 4462 0
-936 -4406 4463 0
-936 -4407 4464 0
-936 -4408 4465 0
-936 -4409 4466 0
-936 -4410 4467 0
-936 -4411 4468 0
-936 -4412 4469 0
-936 -4413 4470 0
-936 -4414 4471 0
-936 -4415 4472 0
-936 -4416 4473 0
-936 -4417 4474 0
-936 -4418 4475 0
-936 -4419 4476 0
-936 -4420 4477 0
-936 -4421 4478 0
-936 -4422 4479 0
-936 -4423 4480 0
-936 -4424 4481 0
-936 -4425 4482 0
-936 -4426 4483 0
-936 -4427 4484 0
-936 -4428 4485 0
-936 -4429 4486 0
-936 -4430 4487 0
-936 -4431 4488 0
-936 -4432 0
-4433 4489 0
-4434 4490 0
-4435 4491 0
-4436 4492 0
-4437 4493 0
-4438 4494 0
-4439 4495 0
-4440 4496 0
-4441 4497 0
-4442 4498 0
-4443 4499 0
-4444 4500 0
-4445 4501 0
-4446 4502 0
-4447 4503 0
-4448 4504 0
-4449 4505 0
-4450 4506 0
-4451 4507 0
-4452 4508 0
-4453 4509 0
-4454 4510 0
-4455 4511 0
-4456 4512 0
-4457 4513 0
-4458 4514 0
-4459 4515 0
-4460 4516 0
-4461 4517 0
-4462 4518 0
-4463 4519 0
-4464 4520 0
-4465 4521 0
-4466 4522 0
-4467 4523 0
-4468 4524 0
-4469 4525 0
-4470 4526 0
-4471 4527 0
-4472 4528 0
-4473 4529 0
-4474 4530 0
-4475 4531 0
-4476 4532 0
-4477 4533 0
-4478 4534 0
-4479 4535 0
-4480 4536 0
-4481 4537 0
-4482 4538 0
-4483 4539 0
-4484 4540 0
-4485 4541 0
-4486 4542 0
-4487 4543 0
-4488 4544 0
-938 -4433 4490 0
-938 -4434 4491 0
-938 -4435 4492 0
-938 -4436 4493 0
-938 -4437 4494 0
-938 -4438 4495 0
-938 -4439 4496 0
-938 -4440 4497 0
-938 -4441 4498 0
-938 -4442 4499 0
-938 -4443 4500 0
-938 -4444 4501 0
-938 -4445 4502 0
-938 -4446 4503 0
-938 -4447 4504 0
-938 -4448 4505 0
-938 -4449 4506 0
-938 -4450 4507 0
-938 -4451 4508 0
-938 -4452 4509 0
-938 -4453 4510 0
-938 -4454 4511 0
-938 -4455 4512 0
-938 -4456 4513 0
-938 -4457 4514 0
-938 -4458 4515 0
-938 -4459 4516 0
-938 -4460 4517 0
-938 -4461 4518 0
-938 -4462 4519 0
-938 -4463 4520 0
-938 -4464 4521 0
-938 -4465 4522 0
-938 -4466 4523 0
-938 -4467 4524 0
-938 -4468 4525 0
-938 -4469 4526 0
-938 -4470 4527 0
-938 -4471 4528 0
-938 -4472 4529 0
-938 -4473 4530 0
-938 -4474 4531 0
-938 -4475 4532 0
-938 -4476 4533 0
-938 -4477 4534 0
-938 -4478 4535 0
-938 -4479 4536 0
-938 -4480 4537 0
-938 -4481 4538 0
-938 -4482 4539 0
-938 -4483 4540 0
-938 -4484 4541 0
-938 -4485 4542 0
-938 -4486 4543 0
-938 -4487 4544 0
-938 -4488 0
-4489 4545 0
-4490 4546 0
-4491 4547 0
-4492 4548 0
-4493 4549 0
-4494 4550 0
-4495 4551 0
-4496 4552 0
-4497 4553 0
-4498 4554 0
-4499 4555 0
-4500 4556 0
-4501 4557 0
-4502 4558 0
-4503 4559 0
-4504 4560 0
-4505 4561 0
-4506 4562 0
-4507 4563 0
-4508 4564 0
-4509 4565 0
-4510 4566 0
-4511 4567 0
-4512 4568 0
-4513 4569 0
-4514 4570 0
-4515 4571 0
-4516 4572 0
-4517 4573 0
-4518 4574 0
-4519 4575 0
-4520 4576 0
-4521 4577 0
-4522 4578 0
-4523 4579 0
-4524 4580 0
-4525 4581 0
-4526 4582 0
-4527 4583 0
-4528 4584 0
-4529 4585 0
-4530 4586 0
-4531 4587 0
-4532 4588 0
-4533 4589 0
-4534 4590 0
-4535 4591 0
-4536 4592 0
-4537 4593 0
-4538 4594 0
-4539 4595 0
-4540 4596 0
-4541 4597 0
-4542 4598 0
-4543 4599 0
-4544 4600 0
-940 -4489 4546 0
-940 -4490 4547 0
-940 -4491 4548 0
-940 -4492 4549 0
-940 -4493 4550 0
-940 -4494 4551 0
-940 -4495 4552 0
-940 -4496 4553 0
-940 -4497 4554 0
-940 -4498 4555 0
-940 -4499 4556 0
-940 -4500 4557 0
-940 -4501 4558 0
-940 -4502 4559 0
-940 -4503 4560 0
-940 -4504 4561 0
-940 -4505 4562 0
-940 -4506 4563 0
-940 -4507 4564 0
-940 -4508 4565 0
-940 -4509 4566 0
-940 -4510 4567 0
-940 -4511 4568 0
-940 -4512 4569 0
-940 -4513 4570 0
-940 -4514 4571 0
-940 -4515 4572 0
-940 -4516 4573 0
-940 -4517 4574 0
-940 -4518 4575 0
-940 -4519 4576 0
-940 -4520 4577 0
-940 -4521 4578 0
-940 -4522 4579 0
-940 -4523 4580 0
-940 -4524 4581 0
-940 -4525 4582 0
-940 -4526 4583 0
-940 -4527 4584 0
-940 -4528 4585 0
-940 -4529 4586 0
-940 -4530 4587 0
-940 -4531 4588 0
-940 -4532 4589 0
-940 -4533 4590 0
-940 -4534 4591 0
-940 -4535 4592 0
-940 -4536 4593 0
-940 -4537 4594 0
-940 -4538 4595 0
-940 -4539 4596 0
-940 -4540 4597 0
-940 -4541 4598 0
-940 -4542 4599 0
-940 -4543 4600 0
-940 -4544 0
-4545 4601 0
-4546 4602 0
-4547 4603 0
-4548 4604 0
-4549 4605 0
-4550 4606 0
-4551 4607 0
-4552 4608 0
-4553 4609 0
-4554 4610 0
-4555 4611 0
-4556 4612 0
-4557 4613 0
-4558 4614 0
-4559 4615 0
-4560 4616 0
-4561 4617 0
-4562 4618 0
-4563 4619 0
-4564 4620 0
-4565 4621 0
-4566 4622 0
-4567 4623 0
-4568 4624 0
-4569 4625 0
-4570 4626 0
-4571 4627 0
-4572 4628 0
-4573 4629 0
-4574 4630 0
-4575 4631 0
-4576 4632 0
-4577 4633 0
-4578 4634 0
-4579 4635 0
-4580 4636 0
-4581 4637 0
-4582 4638 0
-4583 4639 0
-4584 4640 0
-4585 4641 0
-4586 4642 0
-4587 4643 0
-4588 4644 0
-4589 4645 0
-4590 4646 0
-4591 4647 0
-4592 4648 0
-4593 4649 0
-4594 4650 0
-4595 4651 0
-4596 4652 0
-4597 4653 0
-4598 4654 0
-4599 4655 0
-4600 4656 0
-942 -4545 4602 0
-942 -4546 4603 0
-942 -4547 4604 0
-942 -4548 4605 0
-942 -4549 4606 0
-942 -4550 4607 0
-942 -4551 4608 0
-942 -4552 4609 0
-942 -4553 4610 0
-942 -4554 4611 0
-942 -4555 4612 0
-942 -4556 4613 0
-942 -4557 4614 0
-942 -4558 4615 0
-942 -4559 4616 0
-942 -4560 4617 0
-942 -4561 4618 0
-942 -4562 4619 0
-942 -4563 4620 0
-942 -4564 4621 0
-942 -4565 4622 0
-942 -4566 4623 0
-942 -4567 4624 0
-942 -4568 4625 0
-942 -4569 4626 0
-942 -4570 4627 0
-942 -4571 4628 0
-942 -4572 4629 0
-942 -4573 4630 0
-942 -4574 4631 0
-942 -4575 4632 0
-942 -4576 4633 0
-942 -4577 4634 0
-942 -4578 4635 0
-942 -4579 4636 0
-942 -4580 4637 0
-942 -4581 4638 0
-942 -4582 4639 0
-942 -4583 4640 0
-942 -4584 4641 0
-942 -4585 4642 0
-942 -4586 4643 0
-942 -4587 4644 0
-942 -4588 4645 0
-942 -4589 4646 0
-942 -4590 4647 0
-942 -4591 4648 0
-942 -4592 4649 0
-942 -4593 4650 0
-942 -4594 4651 0
-942 -4595 4652 0
-942 -4596 4653 0
-942 -4597 4654 0
-942 -4598 4655 0
-942 -4599 4656 0
-942 -4600 0
-4601 4657 0
-4602 4658 0
-4603 4659 0
-4604 4660 0
-4605 4661 0
-4606 4662 0
-4607 4663 0
-4608 4664 0
-4609 4665 0
-4610 4666 0
-4611 4667 0
-4612 4668 0
-4613 4669 0
-4614 4670 0
-4615 4671 0
-4616 4672 0
-4617 4673 0
-4618 4674 0
-4619 4675 0
-4620 4676 0
-4621 4677 0
-4622 4678 0
-4623 4679 0
-4624 4680 0
-4625 4681 0
-4626 4682 0
-4627 4683 0
-4628 4684 0
-4629 4685 0
-4630 4686 0
-4631 4687 0
-4632 4688 0
-4633 4689 0
-4634 4690 0
-4635 4691 0
-4636 4692 0
-4637 4693 0
-4638 4694 0
-4639 4695 0
-4640 4696 0
-4641 4697 0
-4642 4698 0
-4643 4699 0
-4644 4700 0
-4645 4701 0
-4646 4702 0
-4647 4703 0
-4648 4704 0
-4649 4705 0
-4650 4706 0
-4651 4707 0
-4652 4708 0
-4653 4709 0
-4654 4710 0
-4655 4711 0
-4656 4712 0
-944 -4601 4658 0
-944 -4602 4659 0
-944 -4603 4660 0
-944 -4604 4661 0
-944 -4605 4662 0
-944 -4606 4663 0
-944 -4607 4664 0
-944 -4608 4665 0
-944 -4609 4666 0
-944 -4610 4667 0
-944 -4611 4668 0
-944 -4612 4669 0
-944 -4613 4670 0
-944 -4614 4671 0
-944 -4615 4672 0
-944 -4616 4673 0
-944 -4617 4674 0
-944 -4618 4675 0
-944 -4619 4676 0
-944 -4620 4677 0
-944 -4621 4678 0
-944 -4622 4679 0
-944 -4623 4680 0
-944 -4624 4681 0
-944 -4625 4682 0
-944 -4626 4683 0
-944 -4627 4684 0
-944 -4628 4685 0
-944 -4629 4686 0
-944 -4630 4687 0
-944 -4631 4688 0
-944 -4632 4689 0
-944 -4633 4690 0
-944 -4634 4691 0
-944 -4635 4692 0
-944 -4636 4693 0
-944 -4637 4694 0
-944 -4638 4695 0
-944 -4639 4696 0
-944 -4640 4697 0
-944 -4641 4698 0
-944 -4642 4699 0
-944 -4643 4700 0
-944 -4644 4701 0
-944 -4645 4702 0
-944 -4646 4703 0
-944 -4647 4704 0
-944 -4648 4705 0
-944 -4649 4706 0
-944 -4650 4707 0
-944 -4651 4708 0
-944 -4652 4709 0
-944 -4653 4710 0
-944 -4654 4711 0
-944 -4655 4712 0
-944 -4656 0
-4657 4713 0
-4658 4714 0
-4659 4715 0
-4660 4716 0
-4661 4717 0
-4662 4718 0
-4663 4719 0
-4664 4720 0
-4665 4721 0
-4666 4722 0
-4667 4723 0
-4668 4724 0
-4669 4725 0
-4670 4726 0
-4671 4727 0
-4672 4728 0
-4673 4729 0
-4674 4730 0
-4675 4731 0
-4676 4732 0
-4677 4733 0
-4678 4734 0
-4679 4735 0
-4680 4736 0
-4681 4737 0
-4682 4738 0
-4683 4739 0
-4684 4740 0
-4685 4741 0
-4686 4742 0
-4687 4743 0
-4688 4744 0
-4689 4745 0
-4690 4746 0
-4691 4747 0
-4692 4748 0
-4693 4749 0
-4694 4750 0
-4695 4751 0
-4696 4752 0
-4697 4753 0
-4698 4754 0
-4699 4755 0
-4700 4756 0
-4701 4757 0
-4702 4758 0
-4703 4759 0
-4704 4760 0
-4705 4761 0
-4706 4762 0
-4707 4763 0
-4708 4764 0
-4709 4765 0
-4710 4766 0
-4711 4767 0
-4712 4768 0
-946 -4657 4714 0
-946 -4658 4715 0
-946 -4659 4716 0
-946 -4660 4717 0
-946 -4661 4718 0
-946 -4662 4719 0
-946 -4663 4720 0
-946 -4664 4721 0
-946 -4665 4722 0
-946 -4666 4723 0
-946 -4667 4724 0
-946 -4668 4725 0
-946 -4669 4726 0
-946 -4670 4727 0
-946 -4671 4728 0
-946 -4672 4729 0
-946 -4673 4730 0
-946 -4674 4731 0
-946 -4675 4732 0
-946 -4676 4733 0
-946 -4677 4734 0
-946 -4678 4735 0
-946 -4679 4736 0
-946 -4680 4737 0
-946 -4681 4738 0
-946 -4682 4739 0
-946 -4683 4740 0
-946 -4684 4741 0
-946 -4685 4742 0
-946 -4686 4743 0
-946 -4687 4744 0
-946 -4688 4745 0
-946 -4689 4746 0
-946 -4690 4747 0
-946 -4691 4748 0
-946 -4692 4749 0
-946 -4693 4750 0
-946 -4694 4751 0
-946 -4695 4752 0
-946 -4696 4753 0
-946 -4697 4754 0
-946 -4698 4755 0
-946 -4699 4756 0
-946 -4700 4757 0
-946 -4701 4758 0
-946 -4702 4759 0
-946 -4703 4760 0
-946 -4704 4761 0
-946 -4705 4762 0
-946 -4706 4763 0
-946 -4707 4764 0
-946 -4708 4765 0
-946 -4709 4766 0
-946 -4710 4767 0
-946 -4711 4768 0
-946 -4712 0
-4713 4769 0
-4714 4770 0
-4715 4771 0
-4716 4772 0
-4717 4773 0
-4718 4774 0
-4719 4775 0
-4720 4776 0
-4721 4777 0
-4722 4778 0
-4723 4779 0
-4724 4780 0
-4725 4781 0
-4726 4782 0
-4727 4783 0
-4728 4784 0
-4729 4785 0
-4730 4786 0
-4731 4787 0
-4732 4788 0
-4733 4789 0
-4734 4790 0
-4735 4791 0
-4736 4792 0
-4737 4793 0
-4738 4794 0
-4739 4795 0
-4740 4796 0
-4741 4797 0
-4742 4798 0
-4743 4799 0
-4744 4800 0
-4745 4801 0
-4746 4802 0
-4747 4803 0
-4748 4804 0
-4749 4805 0
-4750 4806 0
-4751 4807 0
-4752 4808 0
-4753 4809 0
-4754 4810 0
-4755 4811 0
-4756 4812 0
-4757 4813 0
-4758 4814 0
-4759 4815 0
-4760 4816 0
-4761 4817 0
-4762 4818 0
-4763 4819 0
-4764 4820 0
-4765 4821 0
-4766 4822 0
-4767 4823 0
-4768 4824 0
-948 -4713 4770 0
-948 -4714 4771 0
-948 -4715 4772 0
-948 -4716 4773 0
-948 -4717 4774 0
-948 -4718 4775 0
-948 -4719 4776 0
-948 -4720 4777 0
-948 -4721 4778 0
-948 -4722 4779 0
-948 -4723 4780 0
-948 -4724 4781 0
-948 -4725 4782 0
-948 -4726 4783 0
-948 -4727 4784 0
-948 -4728 4785 0
-948 -4729 4786 0
-948 -4730 4787 0
-948 -4731 4788 0
-948 -4732 4789 0
-948 -4733 4790 0
-948 -4734 4791 0
-948 -4735 4792 0
-948 -4736 4793 0
-948 -4737 4794 0
-948 -4738 4795 0
-948 -4739 4796 0
-948 -4740 4797 0
-948 -4741 4798 0
-948 -4742 4799 0
-948 -4743 4800 0
-948 -4744 4801 0
-948 -4745 4802 0
-948 -4746 4803 0
-948 -4747 4804 0
-948 -4748 4805 0
-948 -4749 4806 0
-948 -4750 4807 0
-948 -4751 4808 0
-948 -4752 4809 0
-948 -4753 4810 0
-948 -4754 4811 0
-948 -4755 4812 0
-948 -4756 4813 0
-948 -4757 4814 0
-948 -4758 4815 0
-948 -4759 4816 0
-948 -4760 4817 0
-948 -4761 4818 0
-948 -4762 4819 0
-948 -4763 4820 0
-948 -4764 4821 0
-948 -4765 4822 0
-948 -4766 4823 0
-948 -4767 4824 0
-948 -4768 0
-4769 4825 0
-4770 4826 0
-4771 4827 0
-4772 4828 0
-4773 4829 0
-4774 4830 0
-4775 4831 0
-4776 4832 0
-4777 4833 0
-4778 4834 0
-4779 4835 0
-4780 4836 0
-4781 4837 0
-4782 4838 0
-4783 4839 0
-4784 4840 0
-4785 4841 0
-4786 4842 0
-4787 4843 0
-4788 4844 0
-4789 4845 0
-4790 4846 0
-4791 4847 0
-4792 4848 0
-4793 4849 0
-4794 4850 0
-4795 4851 0
-4796 4852 0
-4797 4853 0
-4798 4854 0
-4799 4855 0
-4800 4856 0
-4801 4857 0
-4802 4858 0
-4803 4859 0
-4804 4860 0
-4805 4861 0
-4806 4862 0
-4807 4863 0
-4808 4864 0
-4809 4865 0
-4810 4866 0
-4811 4867 0
-4812 4868 0
-4813 4869 0
-4814 4870 0
-4815 4871 0
-4816 4872 0
-4817 4873 0
-4818 4874 0
-4819 4875 0
-4820 4876 0
-4821 4877 0
-4822 4878 0
-4823 4879 0
-4824 4880 0
-950 -4769 4826 0
-950 -4770 4827 0
-950 -4771 4828 0
-950 -4772 4829 0
-950 -4773 4830 0
-950 -4774 4831 0
-950 -4775 4832 0
-950 -4776 4833 0
-950 -4777 4834 0
-950 -4778 4835 0
-950 -4779 4836 0
-950 -4780 4837 0
-950 -4781 4838 0
-950 -4782 4839 0
-950 -4783 4840 0
-950 -4784 4841 0
-950 -4785 4842 0
-950 -4786 4843 0
-950 -4787 4844 0
-950 -4788 4845 0
-950 -4789 4846 0
-950 -4790 4847 0
-950 -4791 4848 0
-950 -4792 4849 0
-950 -4793 4850 0
-950 -4794 4851 0
-950 -4795 4852 0
-950 -4796 4853 0
-950 -4797 4854 0
-950 -4798 4855 0
-950 -4799 4856 0
-950 -4800 4857 0
-950 -4801 4858 0
-950 -4802 4859 0
-950 -4803 4860 0
-950 -4804 4861 0
-950 -4805 4862 0
-950 -4806 4863 0
-950 -4807 4864 0
-950 -4808 4865 0
-950 -4809 4866 0
-950 -4810 4867 0
-950 -4811 4868 0
-950 -4812 4869 0
-950 -4813 4870 0
-950 -4814 4871 0
-950 -4815 4872 0
-950 -4816 4873 0
-950 -4817 4874 0
-950 -4818 4875 0
-950 -4819 4876 0
-950 -4820 4877 0
-950 -4821 4878 0
-950 -4822 4879 0
-950 -4823 4880 0
-950 -4824 0
-4825 4881 0
-4826 4882 0
-4827 4883 0
-4828 4884 0
-4829 4885 0
-4830 4886 0
-4831 4887 0
-4832 4888 0
-4833 4889 0
-4834 4890 0
-4835 4891 0
-4836 4892 0
-4837 4893 0
-4838 4894 0
-4839 4895 0
-4840 4896 0
-4841 4897 0
-4842 4898 0
-4843 4899 0
-4844 4900 0
-4845 4901 0
-4846 4902 0
-4847 4903 0
-4848 4904 0
-4849 4905 0
-4850 4906 0
-4851 4907 0
-4852 4908 0
-4853 4909 0
-4854 4910 0
-4855 4911 0
-4856 4912 0
-4857 4913 0
-4858 4914 0
-4859 4915 0
-4860 4916 0
-4861 4917 0
-4862 4918 0
-4863 4919 0
-4864 4920 0
-4865 4921 0
-4866 4922 0
-4867 4923 0
-4868 4924 0
-4869 4925 0
-4870 4926 0
-4871 4927 0
-4872 4928 0
-4873 4929 0
-4874 4930 0
-4875 4931 0
-4876 4932 0
-4877 4933 0
-4878 4934 0
-4879 4935 0
-4880 4936 0
-952 -4825 4882 0
-952 -4826 4883 0
-952 -4827 4884 0
-952 -4828 4885 0
-952 -4829 4886 0
-952 -4830 4887 0
-952 -4831 4888 0
-952 -4832 4889 0
-952 -4833 4890 0
-952 -4834 4891 0
-952 -4835 4892 0
-952 -4836 4893 0
-952 -4837 4894 0
-952 -4838 4895 0
-952 -4839 4896 0
-952 -4840 4897 0
-952 -4841 4898 0
-952 -4842 4899 0
-952 -4843 4900 0
-952 -4844 4901 0
-952 -4845 4902 0
-952 -4846 4903 0
-952 -4847 4904 0
-952 -4848 4905 0
-952 -4849 4906 0
-952 -4850 4907 0
-952 -4851 4908 0
-952 -4852 4909 0
-952 -4853 4910 0
-952 -4854 4911 0
-952 -4855 4912 0
-952 -4856 4913 0
-952 -4857 4914 0
-952 -4858 4915 0
-952 -4859 4916 0
-952 -4860 4917 0
-952 -4861 4918 0
-952 -4862 4919 0
-952 -4863 4920 0
-952 -4864 4921 0
-952 -4865 4922 0
-952 -4866 4923 0
-952 -4867 4924 0
-952 -4868 4925 0
-952 -4869 4926 0
-952 -4870 4927 0
-952 -4871 4928 0
-952 -4872 4929 0
-952 -4873 4930 0
-952 -4874 4931 0
-952 -4875 4932 0
-952 -4876 4933 0
-952 -4877 4934 0
-952 -4878 4935 0
-952 -4879 4936 0
-952 -4880 0
-4881 4937 0
-4882 4938 0
-4883 4939 0
-4884 4940 0
-4885 4941 0
-4886 4942 0
-4887 4943 0
-4888 4944 0
-4889 4945 0
-4890 4946 0
-4891 4947 0
-4892 4948 0
-4893 4949 0
-4894 4950 0
-4895 4951 0
-4896 4952 0
-4897 4953 0
-4898 4954 0
-4899 4955 0
-4900 4956 0
-4901 4957 0
-4902 4958 0
-4903 4959 0
-4904 4960 0
-4905 4961 0
-4906 4962 0
-4907 4963 0
-4908 4964 0
-4909 4965 0
-4910 4966 0
-4911 4967 0
-4912 4968 0
-4913 4969 0
-4914 4970 0
-4915 4971 0
-4916 4972 0
-4917 4973 0
-4918 4974 0
-4919 4975 0
-4920 4976 0
-4921 4977 0
-4922 4978 0
-4923 4979 0
-4924 4980 0
-4925 4981 0
-4926 4982 0
-4927 4983 0
-4928 4984 0
-4929 4985 0
-4930 4986 0
-4931 4987 0
-4932 4988 0
-4933 4989 0
-4934 4990 0
-4935 4991 0
-4936 4992 0
-954 -4881 4938 0
-954 -4882 4939 0
-954 -4883 4940 0
-954 -4884 4941 0
-954 -4885 4942 0
-954 -4886 4943 0
-954 -4887 4944 0
-954 -4888 4945 0
-954 -4889 4946 0
-954 -4890 4947 0
-954 -4891 4948 0
-954 -4892 4949 0
-954 -4893 4950 0
-954 -4894 4951 0
-954 -4895 4952 0
-954 -4896 4953 0
-954 -4897 4954 0
-954 -4898 4955 0
-954 -4899 4956 0
-954 -4900 4957 0
-954 -4901 4958 0
-954 -4902 4959 0
-954 -4903 4960 0
-954 -4904 4961 0
-954 -4905 4962 0
-954 -4906 4963 0
-954 -4907 4964 0
-954 -4908 4965 0
-954 -4909 4966 0
-954 -4910 4967 0
-954 -4911 4968 0
-954 -4912 4969 0
-954 -4913 4970 0
-954 -4914 4971 0
-954 -4915 4972 0
-954 -4916 4973 0
-954 -4917 4974 0
-954 -4918 4975 0
-954 -4919 4976 0
-954 -4920 4977 0
-954 -4921 4978 0
-954 -4922 4979 0
-954 -4923 4980 0
-954 -4924 4981 0
-954 -4925 4982 0
-954 -4926 4983 0
-954 -4927 4984 0
-954 -4928 4985 0
-954 -4929 4986 0
-954 -4930 4987 0
-954 -4931 4988 0
-954 -4932 4989 0
-954 -4933 4990 0
-954 -4934 4991 0
-954 -4935 4992 0
-954 -4936 0
-4937 4993 0
-4938 4994 0
-4939 4995 0
-4940 4996 0
-4941 4997 0
-4942 4998 0
-4943 4999 0
-4944 5000 0
-4945 5001 0
-4946 5002 0
-4947 5003 0
-4948 5004 0
-4949 5005 0
-4950 5006 0
-4951 5007 0
-4952 5008 0
-4953 5009 0
-4954 5010 0
-4955 5011 0
-4956 5012 0
-4957 5013 0
-4958 5014 0
-4959 5015 0
-4960 5016 0
-4961 5017 0
-4962 5018 0
-4963 5019 0
-4964 5020 0
-4965 5021 0
-4966 5022 0
-4967 5023 0
-4968 5024 0
-4969 5025 0
-4970 5026 0
-4971 5027 0
-4972 5028 0
-4973 5029 0
-4974 5030 0
-4975 5031 0
-4976 5032 0
-4977 5033 0
-4978 5034 0
-4979 5035 0
-4980 5036 0
-4981 5037 0
-4982 5038 0
-4983 5039 0
-4984 5040 0
-4985 5041 0
-4986 5042 0
-4987 5043 0
-4988 5044 0
-4989 5045 0
-4990 5046 0
-4991 5047 0
-4992 5048 0
-956 -4937 4994 0
-956 -4938 4995 0
-956 -4939 4996 0
-956 -4940 4997 0
-956 -4941 4998 0
-956 -4942 4999 0
-956 -4943 5000 0
-956 -4944 5001 0
-956 -4945 5002 0
-956 -4946 5003 0
-956 -4947 5004 0
-956 -4948 5005 0
-956 -4949 5006 0
-956 -4950 5007 0
-956 -4951 5008 0
-956 -4952 5009 0
-956 -4953 5010 0
-956 -4954 5011 0
-956 -4955 5012 0
-956 -4956 5013 0
-956 -4957 5014 0
-956 -4958 5015 0
-956 -4959 5016 0
-956 -4960 5017 0
-956 -4961 5018 0
-956 -4962 5019 0
-956 -4963 5020 0
-956 -4964 5021 0
-956 -4965 5022 0
-956 -4966 5023 0
-956 -4967 5024 0
-956 -4968 5025 0
-956 -4969 5026 0
-956 -4970 5027 0
-956 -4971 5028 0
-956 -4972 5029 0
-956 -4973 5030 0
-956 -4974 5031 0
-956 -4975 5032 0
-956 -4976 5033 0
-956 -4977 5034 0
-956 -4978 5035 0
-956 -4979 5036 0
-956 -4980 5037 0
-956 -4981 5038 0
-956 -4982 5039 0
-956 -4983 5040 0
-956 -4984 5041 0
-956 -4985 5042 0
-956 -4986 5043 0
-956 -4987 5044 0
-956 -4988 5045 0
-956 -4989 5046 0
-956 -4990 5047 0
-956 -4991 5048 0
-956 -4992 0
-4993 5049 0
-4994 5050 0
-4995 5051 0
-4996 5052 0
-4997 5053 0
-4998 5054 0
-4999 5055 0
-5000 5056 0
-5001 5057 0
-5002 5058 0
-5003 5059 0
-5004 5060 0
-5005 5061 0
-5006 5062 0
-5007 5063 0
-5008 5064 0
-5009 5065 0
-5010 5066 0
-5011 5067 0
-5012 5068 0
-5013 5069 0
-5014 5070 0
-5015 5071 0
-5016 5072 0
-5017 5073 0
-5018 5074 0
-5019 5075 0
-5020 5076 0
-5021 5077 0
-5022 5078 0
-5023 5079 0
-5024 5080 0
-5025 5081 0
-5026 5082 0
-5027 5083 0
-5028 5084 0
-5029 5085 0
-5030 5086 0
-5031 5087 0
-5032 5088 0
-5033 5089 0
-5034 5090 0
-5035 5091 0
-5036 5092 0
-5037 5093 0
-5038 5094 0
-5039 5095 0
-5040 5096 0
-5041 5097 0
-5042 5098 0
-5043 5099 0
-5044 5100 0
-5045 5101 0
-5046 5102 0
-5047 5103 0
-5048 5104 0
-958 -4993 5050 0
-958 -4994 5051 0
-958 -4995 5052 0
-958 -4996 5053 0
-958 -4997 5054 0
-958 -4998 5055 0
-958 -4999 5056 0
-958 -5000 5057 0
-958 -5001 5058 0
-958 -5002 5059 0
-958 -5003 5060 0
-958 -5004 5061 0
-958 -5005 5062 0
-958 -5006 5063 0
-958 -5007 5064 0
-958 -5008 5065 0
-958 -5009 5066 0
-958 -5010 5067 0
-958 -5011 5068 0
-958 -5012 5069 0
-958 -5013 5070 0
-958 -5014 5071 0
-958 -5015 5072 0
-958 -5016 5073 0
-958 -5017 5074 0
-958 -5018 5075 0
-958 -5019 5076 0
-958 -5020 5077 0
-958 -5021 5078 0
-958 -5022 5079 0
-958 -5023 5080 0
-958 -5024 5081 0
-958 -5025 5082 0
-958 -5026 5083 0
-958 -5027 5084 0
-958 -5028 5085 0
-958 -5029 5086 0
-958 -5030 5087 0
-958 -5031 5088 0
-958 -5032 5089 0
-958 -5033 5090 0
-958 -5034 5091 0
-958 -5035 5092 0
-958 -5036 5093 0
-958 -5037 5094 0
-958 -5038 5095 0
-958 -5039 5096 0
-958 -5040 5097 0
-958 -5041 5098 0
-958 -5042 5099 0
-958 -5043 5100 0
-958 -5044 5101 0
-958 -5045 5102 0
-958 -5046 5103 0
-958 -5047 5104 0
-958 -5048 0
-5049 5105 0
-5050 5106 0
-5051 5107 0
-5052 5108 0
-5053 5109 0
-5054 5110 0
-5055 5111 0
-5056 5112 0
-5057 5113 0
-5058 5114 0
-5059 5115 0
-5060 5116 0
-5061 5117 0
-5062 5118 0
-5063 5119 0
-5064 5120 0
-5065 5121 0
-5066 5122 0
-5067 5123 0
-5068 5124 0
-5069 5125 0
-5070 5126 0
-5071 5127 0
-5072 5128 0
-5073 5129 0
-5074 5130 0
-5075 5131 0
-5076 5132 0
-5077 5133 0
-5078 5134 0
-5079 5135 0
-5080 5136 0
-5081 5137 0
-5082 5138 0
-5083 5139 0
-5084 5140 0
-5085 5141 0
-5086 5142 0
-5087 5143 0
-5088 5144 0
-5089 5145 0
-5090 5146 0
-5091 5147 0
-5092 5148 0
-5093 5149 0
-5094 5150 0
-5095 5151 0
-5096 5152 0
-5097 5153 0
-5098 5154 0
-5099 5155 0
-5100 5156 0
-5101 5157 0
-5102 5158 0
-5103 5159 0
-5104 5160 0
-960 -5049 5106 0
-960 -5050 5107 0
-960 -5051 5108 0
-960 -5052 5109 0
-960 -5053 5110 0
-960 -5054 5111 0
-960 -5055 5112 0
-960 -5056 5113 0
-960 -5057 5114 0
-960 -5058 5115 0
-960 -5059 5116 0
-960 -5060 5117 0
-960 -5061 5118 0
-960 -5062 5119 0
-960 -5063 5120 0
-960 -5064 5121 0
-960 -5065 5122 0
-960 -5066 5123 0
-960 -5067 5124 0
-960 -5068 5125 0
-960 -5069 5126 0
-960 -5070 5127 0
-960 -5071 5128 0
-960 -5072 5129 0
-960 -5073 5130 0
-960 -5074 5131 0
-960 -5075 5132 0
-960 -5076 5133 0
-960 -5077 5134 0
-960 -5078 5135 0
-960 -5079 5136 0
-960 -5080 5137 0
-960 -5081 5138 0
-960 -5082 5139 0
-960 -5083 5140 0
-960 -5084 5141 0
-960 -5085 5142 0
-960 -5086 5143 0
-960 -5087 5144 0
-960 -5088 5145 0
-960 -5089 5146 0
-960 -5090 5147 0
-960 -5091 5148 0
-960 -5092 5149 0
-960 -5093 5150 0
-960 -5094 5151 0
-960 -5095 5152 0
-960 -5096 5153 0
-960 -5097 5154 0
-960 -5098 5155 0
-960 -5099 5156 0
-960 -5100 5157 0
-960 -5101 5158 0
-960 -5102 5159 0
-960 -5103 5160 0
-960 -5104 0
-5105 5161 0
-5106 5162 0
-5107 5163 0
-5108 5164 0
-5109 5165 0
-5110 5166 0
-5111 5167 0
-5112 5168 0
-5113 5169 0
-5114 5170 0
-5115 5171 0
-5116 5172 0
-5117 5173 0
-5118 5174 0
-5119 5175 0
-5120 5176 0
-5121 5177 0
-5122 5178 0
-5123 5179 0
-5124 5180 0
-5125 5181 0
-5126 5182 0
-5127 5183 0
-5128 5184 0
-5129 5185 0
-5130 5186 0
-5131 5187 0
-5132 5188 0
-5133 5189 0
-5134 5190 0
-5135 5191 0
-5136 5192 0
-5137 5193 0
-5138 5194 0
-5139 5195 0
-5140 5196 0
-5141 5197 0
-5142 5198 0
-5143 5199 0
-5144 5200 0
-5145 5201 0
-5146 5202 0
-5147 5203 0
-5148 5204 0
-5149 5205 0
-5150 5206 0
-5151 5207 0
-5152 5208 0
-5153 5209 0
-5154 5210 0
-5155 5211 0
-5156 5212 0
-5157 5213 0
-5158 5214 0
-5159 5215 0
-5160 5216 0
-962 -5105 5162 0
-962 -5106 5163 0
-962 -5107 5164 0
-962 -5108 5165 0
-962 -5109 5166 0
-962 -5110 5167 0
-962 -5111 5168 0
-962 -5112 5169 0
-962 -5113 5170 0
-962 -5114 5171 0
-962 -5115 5172 0
-962 -5116 5173 0
-962 -5117 5174 0
-962 -5118 5175 0
-962 -5119 5176 0
-962 -5120 5177 0
-962 -5121 5178 0
-962 -5122 5179 0
-962 -5123 5180 0
-962 -5124 5181 0
-962 -5125 5182 0
-962 -5126 5183 0
-962 -5127 5184 0
-962 -5128 5185 0
-962 -5129 5186 0
-962 -5130 5187 0
-962 -5131 5188 0
-962 -5132 5189 0
-962 -5133 5190 0
-962 -5134 5191 0
-962 -5135 5192 0
-962 -5136 5193 0
-962 -5137 5194 0
-962 -5138 5195 0
-962 -5139 5196 0
-962 -5140 5197 0
-962 -5141 5198 0
-962 -5142 5199 0
-962 -5143 5200 0
-962 -5144 5201 0
-962 -5145 5202 0
-962 -5146 5203 0
-962 -5147 5204 0
-962 -5148 5205 0
-962 -5149 5206 0
-962 -5150 5207 0
-962 -5151 5208 0
-962 -5152 5209 0
-962 -5153 5210 0
-962 -5154 5211 0
-962 -5155 5212 0
-962 -5156 5213 0
-962 -5157 5214 0
-962 -5158 5215 0
-962 -5159 5216 0
-962 -5160 0
-5161 5217 0
-5162 5218 0
-5163 5219 0
-5164 5220 0
-5165 5221 0
-5166 5222 0
-5167 5223 0
-5168 5224 0
-5169 5225 0
-5170 5226 0
-5171 5227 0
-5172 5228 0
-5173 5229 0
-5174 5230 0
-5175 5231 0
-5176 5232 0
-5177 5233 0
-5178 5234 0
-5179 5235 0
-5180 5236 0
-5181 5237 0
-5182 5238 0
-5183 5239 0
-5184 5240 0
-5185 5241 0
-5186 5242 0
-5187 5243 0
-5188 5244 0
-5189 5245 0
-5190 5246 0
-5191 5247 0
-5192 5248 0
-5193 5249 0
-5194 5250 0
-5195 5251 0
-5196 5252 0
-5197 5253 0
-5198 5254 0
-5199 5255 0
-5200 5256 0
-5201 5257 0
-5202 5258 0
-5203 5259 0
-5204 5260 0
-5205 5261 0
-5206 5262 0
-5207 5263 0
-5208 5264 0
-5209 5265 0
-5210 5266 0
-5211 5267 0
-5212 5268 0
-5213 5269 0
-5214 5270 0
-5215 5271 0
-5216 5272 0
-964 -5161 5218 0
-964 -5162 5219 0
-964 -5163 5220 0
-964 -5164 5221 0
-964 -5165 5222 0
-964 -5166 5223 0
-964 -5167 5224 0
-964 -5168 5225 0
-964 -5169 5226 0
-964 -5170 5227 0
-964 -5171 5228 0
-964 -5172 5229 0
-964 -5173 5230 0
-964 -5174 5231 0
-964 -5175 5232 0
-964 -5176 5233 0
-964 -5177 5234 0
-964 -5178 5235 0
-964 -5179 5236 0
-964 -5180 5237 0
-964 -5181 5238 0
-964 -5182 5239 0
-964 -5183 5240 0
-964 -5184 5241 0
-964 -5185 5242 0
-964 -5186 5243 0
-964 -5187 5244 0
-964 -5188 5245 0
-964 -5189 5246 0
-964 -5190 5247 0
-964 -5191 5248 0
-964 -5192 5249 0
-964 -5193 5250 0
-964 -5194 5251 0
-964 -5195 5252 0
-964 -5196 5253 0
-964 -5197 5254 0
-964 -5198 5255 0
-964 -5199 5256 0
-964 -5200 5257 0
-964 -5201 5258 0
-964 -5202 5259 0
-964 -5203 5260 0
-964 -5204 5261 0
-964 -5205 5262 0
-964 -5206 5263 0
-964 -5207 5264 0
-964 -5208 5265 0
-964 -5209 5266 0
-964 -5210 5267 0
-964 -5211 5268 0
-964 -5212 5269 0
-964 -5213 5270 0
-964 -5214 5271 0
-964 -5215 5272 0
-964 -5216 0
-5217 5273 0
-5218 5274 0
-5219 5275 0
-5220 5276 0
-5221 5277 0
-5222 5278 0
-5223 5279 0
-5224 5280 0
-5225 5281 0
-5226 5282 0
-5227 5283 0
-5228 5284 0
-5229 5285 0
-5230 5286 0
-5231 5287 0
-5232 5288 0
-5233 5289 0
-5234 5290 0
-5235 5291 0
-5236 5292 0
-5237 5293 0
-5238 5294 0
-5239 5295 0
-5240 5296 0
-5241 5297 0
-5242 5298 0
-5243 5299 0
-5244 5300 0
-5245 5301 0
-5246 5302 0
-5247 5303 0
-5248 5304 0
-5249 5305 0
-5250 5306 0
-5251 5307 0
-5252 5308 0
-5253 5309 0
-5254 5310 0
-5255 5311 0
-5256 5312 0
-5257 5313 0
-5258 5314 0
-5259 5315 0
-5260 5316 0
-5261 5317 0
-5262 5318 0
-5263 5319 0
-5264 5320 0
-5265 5321 0
-5266 5322 0
-5267 5323 0
-5268 5324 0
-5269 5325 0
-5270 5326 0
-5271 5327 0
-5272 5328 0
-966 -5217 5274 0
-966 -5218 5275 0
-966 -5219 5276 0
-966 -5220 5277 0
-966 -5221 5278 0
-966 -5222 5279 0
-966 -5223 5280 0
-966 -5224 5281 0
-966 -5225 5282 0
-966 -5226 5283 0
-966 -5227 5284 0
-966 -5228 5285 0
-966 -5229 5286 0
-966 -5230 5287 0
-966 -5231 5288 0
-966 -5232 5289 0
-966 -5233 5290 0
-966 -5234 5291 0
-966 -5235 5292 0
-966 -5236 5293 0
-966 -5237 5294 0
-966 -5238 5295 0
-966 -5239 5296 0
-966 -5240 5297 0
-966 -5241 5298 0
-966 -5242 5299 0
-966 -5243 5300 0
-966 -5244 5301 0
-966 -5245 5302 0
-966 -5246 5303 0
-966 -5247 5304 0
-966 -5248 5305 0
-966 -5249 5306 0
-966 -5250 5307 0
-966 -5251 5308 0
-966 -5252 5309 0
-966 -5253 5310 0
-966 -5254 5311 0
-966 -5255 5312 0
-966 -5256 5313 0
-966 -5257 5314 0
-966 -5258 5315 0
-966 -5259 5316 0
-966 -5260 5317 0
-966 -5261 5318 0
-966 -5262 5319 0
-966 -5263 5320 0
-966 -5264 5321 0
-966 -5265 5322 0
-966 -5266 5323 0
-966 -5267 5324 0
-966 -5268 5325 0
-966 -5269 5326 0
-966 -5270 5327 0
-966 -5271 5328 0
-966 -5272 0
-5273 5329 0
-5274 5330 0
-5275 5331 0
-5276 5332 0
-5277 5333 0
-5278 5334 0
-5279 5335 0
-5280 5336 0
-5281 5337 0
-5282 5338 0
-5283 5339 0
-5284 5340 0
-5285 5341 0
-5286 5342 0
-5287 5343 0
-5288 5344 0
-5289 5345 0
-5290 5346 0
-5291 5347 0
-5292 5348 0
-5293 5349 0
-5294 5350 0
-5295 5351 0
-5296 5352 0
-5297 5353 0
-5298 5354 0
-5299 5355 0
-5300 5356 0
-5301 5357 0
-5302 5358 0
-5303 5359 0
-5304 5360 0
-5305 5361 0
-5306 5362 0
-5307 5363 0
-5308 5364 0
-5309 5365 0
-5310 5366 0
-5311 5367 0
-5312 5368 0
-5313 5369 0
-5314 5370 0
-5315 5371 0
-5316 5372 0
-5317 5373 0
-5318 5374 0
-5319 5375 0
-5320 5376 0
-5321 5377 0
-5322 5378 0
-5323 5379 0
-5324 5380 0
-5325 5381 0
-5326 5382 0
-5327 5383 0
-5328 5384 0
-968 -5273 5330 0
-968 -5274 5331 0
-968 -5275 5332 0
-968 -5276 5333 0
-968 -5277 5334 0
-968 -5278 5335 0
-968 -5279 5336 0
-968 -5280 5337 0
-968 -5281 5338 0
-968 -5282 5339 0
-968 -5283 5340 0
-968 -5284 5341 0
-968 -5285 5342 0
-968 -5286 5343 0
-968 -5287 5344 0
-968 -5288 5345 0
-968 -5289 5346 0
-968 -5290 5347 0
-968 -5291 5348 0
-968 -5292 5349 0
-968 -5293 5350 0
-968 -5294 5351 0
-968 -5295 5352 0
-968 -5296 5353 0
-968 -5297 5354 0
-968 -5298 5355 0
-968 -5299 5356 0
-968 -5300 5357 0
-968 -5301 5358 0
-968 -5302 5359 0
-968 -5303 5360 0
-968 -5304 5361 0
-968 -5305 5362 0
-968 -5306 5363 0
-968 -5307 5364 0
-968 -5308 5365 0
-968 -5309 5366 0
-968 -5310 5367 0
-968 -5311 5368 0
-968 -5312 5369 0
-968 -5313 5370 0
-968 -5314 5371 0
-968 -5315 5372 0
-968 -5316 5373 0
-968 -5317 5374 0
-968 -5318 5375 0
-968 -5319 5376 0
-968 -5320 5377 0
-968 -5321 5378 0
-968 -5322 5379 0
-968 -5323 5380 0
-968 -5324 5381 0
-968 -5325 5382 0
-968 -5326 5383 0
-968 -5327 5384 0
-968 -5328 0
-5329 5385 0
-5330 5386 0
-5331 5387 0
-5332 5388 0
-5333 5389 0
-5334 5390 0
-5335 5391 0
-5336 5392 0
-5337 5393 0
-5338 5394 0
-5339 5395 0
-5340 5396 0
-5341 5397 0
-5342 5398 0
-5343 5399 0
-5344 5400 0
-5345 5401 0
-5346 5402 0
-5347 5403 0
-5348 5404 0
-5349 5405 0
-5350 5406 0
-5351 5407 0
-5352 5408 0
-5353 5409 0
-5354 5410 0
-5355 5411 0
-5356 5412 0
-5357 5413 0
-5358 5414 0
-5359 5415 0
-5360 5416 0
-5361 5417 0
-5362 5418 0
-5363 5419 0
-5364 5420 0
-5365 5421 0
-5366 5422 0
-5367 5423 0
-5368 5424 0
-5369 5425 0
-5370 5426 0
-5371 5427 0
-5372 5428 0
-5373 5429 0
-5374 5430 0
-5375 5431 0
-5376 5432 0
-5377 5433 0
-5378 5434 0
-5379 5435 0
-5380 5436 0
-5381 5437 0
-5382 5438 0
-5383 5439 0
-5384 5440 0
-970 -5329 5386 0
-970 -5330 5387 0
-970 -5331 5388 0
-970 -5332 5389 0
-970 -5333 5390 0
-970 -5334 5391 0
-970 -5335 5392 0
-970 -5336 5393 0
-970 -5337 5394 0
-970 -5338 5395 0
-970 -5339 5396 0
-970 -5340 5397 0
-970 -5341 5398 0
-970 -5342 5399 0
-970 -5343 5400 0
-970 -5344 5401 0
-970 -5345 5402 0
-970 -5346 5403 0
-970 -5347 5404 0
-970 -5348 5405 0
-970 -5349 5406 0
-970 -5350 5407 0
-970 -5351 5408 0
-970 -5352 5409 0
-970 -5353 5410 0
-970 -5354 5411 0
-970 -5355 5412 0
-970 -5356 5413 0
-970 -5357 5414 0
-970 -5358 5415 0
-970 -5359 5416 0
-970 -5360 5417 0
-970 -5361 5418 0
-970 -5362 5419 0
-970 -5363 5420 0
-970 -5364 5421 0
-970 -5365 5422 0
-970 -5366 5423 0
-970 -5367 5424 0
-970 -5368 5425 0
-970 -5369 5426 0
-970 -5370 5427 0
-970 -5371 5428 0
-970 -5372 5429 0
-970 -5373 5430 0
-970 -5374 5431 0
-970 -5375 5432 0
-970 -5376 5433 0
-970 -5377 5434 0
-970 -5378 5435 0
-970 -5379 5436 0
-970 -5380 5437 0
-970 -5381 5438 0
-970 -5382 5439 0
-970 -5383 5440 0
-970 -5384 0
-5385 5441 0
-5386 5442 0
-5387 5443 0
-5388 5444 0
-5389 5445 0
-5390 5446 0
-5391 5447 0
-5392 5448 0
-5393 5449 0
-5394 5450 0
-5395 5451 0
-5396 5452 0
-5397 5453 0
-5398 5454 0
-5399 5455 0
-5400 5456 0
-5401 5457 0
-5402 5458 0
-5403 5459 0
-5404 5460 0
-5405 5461 0
-5406 5462 0
-5407 5463 0
-5408 5464 0
-5409 5465 0
-5410 5466 0
-5411 5467 0
-5412 5468 0
-5413 5469 0
-5414 5470 0
-5415 5471 0
-5416 5472 0
-5417 5473 0
-5418 5474 0
-5419 5475 0
-5420 5476 0
-5421 5477 0
-5422 5478 0
-5423 5479 0
-5424 5480 0
-5425 5481 0
-5426 5482 0
-5427 5483 0
-5428 5484 0
-5429 5485 0
-5430 5486 0
-5431 5487 0
-5432 5488 0
-5433 5489 0
-5434 5490 0
-5435 5491 0
-5436 5492 0
-5437 5493 0
-5438 5494 0
-5439 5495 0
-5440 5496 0
-972 -5385 5442 0
-972 -5386 5443 0
-972 -5387 5444 0
-972 -5388 5445 0
-972 -5389 5446 0
-972 -5390 5447 0
-972 -5391 5448 0
-972 -5392 5449 0
-972 -5393 5450 0
-972 -5394 5451 0
-972 -5395 5452 0
-972 -5396 5453 0
-972 -5397 5454 0
-972 -5398 5455 0
-972 -5399 5456 0
-972 -5400 5457 0
-972 -5401 5458 0
-972 -5402 5459 0
-972 -5403 5460 0
-972 -5404 5461 0
-972 -5405 5462 0
-972 -5406 5463 0
-972 -5407 5464 0
-972 -5408 5465 0
-972 -5409 5466 0
-972 -5410 5467 0
-972 -5411 5468 0
-972 -5412 5469 0
-972 -5413 5470 0
-972 -5414 5471 0
-972 -5415 5472 0
-972 -5416 5473 0
-972 -5417 5474 0
-972 -5418 5475 0
-972 -5419 5476 0
-972 -5420 5477 0
-972 -5421 5478 0
-972 -5422 5479 0
-972 -5423 5480 0
-972 -5424 5481 0
-972 -5425 5482 0
-972 -5426 5483 0
-972 -5427 5484 0
-972 -5428 5485 0
-972 -5429 5486 0
-972 -5430 5487 0
-972 -5431 5488 0
-972 -5432 5489 0
-972 -5433 5490 0
-972 -5434 5491 0
-972 -5435 5492 0
-972 -5436 5493 0
-972 -5437 5494 0
-972 -5438 5495 0
-972 -5439 5496 0
-972 -5440 0
-5441 5497 0
-5442 5498 0
-5443 5499 0
-5444 5500 0
-5445 5501 0
-5446 5502 0
-5447 5503 0
-5448 5504 0
-5449 5505 0
-5450 5506 0
-5451 5507 0
-5452 5508 0
-5453 5509 0
-5454 5510 0
-5455 5511 0
-5456 5512 0
-5457 5513 0
-5458 5514 0
-5459 5515 0
-5460 5516 0
-5461 5517 0
-5462 5518 0
-5463 5519 0
-5464 5520 0
-5465 5521 0
-5466 5522 0
-5467 5523 0
-5468 5524 0
-5469 5525 0
-5470 5526 0
-5471 5527 0
-5472 5528 0
-5473 5529 0
-5474 5530 0
-5475 5531 0
-5476 5532 0
-5477 5533 0
-5478 5534 0
-5479 5535 0
-5480 5536 0
-5481 5537 0
-5482 5538 0
-5483 5539 0
-5484 5540 0
-5485 5541 0
-5486 5542 0
-5487 5543 0
-5488 5544 0
-5489 5545 0
-5490 5546 0
-5491 5547 0
-5492 5548 0
-5493 5549 0
-5494 5550 0
-5495 5551 0
-5496 5552 0
-974 -5441 5498 0
-974 -5442 5499 0
-974 -5443 5500 0
-974 -5444 5501 0
-974 -5445 5502 0
-974 -5446 5503 0
-974 -5447 5504 0
-974 -5448 5505 0
-974 -5449 5506 0
-974 -5450 5507 0
-974 -5451 5508 0
-974 -5452 5509 0
-974 -5453 5510 0
-974 -5454 5511 0
-974 -5455 5512 0
-974 -5456 5513 0
-974 -5457 5514 0
-974 -5458 5515 0
-974 -5459 5516 0
-974 -5460 5517 0
-974 -5461 5518 0
-974 -5462 5519 0
-974 -5463 5520 0
-974 -5464 5521 0
-974 -5465 5522 0
-974 -5466 5523 0
-974 -5467 5524 0
-974 -5468 5525 0
-974 -5469 5526 0
-974 -5470 5527 0
-974 -5471 5528 0
-974 -5472 5529 0
-974 -5473 5530 0
-974 -5474 5531 0
-974 -5475 5532 0
-974 -5476 5533 0
-974 -5477 5534 0
-974 -5478 5535 0
-974 -5479 5536 0
-974 -5480 5537 0
-974 -5481 5538 0
-974 -5482 5539 0
-974 -5483 5540 0
-974 -5484 5541 0
-974 -5485 5542 0
-974 -5486 5543 0
-974 -5487 5544 0
-974 -5488 5545 0
-974 -5489 5546 0
-974 -5490 5547 0
-974 -5491 5548 0
-974 -5492 5549 0
-974 -5493 5550 0
-974 -5494 5551 0
-974 -5495 5552 0
-974 -5496 0
-5497 5553 0
-5498 5554 0
-5499 5555 0
-5500 5556 0
-5501 5557 0
-5502 5558 0
-5503 5559 0
-5504 5560 0
-5505 5561 0
-5506 5562 0
-5507 5563 0
-5508 5564 0
-5509 5565 0
-5510 5566 0
-5511 5567 0
-5512 5568 0
-5513 5569 0
-5514 5570 0
-5515 5571 0
-5516 5572 0
-5517 5573 0
-5518 5574 0
-5519 5575 0
-5520 5576 0
-5521 5577 0
-5522 5578 0
-5523 5579 0
-5524 5580 0
-5525 5581 0
-5526 5582 0
-5527 5583 0
-5528 5584 0
-5529 5585 0
-5530 5586 0
-5531 5587 0
-5532 5588 0
-5533 5589 0
-5534 5590 0
-5535 5591 0
-5536 5592 0
-5537 5593 0
-5538 5594 0
-5539 5595 0
-5540 5596 0
-5541 5597 0
-5542 5598 0
-5543 5599 0
-5544 5600 0
-5545 5601 0
-5546 5602 0
-5547 5603 0
-5548 5604 0
-5549 5605 0
-5550 5606 0
-5551 5607 0
-5552 5608 0
-976 -5497 5554 0
-976 -5498 5555 0
-976 -5499 5556 0
-976 -5500 5557 0
-976 -5501 5558 0
-976 -5502 5559 0
-976 -5503 5560 0
-976 -5504 5561 0
-976 -5505 5562 0
-976 -5506 5563 0
-976 -5507 5564 0
-976 -5508 5565 0
-976 -5509 5566 0
-976 -5510 5567 0
-976 -5511 5568 0
-976 -5512 5569 0
-976 -5513 5570 0
-976 -5514 5571 0
-976 -5515 5572 0
-976 -5516 5573 0
-976 -5517 5574 0
-976 -5518 5575 0
-976 -5519 5576 0
-976 -5520 5577 0
-976 -5521 5578 0
-976 -5522 5579 0
-976 -5523 5580 0
-976 -5524 5581 0
-976 -5525 5582 0
-976 -5526 5583 0
-976 -5527 5584 0
-976 -5528 5585 0
-976 -5529 5586 0
-976 -5530 5587 0
-976 -5531 5588 0
-976 -5532 5589 0
-976 -5533 5590 0
-976 -5534 5591 0
-976 -5535 5592 0
-976 -5536 5593 0
-976 -5537 5594 0
-976 -5538 5595 0
-976 -5539 5596 0
-976 -5540 5597 0
-976 -5541 5598 0
-976 -5542 5599 0
-976 -5543 5600 0
-976 -5544 5601 0
-976 -5545 5602 0
-976 -5546 5603 0
-976 -5547 5604 0
-976 -5548 5605 0
-976 -5549 5606 0
-976 -5550 5607 0
-976 -5551 5608 0
-976 -5552 0
-5553 5609 0
-5554 5610 0
-5555 5611 0
-5556 5612 0
-5557 5613 0
-5558 5614 0
-5559 5615 0
-5560 5616 0
-5561 5617 0
-5562 5618 0
-5563 5619 0
-5564 5620 0
-5565 5621 0
-5566 5622 0
-5567 5623 0
-5568 5624 0
-5569 5625 0
-5570 5626 0
-5571 5627 0
-5572 5628 0
-5573 5629 0
-5574 5630 0
-5575 5631 0
-5576 5632 0
-5577 5633 0
-5578 5634 0
-5579 5635 0
-5580 5636 0
-5581 5637 0
-5582 5638 0
-5583 5639 0
-5584 5640 0
-5585 5641 0
-5586 5642 0
-5587 5643 0
-5588 5644 0
-5589 5645 0
-5590 5646 0
-5591 5647 0
-5592 5648 0
-5593 5649 0
-5594 5650 0
-5595 5651 0
-5596 5652 0
-5597 5653 0
-5598 5654 0
-5599 5655 0
-5600 5656 0
-5601 5657 0
-5602 5658 0
-5603 5659 0
-5604 5660 0
-5605 5661 0
-5606 5662 0
-5607 5663 0
-5608 5664 0
-978 -5553 5610 0
-978 -5554 5611 0
-978 -5555 5612 0
-978 -5556 5613 0
-978 -5557 5614 0
-978 -5558 5615 0
-978 -5559 5616 0
-978 -5560 5617 0
-978 -5561 5618 0
-978 -5562 5619 0
-978 -5563 5620 0
-978 -5564 5621 0
-978 -5565 5622 0
-978 -5566 5623 0
-978 -5567 5624 0
-978 -5568 5625 0
-978 -5569 5626 0
-978 -5570 5627 0
-978 -5571 5628 0
-978 -5572 5629 0
-978 -5573 5630 0
-978 -5574 5631 0
-978 -5575 5632 0
-978 -5576 5633 0
-978 -5577 5634 0
-978 -5578 5635 0
-978 -5579 5636 0
-978 -5580 5637 0
-978 -5581 5638 0
-978 -5582 5639 0
-978 -5583 5640 0
-978 -5584 5641 0
-978 -5585 5642 0
-978 -5586 5643 0
-978 -5587 5644 0
-978 -5588 5645 0
-978 -5589 5646 0
-978 -5590 5647 0
-978 -5591 5648 0
-978 -5592 5649 0
-978 -5593 5650 0
-978 -5594 5651 0
-978 -5595 5652 0
-978 -5596 5653 0
-978 -5597 5654 0
-978 -5598 5655 0
-978 -5599 5656 0
-978 -5600 5657 0
-978 -5601 5658 0
-978 -5602 5659 0
-978 -5603 5660 0
-978 -5604 5661 0
-978 -5605 5662 0
-978 -5606 5663 0
-978 -5607 5664 0
-978 -5608 0
-5609 5665 0
-5610 5666 0
-5611 5667 0
-5612 5668 0
-5613 5669 0
-5614 5670 0
-5615 5671 0
-5616 5672 0
-5617 5673 0
-5618 5674 0
-5619 5675 0
-5620 5676 0
-5621 5677 0
-5622 5678 0
-5623 5679 0
-5624 5680 0
-5625 5681 0
-5626 5682 0
-5627 5683 0
-5628 5684 0
-5629 5685 0
-5630 5686 0
-5631 5687 0
-5632 5688 0
-5633 5689 0
-5634 5690 0
-5635 5691 0
-5636 5692 0
-5637 5693 0
-5638 5694 0
-5639 5695 0
-5640 5696 0
-5641 5697 0
-5642 5698 0
-5643 5699 0
-5644 5700 0
-5645 5701 0
-5646 5702 0
-5647 5703 0
-5648 5704 0
-5649 5705 0
-5650 5706 0
-5651 5707 0
-5652 5708 0
-5653 5709 0
-5654 5710 0
-5655 5711 0
-5656 5712 0
-5657 5713 0
-5658 5714 0
-5659 5715 0
-5660 5716 0
-5661 5717 0
-5662 5718 0
-5663 5719 0
-5664 5720 0
-980 -5609 5666 0
-980 -5610 5667 0
-980 -5611 5668 0
-980 -5612 5669 0
-980 -5613 5670 0
-980 -5614 5671 0
-980 -5615 5672 0
-980 -5616 5673 0
-980 -5617 5674 0
-980 -5618 5675 0
-980 -5619 5676 0
-980 -5620 5677 0
-980 -5621 5678 0
-980 -5622 5679 0
-980 -5623 5680 0
-980 -5624 5681 0
-980 -5625 5682 0
-980 -5626 5683 0
-980 -5627 5684 0
-980 -5628 5685 0
-980 -5629 5686 0
-980 -5630 5687 0
-980 -5631 5688 0
-980 -5632 5689 0
-980 -5633 5690 0
-980 -5634 5691 0
-980 -5635 5692 0
-980 -5636 5693 0
-980 -5637 5694 0
-980 -5638 5695 0
-980 -5639 5696 0
-980 -5640 5697 0
-980 -5641 5698 0
-980 -5642 5699 0
-980 -5643 5700 0
-980 -5644 5701 0
-980 -5645 5702 0
-980 -5646 5703 0
-980 -5647 5704 0
-980 -5648 5705 0
-980 -5649 5706 0
-980 -5650 5707 0
-980 -5651 5708 0
-980 -5652 5709 0
-980 -5653 5710 0
-980 -5654 5711 0
-980 -5655 5712 0
-980 -5656 5713 0
-980 -5657 5714 0
-980 -5658 5715 0
-980 -5659 5716 0
-980 -5660 5717 0
-980 -5661 5718 0
-980 -5662 5719 0
-980 -5663 5720 0
-980 -5664 0
-5665 5721 0
-5666 5722 0
-5667 5723 0
-5668 5724 0
-5669 5725 0
-5670 5726 0
-5671 5727 0
-5672 5728 0
-5673 5729 0
-5674 5730 0
-5675 5731 0
-5676 5732 0
-5677 5733 0
-5678 5734 0
-5679 5735 0
-5680 5736 0
-5681 5737 0
-5682 5738 0
-5683 5739 0
-5684 5740 0
-5685 5741 0
-5686 5742 0
-5687 5743 0
-5688 5744 0
-5689 5745 0
-5690 5746 0
-5691 5747 0
-5692 5748 0
-5693 5749 0
-5694 5750 0
-5695 5751 0
-5696 5752 0
-5697 5753 0
-5698 5754 0
-5699 5755 0
-5700 5756 0
-5701 5757 0
-5702 5758 0
-5703 5759 0
-5704 5760 0
-5705 5761 0
-5706 5762 0
-5707 5763 0
-5708 5764 0
-5709 5765 0
-5710 5766 0
-5711 5767 0
-5712 5768 0
-5713 5769 0
-5714 5770 0
-5715 5771 0
-5716 5772 0
-5717 5773 0
-5718 5774 0
-5719 5775 0
-5720 5776 0
-982 -5665 5722 0
-982 -5666 5723 0
-982 -5667 5724 0
-982 -5668 5725 0
-982 -5669 5726 0
-982 -5670 5727 0
-982 -5671 5728 0
-982 -5672 5729 0
-982 -5673 5730 0
-982 -5674 5731 0
-982 -5675 5732 0
-982 -5676 5733 0
-982 -5677 5734 0
-982 -5678 5735 0
-982 -5679 5736 0
-982 -5680 5737 0
-982 -5681 5738 0
-982 -5682 5739 0
-982 -5683 5740 0
-982 -5684 5741 0
-982 -5685 5742 0
-982 -5686 5743 0
-982 -5687 5744 0
-982 -5688 5745 0
-982 -5689 5746 0
-982 -5690 5747 0
-982 -5691 5748 0
-982 -5692 5749 0
-982 -5693 5750 0
-982 -5694 5751 0
-982 -5695 5752 0
-982 -5696 5753 0
-982 -5697 5754 0
-982 -5698 5755 0
-982 -5699 5756 0
-982 -5700 5757 0
-982 -5701 5758 0
-982 -5702 5759 0
-982 -5703 5760 0
-982 -5704 5761 0
-982 -5705 5762 0
-982 -5706 5763 0
-982 -5707 5764 0
-982 -5708 5765 0
-982 -5709 5766 0
-982 -5710 5767 0
-982 -5711 5768 0
-982 -5712 5769 0
-982 -5713 5770 0
-982 -5714 5771 0
-982 -5715 5772 0
-982 -5716 5773 0
-982 -5717 5774 0
-982 -5718 5775 0
-982 -5719 5776 0
-982 -5720 0
-5721 5777 0
-5722 5778 0
-5723 5779 0
-5724 5780 0
-5725 5781 0
-5726 5782 0
-5727 5783 0
-5728 5784 0
-5729 5785 0
-5730 5786 0
-5731 5787 0
-5732 5788 0
-5733 5789 0
-5734 5790 0
-5735 5791 0
-5736 5792 0
-5737 5793 0
-5738 5794 0
-5739 5795 0
-5740 5796 0
-5741 5797 0
-5742 5798 0
-5743 5799 0
-5744 5800 0
-5745 5801 0
-5746 5802 0
-5747 5803 0
-5748 5804 0
-5749 5805 0
-5750 5806 0
-5751 5807 0
-5752 5808 0
-5753 5809 0
-5754 5810 0
-5755 5811 0
-5756 5812 0
-5757 5813 0
-5758 5814 0
-5759 5815 0
-5760 5816 0
-5761 5817 0
-5762 5818 0
-5763 5819 0
-5764 5820 0
-5765 5821 0
-5766 5822 0
-5767 5823 0
-5768 5824 0
-5769 5825 0
-5770 5826 0
-5771 5827 0
-5772 5828 0
-5773 5829 0
-5774 5830 0
-5775 5831 0
-5776 5832 0
-984 -5721 5778 0
-984 -5722 5779 0
-984 -5723 5780 0
-984 -5724 5781 0
-984 -5725 5782 0
-984 -5726 5783 0
-984 -5727 5784 0
-984 -5728 5785 0
-984 -5729 5786 0
-984 -5730 5787 0
-984 -5731 5788 0
-984 -5732 5789 0
-984 -5733 5790 0
-984 -5734 5791 0
-984 -5735 5792 0
-984 -5736 5793 0
-984 -5737 5794 0
-984 -5738 5795 0
-984 -5739 5796 0
-984 -5740 5797 0
-984 -5741 5798 0
-984 -5742 5799 0
-984 -5743 5800 0
-984 -5744 5801 0
-984 -5745 5802 0
-984 -5746 5803 0
-984 -5747 5804 0
-984 -5748 5805 0
-984 -5749 5806 0
-984 -5750 5807 0
-984 -5751 5808 0
-984 -5752 5809 0
-984 -5753 5810 0
-984 -5754 5811 0
-984 -5755 5812 0
-984 -5756 5813 0
-984 -5757 5814 0
-984 -5758 5815 0
-984 -5759 5816 0
-984 -5760 5817 0
-984 -5761 5818 0
-984 -5762 5819 0
-984 -5763 5820 0
-984 -5764 5821 0
-984 -5765 5822 0
-984 -5766 5823 0
-984 -5767 5824 0
-984 -5768 5825 0
-984 -5769 5826 0
-984 -5770 5827 0
-984 -5771 5828 0
-984 -5772 5829 0
-984 -5773 5830 0
-984 -5774 5831 0
-984 -5775 5832 0
-984 -5776 0
-5777 5833 0
-5778 5834 0
-5779 5835 0
-5780 5836 0
-5781 5837 0
-5782 5838 0
-5783 5839 0
-5784 5840 0
-5785 5841 0
-5786 5842 0
-5787 5843 0
-5788 5844 0
-5789 5845 0
-5790 5846 0
-5791 5847 0
-5792 5848 0
-5793 5849 0
-5794 5850 0
-5795 5851 0
-5796 5852 0
-5797 5853 0
-5798 5854 0
-5799 5855 0
-5800 5856 0
-5801 5857 0
-5802 5858 0
-5803 5859 0
-5804 5860 0
-5805 5861 0
-5806 5862 0
-5807 5863 0
-5808 5864 0
-5809 5865 0
-5810 5866 0
-5811 5867 0
-5812 5868 0
-5813 5869 0
-5814 5870 0
-5815 5871 0
-5816 5872 0
-5817 5873 0
-5818 5874 0
-5819 5875 0
-5820 5876 0
-5821 5877 0
-5822 5878 0
-5823 5879 0
-5824 5880 0
-5825 5881 0
-5826 5882 0
-5827 5883 0
-5828 5884 0
-5829 5885 0
-5830 5886 0
-5831 5887 0
-5832 5888 0
-986 -5777 5834 0
-986 -5778 5835 0
-986 -5779 5836 0
-986 -5780 5837 0
-986 -5781 5838 0
-986 -5782 5839 0
-986 -5783 5840 0
-986 -5784 5841 0
-986 -5785 5842 0
-986 -5786 5843 0
-986 -5787 5844 0
-986 -5788 5845 0
-986 -5789 5846 0
-986 -5790 5847 0
-986 -5791 5848 0
-986 -5792 5849 0
-986 -5793 5850 0
-986 -5794 5851 0
-986 -5795 5852 0
-986 -5796 5853 0
-986 -5797 5854 0
-986 -5798 5855 0
-986 -5799 5856 0
-986 -5800 5857 0
-986 -5801 5858 0
-986 -5802 5859 0
-986 -5803 5860 0
-986 -5804 5861 0
-986 -5805 5862 0
-986 -5806 5863 0
-986 -5807 5864 0
-986 -5808 5865 0
-986 -5809 5866 0
-986 -5810 5867 0
-986 -5811 5868 0
-986 -5812 5869 0
-986 -5813 5870 0
-986 -5814 5871 0
-986 -5815 5872 0
-986 -5816 5873 0
-986 -5817 5874 0
-986 -5818 5875 0
-986 -5819 5876 0
-986 -5820 5877 0
-986 -5821 5878 0
-986 -5822 5879 0
-986 -5823 5880 0
-986 -5824 5881 0
-986 -5825 5882 0
-986 -5826 5883 0
-986 -5827 5884 0
-986 -5828 5885 0
-986 -5829 5886 0
-986 -5830 5887 0
-986 -5831 5888 0
-986 -5832 0
-5833 5889 0
-5834 5890 0
-5835 5891 0
-5836 5892 0
-5837 5893 0
-5838 5894 0
-5839 5895 0
-5840 5896 0
-5841 5897 0
-5842 5898 0
-5843 5899 0
-5844 5900 0
-5845 5901 0
-5846 5902 0
-5847 5903 0
-5848 5904 0
-5849 5905 0
-5850 5906 0
-5851 5907 0
-5852 5908 0
-5853 5909 0
-5854 5910 0
-5855 5911 0
-5856 5912 0
-5857 5913 0
-5858 5914 0
-5859 5915 0
-5860 5916 0
-5861 5917 0
-5862 5918 0
-5863 5919 0
-5864 5920 0
-5865 5921 0
-5866 5922 0
-5867 5923 0
-5868 5924 0
-5869 5925 0
-5870 5926 0
-5871 5927 0
-5872 5928 0
-5873 5929 0
-5874 5930 0
-5875 5931 0
-5876 5932 0
-5877 5933 0
-5878 5934 0
-5879 5935 0
-5880 5936 0
-5881 5937 0
-5882 5938 0
-5883 5939 0
-5884 5940 0
-5885 5941 0
-5886 5942 0
-5887 5943 0
-5888 5944 0
-988 -5833 5890 0
-988 -5834 5891 0
-988 -5835 5892 0
-988 -5836 5893 0
-988 -5837 5894 0
-988 -5838 5895 0
-988 -5839 5896 0
-988 -5840 5897 0
-988 -5841 5898 0
-988 -5842 5899 0
-988 -5843 5900 0
-988 -5844 5901 0
-988 -5845 5902 0
-988 -5846 5903 0
-988 -5847 5904 0
-988 -5848 5905 0
-988 -5849 5906 0
-988 -5850 5907 0
-988 -5851 5908 0
-988 -5852 5909 0
-988 -5853 5910 0
-988 -5854 5911 0
-988 -5855 5912 0
-988 -5856 5913 0
-988 -5857 5914 0
-988 -5858 5915 0
-988 -5859 5916 0
-988 -5860 5917 0
-988 -5861 5918 0
-988 -5862 5919 0
-988 -5863 5920 0
-988 -5864 5921 0
-988 -5865 5922 0
-988 -5866 5923 0
-988 -5867 5924 0
-988 -5868 5925 0
-988 -5869 5926 0
-988 -5870 5927 0
-988 -5871 5928 0
-988 -5872 5929 0
-988 -5873 5930 0
-988 -5874 5931 0
-988 -5875 5932 0
-988 -5876 5933 0
-988 -5877 5934 0
-988 -5878 5935 0
-988 -5879 5936 0
-988 -5880 5937 0
-988 -5881 5938 0
-988 -5882 5939 0
-988 -5883 5940 0
-988 -5884 5941 0
-988 -5885 5942 0
-988 -5886 5943 0
-988 -5887 5944 0
-988 -5888 0
-5889 5945 0
-5890 5946 0
-5891 5947 0
-5892 5948 0
-5893 5949 0
-5894 5950 0
-5895 5951 0
-5896 5952 0
-5897 5953 0
-5898 5954 0
-5899 5955 0
-5900 5956 0
-5901 5957 0
-5902 5958 0
-5903 5959 0
-5904 5960 0
-5905 5961 0
-5906 5962 0
-5907 5963 0
-5908 5964 0
-5909 5965 0
-5910 5966 0
-5911 5967 0
-5912 5968 0
-5913 5969 0
-5914 5970 0
-5915 5971 0
-5916 5972 0
-5917 5973 0
-5918 5974 0
-5919 5975 0
-5920 5976 0
-5921 5977 0
-5922 5978 0
-5923 5979 0
-5924 5980 0
-5925 5981 0
-5926 5982 0
-5927 5983 0
-5928 5984 0
-5929 5985 0
-5930 5986 0
-5931 5987 0
-5932 5988 0
-5933 5989 0
-5934 5990 0
-5935 5991 0
-5936 5992 0
-5937 5993 0
-5938 5994 0
-5939 5995 0
-5940 5996 0
-5941 5997 0
-5942 5998 0
-5943 5999 0
-5944 6000 0
-990 -5889 5946 0
-990 -5890 5947 0
-990 -5891 5948 0
-990 -5892 5949 0
-990 -5893 5950 0
-990 -5894 5951 0
-990 -5895 5952 0
-990 -5896 5953 0
-990 -5897 5954 0
-990 -5898 5955 0
-990 -5899 5956 0
-990 -5900 5957 0
-990 -5901 5958 0
-990 -5902 5959 0
-990 -5903 5960 0
-990 -5904 5961 0
-990 -5905 5962 0
-990 -5906 5963 0
-990 -5907 5964 0
-990 -5908 5965 0
-990 -5909 5966 0
-990 -5910 5967 0
-990 -5911 5968 0
-990 -5912 5969 0
-990 -5913 5970 0
-990 -5914 5971 0
-990 -5915 5972 0
-990 -5916 5973 0
-990 -5917 5974 0
-990 -5918 5975 0
-990 -5919 5976 0
-990 -5920 5977 0
-990 -5921 5978 0
-990 -5922 5979 0
-990 -5923 5980 0
-990 -5924 5981 0
-990 -5925 5982 0
-990 -5926 5983 0
-990 -5927 5984 0
-990 -5928 5985 0
-990 -5929 5986 0
-990 -5930 5987 0
-990 -5931 5988 0
-990 -5932 5989 0
-990 -5933 5990 0
-990 -5934 5991 0
-990 -5935 5992 0
-990 -5936 5993 0
-990 -5937 5994 0
-990 -5938 5995 0
-990 -5939 5996 0
-990 -5940 5997 0
-990 -5941 5998 0
-990 -5942 5999 0
-990 -5943 6000 0
-990 -5944 0
-5945 6001 0
-5946 6002 0
-5947 6003 0
-5948 6004 0
-5949 6005 0
-5950 6006 0
-5951 6007 0
-5952 6008 0
-5953 6009 0
-5954 6010 0
-5955 6011 0
-5956 6012 0
-5957 6013 0
-5958 6014 0
-5959 6015 0
-5960 6016 0
-5961 6017 0
-5962 6018 0
-5963 6019 0
-5964 6020 0
-5965 6021 0
-5966 6022 0
-5967 6023 0
-5968 6024 0
-5969 6025 0
-5970 6026 0
-5971 6027 0
-5972 6028 0
-5973 6029 0
-5974 6030 0
-5975 6031 0
-5976 6032 0
-5977 6033 0
-5978 6034 0
-5979 6035 0
-5980 6036 0
-5981 6037 0
-5982 6038 0
-5983 6039 0
-5984 6040 0
-5985 6041 0
-5986 6042 0
-5987 6043 0
-5988 6044 0
-5989 6045 0
-5990 6046 0
-5991 6047 0
-5992 6048 0
-5993 6049 0
-5994 6050 0
-5995 6051 0
-5996 6052 0
-5997 6053 0
-5998 6054 0
-5999 6055 0
-6000 6056 0
-992 -5945 6002 0
-992 -5946 6003 0
-992 -5947 6004 0
-992 -5948 6005 0
-992 -5949 6006 0
-992 -5950 6007 0
-992 -5951 6008 0
-992 -5952 6009 0
-992 -5953 6010 0
-992 -5954 6011 0
-992 -5955 6012 0
-992 -5956 6013 0
-992 -5957 6014 0
-992 -5958 6015 0
-992 -5959 6016 0
-992 -5960 6017 0
-992 -5961 6018 0
-992 -5962 6019 0
-992 -5963 6020 0
-992 -5964 6021 0
-992 -5965 6022 0
-992 -5966 6023 0
-992 -5967 6024 0
-992 -5968 6025 0
-992 -5969 6026 0
-992 -5970 6027 0
-992 -5971 6028 0
-992 -5972 6029 0
-992 -5973 6030 0
-992 -5974 6031 0
-992 -5975 6032 0
-992 -5976 6033 0
-992 -5977 6034 0
-992 -5978 6035 0
-992 -5979 6036 0
-992 -5980 6037 0
-992 -5981 6038 0
-992 -5982 6039 0
-992 -5983 6040 0
-992 -5984 6041 0
-992 -5985 6042 0
-992 -5986 6043 0
-992 -5987 6044 0
-992 -5988 6045 0
-992 -5989 6046 0
-992 -5990 6047 0
-992 -5991 6048 0
-992 -5992 6049 0
-992 -5993 6050 0
-992 -5994 6051 0
-992 -5995 6052 0
-992 -5996 6053 0
-992 -5997 6054 0
-992 -5998 6055 0
-992 -5999 6056 0
-992 -6000 0
-6001 6057 0
-6002 6058 0
-6003 6059 0
-6004 6060 0
-6005 6061 0
-6006 6062 0
-6007 6063 0
-6008 6064 0
-6009 6065 0
-6010 6066 0
-6011 6067 0
-6012 6068 0
-6013 6069 0
-6014 6070 0
-6015 6071 0
-6016 6072 0
-6017 6073 0
-6018 6074 0
-6019 6075 0
-6020 6076 0
-6021 6077 0
-6022 6078 0
-6023 6079 0
-6024 6080 0
-6025 6081 0
-6026 6082 0
-6027 6083 0
-6028 6084 0
-6029 6085 0
-6030 6086 0
-6031 6087 0
-6032 6088 0
-6033 6089 0
-6034 6090 0
-6035 6091 0
-6036 6092 0
-6037 6093 0
-6038 6094 0
-6039 6095 0
-6040 6096 0
-6041 6097 0
-6042 6098 0
-6043 6099 0
-6044 6100 0
-6045 6101 0
-6046 6102 0
-6047 6103 0
-6048 6104 0
-6049 6105 0
-6050 6106 0
-6051 6107 0
-6052 6108 0
-6053 6109 0
-6054 6110 0
-6055 6111 0
-6056 6112 0
-994 -6001 6058 0
-994 -6002 6059 0
-994 -6003 6060 0
-994 -6004 6061 0
-994 -6005 6062 0
-994 -6006 6063 0
-994 -6007 6064 0
-994 -6008 6065 0
-994 -6009 6066 0
-994 -6010 6067 0
-994 -6011 6068 0
-994 -6012 6069 0
-994 -6013 6070 0
-994 -6014 6071 0
-994 -6015 6072 0
-994 -6016 6073 0
-994 -6017 6074 0
-994 -6018 6075 0
-994 -6019 6076 0
-994 -6020 6077 0
-994 -6021 6078 0
-994 -6022 6079 0
-994 -6023 6080 0
-994 -6024 6081 0
-994 -6025 6082 0
-994 -6026 6083 0
-994 -6027 6084 0
-994 -6028 6085 0
-994 -6029 6086 0
-994 -6030 6087 0
-994 -6031 6088 0
-994 -6032 6089 0
-994 -6033 6090 0
-994 -6034 6091 0
-994 -6035 6092 0
-994 -6036 6093 0
-994 -6037 6094 0
-994 -6038 6095 0
-994 -6039 6096 0
-994 -6040 6097 0
-994 -6041 6098 0
-994 -6042 6099 0
-994 -6043 6100 0
-994 -6044 6101 0
-994 -6045 6102 0
-994 -6046 6103 0
-994 -6047 6104 0
-994 -6048 6105 0
-994 -6049 6106 0
-994 -6050 6107 0
-994 -6051 6108 0
-994 -6052 6109 0
-994 -6053 6110 0
-994 -6054 6111 0
-994 -6055 6112 0
-994 -6056 0
-6057 6113 0
-6058 6114 0
-6059 6115 0
-6060 6116 0
-6061 6117 0
-6062 6118 0
-6063 6119 0
-6064 6120 0
-6065 6121 0
-6066 6122 0
-6067 6123 0
-6068 6124 0
-6069 6125 0
-6070 6126 0
-6071 6127 0
-6072 6128 0
-6073 6129 0
-6074 6130 0
-6075 6131 0
-6076 6132 0
-6077 6133 0
-6078 6134 0
-6079 6135 0
-6080 6136 0
-6081 6137 0
-6082 6138 0
-6083 6139 0
-6084 6140 0
-6085 6141 0
-6086 6142 0
-6087 6143 0
-6088 6144 0
-6089 6145 0
-6090 6146 0
-6091 6147 0
-6092 6148 0
-6093 6149 0
-6094 6150 0
-6095 6151 0
-6096 6152 0
-6097 6153 0
-6098 6154 0
-6099 6155 0
-6100 6156 0
-6101 6157 0
-6102 6158 0
-6103 6159 0
-6104 6160 0
-6105 6161 0
-6106 6162 0
-6107 6163 0
-6108 6164 0
-6109 6165 0
-6110 6166 0
-6111 6167 0
-6112 6168 0
-996 -6057 6114 0
-996 -6058 6115 0
-996 -6059 6116 0
-996 -6060 6117 0
-996 -6061 6118 0
-996 -6062 6119 0
-996 -6063 6120 0
-996 -6064 6121 0
-996 -6065 6122 0
-996 -6066 6123 0
-996 -6067 6124 0
-996 -6068 6125 0
-996 -6069 6126 0
-996 -6070 6127 0
-996 -6071 6128 0
-996 -6072 6129 0
-996 -6073 6130 0
-996 -6074 6131 0
-996 -6075 6132 0
-996 -6076 6133 0
-996 -6077 6134 0
-996 -6078 6135 0
-996 -6079 6136 0
-996 -6080 6137 0
-996 -6081 6138 0
-996 -6082 6139 0
-996 -6083 6140 0
-996 -6084 6141 0
-996 -6085 6142 0
-996 -6086 6143 0
-996 -6087 6144 0
-996 -6088 6145 0
-996 -6089 6146 0
-996 -6090 6147 0
-996 -6091 6148 0
-996 -6092 6149 0
-996 -6093 6150 0
-996 -6094 6151 0
-996 -6095 6152 0
-996 -6096 6153 0
-996 -6097 6154 0
-996 -6098 6155 0
-996 -6099 6156 0
-996 -6100 6157 0
-996 -6101 6158 0
-996 -6102 6159 0
-996 -6103 6160 0
-996 -6104 6161 0
-996 -6105 6162 0
-996 -6106 6163 0
-996 -6107 6164 0
-996 -6108 6165 0
-996 -6109 6166 0
-996 -6110 6167 0
-996 -6111 6168 0
-996 -6112 0
-6113 6169 0
-6114 6170 0
-6115 6171 0
-6116 6172 0
-6117 6173 0
-6118 6174 0
-6119 6175 0
-6120 6176 0
-6121 6177 0
-6122 6178 0
-6123 6179 0
-6124 6180 0
-6125 6181 0
-6126 6182 0
-6127 6183 0
-6128 6184 0
-6129 6185 0
-6130 6186 0
-6131 6187 0
-6132 6188 0
-6133 6189 0
-6134 6190 0
-6135 6191 0
-6136 6192 0
-6137 6193 0
-6138 6194 0
-6139 6195 0
-6140 6196 0
-6141 6197 0
-6142 6198 0
-6143 6199 0
-6144 6200 0
-6145 6201 0
-6146 6202 0
-6147 6203 0
-6148 6204 0
-6149 6205 0
-6150 6206 0
-6151 6207 0
-6152 6208 0
-6153 6209 0
-6154 6210 0
-6155 6211 0
-6156 6212 0
-6157 6213 0
-6158 6214 0
-6159 6215 0
-6160 6216 0
-6161 6217 0
-6162 6218 0
-6163 6219 0
-6164 6220 0
-6165 6221 0
-6166 6222 0
-6167 6223 0
-6168 6224 0
-998 -6113 6170 0
-998 -6114 6171 0
-998 -6115 6172 0
-998 -6116 6173 0
-998 -6117 6174 0
-998 -6118 6175 0
-998 -6119 6176 0
-998 -6120 6177 0
-998 -6121 6178 0
-998 -6122 6179 0
-998 -6123 6180 0
-998 -6124 6181 0
-998 -6125 6182 0
-998 -6126 6183 0
-998 -6127 6184 0
-998 -6128 6185 0
-998 -6129 6186 0
-998 -6130 6187 0
-998 -6131 6188 0
-998 -6132 6189 0
-998 -6133 6190 0
-998 -6134 6191 0
-998 -6135 6192 0
-998 -6136 6193 0
-998 -6137 6194 0
-998 -6138 6195 0
-998 -6139 6196 0
-998 -6140 6197 0
-998 -6141 6198 0
-998 -6142 6199 0
-998 -6143 6200 0
-998 -6144 6201 0
-998 -6145 6202 0
-998 -6146 6203 0
-998 -6147 6204 0
-998 -6148 6205 0
-998 -6149 6206 0
-998 -6150 6207 0
-998 -6151 6208 0
-998 -6152 6209 0
-998 -6153 6210 0
-998 -6154 6211 0
-998 -6155 6212 0
-998 -6156 6213 0
-998 -6157 6214 0
-998 -6158 6215 0
-998 -6159 6216 0
-998 -6160 6217 0
-998 -6161 6218 0
-998 -6162 6219 0
-998 -6163 6220 0
-998 -6164 6221 0
-998 -6165 6222 0
-998 -6166 6223 0
-998 -6167 6224 0
-998 -6168 0
-6169 6225 0
-6170 6226 0
-6171 6227 0
-6172 6228 0
-6173 6229 0
-6174 6230 0
-6175 6231 0
-6176 6232 0
-6177 6233 0
-6178 6234 0
-6179 6235 0
-6180 6236 0
-6181 6237 0
-6182 6238 0
-6183 6239 0
-6184 6240 0
-6185 6241 0
-6186 6242 0
-6187 6243 0
-6188 6244 0
-6189 6245 0
-6190 6246 0
-6191 6247 0
-6192 6248 0
-6193 6249 0
-6194 6250 0
-6195 6251 0
-6196 6252 0
-6197 6253 0
-6198 6254 0
-6199 6255 0
-6200 6256 0
-6201 6257 0
-6202 6258 0
-6203 6259 0
-6204 6260 0
-6205 6261 0
-6206 6262 0
-6207 6263 0
-6208 6264 0
-6209 6265 0
-6210 6266 0
-6211 6267 0
-6212 6268 0
-6213 6269 0
-6214 6270 0
-6215 6271 0
-6216 6272 0
-6217 6273 0
-6218 6274 0
-6219 6275 0
-6220 6276 0
-6221 6277 0
-6222 6278 0
-6223 6279 0
-6224 6280 0
-1000 -6169 6226 0
-1000 -6170 6227 0
-1000 -6171 6228 0
-1000 -6172 6229 0
-1000 -6173 6230 0
-1000 -6174 6231 0
-1000 -6175 6232 0
-1000 -6176 6233 0
-1000 -6177 6234 0
-1000 -6178 6235 0
-1000 -6179 6236 0
-1000 -6180 6237 0
-1000 -6181 6238 0
-1000 -6182 6239 0
-1000 -6183 6240 0
-1000 -6184 6241 0
-1000 -6185 6242 0
-1000 -6186 6243 0
-1000 -6187 6244 0
-1000 -6188 6245 0
-1000 -6189 6246 0
-1000 -6190 6247 0
-1000 -6191 6248 0
-1000 -6192 6249 0
-1000 -6193 6250 0
-1000 -6194 6251 0
-1000 -6195 6252 0
-1000 -6196 6253 0
-1000 -6197 6254 0
-1000 -6198 6255 0
-1000 -6199 6256 0
-1000 -6200 6257 0
-1000 -6201 6258 0
-1000 -6202 6259 0
-1000 -6203 6260 0
-1000 -6204 6261 0
-1000 -6205 6262 0
-1000 -6206 6263 0
-1000 -6207 6264 0
-1000 -6208 6265 0
-1000 -6209 6266 0
-1000 -6210 6267 0
-1000 -6211 6268 0
-1000 -6212 6269 0
-1000 -6213 6270 0
-1000 -6214 6271 0
-1000 -6215 6272 0
-1000 -6216 6273 0
-1000 -6217 6274 0
-1000 -6218 6275 0
-1000 -6219 6276 0
-1000 -6220 6277 0
-1000 -6221 6278 0
-1000 -6222 6279 0
-1000 -6223 6280 0
-1000 -6224 0
-6225 6281 0
-6226 6282 0
-6227 6283 0
-6228 6284 0
-6229 6285 0
-6230 6286 0
-6231 6287 0
-6232 6288 0
-6233 6289 0
-6234 6290 0
-6235 6291 0
-6236 6292 0
-6237 6293 0
-6238 6294 0
-6239 6295 0
-6240 6296 0
-6241 6297 0
-6242 6298 0
-6243 6299 0
-6244 6300 0
-6245 6301 0
-6246 6302 0
-6247 6303 0
-6248 6304 0
-6249 6305 0
-6250 6306 0
-6251 6307 0
-6252 6308 0
-6253 6309 0
-6254 6310 0
-6255 6311 0
-6256 6312 0
-6257 6313 0
-6258 6314 0
-6259 6315 0
-6260 6316 0
-6261 6317 0
-6262 6318 0
-6263 6319 0
-6264 6320 0
-6265 6321 0
-6266 6322 0
-6267 6323 0
-6268 6324 0
-6269 6325 0
-6270 6326 0
-6271 6327 0
-6272 6328 0
-6273 6329 0
-6274 6330 0
-6275 6331 0
-6276 6332 0
-6277 6333 0
-6278 6334 0
-6279 6335 0
-6280 6336 0
-1002 -6225 6282 0
-1002 -6226 6283 0
-1002 -6227 6284 0
-1002 -6228 6285 0
-1002 -6229 6286 0
-1002 -6230 6287 0
-1002 -6231 6288 0
-1002 -6232 6289 0
-1002 -6233 6290 0
-1002 -6234 6291 0
-1002 -6235 6292 0
-1002 -6236 6293 0
-1002 -6237 6294 0
-1002 -6238 6295 0
-1002 -6239 6296 0
-1002 -6240 6297 0
-1002 -6241 6298 0
-1002 -6242 6299 0
-1002 -6243 6300 0
-1002 -6244 6301 0
-1002 -6245 6302 0
-1002 -6246 6303 0
-1002 -6247 6304 0
-1002 -6248 6305 0
-1002 -6249 6306 0
-1002 -6250 6307 0
-1002 -6251 6308 0
-1002 -6252 6309 0
-1002 -6253 6310 0
-1002 -6254 6311 0
-1002 -6255 6312 0
-1002 -6256 6313 0
-1002 -6257 6314 0
-1002 -6258 6315 0
-1002 -6259 6316 0
-1002 -6260 6317 0
-1002 -6261 6318 0
-1002 -6262 6319 0
-1002 -6263 6320 0
-1002 -6264 6321 0
-1002 -6265 6322 0
-1002 -6266 6323 0
-1002 -6267 6324 0
-1002 -6268 6325 0
-1002 -6269 6326 0
-1002 -6270 6327 0
-1002 -6271 6328 0
-1002 -6272 6329 0
-1002 -6273 6330 0
-1002 -6274 6331 0
-1002 -6275 6332 0
-1002 -6276 6333 0
-1002 -6277 6334 0
-1002 -6278 6335 0
-1002 -6279 6336 0
-1002 -6280 0
-6281 6337 0
-6282 6338 0
-6283 6339 0
-6284 6340 0
-6285 6341 0
-6286 6342 0
-6287 6343 0
-6288 6344 0
-6289 6345 0
-6290 6346 0
-6291 6347 0
-6292 6348 0
-6293 6349 0
-6294 6350 0
-6295 6351 0
-6296 6352 0
-6297 6353 0
-6298 6354 0
-6299 6355 0
-6300 6356 0
-6301 6357 0
-6302 6358 0
-6303 6359 0
-6304 6360 0
-6305 6361 0
-6306 6362 0
-6307 6363 0
-6308 6364 0
-6309 6365 0
-6310 6366 0
-6311 6367 0
-6312 6368 0
-6313 6369 0
-6314 6370 0
-6315 6371 0
-6316 6372 0
-6317 6373 0
-6318 6374 0
-6319 6375 0
-6320 6376 0
-6321 6377 0
-6322 6378 0
-6323 6379 0
-6324 6380 0
-6325 6381 0
-6326 6382 0
-6327 6383 0
-6328 6384 0
-6329 6385 0
-6330 6386 0
-6331 6387 0
-6332 6388 0
-6333 6389 0
-6334 6390 0
-6335 6391 0
-6336 6392 0
-1004 -6281 6338 0
-1004 -6282 6339 0
-1004 -6283 6340 0
-1004 -6284 6341 0
-1004 -6285 6342 0
-1004 -6286 6343 0
-1004 -6287 6344 0
-1004 -6288 6345 0
-1004 -6289 6346 0
-1004 -6290 6347 0
-1004 -6291 6348 0
-1004 -6292 6349 0
-1004 -6293 6350 0
-1004 -6294 6351 0
-1004 -6295 6352 0
-1004 -6296 6353 0
-1004 -6297 6354 0
-1004 -6298 6355 0
-1004 -6299 6356 0
-1004 -6300 6357 0
-1004 -6301 6358 0
-1004 -6302 6359 0
-1004 -6303 6360 0
-1004 -6304 6361 0
-1004 -6305 6362 0
-1004 -6306 6363 0
-1004 -6307 6364 0
-1004 -6308 6365 0
-1004 -6309 6366 0
-1004 -6310 6367 0
-1004 -6311 6368 0
-1004 -6312 6369 0
-1004 -6313 6370 0
-1004 -6314 6371 0
-1004 -6315 6372 0
-1004 -6316 6373 0
-1004 -6317 6374 0
-1004 -6318 6375 0
-1004 -6319 6376 0
-1004 -6320 6377 0
-1004 -6321 6378 0
-1004 -6322 6379 0
-1004 -6323 6380 0
-1004 -6324 6381 0
-1004 -6325 6382 0
-1004 -6326 6383 0
-1004 -6327 6384 0
-1004 -6328 6385 0
-1004 -6329 6386 0
-1004 -6330 6387 0
-1004 -6331 6388 0
-1004 -6332 6389 0
-1004 -6333 6390 0
-1004 -6334 6391 0
-1004 -6335 6392 0
-1004 -6336 0
-6337 6393 0
-6338 6394 0
-6339 6395 0
-6340 6396 0
-6341 6397 0
-6342 6398 0
-6343 6399 0
-6344 6400 0
-6345 6401 0
-6346 6402 0
-6347 6403 0
-6348 6404 0
-6349 6405 0
-6350 6406 0
-6351 6407 0
-6352 6408 0
-6353 6409 0
-6354 6410 0
-6355 6411 0
-6356 6412 0
-6357 6413 0
-6358 6414 0
-6359 6415 0
-6360 6416 0
-6361 6417 0
-6362 6418 0
-6363 6419 0
-6364 6420 0
-6365 6421 0
-6366 6422 0
-6367 6423 0
-6368 6424 0
-6369 6425 0
-6370 6426 0
-6371 6427 0
-6372 6428 0
-6373 6429 0
-6374 6430 0
-6375 6431 0
-6376 6432 0
-6377 6433 0
-6378 6434 0
-6379 6435 0
-6380 6436 0
-6381 6437 0
-6382 6438 0
-6383 6439 0
-6384 6440 0
-6385 6441 0
-6386 6442 0
-6387 6443 0
-6388 6444 0
-6389 6445 0
-6390 6446 0
-6391 6447 0
-6392 6448 0
-1006 -6337 6394 0
-1006 -6338 6395 0
-1006 -6339 6396 0
-1006 -6340 6397 0
-1006 -6341 6398 0
-1006 -6342 6399 0
-1006 -6343 6400 0
-1006 -6344 6401 0
-1006 -6345 6402 0
-1006 -6346 6403 0
-1006 -6347 6404 0
-1006 -6348 6405 0
-1006 -6349 6406 0
-1006 -6350 6407 0
-1006 -6351 6408 0
-1006 -6352 6409 0
-1006 -6353 6410 0
-1006 -6354 6411 0
-1006 -6355 6412 0
-1006 -6356 6413 0
-1006 -6357 6414 0
-1006 -6358 6415 0
-1006 -6359 6416 0
-1006 -6360 6417 0
-1006 -6361 6418 0
-1006 -6362 6419 0
-1006 -6363 6420 0
-1006 -6364 6421 0
-1006 -6365 6422 0
-1006 -6366 6423 0
-1006 -6367 6424 0
-1006 -6368 6425 0
-1006 -6369 6426 0
-1006 -6370 6427 0
-1006 -6371 6428 0
-1006 -6372 6429 0
-1006 -6373 6430 0
-1006 -6374 6431 0
-1006 -6375 6432 0
-1006 -6376 6433 0
-1006 -6377 6434 0
-1006 -6378 6435 0
-1006 -6379 6436 0
-1006 -6380 6437 0
-1006 -6381 6438 0
-1006 -6382 6439 0
-1006 -6383 6440 0
-1006 -6384 6441 0
-1006 -6385 6442 0
-1006 -6386 6443 0
-1006 -6387 6444 0
-1006 -6388 6445 0
-1006 -6389 6446 0
-1006 -6390 6447 0
-1006 -6391 6448 0
-1006 -6392 0
-6393 6449 0
-6394 6450 0
-6395 6451 0
-6396 6452 0
-6397 6453 0
-6398 6454 0
-6399 6455 0
-6400 6456 0
-6401 6457 0
-6402 6458 0
-6403 6459 0
-6404 6460 0
-6405 6461 0
-6406 6462 0
-6407 6463 0
-6408 6464 0
-6409 6465 0
-6410 6466 0
-6411 6467 0
-6412 6468 0
-6413 6469 0
-6414 6470 0
-6415 6471 0
-6416 6472 0
-6417 6473 0
-6418 6474 0
-6419 6475 0
-6420 6476 0
-6421 6477 0
-6422 6478 0
-6423 6479 0
-6424 6480 0
-6425 6481 0
-6426 6482 0
-6427 6483 0
-6428 6484 0
-6429 6485 0
-6430 6486 0
-6431 6487 0
-6432 6488 0
-6433 6489 0
-6434 6490 0
-6435 6491 0
-6436 6492 0
-6437 6493 0
-6438 6494 0
-6439 6495 0
-6440 6496 0
-6441 6497 0
-6442 6498 0
-6443 6499 0
-6444 6500 0
-6445 6501 0
-6446 6502 0
-6447 6503 0
-6448 6504 0
-1008 -6393 6450 0
-1008 -6394 6451 0
-1008 -6395 6452 0
-1008 -6396 6453 0
-1008 -6397 6454 0
-1008 -6398 6455 0
-1008 -6399 6456 0
-1008 -6400 6457 0
-1008 -6401 6458 0
-1008 -6402 6459 0
-1008 -6403 6460 0
-1008 -6404 6461 0
-1008 -6405 6462 0
-1008 -6406 6463 0
-1008 -6407 6464 0
-1008 -6408 6465 0
-1008 -6409 6466 0
-1008 -6410 6467 0
-1008 -6411 6468 0
-1008 -6412 6469 0
-1008 -6413 6470 0
-1008 -6414 6471 0
-1008 -6415 6472 0
-1008 -6416 6473 0
-1008 -6417 6474 0
-1008 -6418 6475 0
-1008 -6419 6476 0
-1008 -6420 6477 0
-1008 -6421 6478 0
-1008 -6422 6479 0
-1008 -6423 6480 0
-1008 -6424 6481 0
-1008 -6425 6482 0
-1008 -6426 6483 0
-1008 -6427 6484 0
-1008 -6428 6485 0
-1008 -6429 6486 0
-1008 -6430 6487 0
-1008 -6431 6488 0
-1008 -6432 6489 0
-1008 -6433 6490 0
-1008 -6434 6491 0
-1008 -6435 6492 0
-1008 -6436 6493 0
-1008 -6437 6494 0
-1008 -6438 6495 0
-1008 -6439 6496 0
-1008 -6440 6497 0
-1008 -6441 6498 0
-1008 -6442 6499 0
-1008 -6443 6500 0
-1008 -6444 6501 0
-1008 -6445 6502 0
-1008 -6446 6503 0
-1008 -6447 6504 0
-1008 -6448 0
-6449 6505 0
-6450 6506 0
-6451 6507 0
-6452 6508 0
-6453 6509 0
-6454 6510 0
-6455 6511 0
-6456 6512 0
-6457 6513 0
-6458 6514 0
-6459 6515 0
-6460 6516 0
-6461 6517 0
-6462 6518 0
-6463 6519 0
-6464 6520 0
-6465 6521 0
-6466 6522 0
-6467 6523 0
-6468 6524 0
-6469 6525 0
-6470 6526 0
-6471 6527 0
-6472 6528 0
-6473 6529 0
-6474 6530 0
-6475 6531 0
-6476 6532 0
-6477 6533 0
-6478 6534 0
-6479 6535 0
-6480 6536 0
-6481 6537 0
-6482 6538 0
-6483 6539 0
-6484 6540 0
-6485 6541 0
-6486 6542 0
-6487 6543 0
-6488 6544 0
-6489 6545 0
-6490 6546 0
-6491 6547 0
-6492 6548 0
-6493 6549 0
-6494 6550 0
-6495 6551 0
-6496 6552 0
-6497 6553 0
-6498 6554 0
-6499 6555 0
-6500 6556 0
-6501 6557 0
-6502 6558 0
-6503 6559 0
-6504 6560 0
-1010 -6449 6506 0
-1010 -6450 6507 0
-1010 -6451 6508 0
-1010 -6452 6509 0
-1010 -6453 6510 0
-1010 -6454 6511 0
-1010 -6455 6512 0
-1010 -6456 6513 0
-1010 -6457 6514 0
-1010 -6458 6515 0
-1010 -6459 6516 0
-1010 -6460 6517 0
-1010 -6461 6518 0
-1010 -6462 6519 0
-1010 -6463 6520 0
-1010 -6464 6521 0
-1010 -6465 6522 0
-1010 -6466 6523 0
-1010 -6467 6524 0
-1010 -6468 6525 0
-1010 -6469 6526 0
-1010 -6470 6527 0
-1010 -6471 6528 0
-1010 -6472 6529 0
-1010 -6473 6530 0
-1010 -6474 6531 0
-1010 -6475 6532 0
-1010 -6476 6533 0
-1010 -6477 6534 0
-1010 -6478 6535 0
-1010 -6479 6536 0
-1010 -6480 6537 0
-1010 -6481 6538 0
-1010 -6482 6539 0
-1010 -6483 6540 0
-1010 -6484 6541 0
-1010 -6485 6542 0
-1010 -6486 6543 0
-1010 -6487 6544 0
-1010 -6488 6545 0
-1010 -6489 6546 0
-1010 -6490 6547 0
-1010 -6491 6548 0
-1010 -6492 6549 0
-1010 -6493 6550 0
-1010 -6494 6551 0
-1010 -6495 6552 0
-1010 -6496 6553 0
-1010 -6497 6554 0
-1010 -6498 6555 0
-1010 -6499 6556 0
-1010 -6500 6557 0
-1010 -6501 6558 0
-1010 -6502 6559 0
-1010 -6503 6560 0
-1010 -6504 0
-6505 6561 0
-6506 6562 0
-6507 6563 0
-6508 6564 0
-6509 6565 0
-6510 6566 0
-6511 6567 0
-6512 6568 0
-6513 6569 0
-6514 6570 0
-6515 6571 0
-6516 6572 0
-6517 6573 0
-6518 6574 0
-6519 6575 0
-6520 6576 0
-6521 6577 0
-6522 6578 0
-6523 6579 0
-6524 6580 0
-6525 6581 0
-6526 6582 0
-6527 6583 0
-6528 6584 0
-6529 6585 0
-6530 6586 0
-6531 6587 0
-6532 6588 0
-6533 6589 0
-6534 6590 0
-6535 6591 0
-6536 6592 0
-6537 6593 0
-6538 6594 0
-6539 6595 0
-6540 6596 0
-6541 6597 0
-6542 6598 0
-6543 6599 0
-6544 6600 0
-6545 6601 0
-6546 6602 0
-6547 6603 0
-6548 6604 0
-6549 6605 0
-6550 6606 0
-6551 6607 0
-6552 6608 0
-6553 6609 0
-6554 6610 0
-6555 6611 0
-6556 6612 0
-6557 6613 0
-6558 6614 0
-6559 6615 0
-6560 6616 0
-1012 -6505 6562 0
-1012 -6506 6563 0
-1012 -6507 6564 0
-1012 -6508 6565 0
-1012 -6509 6566 0
-1012 -6510 6567 0
-1012 -6511 6568 0
-1012 -6512 6569 0
-1012 -6513 6570 0
-1012 -6514 6571 0
-1012 -6515 6572 0
-1012 -6516 6573 0
-1012 -6517 6574 0
-1012 -6518 6575 0
-1012 -6519 6576 0
-1012 -6520 6577 0
-1012 -6521 6578 0
-1012 -6522 6579 0
-1012 -6523 6580 0
-1012 -6524 6581 0
-1012 -6525 6582 0
-1012 -6526 6583 0
-1012 -6527 6584 0
-1012 -6528 6585 0
-1012 -6529 6586 0
-1012 -6530 6587 0
-1012 -6531 6588 0
-1012 -6532 6589 0
-1012 -6533 6590 0
-1012 -6534 6591 0
-1012 -6535 6592 0
-1012 -6536 6593 0
-1012 -6537 6594 0
-1012 -6538 6595 0
-1012 -6539 6596 0
-1012 -6540 6597 0
-1012 -6541 6598 0
-1012 -6542 6599 0
-1012 -6543 6600 0
-1012 -6544 6601 0
-1012 -6545 6602 0
-1012 -6546 6603 0
-1012 -6547 6604 0
-1012 -6548 6605 0
-1012 -6549 6606 0
-1012 -6550 6607 0
-1012 -6551 6608 0
-1012 -6552 6609 0
-1012 -6553 6610 0
-1012 -6554 6611 0
-1012 -6555 6612 0
-1012 -6556 6613 0
-1012 -6557 6614 0
-1012 -6558 6615 0
-1012 -6559 6616 0
-1012 -6560 0
-6561 6617 0
-6562 6618 0
-6563 6619 0
-6564 6620 0
-6565 6621 0
-6566 6622 0
-6567 6623 0
-6568 6624 0
-6569 6625 0
-6570 6626 0
-6571 6627 0
-6572 6628 0
-6573 6629 0
-6574 6630 0
-6575 6631 0
-6576 6632 0
-6577 6633 0
-6578 6634 0
-6579 6635 0
-6580 6636 0
-6581 6637 0
-6582 6638 0
-6583 6639 0
-6584 6640 0
-6585 6641 0
-6586 6642 0
-6587 6643 0
-6588 6644 0
-6589 6645 0
-6590 6646 0
-6591 6647 0
-6592 6648 0
-6593 6649 0
-6594 6650 0
-6595 6651 0
-6596 6652 0
-6597 6653 0
-6598 6654 0
-6599 6655 0
-6600 6656 0
-6601 6657 0
-6602 6658 0
-6603 6659 0
-6604 6660 0
-6605 6661 0
-6606 6662 0
-6607 6663 0
-6608 6664 0
-6609 6665 0
-6610 6666 0
-6611 6667 0
-6612 6668 0
-6613 6669 0
-6614 6670 0
-6615 6671 0
-6616 6672 0
-1014 -6561 6618 0
-1014 -6562 6619 0
-1014 -6563 6620 0
-1014 -6564 6621 0
-1014 -6565 6622 0
-1014 -6566 6623 0
-1014 -6567 6624 0
-1014 -6568 6625 0
-1014 -6569 6626 0
-1014 -6570 6627 0
-1014 -6571 6628 0
-1014 -6572 6629 0
-1014 -6573 6630 0
-1014 -6574 6631 0
-1014 -6575 6632 0
-1014 -6576 6633 0
-1014 -6577 6634 0
-1014 -6578 6635 0
-1014 -6579 6636 0
-1014 -6580 6637 0
-1014 -6581 6638 0
-1014 -6582 6639 0
-1014 -6583 6640 0
-1014 -6584 6641 0
-1014 -6585 6642 0
-1014 -6586 6643 0
-1014 -6587 6644 0
-1014 -6588 6645 0
-1014 -6589 6646 0
-1014 -6590 6647 0
-1014 -6591 6648 0
-1014 -6592 6649 0
-1014 -6593 6650 0
-1014 -6594 6651 0
-1014 -6595 6652 0
-1014 -6596 6653 0
-1014 -6597 6654 0
-1014 -6598 6655 0
-1014 -6599 6656 0
-1014 -6600 6657 0
-1014 -6601 6658 0
-1014 -6602 6659 0
-1014 -6603 6660 0
-1014 -6604 6661 0
-1014 -6605 6662 0
-1014 -6606 6663 0
-1014 -6607 6664 0
-1014 -6608 6665 0
-1014 -6609 6666 0
-1014 -6610 6667 0
-1014 -6611 6668 0
-1014 -6612 6669 0
-1014 -6613 6670 0
-1014 -6614 6671 0
-1014 -6615 6672 0
-1014 -6616 0
-6617 6673 0
-6618 6674 0
-6619 6675 0
-6620 6676 0
-6621 6677 0
-6622 6678 0
-6623 6679 0
-6624 6680 0
-6625 6681 0
-6626 6682 0
-6627 6683 0
-6628 6684 0
-6629 6685 0
-6630 6686 0
-6631 6687 0
-6632 6688 0
-6633 6689 0
-6634 6690 0
-6635 6691 0
-6636 6692 0
-6637 6693 0
-6638 6694 0
-6639 6695 0
-6640 6696 0
-6641 6697 0
-6642 6698 0
-6643 6699 0
-6644 6700 0
-6645 6701 0
-6646 6702 0
-6647 6703 0
-6648 6704 0
-6649 6705 0
-6650 6706 0
-6651 6707 0
-6652 6708 0
-6653 6709 0
-6654 6710 0
-6655 6711 0
-6656 6712 0
-6657 6713 0
-6658 6714 0
-6659 6715 0
-6660 6716 0
-6661 6717 0
-6662 6718 0
-6663 6719 0
-6664 6720 0
-6665 6721 0
-6666 6722 0
-6667 6723 0
-6668 6724 0
-6669 6725 0
-6670 6726 0
-6671 6727 0
-6672 6728 0
-1016 -6617 6674 0
-1016 -6618 6675 0
-1016 -6619 6676 0
-1016 -6620 6677 0
-1016 -6621 6678 0
-1016 -6622 6679 0
-1016 -6623 6680 0
-1016 -6624 6681 0
-1016 -6625 6682 0
-1016 -6626 6683 0
-1016 -6627 6684 0
-1016 -6628 6685 0
-1016 -6629 6686 0
-1016 -6630 6687 0
-1016 -6631 6688 0
-1016 -6632 6689 0
-1016 -6633 6690 0
-1016 -6634 6691 0
-1016 -6635 6692 0
-1016 -6636 6693 0
-1016 -6637 6694 0
-1016 -6638 6695 0
-1016 -6639 6696 0
-1016 -6640 6697 0
-1016 -6641 6698 0
-1016 -6642 6699 0
-1016 -6643 6700 0
-1016 -6644 6701 0
-1016 -6645 6702 0
-1016 -6646 6703 0
-1016 -6647 6704 0
-1016 -6648 6705 0
-1016 -6649 6706 0
-1016 -6650 6707 0
-1016 -6651 6708 0
-1016 -6652 6709 0
-1016 -6653 6710 0
-1016 -6654 6711 0
-1016 -6655 6712 0
-1016 -6656 6713 0
-1016 -6657 6714 0
-1016 -6658 6715 0
-1016 -6659 6716 0
-1016 -6660 6717 0
-1016 -6661 6718 0
-1016 -6662 6719 0
-1016 -6663 6720 0
-1016 -6664 6721 0
-1016 -6665 6722 0
-1016 -6666 6723 0
-1016 -6667 6724 0
-1016 -6668 6725 0
-1016 -6669 6726 0
-1016 -6670 6727 0
-1016 -6671 6728 0
-1016 -6672 0
-6673 6729 0
-6674 6730 0
-6675 6731 0
-6676 6732 0
-6677 6733 0
-6678 6734 0
-6679 6735 0
-6680 6736 0
-6681 6737 0
-6682 6738 0
-6683 6739 0
-6684 6740 0
-6685 6741 0
-6686 6742 0
-6687 6743 0
-6688 6744 0
-6689 6745 0
-6690 6746 0
-6691 6747 0
-6692 6748 0
-6693 6749 0
-6694 6750 0
-6695 6751 0
-6696 6752 0
-6697 6753 0
-6698 6754 0
-6699 6755 0
-6700 6756 0
-6701 6757 0
-6702 6758 0
-6703 6759 0
-6704 6760 0
-6705 6761 0
-6706 6762 0
-6707 6763 0
-6708 6764 0
-6709 6765 0
-6710 6766 0
-6711 6767 0
-6712 6768 0
-6713 6769 0
-6714 6770 0
-6715 6771 0
-6716 6772 0
-6717 6773 0
-6718 6774 0
-6719 6775 0
-6720 6776 0
-6721 6777 0
-6722 6778 0
-6723 6779 0
-6724 6780 0
-6725 6781 0
-6726 6782 0
-6727 6783 0
-6728 6784 0
-1018 -6673 6730 0
-1018 -6674 6731 0
-1018 -6675 6732 0
-1018 -6676 6733 0
-1018 -6677 6734 0
-1018 -6678 6735 0
-1018 -6679 6736 0
-1018 -6680 6737 0
-1018 -6681 6738 0
-1018 -6682 6739 0
-1018 -6683 6740 0
-1018 -6684 6741 0
-1018 -6685 6742 0
-1018 -6686 6743 0
-1018 -6687 6744 0
-1018 -6688 6745 0
-1018 -6689 6746 0
-1018 -6690 6747 0
-1018 -6691 6748 0
-1018 -6692 6749 0
-1018 -6693 6750 0
-1018 -6694 6751 0
-1018 -6695 6752 0
-1018 -6696 6753 0
-1018 -6697 6754 0
-1018 -6698 6755 0
-1018 -6699 6756 0
-1018 -6700 6757 0
-1018 -6701 6758 0
-1018 -6702 6759 0
-1018 -6703 6760 0
-1018 -6704 6761 0
-1018 -6705 6762 0
-1018 -6706 6763 0
-1018 -6707 6764 0
-1018 -6708 6765 0
-1018 -6709 6766 0
-1018 -6710 6767 0
-1018 -6711 6768 0
-1018 -6712 6769 0
-1018 -6713 6770 0
-1018 -6714 6771 0
-1018 -6715 6772 0
-1018 -6716 6773 0
-1018 -6717 6774 0
-1018 -6718 6775 0
-1018 -6719 6776 0
-1018 -6720 6777 0
-1018 -6721 6778 0
-1018 -6722 6779 0
-1018 -6723 6780 0
-1018 -6724 6781 0
-1018 -6725 6782 0
-1018 -6726 6783 0
-1018 -6727 6784 0
-1018 -6728 0
-6729 6785 0
-6730 6786 0
-6731 6787 0
-6732 6788 0
-6733 6789 0
-6734 6790 0
-6735 6791 0
-6736 6792 0
-6737 6793 0
-6738 6794 0
-6739 6795 0
-6740 6796 0
-6741 6797 0
-6742 6798 0
-6743 6799 0
-6744 6800 0
-6745 6801 0
-6746 6802 0
-6747 6803 0
-6748 6804 0
-6749 6805 0
-6750 6806 0
-6751 6807 0
-6752 6808 0
-6753 6809 0
-6754 6810 0
-6755 6811 0
-6756 6812 0
-6757 6813 0
-6758 6814 0
-6759 6815 0
-6760 6816 0
-6761 6817 0
-6762 6818 0
-6763 6819 0
-6764 6820 0
-6765 6821 0
-6766 6822 0
-6767 6823 0
-6768 6824 0
-6769 6825 0
-6770 6826 0
-6771 6827 0
-6772 6828 0
-6773 6829 0
-6774 6830 0
-6775 6831 0
-6776 6832 0
-6777 6833 0
-6778 6834 0
-6779 6835 0
-6780 6836 0
-6781 6837 0
-6782 6838 0
-6783 6839 0
-6784 6840 0
-1020 -6729 6786 0
-1020 -6730 6787 0
-1020 -6731 6788 0
-1020 -6732 6789 0
-1020 -6733 6790 0
-1020 -6734 6791 0
-1020 -6735 6792 0
-1020 -6736 6793 0
-1020 -6737 6794 0
-1020 -6738 6795 0
-1020 -6739 6796 0
-1020 -6740 6797 0
-1020 -6741 6798 0
-1020 -6742 6799 0
-1020 -6743 6800 0
-1020 -6744 6801 0
-1020 -6745 6802 0
-1020 -6746 6803 0
-1020 -6747 6804 0
-1020 -6748 6805 0
-1020 -6749 6806 0
-1020 -6750 6807 0
-1020 -6751 6808 0
-1020 -6752 6809 0
-1020 -6753 6810 0
-1020 -6754 6811 0
-1020 -6755 6812 0
-1020 -6756 6813 0
-1020 -6757 6814 0
-1020 -6758 6815 0
-1020 -6759 6816 0
-1020 -6760 6817 0
-1020 -6761 6818 0
-1020 -6762 6819 0
-1020 -6763 6820 0
-1020 -6764 6821 0
-1020 -6765 6822 0
-1020 -6766 6823 0
-1020 -6767 6824 0
-1020 -6768 6825 0
-1020 -6769 6826 0
-1020 -6770 6827 0
-1020 -6771 6828 0
-1020 -6772 6829 0
-1020 -6773 6830 0
-1020 -6774 6831 0
-1020 -6775 6832 0
-1020 -6776 6833 0
-1020 -6777 6834 0
-1020 -6778 6835 0
-1020 -6779 6836 0
-1020 -6780 6837 0
-1020 -6781 6838 0
-1020 -6782 6839 0
-1020 -6783 6840 0
-1020 -6784 0
-6785 6841 0
-6786 6842 0
-6787 6843 0
-6788 6844 0
-6789 6845 0
-6790 6846 0
-6791 6847 0
-6792 6848 0
-6793 6849 0
-6794 6850 0
-6795 6851 0
-6796 6852 0
-6797 6853 0
-6798 6854 0
-6799 6855 0
-6800 6856 0
-6801 6857 0
-6802 6858 0
-6803 6859 0
-6804 6860 0
-6805 6861 0
-6806 6862 0
-6807 6863 0
-6808 6864 0
-6809 6865 0
-6810 6866 0
-6811 6867 0
-6812 6868 0
-6813 6869 0
-6814 6870 0
-6815 6871 0
-6816 6872 0
-6817 6873 0
-6818 6874 0
-6819 6875 0
-6820 6876 0
-6821 6877 0
-6822 6878 0
-6823 6879 0
-6824 6880 0
-6825 6881 0
-6826 6882 0
-6827 6883 0
-6828 6884 0
-6829 6885 0
-6830 6886 0
-6831 6887 0
-6832 6888 0
-6833 6889 0
-6834 6890 0
-6835 6891 0
-6836 6892 0
-6837 6893 0
-6838 6894 0
-6839 6895 0
-6840 6896 0
-1022 -6785 6842 0
-1022 -6786 6843 0
-1022 -6787 6844 0
-1022 -6788 6845 0
-1022 -6789 6846 0
-1022 -6790 6847 0
-1022 -6791 6848 0
-1022 -6792 6849 0
-1022 -6793 6850 0
-1022 -6794 6851 0
-1022 -6795 6852 0
-1022 -6796 6853 0
-1022 -6797 6854 0
-1022 -6798 6855 0
-1022 -6799 6856 0
-1022 -6800 6857 0
-1022 -6801 6858 0
-1022 -6802 6859 0
-1022 -6803 6860 0
-1022 -6804 6861 0
-1022 -6805 6862 0
-1022 -6806 6863 0
-1022 -6807 6864 0
-1022 -6808 6865 0
-1022 -6809 6866 0
-1022 -6810 6867 0
-1022 -6811 6868 0
-1022 -6812 6869 0
-1022 -6813 6870 0
-1022 -6814 6871 0
-1022 -6815 6872 0
-1022 -6816 6873 0
-1022 -6817 6874 0
-1022 -6818 6875 0
-1022 -6819 6876 0
-1022 -6820 6877 0
-1022 -6821 6878 0
-1022 -6822 6879 0
-1022 -6823 6880 0
-1022 -6824 6881 0
-1022 -6825 6882 0
-1022 -6826 6883 0
-1022 -6827 6884 0
-1022 -6828 6885 0
-1022 -6829 6886 0
-1022 -6830 6887 0
-1022 -6831 6888 0
-1022 -6832 6889 0
-1022 -6833 6890 0
-1022 -6834 6891 0
-1022 -6835 6892 0
-1022 -6836 6893 0
-1022 -6837 6894 0
-1022 -6838 6895 0
-1022 -6839 6896 0
-1022 -6840 0
-6841 6897 0
-6842 6898 0
-6843 6899 0
-6844 6900 0
-6845 6901 0
-6846 6902 0
-6847 6903 0
-6848 6904 0
-6849 6905 0
-6850 6906 0
-6851 6907 0
-6852 6908 0
-6853 6909 0
-6854 6910 0
-6855 6911 0
-6856 6912 0
-6857 6913 0
-6858 6914 0
-6859 6915 0
-6860 6916 0
-6861 6917 0
-6862 6918 0
-6863 6919 0
-6864 6920 0
-6865 6921 0
-6866 6922 0
-6867 6923 0
-6868 6924 0
-6869 6925 0
-6870 6926 0
-6871 6927 0
-6872 6928 0
-6873 6929 0
-6874 6930 0
-6875 6931 0
-6876 6932 0
-6877 6933 0
-6878 6934 0
-6879 6935 0
-6880 6936 0
-6881 6937 0
-6882 6938 0
-6883 6939 0
-6884 6940 0
-6885 6941 0
-6886 6942 0
-6887 6943 0
-6888 6944 0
-6889 6945 0
-6890 6946 0
-6891 6947 0
-6892 6948 0
-6893 6949 0
-6894 6950 0
-6895 6951 0
-6896 6952 0
-1024 -6841 6898 0
-1024 -6842 6899 0
-1024 -6843 6900 0
-1024 -6844 6901 0
-1024 -6845 6902 0
-1024 -6846 6903 0
-1024 -6847 6904 0
-1024 -6848 6905 0
-1024 -6849 6906 0
-1024 -6850 6907 0
-1024 -6851 6908 0
-1024 -6852 6909 0
-1024 -6853 6910 0
-1024 -6854 6911 0
-1024 -6855 6912 0
-1024 -6856 6913 0
-1024 -6857 6914 0
-1024 -6858 6915 0
-1024 -6859 6916 0
-1024 -6860 6917 0
-1024 -6861 6918 0
-1024 -6862 6919 0
-1024 -6863 6920 0
-1024 -6864 6921 0
-1024 -6865 6922 0
-1024 -6866 6923 0
-1024 -6867 6924 0
-1024 -6868 6925 0
-1024 -6869 6926 0
-1024 -6870 6927 0
-1024 -6871 6928 0
-1024 -6872 6929 0
-1024 -6873 6930 0
-1024 -6874 6931 0
-1024 -6875 6932 0
-1024 -6876 6933 0
-1024 -6877 6934 0
-1024 -6878 6935 0
-1024 -6879 6936 0
-1024 -6880 6937 0
-1024 -6881 6938 0
-1024 -6882 6939 0
-1024 -6883 6940 0
-1024 -6884 6941 0
-1024 -6885 6942 0
-1024 -6886 6943 0
-1024 -6887 6944 0
-1024 -6888 6945 0
-1024 -6889 6946 0
-1024 -6890 6947 0
-1024 -6891 6948 0
-1024 -6892 6949 0
-1024 -6893 6950 0
-1024 -6894 6951 0
-1024 -6895 6952 0
-1024 -6896 0
-6897 6953 0
-6898 6954 0
-6899 6955 0
-6900 6956 0
-6901 6957 0
-6902 6958 0
-6903 6959 0
-6904 6960 0
-6905 6961 0
-6906 6962 0
-6907 6963 0
-6908 6964 0
-6909 6965 0
-6910 6966 0
-6911 6967 0
-6912 6968 0
-6913 6969 0
-6914 6970 0
-6915 6971 0
-6916 6972 0
-6917 6973 0
-6918 6974 0
-6919 6975 0
-6920 6976 0
-6921 6977 0
-6922 6978 0
-6923 6979 0
-6924 6980 0
-6925 6981 0
-6926 6982 0
-6927 6983 0
-6928 6984 0
-6929 6985 0
-6930 6986 0
-6931 6987 0
-6932 6988 0
-6933 6989 0
-6934 6990 0
-6935 6991 0
-6936 6992 0
-6937 6993 0
-6938 6994 0
-6939 6995 0
-6940 6996 0
-6941 6997 0
-6942 6998 0
-6943 6999 0
-6944 7000 0
-6945 7001 0
-6946 7002 0
-6947 7003 0
-6948 7004 0
-6949 7005 0
-6950 7006 0
-6951 7007 0
-6952 7008 0
-1026 -6897 6954 0
-1026 -6898 6955 0
-1026 -6899 6956 0
-1026 -6900 6957 0
-1026 -6901 6958 0
-1026 -6902 6959 0
-1026 -6903 6960 0
-1026 -6904 6961 0
-1026 -6905 6962 0
-1026 -6906 6963 0
-1026 -6907 6964 0
-1026 -6908 6965 0
-1026 -6909 6966 0
-1026 -6910 6967 0
-1026 -6911 6968 0
-1026 -6912 6969 0
-1026 -6913 6970 0
-1026 -6914 6971 0
-1026 -6915 6972 0
-1026 -6916 6973 0
-1026 -6917 6974 0
-1026 -6918 6975 0
-1026 -6919 6976 0
-1026 -6920 6977 0
-1026 -6921 6978 0
-1026 -6922 6979 0
-1026 -6923 6980 0
-1026 -6924 6981 0
-1026 -6925 6982 0
-1026 -6926 6983 0
-1026 -6927 6984 0
-1026 -6928 6985 0
-1026 -6929 6986 0
-1026 -6930 6987 0
-1026 -6931 6988 0
-1026 -6932 6989 0
-1026 -6933 6990 0
-1026 -6934 6991 0
-1026 -6935 6992 0
-1026 -6936 6993 0
-1026 -6937 6994 0
-1026 -6938 6995 0
-1026 -6939 6996 0
-1026 -6940 6997 0
-1026 -6941 6998 0
-1026 -6942 6999 0
-1026 -6943 7000 0
-1026 -6944 7001 0
-1026 -6945 7002 0
-1026 -6946 7003 0
-1026 -6947 7004 0
-1026 -6948 7005 0
-1026 -6949 7006 0
-1026 -6950 7007 0
-1026 -6951 7008 0
-1026 -6952 0
-6953 7009 0
-6954 7010 0
-6955 7011 0
-6956 7012 0
-6957 7013 0
-6958 7014 0
-6959 7015 0
-6960 7016 0
-6961 7017 0
-6962 7018 0
-6963 7019 0
-6964 7020 0
-6965 7021 0
-6966 7022 0
-6967 7023 0
-6968 7024 0
-6969 7025 0
-6970 7026 0
-6971 7027 0
-6972 7028 0
-6973 7029 0
-6974 7030 0
-6975 7031 0
-6976 7032 0
-6977 7033 0
-6978 7034 0
-6979 7035 0
-6980 7036 0
-6981 7037 0
-6982 7038 0
-6983 7039 0
-6984 7040 0
-6985 7041 0
-6986 7042 0
-6987 7043 0
-6988 7044 0
-6989 7045 0
-6990 7046 0
-6991 7047 0
-6992 7048 0
-6993 7049 0
-6994 7050 0
-6995 7051 0
-6996 7052 0
-6997 7053 0
-6998 7054 0
-6999 7055 0
-7000 7056 0
-7001 7057 0
-7002 7058 0
-7003 7059 0
-7004 7060 0
-7005 7061 0
-7006 7062 0
-7007 7063 0
-7008 7064 0
-1028 -6953 7010 0
-1028 -6954 7011 0
-1028 -6955 7012 0
-1028 -6956 7013 0
-1028 -6957 7014 0
-1028 -6958 7015 0
-1028 -6959 7016 0
-1028 -6960 7017 0
-1028 -6961 7018 0
-1028 -6962 7019 0
-1028 -6963 7020 0
-1028 -6964 7021 0
-1028 -6965 7022 0
-1028 -6966 7023 0
-1028 -6967 7024 0
-1028 -6968 7025 0
-1028 -6969 7026 0
-1028 -6970 7027 0
-1028 -6971 7028 0
-1028 -6972 7029 0
-1028 -6973 7030 0
-1028 -6974 7031 0
-1028 -6975 7032 0
-1028 -6976 7033 0
-1028 -6977 7034 0
-1028 -6978 7035 0
-1028 -6979 7036 0
-1028 -6980 7037 0
-1028 -6981 7038 0
-1028 -6982 7039 0
-1028 -6983 7040 0
-1028 -6984 7041 0
-1028 -6985 7042 0
-1028 -6986 7043 0
-1028 -6987 7044 0
-1028 -6988 7045 0
-1028 -6989 7046 0
-1028 -6990 7047 0
-1028 -6991 7048 0
-1028 -6992 7049 0
-1028 -6993 7050 0
-1028 -6994 7051 0
-1028 -6995 7052 0
-1028 -6996 7053 0
-1028 -6997 7054 0
-1028 -6998 7055 0
-1028 -6999 7056 0
-1028 -7000 7057 0
-1028 -7001 7058 0
-1028 -7002 7059 0
-1028 -7003 7060 0
-1028 -7004 7061 0
-1028 -7005 7062 0
-1028 -7006 7063 0
-1028 -7007 7064 0
-1028 -7008 0
-7009 7065 0
-7010 7066 0
-7011 7067 0
-7012 7068 0
-7013 7069 0
-7014 7070 0
-7015 7071 0
-7016 7072 0
-7017 7073 0
-7018 7074 0
-7019 7075 0
-7020 7076 0
-7021 7077 0
-7022 7078 0
-7023 7079 0
-7024 7080 0
-7025 7081 0
-7026 7082 0
-7027 7083 0
-7028 7084 0
-7029 7085 0
-7030 7086 0
-7031 7087 0
-7032 7088 0
-7033 7089 0
-7034 7090 0
-7035 7091 0
-7036 7092 0
-7037 7093 0
-7038 7094 0
-7039 7095 0
-7040 7096 0
-7041 7097 0
-7042 7098 0
-7043 7099 0
-7044 7100 0
-7045 7101 0
-7046 7102 0
-7047 7103 0
-7048 7104 0
-7049 7105 0
-7050 7106 0
-7051 7107 0
-7052 7108 0
-7053 7109 0
-7054 7110 0
-7055 7111 0
-7056 7112 0
-7057 7113 0
-7058 7114 0
-7059 7115 0
-7060 7116 0
-7061 7117 0
-7062 7118 0
-7063 7119 0
-7064 7120 0
-1030 -7009 7066 0
-1030 -7010 7067 0
-1030 -7011 7068 0
-1030 -7012 7069 0
-1030 -7013 7070 0
-1030 -7014 7071 0
-1030 -7015 7072 0
-1030 -7016 7073 0
-1030 -7017 7074 0
-1030 -7018 7075 0
-1030 -7019 7076 0
-1030 -7020 7077 0
-1030 -7021 7078 0
-1030 -7022 7079 0
-1030 -7023 7080 0
-1030 -7024 7081 0
-1030 -7025 7082 0
-1030 -7026 7083 0
-1030 -7027 7084 0
-1030 -7028 7085 0
-1030 -7029 7086 0
-1030 -7030 7087 0
-1030 -7031 7088 0
-1030 -7032 7089 0
-1030 -7033 7090 0
-1030 -7034 7091 0
-1030 -7035 7092 0
-1030 -7036 7093 0
-1030 -7037 7094 0
-1030 -7038 7095 0
-1030 -7039 7096 0
-1030 -7040 7097 0
-1030 -7041 7098 0
-1030 -7042 7099 0
-1030 -7043 7100 0
-1030 -7044 7101 0
-1030 -7045 7102 0
-1030 -7046 7103 0
-1030 -7047 7104 0
-1030 -7048 7105 0
-1030 -7049 7106 0
-1030 -7050 7107 0
-1030 -7051 7108 0
-1030 -7052 7109 0
-1030 -7053 7110 0
-1030 -7054 7111 0
-1030 -7055 7112 0
-1030 -7056 7113 0
-1030 -7057 7114 0
-1030 -7058 7115 0
-1030 -7059 7116 0
-1030 -7060 7117 0
-1030 -7061 7118 0
-1030 -7062 7119 0
-1030 -7063 7120 0
-1030 -7064 0
-7065 7121 0
-7066 7122 0
-7067 7123 0
-7068 7124 0
-7069 7125 0
-7070 7126 0
-7071 7127 0
-7072 7128 0
-7073 7129 0
-7074 7130 0
-7075 7131 0
-7076 7132 0
-7077 7133 0
-7078 7134 0
-7079 7135 0
-7080 7136 0
-7081 7137 0
-7082 7138 0
-7083 7139 0
-7084 7140 0
-7085 7141 0
-7086 7142 0
-7087 7143 0
-7088 7144 0
-7089 7145 0
-7090 7146 0
-7091 7147 0
-7092 7148 0
-7093 7149 0
-7094 7150 0
-7095 7151 0
-7096 7152 0
-7097 7153 0
-7098 7154 0
-7099 7155 0
-7100 7156 0
-7101 7157 0
-7102 7158 0
-7103 7159 0
-7104 7160 0
-7105 7161 0
-7106 7162 0
-7107 7163 0
-7108 7164 0
-7109 7165 0
-7110 7166 0
-7111 7167 0
-7112 7168 0
-7113 7169 0
-7114 7170 0
-7115 7171 0
-7116 7172 0
-7117 7173 0
-7118 7174 0
-7119 7175 0
-7120 7176 0
-1032 -7065 7122 0
-1032 -7066 7123 0
-1032 -7067 7124 0
-1032 -7068 7125 0
-1032 -7069 7126 0
-1032 -7070 7127 0
-1032 -7071 7128 0
-1032 -7072 7129 0
-1032 -7073 7130 0
-1032 -7074 7131 0
-1032 -7075 7132 0
-1032 -7076 7133 0
-1032 -7077 7134 0
-1032 -7078 7135 0
-1032 -7079 7136 0
-1032 -7080 7137 0
-1032 -7081 7138 0
-1032 -7082 7139 0
-1032 -7083 7140 0
-1032 -7084 7141 0
-1032 -7085 7142 0
-1032 -7086 7143 0
-1032 -7087 7144 0
-1032 -7088 7145 0
-1032 -7089 7146 0
-1032 -7090 7147 0
-1032 -7091 7148 0
-1032 -7092 7149 0
-1032 -7093 7150 0
-1032 -7094 7151 0
-1032 -7095 7152 0
-1032 -7096 7153 0
-1032 -7097 7154 0
-1032 -7098 7155 0
-1032 -7099 7156 0
-1032 -7100 7157 0
-1032 -7101 7158 0
-1032 -7102 7159 0
-1032 -7103 7160 0
-1032 -7104 7161 0
-1032 -7105 7162 0
-1032 -7106 7163 0
-1032 -7107 7164 0
-1032 -7108 7165 0
-1032 -7109 7166 0
-1032 -7110 7167 0
-1032 -7111 7168 0
-1032 -7112 7169 0
-1032 -7113 7170 0
-1032 -7114 7171 0
-1032 -7115 7172 0
-1032 -7116 7173 0
-1032 -7117 7174 0
-1032 -7118 7175 0
-1032 -7119 7176 0
-1032 -7120 0
-7121 7177 0
-7122 7178 0
-7123 7179 0
-7124 7180 0
-7125 7181 0
-7126 7182 0
-7127 7183 0
-7128 7184 0
-7129 7185 0
-7130 7186 0
-7131 7187 0
-7132 7188 0
-7133 7189 0
-7134 7190 0
-7135 7191 0
-7136 7192 0
-7137 7193 0
-7138 7194 0
-7139 7195 0
-7140 7196 0
-7141 7197 0
-7142 7198 0
-7143 7199 0
-7144 7200 0
-7145 7201 0
-7146 7202 0
-7147 7203 0
-7148 7204 0
-7149 7205 0
-7150 7206 0
-7151 7207 0
-7152 7208 0
-7153 7209 0
-7154 7210 0
-7155 7211 0
-7156 7212 0
-7157 7213 0
-7158 7214 0
-7159 7215 0
-7160 7216 0
-7161 7217 0
-7162 7218 0
-7163 7219 0
-7164 7220 0
-7165 7221 0
-7166 7222 0
-7167 7223 0
-7168 7224 0
-7169 7225 0
-7170 7226 0
-7171 7227 0
-7172 7228 0
-7173 7229 0
-7174 7230 0
-7175 7231 0
-7176 7232 0
-1034 -7121 7178 0
-1034 -7122 7179 0
-1034 -7123 7180 0
-1034 -7124 7181 0
-1034 -7125 7182 0
-1034 -7126 7183 0
-1034 -7127 7184 0
-1034 -7128 7185 0
-1034 -7129 7186 0
-1034 -7130 7187 0
-1034 -7131 7188 0
-1034 -7132 7189 0
-1034 -7133 7190 0
-1034 -7134 7191 0
-1034 -7135 7192 0
-1034 -7136 7193 0
-1034 -7137 7194 0
-1034 -7138 7195 0
-1034 -7139 7196 0
-1034 -7140 7197 0
-1034 -7141 7198 0
-1034 -7142 7199 0
-1034 -7143 7200 0
-1034 -7144 7201 0
-1034 -7145 7202 0
-1034 -7146 7203 0
-1034 -7147 7204 0
-1034 -7148 7205 0
-1034 -7149 7206 0
-1034 -7150 7207 0
-1034 -7151 7208 0
-1034 -7152 7209 0
-1034 -7153 7210 0
-1034 -7154 7211 0
-1034 -7155 7212 0
-1034 -7156 7213 0
-1034 -7157 7214 0
-1034 -7158 7215 0
-1034 -7159 7216 0
-1034 -7160 7217 0
-1034 -7161 7218 0
-1034 -7162 7219 0
-1034 -7163 7220 0
-1034 -7164 7221 0
-1034 -7165 7222 0
-1034 -7166 7223 0
-1034 -7167 7224 0
-1034 -7168 7225 0
-1034 -7169 7226 0
-1034 -7170 7227 0
-1034 -7171 7228 0
-1034 -7172 7229 0
-1034 -7173 7230 0
-1034 -7174 7231 0
-1034 -7175 7232 0
-1034 -7176 0
-7177 7233 0
-7178 7234 0
-7179 7235 0
-7180 7236 0
-7181 7237 0
-7182 7238 0
-7183 7239 0
-7184 7240 0
-7185 7241 0
-7186 7242 0
-7187 7243 0
-7188 7244 0
-7189 7245 0
-7190 7246 0
-7191 7247 0
-7192 7248 0
-7193 7249 0
-7194 7250 0
-7195 7251 0
-7196 7252 0
-7197 7253 0
-7198 7254 0
-7199 7255 0
-7200 7256 0
-7201 7257 0
-7202 7258 0
-7203 7259 0
-7204 7260 0
-7205 7261 0
-7206 7262 0
-7207 7263 0
-7208 7264 0
-7209 7265 0
-7210 7266 0
-7211 7267 0
-7212 7268 0
-7213 7269 0
-7214 7270 0
-7215 7271 0
-7216 7272 0
-7217 7273 0
-7218 7274 0
-7219 7275 0
-7220 7276 0
-7221 7277 0
-7222 7278 0
-7223 7279 0
-7224 7280 0
-7225 7281 0
-7226 7282 0
-7227 7283 0
-7228 7284 0
-7229 7285 0
-7230 7286 0
-7231 7287 0
-7232 7288 0
-1036 -7177 7234 0
-1036 -7178 7235 0
-1036 -7179 7236 0
-1036 -7180 7237 0
-1036 -7181 7238 0
-1036 -7182 7239 0
-1036 -7183 7240 0
-1036 -7184 7241 0
-1036 -7185 7242 0
-1036 -7186 7243 0
-1036 -7187 7244 0
-1036 -7188 7245 0
-1036 -7189 7246 0
-1036 -7190 7247 0
-1036 -7191 7248 0
-1036 -7192 7249 0
-1036 -7193 7250 0
-1036 -7194 7251 0
-1036 -7195 7252 0
-1036 -7196 7253 0
-1036 -7197 7254 0
-1036 -7198 7255 0
-1036 -7199 7256 0
-1036 -7200 7257 0
-1036 -7201 7258 0
-1036 -7202 7259 0
-1036 -7203 7260 0
-1036 -7204 7261 0
-1036 -7205 7262 0
-1036 -7206 7263 0
-1036 -7207 7264 0
-1036 -7208 7265 0
-1036 -7209 7266 0
-1036 -7210 7267 0
-1036 -7211 7268 0
-1036 -7212 7269 0
-1036 -7213 7270 0
-1036 -7214 7271 0
-1036 -7215 7272 0
-1036 -7216 7273 0
-1036 -7217 7274 0
-1036 -7218 7275 0
-1036 -7219 7276 0
-1036 -7220 7277 0
-1036 -7221 7278 0
-1036 -7222 7279 0
-1036 -7223 7280 0
-1036 -7224 7281 0
-1036 -7225 7282 0
-1036 -7226 7283 0
-1036 -7227 7284 0
-1036 -7228 7285 0
-1036 -7229 7286 0
-1036 -7230 7287 0
-1036 -7231 7288 0
-1036 -7232 0
-7233 7289 0
-7234 7290 0
-7235 7291 0
-7236 7292 0
-7237 7293 0
-7238 7294 0
-7239 7295 0
-7240 7296 0
-7241 7297 0
-7242 7298 0
-7243 7299 0
-7244 7300 0
-7245 7301 0
-7246 7302 0
-7247 7303 0
-7248 7304 0
-7249 7305 0
-7250 7306 0
-7251 7307 0
-7252 7308 0
-7253 7309 0
-7254 7310 0
-7255 7311 0
-7256 7312 0
-7257 7313 0
-7258 7314 0
-7259 7315 0
-7260 7316 0
-7261 7317 0
-7262 7318 0
-7263 7319 0
-7264 7320 0
-7265 7321 0
-7266 7322 0
-7267 7323 0
-7268 7324 0
-7269 7325 0
-7270 7326 0
-7271 7327 0
-7272 7328 0
-7273 7329 0
-7274 7330 0
-7275 7331 0
-7276 7332 0
-7277 7333 0
-7278 7334 0
-7279 7335 0
-7280 7336 0
-7281 7337 0
-7282 7338 0
-7283 7339 0
-7284 7340 0
-7285 7341 0
-7286 7342 0
-7287 7343 0
-7288 7344 0
-1038 -7233 7290 0
-1038 -7234 7291 0
-1038 -7235 7292 0
-1038 -7236 7293 0
-1038 -7237 7294 0
-1038 -7238 7295 0
-1038 -7239 7296 0
-1038 -7240 7297 0
-1038 -7241 7298 0
-1038 -7242 7299 0
-1038 -7243 7300 0
-1038 -7244 7301 0
-1038 -7245 7302 0
-1038 -7246 7303 0
-1038 -7247 7304 0
-1038 -7248 7305 0
-1038 -7249 7306 0
-1038 -7250 7307 0
-1038 -7251 7308 0
-1038 -7252 7309 0
-1038 -7253 7310 0
-1038 -7254 7311 0
-1038 -7255 7312 0
-1038 -7256 7313 0
-1038 -7257 7314 0
-1038 -7258 7315 0
-1038 -7259 7316 0
-1038 -7260 7317 0
-1038 -7261 7318 0
-1038 -7262 7319 0
-1038 -7263 7320 0
-1038 -7264 7321 0
-1038 -7265 7322 0
-1038 -7266 7323 0
-1038 -7267 7324 0
-1038 -7268 7325 0
-1038 -7269 7326 0
-1038 -7270 7327 0
-1038 -7271 7328 0
-1038 -7272 7329 0
-1038 -7273 7330 0
-1038 -7274 7331 0
-1038 -7275 7332 0
-1038 -7276 7333 0
-1038 -7277 7334 0
-1038 -7278 7335 0
-1038 -7279 7336 0
-1038 -7280 7337 0
-1038 -7281 7338 0
-1038 -7282 7339 0
-1038 -7283 7340 0
-1038 -7284 7341 0
-1038 -7285 7342 0
-1038 -7286 7343 0
-1038 -7287 7344 0
-1038 -7288 0
-7289 7345 0
-7290 7346 0
-7291 7347 0
-7292 7348 0
-7293 7349 0
-7294 7350 0
-7295 7351 0
-7296 7352 0
-7297 7353 0
-7298 7354 0
-7299 7355 0
-7300 7356 0
-7301 7357 0
-7302 7358 0
-7303 7359 0
-7304 7360 0
-7305 7361 0
-7306 7362 0
-7307 7363 0
-7308 7364 0
-7309 7365 0
-7310 7366 0
-7311 7367 0
-7312 7368 0
-7313 7369 0
-7314 7370 0
-7315 7371 0
-7316 7372 0
-7317 7373 0
-7318 7374 0
-7319 7375 0
-7320 7376 0
-7321 7377 0
-7322 7378 0
-7323 7379 0
-7324 7380 0
-7325 7381 0
-7326 7382 0
-7327 7383 0
-7328 7384 0
-7329 7385 0
-7330 7386 0
-7331 7387 0
-7332 7388 0
-7333 7389 0
-7334 7390 0
-7335 7391 0
-7336 7392 0
-7337 7393 0
-7338 7394 0
-7339 7395 0
-7340 7396 0
-7341 7397 0
-7342 7398 0
-7343 7399 0
-7344 7400 0
-1040 -7289 7346 0
-1040 -7290 7347 0
-1040 -7291 7348 0
-1040 -7292 7349 0
-1040 -7293 7350 0
-1040 -7294 7351 0
-1040 -7295 7352 0
-1040 -7296 7353 0
-1040 -7297 7354 0
-1040 -7298 7355 0
-1040 -7299 7356 0
-1040 -7300 7357 0
-1040 -7301 7358 0
-1040 -7302 7359 0
-1040 -7303 7360 0
-1040 -7304 7361 0
-1040 -7305 7362 0
-1040 -7306 7363 0
-1040 -7307 7364 0
-1040 -7308 7365 0
-1040 -7309 7366 0
-1040 -7310 7367 0
-1040 -7311 7368 0
-1040 -7312 7369 0
-1040 -7313 7370 0
-1040 -7314 7371 0
-1040 -7315 7372 0
-1040 -7316 7373 0
-1040 -7317 7374 0
-1040 -7318 7375 0
-1040 -7319 7376 0
-1040 -7320 7377 0
-1040 -7321 7378 0
-1040 -7322 7379 0
-1040 -7323 7380 0
-1040 -7324 7381 0
-1040 -7325 7382 0
-1040 -7326 7383 0
-1040 -7327 7384 0
-1040 -7328 7385 0
-1040 -7329 7386 0
-1040 -7330 7387 0
-1040 -7331 7388 0
-1040 -7332 7389 0
-1040 -7333 7390 0
-1040 -7334 7391 0
-1040 -7335 7392 0
-1040 -7336 7393 0
-1040 -7337 7394 0
-1040 -7338 7395 0
-1040 -7339 7396 0
-1040 -7340 7397 0
-1040 -7341 7398 0
-1040 -7342 7399 0
-1040 -7343 7400 0
-1040 -7344 0
-7345 7401 0
-7346 7402 0
-7347 7403 0
-7348 7404 0
-7349 7405 0
-7350 7406 0
-7351 7407 0
-7352 7408 0
-7353 7409 0
-7354 7410 0
-7355 7411 0
-7356 7412 0
-7357 7413 0
-7358 7414 0
-7359 7415 0
-7360 7416 0
-7361 7417 0
-7362 7418 0
-7363 7419 0
-7364 7420 0
-7365 7421 0
-7366 7422 0
-7367 7423 0
-7368 7424 0
-7369 7425 0
-7370 7426 0
-7371 7427 0
-7372 7428 0
-7373 7429 0
-7374 7430 0
-7375 7431 0
-7376 7432 0
-7377 7433 0
-7378 7434 0
-7379 7435 0
-7380 7436 0
-7381 7437 0
-7382 7438 0
-7383 7439 0
-7384 7440 0
-7385 7441 0
-7386 7442 0
-7387 7443 0
-7388 7444 0
-7389 7445 0
-7390 7446 0
-7391 7447 0
-7392 7448 0
-7393 7449 0
-7394 7450 0
-7395 7451 0
-7396 7452 0
-7397 7453 0
-7398 7454 0
-7399 7455 0
-7400 7456 0
-1042 -7345 7402 0
-1042 -7346 7403 0
-1042 -7347 7404 0
-1042 -7348 7405 0
-1042 -7349 7406 0
-1042 -7350 7407 0
-1042 -7351 7408 0
-1042 -7352 7409 0
-1042 -7353 7410 0
-1042 -7354 7411 0
-1042 -7355 7412 0
-1042 -7356 7413 0
-1042 -7357 7414 0
-1042 -7358 7415 0
-1042 -7359 7416 0
-1042 -7360 7417 0
-1042 -7361 7418 0
-1042 -7362 7419 0
-1042 -7363 7420 0
-1042 -7364 7421 0
-1042 -7365 7422 0
-1042 -7366 7423 0
-1042 -7367 7424 0
-1042 -7368 7425 0
-1042 -7369 7426 0
-1042 -7370 7427 0
-1042 -7371 7428 0
-1042 -7372 7429 0
-1042 -7373 7430 0
-1042 -7374 7431 0
-1042 -7375 7432 0
-1042 -7376 7433 0
-1042 -7377 7434 0
-1042 -7378 7435 0
-1042 -7379 7436 0
-1042 -7380 7437 0
-1042 -7381 7438 0
-1042 -7382 7439 0
-1042 -7383 7440 0
-1042 -7384 7441 0
-1042 -7385 7442 0
-1042 -7386 7443 0
-1042 -7387 7444 0
-1042 -7388 7445 0
-1042 -7389 7446 0
-1042 -7390 7447 0
-1042 -7391 7448 0
-1042 -7392 7449 0
-1042 -7393 7450 0
-1042 -7394 7451 0
-1042 -7395 7452 0
-1042 -7396 7453 0
-1042 -7397 7454 0
-1042 -7398 7455 0
-1042 -7399 7456 0
-1042 -7400 0
-7401 7457 0
-7402 7458 0
-7403 7459 0
-7404 7460 0
-7405 7461 0
-7406 7462 0
-7407 7463 0
-7408 7464 0
-7409 7465 0
-7410 7466 0
-7411 7467 0
-7412 7468 0
-7413 7469 0
-7414 7470 0
-7415 7471 0
-7416 7472 0
-7417 7473 0
-7418 7474 0
-7419 7475 0
-7420 7476 0
-7421 7477 0
-7422 7478 0
-7423 7479 0
-7424 7480 0
-7425 7481 0
-7426 7482 0
-7427 7483 0
-7428 7484 0
-7429 7485 0
-7430 7486 0
-7431 7487 0
-7432 7488 0
-7433 7489 0
-7434 7490 0
-7435 7491 0
-7436 7492 0
-7437 7493 0
-7438 7494 0
-7439 7495 0
-7440 7496 0
-7441 7497 0
-7442 7498 0
-7443 7499 0
-7444 7500 0
-7445 7501 0
-7446 7502 0
-7447 7503 0
-7448 7504 0
-7449 7505 0
-7450 7506 0
-7451 7507 0
-7452 7508 0
-7453 7509 0
-7454 7510 0
-7455 7511 0
-7456 7512 0
-1044 -7401 7458 0
-1044 -7402 7459 0
-1044 -7403 7460 0
-1044 -7404 7461 0
-1044 -7405 7462 0
-1044 -7406 7463 0
-1044 -7407 7464 0
-1044 -7408 7465 0
-1044 -7409 7466 0
-1044 -7410 7467 0
-1044 -7411 7468 0
-1044 -7412 7469 0
-1044 -7413 7470 0
-1044 -7414 7471 0
-1044 -7415 7472 0
-1044 -7416 7473 0
-1044 -7417 7474 0
-1044 -7418 7475 0
-1044 -7419 7476 0
-1044 -7420 7477 0
-1044 -7421 7478 0
-1044 -7422 7479 0
-1044 -7423 7480 0
-1044 -7424 7481 0
-1044 -7425 7482 0
-1044 -7426 7483 0
-1044 -7427 7484 0
-1044 -7428 7485 0
-1044 -7429 7486 0
-1044 -7430 7487 0
-1044 -7431 7488 0
-1044 -7432 7489 0
-1044 -7433 7490 0
-1044 -7434 7491 0
-1044 -7435 7492 0
-1044 -7436 7493 0
-1044 -7437 7494 0
-1044 -7438 7495 0
-1044 -7439 7496 0
-1044 -7440 7497 0
-1044 -7441 7498 0
-1044 -7442 7499 0
-1044 -7443 7500 0
-1044 -7444 7501 0
-1044 -7445 7502 0
-1044 -7446 7503 0
-1044 -7447 7504 0
-1044 -7448 7505 0
-1044 -7449 7506 0
-1044 -7450 7507 0
-1044 -7451 7508 0
-1044 -7452 7509 0
-1044 -7453 7510 0
-1044 -7454 7511 0
-1044 -7455 7512 0
-1044 -7456 0
-7457 7513 0
-7458 7514 0
-7459 7515 0
-7460 7516 0
-7461 7517 0
-7462 7518 0
-7463 7519 0
-7464 7520 0
-7465 7521 0
-7466 7522 0
-7467 7523 0
-7468 7524 0
-7469 7525 0
-7470 7526 0
-7471 7527 0
-7472 7528 0
-7473 7529 0
-7474 7530 0
-7475 7531 0
-7476 7532 0
-7477 7533 0
-7478 7534 0
-7479 7535 0
-7480 7536 0
-7481 7537 0
-7482 7538 0
-7483 7539 0
-7484 7540 0
-7485 7541 0
-7486 7542 0
-7487 7543 0
-7488 7544 0
-7489 7545 0
-7490 7546 0
-7491 7547 0
-7492 7548 0
-7493 7549 0
-7494 7550 0
-7495 7551 0
-7496 7552 0
-7497 7553 0
-7498 7554 0
-7499 7555 0
-7500 7556 0
-7501 7557 0
-7502 7558 0
-7503 7559 0
-7504 7560 0
-7505 7561 0
-7506 7562 0
-7507 7563 0
-7508 7564 0
-7509 7565 0
-7510 7566 0
-7511 7567 0
-7512 7568 0
-1046 -7457 7514 0
-1046 -7458 7515 0
-1046 -7459 7516 0
-1046 -7460 7517 0
-1046 -7461 7518 0
-1046 -7462 7519 0
-1046 -7463 7520 0
-1046 -7464 7521 0
-1046 -7465 7522 0
-1046 -7466 7523 0
-1046 -7467 7524 0
-1046 -7468 7525 0
-1046 -7469 7526 0
-1046 -7470 7527 0
-1046 -7471 7528 0
-1046 -7472 7529 0
-1046 -7473 7530 0
-1046 -7474 7531 0
-1046 -7475 7532 0
-1046 -7476 7533 0
-1046 -7477 7534 0
-1046 -7478 7535 0
-1046 -7479 7536 0
-1046 -7480 7537 0
-1046 -7481 7538 0
-1046 -7482 7539 0
-1046 -7483 7540 0
-1046 -7484 7541 0
-1046 -7485 7542 0
-1046 -7486 7543 0
-1046 -7487 7544 0
-1046 -7488 7545 0
-1046 -7489 7546 0
-1046 -7490 7547 0
-1046 -7491 7548 0
-1046 -7492 7549 0
-1046 -7493 7550 0
-1046 -7494 7551 0
-1046 -7495 7552 0
-1046 -7496 7553 0
-1046 -7497 7554 0
-1046 -7498 7555 0
-1046 -7499 7556 0
-1046 -7500 7557 0
-1046 -7501 7558 0
-1046 -7502 7559 0
-1046 -7503 7560 0
-1046 -7504 7561 0
-1046 -7505 7562 0
-1046 -7506 7563 0
-1046 -7507 7564 0
-1046 -7508 7565 0
-1046 -7509 7566 0
-1046 -7510 7567 0
-1046 -7511 7568 0
-1046 -7512 0
-7513 7569 0
-7514 7570 0
-7515 7571 0
-7516 7572 0
-7517 7573 0
-7518 7574 0
-7519 7575 0
-7520 7576 0
-7521 7577 0
-7522 7578 0
-7523 7579 0
-7524 7580 0
-7525 7581 0
-7526 7582 0
-7527 7583 0
-7528 7584 0
-7529 7585 0
-7530 7586 0
-7531 7587 0
-7532 7588 0
-7533 7589 0
-7534 7590 0
-7535 7591 0
-7536 7592 0
-7537 7593 0
-7538 7594 0
-7539 7595 0
-7540 7596 0
-7541 7597 0
-7542 7598 0
-7543 7599 0
-7544 7600 0
-7545 7601 0
-7546 7602 0
-7547 7603 0
-7548 7604 0
-7549 7605 0
-7550 7606 0
-7551 7607 0
-7552 7608 0
-7553 7609 0
-7554 7610 0
-7555 7611 0
-7556 7612 0
-7557 7613 0
-7558 7614 0
-7559 7615 0
-7560 7616 0
-7561 7617 0
-7562 7618 0
-7563 7619 0
-7564 7620 0
-7565 7621 0
-7566 7622 0
-7567 7623 0
-7568 7624 0
-1048 -7513 7570 0
-1048 -7514 7571 0
-1048 -7515 7572 0
-1048 -7516 7573 0
-1048 -7517 7574 0
-1048 -7518 7575 0
-1048 -7519 7576 0
-1048 -7520 7577 0
-1048 -7521 7578 0
-1048 -7522 7579 0
-1048 -7523 7580 0
-1048 -7524 7581 0
-1048 -7525 7582 0
-1048 -7526 7583 0
-1048 -7527 7584 0
-1048 -7528 7585 0
-1048 -7529 7586 0
-1048 -7530 7587 0
-1048 -7531 7588 0
-1048 -7532 7589 0
-1048 -7533 7590 0
-1048 -7534 7591 0
-1048 -7535 7592 0
-1048 -7536 7593 0
-1048 -7537 7594 0
-1048 -7538 7595 0
-1048 -7539 7596 0
-1048 -7540 7597 0
-1048 -7541 7598 0
-1048 -7542 7599 0
-1048 -7543 7600 0
-1048 -7544 7601 0
-1048 -7545 7602 0
-1048 -7546 7603 0
-1048 -7547 7604 0
-1048 -7548 7605 0
-1048 -7549 7606 0
-1048 -7550 7607 0
-1048 -7551 7608 0
-1048 -7552 7609 0
-1048 -7553 7610 0
-1048 -7554 7611 0
-1048 -7555 7612 0
-1048 -7556 7613 0
-1048 -7557 7614 0
-1048 -7558 7615 0
-1048 -7559 7616 0
-1048 -7560 7617 0
-1048 -7561 7618 0
-1048 -7562 7619 0
-1048 -7563 7620 0
-1048 -7564 7621 0
-1048 -7565 7622 0
-1048 -7566 7623 0
-1048 -7567 7624 0
-1048 -7568 0
-7569 7625 0
-7570 7626 0
-7571 7627 0
-7572 7628 0
-7573 7629 0
-7574 7630 0
-7575 7631 0
-7576 7632 0
-7577 7633 0
-7578 7634 0
-7579 7635 0
-7580 7636 0
-7581 7637 0
-7582 7638 0
-7583 7639 0
-7584 7640 0
-7585 7641 0
-7586 7642 0
-7587 7643 0
-7588 7644 0
-7589 7645 0
-7590 7646 0
-7591 7647 0
-7592 7648 0
-7593 7649 0
-7594 7650 0
-7595 7651 0
-7596 7652 0
-7597 7653 0
-7598 7654 0
-7599 7655 0
-7600 7656 0
-7601 7657 0
-7602 7658 0
-7603 7659 0
-7604 7660 0
-7605 7661 0
-7606 7662 0
-7607 7663 0
-7608 7664 0
-7609 7665 0
-7610 7666 0
-7611 7667 0
-7612 7668 0
-7613 7669 0
-7614 7670 0
-7615 7671 0
-7616 7672 0
-7617 7673 0
-7618 7674 0
-7619 7675 0
-7620 7676 0
-7621 7677 0
-7622 7678 0
-7623 7679 0
-7624 7680 0
-1050 -7569 7626 0
-1050 -7570 7627 0
-1050 -7571 7628 0
-1050 -7572 7629 0
-1050 -7573 7630 0
-1050 -7574 7631 0
-1050 -7575 7632 0
-1050 -7576 7633 0
-1050 -7577 7634 0
-1050 -7578 7635 0
-1050 -7579 7636 0
-1050 -7580 7637 0
-1050 -7581 7638 0
-1050 -7582 7639 0
-1050 -7583 7640 0
-1050 -7584 7641 0
-1050 -7585 7642 0
-1050 -7586 7643 0
-1050 -7587 7644 0
-1050 -7588 7645 0
-1050 -7589 7646 0
-1050 -7590 7647 0
-1050 -7591 7648 0
-1050 -7592 7649 0
-1050 -7593 7650 0
-1050 -7594 7651 0
-1050 -7595 7652 0
-1050 -7596 7653 0
-1050 -7597 7654 0
-1050 -7598 7655 0
-1050 -7599 7656 0
-1050 -7600 7657 0
-1050 -7601 7658 0
-1050 -7602 7659 0
-1050 -7603 7660 0
-1050 -7604 7661 0
-1050 -7605 7662 0
-1050 -7606 7663 0
-1050 -7607 7664 0
-1050 -7608 7665 0
-1050 -7609 7666 0
-1050 -7610 7667 0
-1050 -7611 7668 0
-1050 -7612 7669 0
-1050 -7613 7670 0
-1050 -7614 7671 0
-1050 -7615 7672 0
-1050 -7616 7673 0
-1050 -7617 7674 0
-1050 -7618 7675 0
-1050 -7619 7676 0
-1050 -7620 7677 0
-1050 -7621 7678 0
-1050 -7622 7679 0
-1050 -7623 7680 0
-1050 -7624 0
-7625 7681 0
-7626 7682 0
-7627 7683 0
-7628 7684 0
-7629 7685 0
-7630 7686 0
-7631 7687 0
-7632 7688 0
-7633 7689 0
-7634 7690 0
-7635 7691 0
-7636 7692 0
-7637 7693 0
-7638 7694 0
-7639 7695 0
-7640 7696 0
-7641 7697 0
-7642 7698 0
-7643 7699 0
-7644 7700 0
-7645 7701 0
-7646 7702 0
-7647 7703 0
-7648 7704 0
-7649 7705 0
-7650 7706 0
-7651 7707 0
-7652 7708 0
-7653 7709 0
-7654 7710 0
-7655 7711 0
-7656 7712 0
-7657 7713 0
-7658 7714 0
-7659 7715 0
-7660 7716 0
-7661 7717 0
-7662 7718 0
-7663 7719 0
-7664 7720 0
-7665 7721 0
-7666 7722 0
-7667 7723 0
-7668 7724 0
-7669 7725 0
-7670 7726 0
-7671 7727 0
-7672 7728 0
-7673 7729 0
-7674 7730 0
-7675 7731 0
-7676 7732 0
-7677 7733 0
-7678 7734 0
-7679 7735 0
-7680 7736 0
-1052 -7625 7682 0
-1052 -7626 7683 0
-1052 -7627 7684 0
-1052 -7628 7685 0
-1052 -7629 7686 0
-1052 -7630 7687 0
-1052 -7631 7688 0
-1052 -7632 7689 0
-1052 -7633 7690 0
-1052 -7634 7691 0
-1052 -7635 7692 0
-1052 -7636 7693 0
-1052 -7637 7694 0
-1052 -7638 7695 0
-1052 -7639 7696 0
-1052 -7640 7697 0
-1052 -7641 7698 0
-1052 -7642 7699 0
-1052 -7643 7700 0
-1052 -7644 7701 0
-1052 -7645 7702 0
-1052 -7646 7703 0
-1052 -7647 7704 0
-1052 -7648 7705 0
-1052 -7649 7706 0
-1052 -7650 7707 0
-1052 -7651 7708 0
-1052 -7652 7709 0
-1052 -7653 7710 0
-1052 -7654 7711 0
-1052 -7655 7712 0
-1052 -7656 7713 0
-1052 -7657 7714 0
-1052 -7658 7715 0
-1052 -7659 7716 0
-1052 -7660 7717 0
-1052 -7661 7718 0
-1052 -7662 7719 0
-1052 -7663 7720 0
-1052 -7664 7721 0
-1052 -7665 7722 0
-1052 -7666 7723 0
-1052 -7667 7724 0
-1052 -7668 7725 0
-1052 -7669 7726 0
-1052 -7670 7727 0
-1052 -7671 7728 0
-1052 -7672 7729 0
-1052 -7673 7730 0
-1052 -7674 7731 0
-1052 -7675 7732 0
-1052 -7676 7733 0
-1052 -7677 7734 0
-1052 -7678 7735 0
-1052 -7679 7736 0
-1052 -7680 0
-7681 7737 0
-7682 7738 0
-7683 7739 0
-7684 7740 0
-7685 7741 0
-7686 7742 0
-7687 7743 0
-7688 7744 0
-7689 7745 0
-7690 7746 0
-7691 7747 0
-7692 7748 0
-7693 7749 0
-7694 7750 0
-7695 7751 0
-7696 7752 0
-7697 7753 0
-7698 7754 0
-7699 7755 0
-7700 7756 0
-7701 7757 0
-7702 7758 0
-7703 7759 0
-7704 7760 0
-7705 7761 0
-7706 7762 0
-7707 7763 0
-7708 7764 0
-7709 7765 0
-7710 7766 0
-7711 7767 0
-7712 7768 0
-7713 7769 0
-7714 7770 0
-7715 7771 0
-7716 7772 0
-7717 7773 0
-7718 7774 0
-7719 7775 0
-7720 7776 0
-7721 7777 0
-7722 7778 0
-7723 7779 0
-7724 7780 0
-7725 7781 0
-7726 7782 0
-7727 7783 0
-7728 7784 0
-7729 7785 0
-7730 7786 0
-7731 7787 0
-7732 7788 0
-7733 7789 0
-7734 7790 0
-7735 7791 0
-7736 7792 0
-1054 -7681 7738 0
-1054 -7682 7739 0
-1054 -7683 7740 0
-1054 -7684 7741 0
-1054 -7685 7742 0
-1054 -7686 7743 0
-1054 -7687 7744 0
-1054 -7688 7745 0
-1054 -7689 7746 0
-1054 -7690 7747 0
-1054 -7691 7748 0
-1054 -7692 7749 0
-1054 -7693 7750 0
-1054 -7694 7751 0
-1054 -7695 7752 0
-1054 -7696 7753 0
-1054 -7697 7754 0
-1054 -7698 7755 0
-1054 -7699 7756 0
-1054 -7700 7757 0
-1054 -7701 7758 0
-1054 -7702 7759 0
-1054 -7703 7760 0
-1054 -7704 7761 0
-1054 -7705 7762 0
-1054 -7706 7763 0
-1054 -7707 7764 0
-1054 -7708 7765 0
-1054 -7709 7766 0
-1054 -7710 7767 0
-1054 -7711 7768 0
-1054 -7712 7769 0
-1054 -7713 7770 0
-1054 -7714 7771 0
-1054 -7715 7772 0
-1054 -7716 7773 0
-1054 -7717 7774 0
-1054 -7718 7775 0
-1054 -7719 7776 0
-1054 -7720 7777 0
-1054 -7721 7778 0
-1054 -7722 7779 0
-1054 -7723 7780 0
-1054 -7724 7781 0
-1054 -7725 7782 0
-1054 -7726 7783 0
-1054 -7727 7784 0
-1054 -7728 7785 0
-1054 -7729 7786 0
-1054 -7730 7787 0
-1054 -7731 7788 0
-1054 -7732 7789 0
-1054 -7733 7790 0
-1054 -7734 7791 0
-1054 -7735 7792 0
-1054 -7736 0
-7737 7793 0
-7738 7794 0
-7739 7795 0
-7740 7796 0
-7741 7797 0
-7742 7798 0
-7743 7799 0
-7744 7800 0
-7745 7801 0
-7746 7802 0
-7747 7803 0
-7748 7804 0
-7749 7805 0
-7750 7806 0
-7751 7807 0
-7752 7808 0
-7753 7809 0
-7754 7810 0
-7755 7811 0
-7756 7812 0
-7757 7813 0
-7758 7814 0
-7759 7815 0
-7760 7816 0
-7761 7817 0
-7762 7818 0
-7763 7819 0
-7764 7820 0
-7765 7821 0
-7766 7822 0
-7767 7823 0
-7768 7824 0
-7769 7825 0
-7770 7826 0
-7771 7827 0
-7772 7828 0
-7773 7829 0
-7774 7830 0
-7775 7831 0
-7776 7832 0
-7777 7833 0
-7778 7834 0
-7779 7835 0
-7780 7836 0
-7781 7837 0
-7782 7838 0
-7783 7839 0
-7784 7840 0
-7785 7841 0
-7786 7842 0
-7787 7843 0
-7788 7844 0
-7789 7845 0
-7790 7846 0
-7791 7847 0
-7792 7848 0
-1056 -7737 7794 0
-1056 -7738 7795 0
-1056 -7739 7796 0
-1056 -7740 7797 0
-1056 -7741 7798 0
-1056 -7742 7799 0
-1056 -7743 7800 0
-1056 -7744 7801 0
-1056 -7745 7802 0
-1056 -7746 7803 0
-1056 -7747 7804 0
-1056 -7748 7805 0
-1056 -7749 7806 0
-1056 -7750 7807 0
-1056 -7751 7808 0
-1056 -7752 7809 0
-1056 -7753 7810 0
-1056 -7754 7811 0
-1056 -7755 7812 0
-1056 -7756 7813 0
-1056 -7757 7814 0
-1056 -7758 7815 0
-1056 -7759 7816 0
-1056 -7760 7817 0
-1056 -7761 7818 0
-1056 -7762 7819 0
-1056 -7763 7820 0
-1056 -7764 7821 0
-1056 -7765 7822 0
-1056 -7766 7823 0
-1056 -7767 7824 0
-1056 -7768 7825 0
-1056 -7769 7826 0
-1056 -7770 7827 0
-1056 -7771 7828 0
-1056 -7772 7829 0
-1056 -7773 7830 0
-1056 -7774 7831 0
-1056 -7775 7832 0
-1056 -7776 7833 0
-1056 -7777 7834 0
-1056 -7778 7835 0
-1056 -7779 7836 0
-1056 -7780 7837 0
-1056 -7781 7838 0
-1056 -7782 7839 0
-1056 -7783 7840 0
-1056 -7784 7841 0
-1056 -7785 7842 0
-1056 -7786 7843 0
-1056 -7787 7844 0
-1056 -7788 7845 0
-1056 -7789 7846 0
-1056 -7790 7847 0
-1056 -7791 7848 0
-1056 -7792 0
-7793 7849 0
-7794 7850 0
-7795 7851 0
-7796 7852 0
-7797 7853 0
-7798 7854 0
-7799 7855 0
-7800 7856 0
-7801 7857 0
-7802 7858 0
-7803 7859 0
-7804 7860 0
-7805 7861 0
-7806 7862 0
-7807 7863 0
-7808 7864 0
-7809 7865 0
-7810 7866 0
-7811 7867 0
-7812 7868 0
-7813 7869 0
-7814 7870 0
-7815 7871 0
-7816 7872 0
-7817 7873 0
-7818 7874 0
-7819 7875 0
-7820 7876 0
-7821 7877 0
-7822 7878 0
-7823 7879 0
-7824 7880 0
-7825 7881 0
-7826 7882 0
-7827 7883 0
-7828 7884 0
-7829 7885 0
-7830 7886 0
-7831 7887 0
-7832 7888 0
-7833 7889 0
-7834 7890 0
-7835 7891 0
-7836 7892 0
-7837 7893 0
-7838 7894 0
-7839 7895 0
-7840 7896 0
-7841 7897 0
-7842 7898 0
-7843 7899 0
-7844 7900 0
-7845 7901 0
-7846 7902 0
-7847 7903 0
-7848 7904 0
-1058 -7793 7850 0
-1058 -7794 7851 0
-1058 -7795 7852 0
-1058 -7796 7853 0
-1058 -7797 7854 0
-1058 -7798 7855 0
-1058 -7799 7856 0
-1058 -7800 7857 0
-1058 -7801 7858 0
-1058 -7802 7859 0
-1058 -7803 7860 0
-1058 -7804 7861 0
-1058 -7805 7862 0
-1058 -7806 7863 0
-1058 -7807 7864 0
-1058 -7808 7865 0
-1058 -7809 7866 0
-1058 -7810 7867 0
-1058 -7811 7868 0
-1058 -7812 7869 0
-1058 -7813 7870 0
-1058 -7814 7871 0
-1058 -7815 7872 0
-1058 -7816 7873 0
-1058 -7817 7874 0
-1058 -7818 7875 0
-1058 -7819 7876 0
-1058 -7820 7877 0
-1058 -7821 7878 0
-1058 -7822 7879 0
-1058 -7823 7880 0
-1058 -7824 7881 0
-1058 -7825 7882 0
-1058 -7826 7883 0
-1058 -7827 7884 0
-1058 -7828 7885 0
-1058 -7829 7886 0
-1058 -7830 7887 0
-1058 -7831 7888 0
-1058 -7832 7889 0
-1058 -7833 7890 0
-1058 -7834 7891 0
-1058 -7835 7892 0
-1058 -7836 7893 0
-1058 -7837 7894 0
-1058 -7838 7895 0
-1058 -7839 7896 0
-1058 -7840 7897 0
-1058 -7841 7898 0
-1058 -7842 7899 0
-1058 -7843 7900 0
-1058 -7844 7901 0
-1058 -7845 7902 0
-1058 -7846 7903 0
-1058 -7847 7904 0
-1058 -7848 0
-7849 7905 0
-7850 7906 0
-7851 7907 0
-7852 7908 0
-7853 7909 0
-7854 7910 0
-7855 7911 0
-7856 7912 0
-7857 7913 0
-7858 7914 0
-7859 7915 0
-7860 7916 0
-7861 7917 0
-7862 7918 0
-7863 7919 0
-7864 7920 0
-7865 7921 0
-7866 7922 0
-7867 7923 0
-7868 7924 0
-7869 7925 0
-7870 7926 0
-7871 7927 0
-7872 7928 0
-7873 7929 0
-7874 7930 0
-7875 7931 0
-7876 7932 0
-7877 7933 0
-7878 7934 0
-7879 7935 0
-7880 7936 0
-7881 7937 0
-7882 7938 0
-7883 7939 0
-7884 7940 0
-7885 7941 0
-7886 7942 0
-7887 7943 0
-7888 7944 0
-7889 7945 0
-7890 7946 0
-7891 7947 0
-7892 7948 0
-7893 7949 0
-7894 7950 0
-7895 7951 0
-7896 7952 0
-7897 7953 0
-7898 7954 0
-7899 7955 0
-7900 7956 0
-7901 7957 0
-7902 7958 0
-7903 7959 0
-7904 7960 0
-1060 -7849 7906 0
-1060 -7850 7907 0
-1060 -7851 7908 0
-1060 -7852 7909 0
-1060 -7853 7910 0
-1060 -7854 7911 0
-1060 -7855 7912 0
-1060 -7856 7913 0
-1060 -7857 7914 0
-1060 -7858 7915 0
-1060 -7859 7916 0
-1060 -7860 7917 0
-1060 -7861 7918 0
-1060 -7862 7919 0
-1060 -7863 7920 0
-1060 -7864 7921 0
-1060 -7865 7922 0
-1060 -7866 7923 0
-1060 -7867 7924 0
-1060 -7868 7925 0
-1060 -7869 7926 0
-1060 -7870 7927 0
-1060 -7871 7928 0
-1060 -7872 7929 0
-1060 -7873 7930 0
-1060 -7874 7931 0
-1060 -7875 7932 0
-1060 -7876 7933 0
-1060 -7877 7934 0
-1060 -7878 7935 0
-1060 -7879 7936 0
-1060 -7880 7937 0
-1060 -7881 7938 0
-1060 -7882 7939 0
-1060 -7883 7940 0
-1060 -7884 7941 0
-1060 -7885 7942 0
-1060 -7886 7943 0
-1060 -7887 7944 0
-1060 -7888 7945 0
-1060 -7889 7946 0
-1060 -7890 7947 0
-1060 -7891 7948 0
-1060 -7892 7949 0
-1060 -7893 7950 0
-1060 -7894 7951 0
-1060 -7895 7952 0
-1060 -7896 7953 0
-1060 -7897 7954 0
-1060 -7898 7955 0
-1060 -7899 7956 0
-1060 -7900 7957 0
-1060 -7901 7958 0
-1060 -7902 7959 0
-1060 -7903 7960 0
-1060 -7904 0
-7905 7961 0
-7906 7962 0
-7907 7963 0
-7908 7964 0
-7909 7965 0
-7910 7966 0
-7911 7967 0
-7912 7968 0
-7913 7969 0
-7914 7970 0
-7915 7971 0
-7916 7972 0
-7917 7973 0
-7918 7974 0
-7919 7975 0
-7920 7976 0
-7921 7977 0
-7922 7978 0
-7923 7979 0
-7924 7980 0
-7925 7981 0
-7926 7982 0
-7927 7983 0
-7928 7984 0
-7929 7985 0
-7930 7986 0
-7931 7987 0
-7932 7988 0
-7933 7989 0
-7934 7990 0
-7935 7991 0
-7936 7992 0
-7937 7993 0
-7938 7994 0
-7939 7995 0
-7940 7996 0
-7941 7997 0
-7942 7998 0
-7943 7999 0
-7944 8000 0
-7945 8001 0
-7946 8002 0
-7947 8003 0
-7948 8004 0
-7949 8005 0
-7950 8006 0
-7951 8007 0
-7952 8008 0
-7953 8009 0
-7954 8010 0
-7955 8011 0
-7956 8012 0
-7957 8013 0
-7958 8014 0
-7959 8015 0
-7960 8016 0
-1062 -7905 7962 0
-1062 -7906 7963 0
-1062 -7907 7964 0
-1062 -7908 7965 0
-1062 -7909 7966 0
-1062 -7910 7967 0
-1062 -7911 7968 0
-1062 -7912 7969 0
-1062 -7913 7970 0
-1062 -7914 7971 0
-1062 -7915 7972 0
-1062 -7916 7973 0
-1062 -7917 7974 0
-1062 -7918 7975 0
-1062 -7919 7976 0
-1062 -7920 7977 0
-1062 -7921 7978 0
-1062 -7922 7979 0
-1062 -7923 7980 0
-1062 -7924 7981 0
-1062 -7925 7982 0
-1062 -7926 7983 0
-1062 -7927 7984 0
-1062 -7928 7985 0
-1062 -7929 7986 0
-1062 -7930 7987 0
-1062 -7931 7988 0
-1062 -7932 7989 0
-1062 -7933 7990 0
-1062 -7934 7991 0
-1062 -7935 7992 0
-1062 -7936 7993 0
-1062 -7937 7994 0
-1062 -7938 7995 0
-1062 -7939 7996 0
-1062 -7940 7997 0
-1062 -7941 7998 0
-1062 -7942 7999 0
-1062 -7943 8000 0
-1062 -7944 8001 0
-1062 -7945 8002 0
-1062 -7946 8003 0
-1062 -7947 8004 0
-1062 -7948 8005 0
-1062 -7949 8006 0
-1062 -7950 8007 0
-1062 -7951 8008 0
-1062 -7952 8009 0
-1062 -7953 8010 0
-1062 -7954 8011 0
-1062 -7955 8012 0
-1062 -7956 8013 0
-1062 -7957 8014 0
-1062 -7958 8015 0
-1062 -7959 8016 0
-1062 -7960 0
-7961 8017 0
-7962 8018 0
-7963 8019 0
-7964 8020 0
-7965 8021 0
-7966 8022 0
-7967 8023 0
-7968 8024 0
-7969 8025 0
-7970 8026 0
-7971 8027 0
-7972 8028 0
-7973 8029 0
-7974 8030 0
-7975 8031 0
-7976 8032 0
-7977 8033 0
-7978 8034 0
-7979 8035 0
-7980 8036 0
-7981 8037 0
-7982 8038 0
-7983 8039 0
-7984 8040 0
-7985 8041 0
-7986 8042 0
-7987 8043 0
-7988 8044 0
-7989 8045 0
-7990 8046 0
-7991 8047 0
-7992 8048 0
-7993 8049 0
-7994 8050 0
-7995 8051 0
-7996 8052 0
-7997 8053 0
-7998 8054 0
-7999 8055 0
-8000 8056 0
-8001 8057 0
-8002 8058 0
-8003 8059 0
-8004 8060 0
-8005 8061 0
-8006 8062 0
-8007 8063 0
-8008 8064 0
-8009 8065 0
-8010 8066 0
-8011 8067 0
-8012 8068 0
-8013 8069 0
-8014 8070 0
-8015 8071 0
-8016 8072 0
-1064 -7961 8018 0
-1064 -7962 8019 0
-1064 -7963 8020 0
-1064 -7964 8021 0
-1064 -7965 8022 0
-1064 -7966 8023 0
-1064 -7967 8024 0
-1064 -7968 8025 0
-1064 -7969 8026 0
-1064 -7970 8027 0
-1064 -7971 8028 0
-1064 -7972 8029 0
-1064 -7973 8030 0
-1064 -7974 8031 0
-1064 -7975 8032 0
-1064 -7976 8033 0
-1064 -7977 8034 0
-1064 -7978 8035 0
-1064 -7979 8036 0
-1064 -7980 8037 0
-1064 -7981 8038 0
-1064 -7982 8039 0
-1064 -7983 8040 0
-1064 -7984 8041 0
-1064 -7985 8042 0
-1064 -7986 8043 0
-1064 -7987 8044 0
-1064 -7988 8045 0
-1064 -7989 8046 0
-1064 -7990 8047 0
-1064 -7991 8048 0
-1064 -7992 8049 0
-1064 -7993 8050 0
-1064 -7994 8051 0
-1064 -7995 8052 0
-1064 -7996 8053 0
-1064 -7997 8054 0
-1064 -7998 8055 0
-1064 -7999 8056 0
-1064 -8000 8057 0
-1064 -8001 8058 0
-1064 -8002 8059 0
-1064 -8003 8060 0
-1064 -8004 8061 0
-1064 -8005 8062 0
-1064 -8006 8063 0
-1064 -8007 8064 0
-1064 -8008 8065 0
-1064 -8009 8066 0
-1064 -8010 8067 0
-1064 -8011 8068 0
-1064 -8012 8069 0
-1064 -8013 8070 0
-1064 -8014 8071 0
-1064 -8015 8072 0
-1064 -8016 0
-8017 8073 0
-8018 8074 0
-8019 8075 0
-8020 8076 0
-8021 8077 0
-8022 8078 0
-8023 8079 0
-8024 8080 0
-8025 8081 0
-8026 8082 0
-8027 8083 0
-8028 8084 0
-8029 8085 0
-8030 8086 0
-8031 8087 0
-8032 8088 0
-8033 8089 0
-8034 8090 0
-8035 8091 0
-8036 8092 0
-8037 8093 0
-8038 8094 0
-8039 8095 0
-8040 8096 0
-8041 8097 0
-8042 8098 0
-8043 8099 0
-8044 8100 0
-8045 8101 0
-8046 8102 0
-8047 8103 0
-8048 8104 0
-8049 8105 0
-8050 8106 0
-8051 8107 0
-8052 8108 0
-8053 8109 0
-8054 8110 0
-8055 8111 0
-8056 8112 0
-8057 8113 0
-8058 8114 0
-8059 8115 0
-8060 8116 0
-8061 8117 0
-8062 8118 0
-8063 8119 0
-8064 8120 0
-8065 8121 0
-8066 8122 0
-8067 8123 0
-8068 8124 0
-8069 8125 0
-8070 8126 0
-8071 8127 0
-8072 8128 0
-1066 -8017 8074 0
-1066 -8018 8075 0
-1066 -8019 8076 0
-1066 -8020 8077 0
-1066 -8021 8078 0
-1066 -8022 8079 0
-1066 -8023 8080 0
-1066 -8024 8081 0
-1066 -8025 8082 0
-1066 -8026 8083 0
-1066 -8027 8084 0
-1066 -8028 8085 0
-1066 -8029 8086 0
-1066 -8030 8087 0
-1066 -8031 8088 0
-1066 -8032 8089 0
-1066 -8033 8090 0
-1066 -8034 8091 0
-1066 -8035 8092 0
-1066 -8036 8093 0
-1066 -8037 8094 0
-1066 -8038 8095 0
-1066 -8039 8096 0
-1066 -8040 8097 0
-1066 -8041 8098 0
-1066 -8042 8099 0
-1066 -8043 8100 0
-1066 -8044 8101 0
-1066 -8045 8102 0
-1066 -8046 8103 0
-1066 -8047 8104 0
-1066 -8048 8105 0
-1066 -8049 8106 0
-1066 -8050 8107 0
-1066 -8051 8108 0
-1066 -8052 8109 0
-1066 -8053 8110 0
-1066 -8054 8111 0
-1066 -8055 8112 0
-1066 -8056 8113 0
-1066 -8057 8114 0
-1066 -8058 8115 0
-1066 -8059 8116 0
-1066 -8060 8117 0
-1066 -8061 8118 0
-1066 -8062 8119 0
-1066 -8063 8120 0
-1066 -8064 8121 0
-1066 -8065 8122 0
-1066 -8066 8123 0
-1066 -8067 8124 0
-1066 -8068 8125 0
-1066 -8069 8126 0
-1066 -8070 8127 0
-1066 -8071 8128 0
-1066 -8072 0
-8073 8129 0
-8074 8130 0
-8075 8131 0
-8076 8132 0
-8077 8133 0
-8078 8134 0
-8079 8135 0
-8080 8136 0
-8081 8137 0
-8082 8138 0
-8083 8139 0
-8084 8140 0
-8085 8141 0
-8086 8142 0
-8087 8143 0
-8088 8144 0
-8089 8145 0
-8090 8146 0
-8091 8147 0
-8092 8148 0
-8093 8149 0
-8094 8150 0
-8095 8151 0
-8096 8152 0
-8097 8153 0
-8098 8154 0
-8099 8155 0
-8100 8156 0
-8101 8157 0
-8102 8158 0
-8103 8159 0
-8104 8160 0
-8105 8161 0
-8106 8162 0
-8107 8163 0
-8108 8164 0
-8109 8165 0
-8110 8166 0
-8111 8167 0
-8112 8168 0
-8113 8169 0
-8114 8170 0
-8115 8171 0
-8116 8172 0
-8117 8173 0
-8118 8174 0
-8119 8175 0
-8120 8176 0
-8121 8177 0
-8122 8178 0
-8123 8179 0
-8124 8180 0
-8125 8181 0
-8126 8182 0
-8127 8183 0
-8128 8184 0
-1068 -8073 8130 0
-1068 -8074 8131 0
-1068 -8075 8132 0
-1068 -8076 8133 0
-1068 -8077 8134 0
-1068 -8078 8135 0
-1068 -8079 8136 0
-1068 -8080 8137 0
-1068 -8081 8138 0
-1068 -8082 8139 0
-1068 -8083 8140 0
-1068 -8084 8141 0
-1068 -8085 8142 0
-1068 -8086 8143 0
-1068 -8087 8144 0
-1068 -8088 8145 0
-1068 -8089 8146 0
-1068 -8090 8147 0
-1068 -8091 8148 0
-1068 -8092 8149 0
-1068 -8093 8150 0
-1068 -8094 8151 0
-1068 -8095 8152 0
-1068 -8096 8153 0
-1068 -8097 8154 0
-1068 -8098 8155 0
-1068 -8099 8156 0
-1068 -8100 8157 0
-1068 -8101 8158 0
-1068 -8102 8159 0
-1068 -8103 8160 0
-1068 -8104 8161 0
-1068 -8105 8162 0
-1068 -8106 8163 0
-1068 -8107 8164 0
-1068 -8108 8165 0
-1068 -8109 8166 0
-1068 -8110 8167 0
-1068 -8111 8168 0
-1068 -8112 8169 0
-1068 -8113 8170 0
-1068 -8114 8171 0
-1068 -8115 8172 0
-1068 -8116 8173 0
-1068 -8117 8174 0
-1068 -8118 8175 0
-1068 -8119 8176 0
-1068 -8120 8177 0
-1068 -8121 8178 0
-1068 -8122 8179 0
-1068 -8123 8180 0
-1068 -8124 8181 0
-1068 -8125 8182 0
-1068 -8126 8183 0
-1068 -8127 8184 0
-1068 -8128 0
-8129 8185 0
-8130 8186 0
-8131 8187 0
-8132 8188 0
-8133 8189 0
-8134 8190 0
-8135 8191 0
-8136 8192 0
-8137 8193 0
-8138 8194 0
-8139 8195 0
-8140 8196 0
-8141 8197 0
-8142 8198 0
-8143 8199 0
-8144 8200 0
-8145 8201 0
-8146 8202 0
-8147 8203 0
-8148 8204 0
-8149 8205 0
-8150 8206 0
-8151 8207 0
-8152 8208 0
-8153 8209 0
-8154 8210 0
-8155 8211 0
-8156 8212 0
-8157 8213 0
-8158 8214 0
-8159 8215 0
-8160 8216 0
-8161 8217 0
-8162 8218 0
-8163 8219 0
-8164 8220 0
-8165 8221 0
-8166 8222 0
-8167 8223 0
-8168 8224 0
-8169 8225 0
-8170 8226 0
-8171 8227 0
-8172 8228 0
-8173 8229 0
-8174 8230 0
-8175 8231 0
-8176 8232 0
-8177 8233 0
-8178 8234 0
-8179 8235 0
-8180 8236 0
-8181 8237 0
-8182 8238 0
-8183 8239 0
-8184 8240 0
-1070 -8129 8186 0
-1070 -8130 8187 0
-1070 -8131 8188 0
-1070 -8132 8189 0
-1070 -8133 8190 0
-1070 -8134 8191 0
-1070 -8135 8192 0
-1070 -8136 8193 0
-1070 -8137 8194 0
-1070 -8138 8195 0
-1070 -8139 8196 0
-1070 -8140 8197 0
-1070 -8141 8198 0
-1070 -8142 8199 0
-1070 -8143 8200 0
-1070 -8144 8201 0
-1070 -8145 8202 0
-1070 -8146 8203 0
-1070 -8147 8204 0
-1070 -8148 8205 0
-1070 -8149 8206 0
-1070 -8150 8207 0
-1070 -8151 8208 0
-1070 -8152 8209 0
-1070 -8153 8210 0
-1070 -8154 8211 0
-1070 -8155 8212 0
-1070 -8156 8213 0
-1070 -8157 8214 0
-1070 -8158 8215 0
-1070 -8159 8216 0
-1070 -8160 8217 0
-1070 -8161 8218 0
-1070 -8162 8219 0
-1070 -8163 8220 0
-1070 -8164 8221 0
-1070 -8165 8222 0
-1070 -8166 8223 0
-1070 -8167 8224 0
-1070 -8168 8225 0
-1070 -8169 8226 0
-1070 -8170 8227 0
-1070 -8171 8228 0
-1070 -8172 8229 0
-1070 -8173 8230 0
-1070 -8174 8231 0
-1070 -8175 8232 0
-1070 -8176 8233 0
-1070 -8177 8234 0
-1070 -8178 8235 0
-1070 -8179 8236 0
-1070 -8180 8237 0
-1070 -8181 8238 0
-1070 -8182 8239 0
-1070 -8183 8240 0
-1070 -8184 0
-8185 8241 0
-8186 8242 0
-8187 8243 0
-8188 8244 0
-8189 8245 0
-8190 8246 0
-8191 8247 0
-8192 8248 0
-8193 8249 0
-8194 8250 0
-8195 8251 0
-8196 8252 0
-8197 8253 0
-8198 8254 0
-8199 8255 0
-8200 8256 0
-8201 8257 0
-8202 8258 0
-8203 8259 0
-8204 8260 0
-8205 8261 0
-8206 8262 0
-8207 8263 0
-8208 8264 0
-8209 8265 0
-8210 8266 0
-8211 8267 0
-8212 8268 0
-8213 8269 0
-8214 8270 0
-8215 8271 0
-8216 8272 0
-8217 8273 0
-8218 8274 0
-8219 8275 0
-8220 8276 0
-8221 8277 0
-8222 8278 0
-8223 8279 0
-8224 8280 0
-8225 8281 0
-8226 8282 0
-8227 8283 0
-8228 8284 0
-8229 8285 0
-8230 8286 0
-8231 8287 0
-8232 8288 0
-8233 8289 0
-8234 8290 0
-8235 8291 0
-8236 8292 0
-8237 8293 0
-8238 8294 0
-8239 8295 0
-8240 8296 0
-1072 -8185 8242 0
-1072 -8186 8243 0
-1072 -8187 8244 0
-1072 -8188 8245 0
-1072 -8189 8246 0
-1072 -8190 8247 0
-1072 -8191 8248 0
-1072 -8192 8249 0
-1072 -8193 8250 0
-1072 -8194 8251 0
-1072 -8195 8252 0
-1072 -8196 8253 0
-1072 -8197 8254 0
-1072 -8198 8255 0
-1072 -8199 8256 0
-1072 -8200 8257 0
-1072 -8201 8258 0
-1072 -8202 8259 0
-1072 -8203 8260 0
-1072 -8204 8261 0
-1072 -8205 8262 0
-1072 -8206 8263 0
-1072 -8207 8264 0
-1072 -8208 8265 0
-1072 -8209 8266 0
-1072 -8210 8267 0
-1072 -8211 8268 0
-1072 -8212 8269 0
-1072 -8213 8270 0
-1072 -8214 8271 0
-1072 -8215 8272 0
-1072 -8216 8273 0
-1072 -8217 8274 0
-1072 -8218 8275 0
-1072 -8219 8276 0
-1072 -8220 8277 0
-1072 -8221 8278 0
-1072 -8222 8279 0
-1072 -8223 8280 0
-1072 -8224 8281 0
-1072 -8225 8282 0
-1072 -8226 8283 0
-1072 -8227 8284 0
-1072 -8228 8285 0
-1072 -8229 8286 0
-1072 -8230 8287 0
-1072 -8231 8288 0
-1072 -8232 8289 0
-1072 -8233 8290 0
-1072 -8234 8291 0
-1072 -8235 8292 0
-1072 -8236 8293 0
-1072 -8237 8294 0
-1072 -8238 8295 0
-1072 -8239 8296 0
-1072 -8240 0
-8241 8297 0
-8242 8298 0
-8243 8299 0
-8244 8300 0
-8245 8301 0
-8246 8302 0
-8247 8303 0
-8248 8304 0
-8249 8305 0
-8250 8306 0
-8251 8307 0
-8252 8308 0
-8253 8309 0
-8254 8310 0
-8255 8311 0
-8256 8312 0
-8257 8313 0
-8258 8314 0
-8259 8315 0
-8260 8316 0
-8261 8317 0
-8262 8318 0
-8263 8319 0
-8264 8320 0
-8265 8321 0
-8266 8322 0
-8267 8323 0
-8268 8324 0
-8269 8325 0
-8270 8326 0
-8271 8327 0
-8272 8328 0
-8273 8329 0
-8274 8330 0
-8275 8331 0
-8276 8332 0
-8277 8333 0
-8278 8334 0
-8279 8335 0
-8280 8336 0
-8281 8337 0
-8282 8338 0
-8283 8339 0
-8284 8340 0
-8285 8341 0
-8286 8342 0
-8287 8343 0
-8288 8344 0
-8289 8345 0
-8290 8346 0
-8291 8347 0
-8292 8348 0
-8293 8349 0
-8294 8350 0
-8295 8351 0
-8296 8352 0
-1074 -8241 8298 0
-1074 -8242 8299 0
-1074 -8243 8300 0
-1074 -8244 8301 0
-1074 -8245 8302 0
-1074 -8246 8303 0
-1074 -8247 8304 0
-1074 -8248 8305 0
-1074 -8249 8306 0
-1074 -8250 8307 0
-1074 -8251 8308 0
-1074 -8252 8309 0
-1074 -8253 8310 0
-1074 -8254 8311 0
-1074 -8255 8312 0
-1074 -8256 8313 0
-1074 -8257 8314 0
-1074 -8258 8315 0
-1074 -8259 8316 0
-1074 -8260 8317 0
-1074 -8261 8318 0
-1074 -8262 8319 0
-1074 -8263 8320 0
-1074 -8264 8321 0
-1074 -8265 8322 0
-1074 -8266 8323 0
-1074 -8267 8324 0
-1074 -8268 8325 0
-1074 -8269 8326 0
-1074 -8270 8327 0
-1074 -8271 8328 0
-1074 -8272 8329 0
-1074 -8273 8330 0
-1074 -8274 8331 0
-1074 -8275 8332 0
-1074 -8276 8333 0
-1074 -8277 8334 0
-1074 -8278 8335 0
-1074 -8279 8336 0
-1074 -8280 8337 0
-1074 -8281 8338 0
-1074 -8282 8339 0
-1074 -8283 8340 0
-1074 -8284 8341 0
-1074 -8285 8342 0
-1074 -8286 8343 0
-1074 -8287 8344 0
-1074 -8288 8345 0
-1074 -8289 8346 0
-1074 -8290 8347 0
-1074 -8291 8348 0
-1074 -8292 8349 0
-1074 -8293 8350 0
-1074 -8294 8351 0
-1074 -8295 8352 0
-1074 -8296 0
-8297 8353 0
-8298 8354 0
-8299 8355 0
-8300 8356 0
-8301 8357 0
-8302 8358 0
-8303 8359 0
-8304 8360 0
-8305 8361 0
-8306 8362 0
-8307 8363 0
-8308 8364 0
-8309 8365 0
-8310 8366 0
-8311 8367 0
-8312 8368 0
-8313 8369 0
-8314 8370 0
-8315 8371 0
-8316 8372 0
-8317 8373 0
-8318 8374 0
-8319 8375 0
-8320 8376 0
-8321 8377 0
-8322 8378 0
-8323 8379 0
-8324 8380 0
-8325 8381 0
-8326 8382 0
-8327 8383 0
-8328 8384 0
-8329 8385 0
-8330 8386 0
-8331 8387 0
-8332 8388 0
-8333 8389 0
-8334 8390 0
-8335 8391 0
-8336 8392 0
-8337 8393 0
-8338 8394 0
-8339 8395 0
-8340 8396 0
-8341 8397 0
-8342 8398 0
-8343 8399 0
-8344 8400 0
-8345 8401 0
-8346 8402 0
-8347 8403 0
-8348 8404 0
-8349 8405 0
-8350 8406 0
-8351 8407 0
-8352 8408 0
-1076 -8297 8354 0
-1076 -8298 8355 0
-1076 -8299 8356 0
-1076 -8300 8357 0
-1076 -8301 8358 0
-1076 -8302 8359 0
-1076 -8303 8360 0
-1076 -8304 8361 0
-1076 -8305 8362 0
-1076 -8306 8363 0
-1076 -8307 8364 0
-1076 -8308 8365 0
-1076 -8309 8366 0
-1076 -8310 8367 0
-1076 -8311 8368 0
-1076 -8312 8369 0
-1076 -8313 8370 0
-1076 -8314 8371 0
-1076 -8315 8372 0
-1076 -8316 8373 0
-1076 -8317 8374 0
-1076 -8318 8375 0
-1076 -8319 8376 0
-1076 -8320 8377 0
-1076 -8321 8378 0
-1076 -8322 8379 0
-1076 -8323 8380 0
-1076 -8324 8381 0
-1076 -8325 8382 0
-1076 -8326 8383 0
-1076 -8327 8384 0
-1076 -8328 8385 0
-1076 -8329 8386 0
-1076 -8330 8387 0
-1076 -8331 8388 0
-1076 -8332 8389 0
-1076 -8333 8390 0
-1076 -8334 8391 0
-1076 -8335 8392 0
-1076 -8336 8393 0
-1076 -8337 8394 0
-1076 -8338 8395 0
-1076 -8339 8396 0
-1076 -8340 8397 0
-1076 -8341 8398 0
-1076 -8342 8399 0
-1076 -8343 8400 0
-1076 -8344 8401 0
-1076 -8345 8402 0
-1076 -8346 8403 0
-1076 -8347 8404 0
-1076 -8348 8405 0
-1076 -8349 8406 0
-1076 -8350 8407 0
-1076 -8351 8408 0
-1076 -8352 0
-8353 8409 0
-8354 8410 0
-8355 8411 0
-8356 8412 0
-8357 8413 0
-8358 8414 0
-8359 8415 0
-8360 8416 0
-8361 8417 0
-8362 8418 0
-8363 8419 0
-8364 8420 0
-8365 8421 0
-8366 8422 0
-8367 8423 0
-8368 8424 0
-8369 8425 0
-8370 8426 0
-8371 8427 0
-8372 8428 0
-8373 8429 0
-8374 8430 0
-8375 8431 0
-8376 8432 0
-8377 8433 0
-8378 8434 0
-8379 8435 0
-8380 8436 0
-8381 8437 0
-8382 8438 0
-8383 8439 0
-8384 8440 0
-8385 8441 0
-8386 8442 0
-8387 8443 0
-8388 8444 0
-8389 8445 0
-8390 8446 0
-8391 8447 0
-8392 8448 0
-8393 8449 0
-8394 8450 0
-8395 8451 0
-8396 8452 0
-8397 8453 0
-8398 8454 0
-8399 8455 0
-8400 8456 0
-8401 8457 0
-8402 8458 0
-8403 8459 0
-8404 8460 0
-8405 8461 0
-8406 8462 0
-8407 8463 0
-8408 8464 0
-1078 -8353 8410 0
-1078 -8354 8411 0
-1078 -8355 8412 0
-1078 -8356 8413 0
-1078 -8357 8414 0
-1078 -8358 8415 0
-1078 -8359 8416 0
-1078 -8360 8417 0
-1078 -8361 8418 0
-1078 -8362 8419 0
-1078 -8363 8420 0
-1078 -8364 8421 0
-1078 -8365 8422 0
-1078 -8366 8423 0
-1078 -8367 8424 0
-1078 -8368 8425 0
-1078 -8369 8426 0
-1078 -8370 8427 0
-1078 -8371 8428 0
-1078 -8372 8429 0
-1078 -8373 8430 0
-1078 -8374 8431 0
-1078 -8375 8432 0
-1078 -8376 8433 0
-1078 -8377 8434 0
-1078 -8378 8435 0
-1078 -8379 8436 0
-1078 -8380 8437 0
-1078 -8381 8438 0
-1078 -8382 8439 0
-1078 -8383 8440 0
-1078 -8384 8441 0
-1078 -8385 8442 0
-1078 -8386 8443 0
-1078 -8387 8444 0
-1078 -8388 8445 0
-1078 -8389 8446 0
-1078 -8390 8447 0
-1078 -8391 8448 0
-1078 -8392 8449 0
-1078 -8393 8450 0
-1078 -8394 8451 0
-1078 -8395 8452 0
-1078 -8396 8453 0
-1078 -8397 8454 0
-1078 -8398 8455 0
-1078 -8399 8456 0
-1078 -8400 8457 0
-1078 -8401 8458 0
-1078 -8402 8459 0
-1078 -8403 8460 0
-1078 -8404 8461 0
-1078 -8405 8462 0
-1078 -8406 8463 0
-1078 -8407 8464 0
-1078 -8408 0
-8409 8465 0
-8410 8466 0
-8411 8467 0
-8412 8468 0
-8413 8469 0
-8414 8470 0
-8415 8471 0
-8416 8472 0
-8417 8473 0
-8418 8474 0
-8419 8475 0
-8420 8476 0
-8421 8477 0
-8422 8478 0
-8423 8479 0
-8424 8480 0
-8425 8481 0
-8426 8482 0
-8427 8483 0
-8428 8484 0
-8429 8485 0
-8430 8486 0
-8431 8487 0
-8432 8488 0
-8433 8489 0
-8434 8490 0
-8435 8491 0
-8436 8492 0
-8437 8493 0
-8438 8494 0
-8439 8495 0
-8440 8496 0
-8441 8497 0
-8442 8498 0
-8443 8499 0
-8444 8500 0
-8445 8501 0
-8446 8502 0
-8447 8503 0
-8448 8504 0
-8449 8505 0
-8450 8506 0
-8451 8507 0
-8452 8508 0
-8453 8509 0
-8454 8510 0
-8455 8511 0
-8456 8512 0
-8457 8513 0
-8458 8514 0
-8459 8515 0
-8460 8516 0
-8461 8517 0
-8462 8518 0
-8463 8519 0
-8464 8520 0
-1080 -8409 8466 0
-1080 -8410 8467 0
-1080 -8411 8468 0
-1080 -8412 8469 0
-1080 -8413 8470 0
-1080 -8414 8471 0
-1080 -8415 8472 0
-1080 -8416 8473 0
-1080 -8417 8474 0
-1080 -8418 8475 0
-1080 -8419 8476 0
-1080 -8420 8477 0
-1080 -8421 8478 0
-1080 -8422 8479 0
-1080 -8423 8480 0
-1080 -8424 8481 0
-1080 -8425 8482 0
-1080 -8426 8483 0
-1080 -8427 8484 0
-1080 -8428 8485 0
-1080 -8429 8486 0
-1080 -8430 8487 0
-1080 -8431 8488 0
-1080 -8432 8489 0
-1080 -8433 8490 0
-1080 -8434 8491 0
-1080 -8435 8492 0
-1080 -8436 8493 0
-1080 -8437 8494 0
-1080 -8438 8495 0
-1080 -8439 8496 0
-1080 -8440 8497 0
-1080 -8441 8498 0
-1080 -8442 8499 0
-1080 -8443 8500 0
-1080 -8444 8501 0
-1080 -8445 8502 0
-1080 -8446 8503 0
-1080 -8447 8504 0
-1080 -8448 8505 0
-1080 -8449 8506 0
-1080 -8450 8507 0
-1080 -8451 8508 0
-1080 -8452 8509 0
-1080 -8453 8510 0
-1080 -8454 8511 0
-1080 -8455 8512 0
-1080 -8456 8513 0
-1080 -8457 8514 0
-1080 -8458 8515 0
-1080 -8459 8516 0
-1080 -8460 8517 0
-1080 -8461 8518 0
-1080 -8462 8519 0
-1080 -8463 8520 0
-1080 -8464 0
-8465 8521 0
-8466 8522 0
-8467 8523 0
-8468 8524 0
-8469 8525 0
-8470 8526 0
-8471 8527 0
-8472 8528 0
-8473 8529 0
-8474 8530 0
-8475 8531 0
-8476 8532 0
-8477 8533 0
-8478 8534 0
-8479 8535 0
-8480 8536 0
-8481 8537 0
-8482 8538 0
-8483 8539 0
-8484 8540 0
-8485 8541 0
-8486 8542 0
-8487 8543 0
-8488 8544 0
-8489 8545 0
-8490 8546 0
-8491 8547 0
-8492 8548 0
-8493 8549 0
-8494 8550 0
-8495 8551 0
-8496 8552 0
-8497 8553 0
-8498 8554 0
-8499 8555 0
-8500 8556 0
-8501 8557 0
-8502 8558 0
-8503 8559 0
-8504 8560 0
-8505 8561 0
-8506 8562 0
-8507 8563 0
-8508 8564 0
-8509 8565 0
-8510 8566 0
-8511 8567 0
-8512 8568 0
-8513 8569 0
-8514 8570 0
-8515 8571 0
-8516 8572 0
-8517 8573 0
-8518 8574 0
-8519 8575 0
-8520 8576 0
-1082 -8465 8522 0
-1082 -8466 8523 0
-1082 -8467 8524 0
-1082 -8468 8525 0
-1082 -8469 8526 0
-1082 -8470 8527 0
-1082 -8471 8528 0
-1082 -8472 8529 0
-1082 -8473 8530 0
-1082 -8474 8531 0
-1082 -8475 8532 0
-1082 -8476 8533 0
-1082 -8477 8534 0
-1082 -8478 8535 0
-1082 -8479 8536 0
-1082 -8480 8537 0
-1082 -8481 8538 0
-1082 -8482 8539 0
-1082 -8483 8540 0
-1082 -8484 8541 0
-1082 -8485 8542 0
-1082 -8486 8543 0
-1082 -8487 8544 0
-1082 -8488 8545 0
-1082 -8489 8546 0
-1082 -8490 8547 0
-1082 -8491 8548 0
-1082 -8492 8549 0
-1082 -8493 8550 0
-1082 -8494 8551 0
-1082 -8495 8552 0
-1082 -8496 8553 0
-1082 -8497 8554 0
-1082 -8498 8555 0
-1082 -8499 8556 0
-1082 -8500 8557 0
-1082 -8501 8558 0
-1082 -8502 8559 0
-1082 -8503 8560 0
-1082 -8504 8561 0
-1082 -8505 8562 0
-1082 -8506 8563 0
-1082 -8507 8564 0
-1082 -8508 8565 0
-1082 -8509 8566 0
-1082 -8510 8567 0
-1082 -8511 8568 0
-1082 -8512 8569 0
-1082 -8513 8570 0
-1082 -8514 8571 0
-1082 -8515 8572 0
-1082 -8516 8573 0
-1082 -8517 8574 0
-1082 -8518 8575 0
-1082 -8519 8576 0
-1082 -8520 0
-8521 8577 0
-8522 8578 0
-8523 8579 0
-8524 8580 0
-8525 8581 0
-8526 8582 0
-8527 8583 0
-8528 8584 0
-8529 8585 0
-8530 8586 0
-8531 8587 0
-8532 8588 0
-8533 8589 0
-8534 8590 0
-8535 8591 0
-8536 8592 0
-8537 8593 0
-8538 8594 0
-8539 8595 0
-8540 8596 0
-8541 8597 0
-8542 8598 0
-8543 8599 0
-8544 8600 0
-8545 8601 0
-8546 8602 0
-8547 8603 0
-8548 8604 0
-8549 8605 0
-8550 8606 0
-8551 8607 0
-8552 8608 0
-8553 8609 0
-8554 8610 0
-8555 8611 0
-8556 8612 0
-8557 8613 0
-8558 8614 0
-8559 8615 0
-8560 8616 0
-8561 8617 0
-8562 8618 0
-8563 8619 0
-8564 8620 0
-8565 8621 0
-8566 8622 0
-8567 8623 0
-8568 8624 0
-8569 8625 0
-8570 8626 0
-8571 8627 0
-8572 8628 0
-8573 8629 0
-8574 8630 0
-8575 8631 0
-8576 8632 0
-1084 -8521 8578 0
-1084 -8522 8579 0
-1084 -8523 8580 0
-1084 -8524 8581 0
-1084 -8525 8582 0
-1084 -8526 8583 0
-1084 -8527 8584 0
-1084 -8528 8585 0
-1084 -8529 8586 0
-1084 -8530 8587 0
-1084 -8531 8588 0
-1084 -8532 8589 0
-1084 -8533 8590 0
-1084 -8534 8591 0
-1084 -8535 8592 0
-1084 -8536 8593 0
-1084 -8537 8594 0
-1084 -8538 8595 0
-1084 -8539 8596 0
-1084 -8540 8597 0
-1084 -8541 8598 0
-1084 -8542 8599 0
-1084 -8543 8600 0
-1084 -8544 8601 0
-1084 -8545 8602 0
-1084 -8546 8603 0
-1084 -8547 8604 0
-1084 -8548 8605 0
-1084 -8549 8606 0
-1084 -8550 8607 0
-1084 -8551 8608 0
-1084 -8552 8609 0
-1084 -8553 8610 0
-1084 -8554 8611 0
-1084 -8555 8612 0
-1084 -8556 8613 0
-1084 -8557 8614 0
-1084 -8558 8615 0
-1084 -8559 8616 0
-1084 -8560 8617 0
-1084 -8561 8618 0
-1084 -8562 8619 0
-1084 -8563 8620 0
-1084 -8564 8621 0
-1084 -8565 8622 0
-1084 -8566 8623 0
-1084 -8567 8624 0
-1084 -8568 8625 0
-1084 -8569 8626 0
-1084 -8570 8627 0
-1084 -8571 8628 0
-1084 -8572 8629 0
-1084 -8573 8630 0
-1084 -8574 8631 0
-1084 -8575 8632 0
-1084 -8576 0
-8577 8633 0
-8578 8634 0
-8579 8635 0
-8580 8636 0
-8581 8637 0
-8582 8638 0
-8583 8639 0
-8584 8640 0
-8585 8641 0
-8586 8642 0
-8587 8643 0
-8588 8644 0
-8589 8645 0
-8590 8646 0
-8591 8647 0
-8592 8648 0
-8593 8649 0
-8594 8650 0
-8595 8651 0
-8596 8652 0
-8597 8653 0
-8598 8654 0
-8599 8655 0
-8600 8656 0
-8601 8657 0
-8602 8658 0
-8603 8659 0
-8604 8660 0
-8605 8661 0
-8606 8662 0
-8607 8663 0
-8608 8664 0
-8609 8665 0
-8610 8666 0
-8611 8667 0
-8612 8668 0
-8613 8669 0
-8614 8670 0
-8615 8671 0
-8616 8672 0
-8617 8673 0
-8618 8674 0
-8619 8675 0
-8620 8676 0
-8621 8677 0
-8622 8678 0
-8623 8679 0
-8624 8680 0
-8625 8681 0
-8626 8682 0
-8627 8683 0
-8628 8684 0
-8629 8685 0
-8630 8686 0
-8631 8687 0
-8632 8688 0
-1086 -8577 8634 0
-1086 -8578 8635 0
-1086 -8579 8636 0
-1086 -8580 8637 0
-1086 -8581 8638 0
-1086 -8582 8639 0
-1086 -8583 8640 0
-1086 -8584 8641 0
-1086 -8585 8642 0
-1086 -8586 8643 0
-1086 -8587 8644 0
-1086 -8588 8645 0
-1086 -8589 8646 0
-1086 -8590 8647 0
-1086 -8591 8648 0
-1086 -8592 8649 0
-1086 -8593 8650 0
-1086 -8594 8651 0
-1086 -8595 8652 0
-1086 -8596 8653 0
-1086 -8597 8654 0
-1086 -8598 8655 0
-1086 -8599 8656 0
-1086 -8600 8657 0
-1086 -8601 8658 0
-1086 -8602 8659 0
-1086 -8603 8660 0
-1086 -8604 8661 0
-1086 -8605 8662 0
-1086 -8606 8663 0
-1086 -8607 8664 0
-1086 -8608 8665 0
-1086 -8609 8666 0
-1086 -8610 8667 0
-1086 -8611 8668 0
-1086 -8612 8669 0
-1086 -8613 8670 0
-1086 -8614 8671 0
-1086 -8615 8672 0
-1086 -8616 8673 0
-1086 -8617 8674 0
-1086 -8618 8675 0
-1086 -8619 8676 0
-1086 -8620 8677 0
-1086 -8621 8678 0
-1086 -8622 8679 0
-1086 -8623 8680 0
-1086 -8624 8681 0
-1086 -8625 8682 0
-1086 -8626 8683 0
-1086 -8627 8684 0
-1086 -8628 8685 0
-1086 -8629 8686 0
-1086 -8630 8687 0
-1086 -8631 8688 0
-1086 -8632 0
-8633 8689 0
-8634 8690 0
-8635 8691 0
-8636 8692 0
-8637 8693 0
-8638 8694 0
-8639 8695 0
-8640 8696 0
-8641 8697 0
-8642 8698 0
-8643 8699 0
-8644 8700 0
-8645 8701 0
-8646 8702 0
-8647 8703 0
-8648 8704 0
-8649 8705 0
-8650 8706 0
-8651 8707 0
-8652 8708 0
-8653 8709 0
-8654 8710 0
-8655 8711 0
-8656 8712 0
-8657 8713 0
-8658 8714 0
-8659 8715 0
-8660 8716 0
-8661 8717 0
-8662 8718 0
-8663 8719 0
-8664 8720 0
-8665 8721 0
-8666 8722 0
-8667 8723 0
-8668 8724 0
-8669 8725 0
-8670 8726 0
-8671 8727 0
-8672 8728 0
-8673 8729 0
-8674 8730 0
-8675 8731 0
-8676 8732 0
-8677 8733 0
-8678 8734 0
-8679 8735 0
-8680 8736 0
-8681 8737 0
-8682 8738 0
-8683 8739 0
-8684 8740 0
-8685 8741 0
-8686 8742 0
-8687 8743 0
-8688 8744 0
-1088 -8633 8690 0
-1088 -8634 8691 0
-1088 -8635 8692 0
-1088 -8636 8693 0
-1088 -8637 8694 0
-1088 -8638 8695 0
-1088 -8639 8696 0
-1088 -8640 8697 0
-1088 -8641 8698 0
-1088 -8642 8699 0
-1088 -8643 8700 0
-1088 -8644 8701 0
-1088 -8645 8702 0
-1088 -8646 8703 0
-1088 -8647 8704 0
-1088 -8648 8705 0
-1088 -8649 8706 0
-1088 -8650 8707 0
-1088 -8651 8708 0
-1088 -8652 8709 0
-1088 -8653 8710 0
-1088 -8654 8711 0
-1088 -8655 8712 0
-1088 -8656 8713 0
-1088 -8657 8714 0
-1088 -8658 8715 0
-1088 -8659 8716 0
-1088 -8660 8717 0
-1088 -8661 8718 0
-1088 -8662 8719 0
-1088 -8663 8720 0
-1088 -8664 8721 0
-1088 -8665 8722 0
-1088 -8666 8723 0
-1088 -8667 8724 0
-1088 -8668 8725 0
-1088 -8669 8726 0
-1088 -8670 8727 0
-1088 -8671 8728 0
-1088 -8672 8729 0
-1088 -8673 8730 0
-1088 -8674 8731 0
-1088 -8675 8732 0
-1088 -8676 8733 0
-1088 -8677 8734 0
-1088 -8678 8735 0
-1088 -8679 8736 0
-1088 -8680 8737 0
-1088 -8681 8738 0
-1088 -8682 8739 0
-1088 -8683 8740 0
-1088 -8684 8741 0
-1088 -8685 8742 0
-1088 -8686 8743 0
-1088 -8687 8744 0
-1088 -8688 0
-8689 8745 0
-8690 8746 0
-8691 8747 0
-8692 8748 0
-8693 8749 0
-8694 8750 0
-8695 8751 0
-8696 8752 0
-8697 8753 0
-8698 8754 0
-8699 8755 0
-8700 8756 0
-8701 8757 0
-8702 8758 0
-8703 8759 0
-8704 8760 0
-8705 8761 0
-8706 8762 0
-8707 8763 0
-8708 8764 0
-8709 8765 0
-8710 8766 0
-8711 8767 0
-8712 8768 0
-8713 8769 0
-8714 8770 0
-8715 8771 0
-8716 8772 0
-8717 8773 0
-8718 8774 0
-8719 8775 0
-8720 8776 0
-8721 8777 0
-8722 8778 0
-8723 8779 0
-8724 8780 0
-8725 8781 0
-8726 8782 0
-8727 8783 0
-8728 8784 0
-8729 8785 0
-8730 8786 0
-8731 8787 0
-8732 8788 0
-8733 8789 0
-8734 8790 0
-8735 8791 0
-8736 8792 0
-8737 8793 0
-8738 8794 0
-8739 8795 0
-8740 8796 0
-8741 8797 0
-8742 8798 0
-8743 8799 0
-8744 8800 0
-1090 -8689 8746 0
-1090 -8690 8747 0
-1090 -8691 8748 0
-1090 -8692 8749 0
-1090 -8693 8750 0
-1090 -8694 8751 0
-1090 -8695 8752 0
-1090 -8696 8753 0
-1090 -8697 8754 0
-1090 -8698 8755 0
-1090 -8699 8756 0
-1090 -8700 8757 0
-1090 -8701 8758 0
-1090 -8702 8759 0
-1090 -8703 8760 0
-1090 -8704 8761 0
-1090 -8705 8762 0
-1090 -8706 8763 0
-1090 -8707 8764 0
-1090 -8708 8765 0
-1090 -8709 8766 0
-1090 -8710 8767 0
-1090 -8711 8768 0
-1090 -8712 8769 0
-1090 -8713 8770 0
-1090 -8714 8771 0
-1090 -8715 8772 0
-1090 -8716 8773 0
-1090 -8717 8774 0
-1090 -8718 8775 0
-1090 -8719 8776 0
-1090 -8720 8777 0
-1090 -8721 8778 0
-1090 -8722 8779 0
-1090 -8723 8780 0
-1090 -8724 8781 0
-1090 -8725 8782 0
-1090 -8726 8783 0
-1090 -8727 8784 0
-1090 -8728 8785 0
-1090 -8729 8786 0
-1090 -8730 8787 0
-1090 -8731 8788 0
-1090 -8732 8789 0
-1090 -8733 8790 0
-1090 -8734 8791 0
-1090 -8735 8792 0
-1090 -8736 8793 0
-1090 -8737 8794 0
-1090 -8738 8795 0
-1090 -8739 8796 0
-1090 -8740 8797 0
-1090 -8741 8798 0
-1090 -8742 8799 0
-1090 -8743 8800 0
-1090 -8744 0
-8745 8801 0
-8746 8802 0
-8747 8803 0
-8748 8804 0
-8749 8805 0
-8750 8806 0
-8751 8807 0
-8752 8808 0
-8753 8809 0
-8754 8810 0
-8755 8811 0
-8756 8812 0
-8757 8813 0
-8758 8814 0
-8759 8815 0
-8760 8816 0
-8761 8817 0
-8762 8818 0
-8763 8819 0
-8764 8820 0
-8765 8821 0
-8766 8822 0
-8767 8823 0
-8768 8824 0
-8769 8825 0
-8770 8826 0
-8771 8827 0
-8772 8828 0
-8773 8829 0
-8774 8830 0
-8775 8831 0
-8776 8832 0
-8777 8833 0
-8778 8834 0
-8779 8835 0
-8780 8836 0
-8781 8837 0
-8782 8838 0
-8783 8839 0
-8784 8840 0
-8785 8841 0
-8786 8842 0
-8787 8843 0
-8788 8844 0
-8789 8845 0
-8790 8846 0
-8791 8847 0
-8792 8848 0
-8793 8849 0
-8794 8850 0
-8795 8851 0
-8796 8852 0
-8797 8853 0
-8798 8854 0
-8799 8855 0
-8800 8856 0
-1092 -8745 8802 0
-1092 -8746 8803 0
-1092 -8747 8804 0
-1092 -8748 8805 0
-1092 -8749 8806 0
-1092 -8750 8807 0
-1092 -8751 8808 0
-1092 -8752 8809 0
-1092 -8753 8810 0
-1092 -8754 8811 0
-1092 -8755 8812 0
-1092 -8756 8813 0
-1092 -8757 8814 0
-1092 -8758 8815 0
-1092 -8759 8816 0
-1092 -8760 8817 0
-1092 -8761 8818 0
-1092 -8762 8819 0
-1092 -8763 8820 0
-1092 -8764 8821 0
-1092 -8765 8822 0
-1092 -8766 8823 0
-1092 -8767 8824 0
-1092 -8768 8825 0
-1092 -8769 8826 0
-1092 -8770 8827 0
-1092 -8771 8828 0
-1092 -8772 8829 0
-1092 -8773 8830 0
-1092 -8774 8831 0
-1092 -8775 8832 0
-1092 -8776 8833 0
-1092 -8777 8834 0
-1092 -8778 8835 0
-1092 -8779 8836 0
-1092 -8780 8837 0
-1092 -8781 8838 0
-1092 -8782 8839 0
-1092 -8783 8840 0
-1092 -8784 8841 0
-1092 -8785 8842 0
-1092 -8786 8843 0
-1092 -8787 8844 0
-1092 -8788 8845 0
-1092 -8789 8846 0
-1092 -8790 8847 0
-1092 -8791 8848 0
-1092 -8792 8849 0
-1092 -8793 8850 0
-1092 -8794 8851 0
-1092 -8795 8852 0
-1092 -8796 8853 0
-1092 -8797 8854 0
-1092 -8798 8855 0
-1092 -8799 8856 0
-1092 -8800 0
-8801 8857 0
-8802 8858 0
-8803 8859 0
-8804 8860 0
-8805 8861 0
-8806 8862 0
-8807 8863 0
-8808 8864 0
-8809 8865 0
-8810 8866 0
-8811 8867 0
-8812 8868 0
-8813 8869 0
-8814 8870 0
-8815 8871 0
-8816 8872 0
-8817 8873 0
-8818 8874 0
-8819 8875 0
-8820 8876 0
-8821 8877 0
-8822 8878 0
-8823 8879 0
-8824 8880 0
-8825 8881 0
-8826 8882 0
-8827 8883 0
-8828 8884 0
-8829 8885 0
-8830 8886 0
-8831 8887 0
-8832 8888 0
-8833 8889 0
-8834 8890 0
-8835 8891 0
-8836 8892 0
-8837 8893 0
-8838 8894 0
-8839 8895 0
-8840 8896 0
-8841 8897 0
-8842 8898 0
-8843 8899 0
-8844 8900 0
-8845 8901 0
-8846 8902 0
-8847 8903 0
-8848 8904 0
-8849 8905 0
-8850 8906 0
-8851 8907 0
-8852 8908 0
-8853 8909 0
-8854 8910 0
-8855 8911 0
-8856 8912 0
-1094 -8801 8858 0
-1094 -8802 8859 0
-1094 -8803 8860 0
-1094 -8804 8861 0
-1094 -8805 8862 0
-1094 -8806 8863 0
-1094 -8807 8864 0
-1094 -8808 8865 0
-1094 -8809 8866 0
-1094 -8810 8867 0
-1094 -8811 8868 0
-1094 -8812 8869 0
-1094 -8813 8870 0
-1094 -8814 8871 0
-1094 -8815 8872 0
-1094 -8816 8873 0
-1094 -8817 8874 0
-1094 -8818 8875 0
-1094 -8819 8876 0
-1094 -8820 8877 0
-1094 -8821 8878 0
-1094 -8822 8879 0
-1094 -8823 8880 0
-1094 -8824 8881 0
-1094 -8825 8882 0
-1094 -8826 8883 0
-1094 -8827 8884 0
-1094 -8828 8885 0
-1094 -8829 8886 0
-1094 -8830 8887 0
-1094 -8831 8888 0
-1094 -8832 8889 0
-1094 -8833 8890 0
-1094 -8834 8891 0
-1094 -8835 8892 0
-1094 -8836 8893 0
-1094 -8837 8894 0
-1094 -8838 8895 0
-1094 -8839 8896 0
-1094 -8840 8897 0
-1094 -8841 8898 0
-1094 -8842 8899 0
-1094 -8843 8900 0
-1094 -8844 8901 0
-1094 -8845 8902 0
-1094 -8846 8903 0
-1094 -8847 8904 0
-1094 -8848 8905 0
-1094 -8849 8906 0
-1094 -8850 8907 0
-1094 -8851 8908 0
-1094 -8852 8909 0
-1094 -8853 8910 0
-1094 -8854 8911 0
-1094 -8855 8912 0
-1094 -8856 0
-8857 8913 0
-8858 8914 0
-8859 8915 0
-8860 8916 0
-8861 8917 0
-8862 8918 0
-8863 8919 0
-8864 8920 0
-8865 8921 0
-8866 8922 0
-8867 8923 0
-8868 8924 0
-8869 8925 0
-8870 8926 0
-8871 8927 0
-8872 8928 0
-8873 8929 0
-8874 8930 0
-8875 8931 0
-8876 8932 0
-8877 8933 0
-8878 8934 0
-8879 8935 0
-8880 8936 0
-8881 8937 0
-8882 8938 0
-8883 8939 0
-8884 8940 0
-8885 8941 0
-8886 8942 0
-8887 8943 0
-8888 8944 0
-8889 8945 0
-8890 8946 0
-8891 8947 0
-8892 8948 0
-8893 8949 0
-8894 8950 0
-8895 8951 0
-8896 8952 0
-8897 8953 0
-8898 8954 0
-8899 8955 0
-8900 8956 0
-8901 8957 0
-8902 8958 0
-8903 8959 0
-8904 8960 0
-8905 8961 0
-8906 8962 0
-8907 8963 0
-8908 8964 0
-8909 8965 0
-8910 8966 0
-8911 8967 0
-8912 8968 0
-1096 -8857 8914 0
-1096 -8858 8915 0
-1096 -8859 8916 0
-1096 -8860 8917 0
-1096 -8861 8918 0
-1096 -8862 8919 0
-1096 -8863 8920 0
-1096 -8864 8921 0
-1096 -8865 8922 0
-1096 -8866 8923 0
-1096 -8867 8924 0
-1096 -8868 8925 0
-1096 -8869 8926 0
-1096 -8870 8927 0
-1096 -8871 8928 0
-1096 -8872 8929 0
-1096 -8873 8930 0
-1096 -8874 8931 0
-1096 -8875 8932 0
-1096 -8876 8933 0
-1096 -8877 8934 0
-1096 -8878 8935 0
-1096 -8879 8936 0
-1096 -8880 8937 0
-1096 -8881 8938 0
-1096 -8882 8939 0
-1096 -8883 8940 0
-1096 -8884 8941 0
-1096 -8885 8942 0
-1096 -8886 8943 0
-1096 -8887 8944 0
-1096 -8888 8945 0
-1096 -8889 8946 0
-1096 -8890 8947 0
-1096 -8891 8948 0
-1096 -8892 8949 0
-1096 -8893 8950 0
-1096 -8894 8951 0
-1096 -8895 8952 0
-1096 -8896 8953 0
-1096 -8897 8954 0
-1096 -8898 8955 0
-1096 -8899 8956 0
-1096 -8900 8957 0
-1096 -8901 8958 0
-1096 -8902 8959 0
-1096 -8903 8960 0
-1096 -8904 8961 0
-1096 -8905 8962 0
-1096 -8906 8963 0
-1096 -8907 8964 0
-1096 -8908 8965 0
-1096 -8909 8966 0
-1096 -8910 8967 0
-1096 -8911 8968 0
-1096 -8912 0
-8913 8969 0
-8914 8970 0
-8915 8971 0
-8916 8972 0
-8917 8973 0
-8918 8974 0
-8919 8975 0
-8920 8976 0
-8921 8977 0
-8922 8978 0
-8923 8979 0
-8924 8980 0
-8925 8981 0
-8926 8982 0
-8927 8983 0
-8928 8984 0
-8929 8985 0
-8930 8986 0
-8931 8987 0
-8932 8988 0
-8933 8989 0
-8934 8990 0
-8935 8991 0
-8936 8992 0
-8937 8993 0
-8938 8994 0
-8939 8995 0
-8940 8996 0
-8941 8997 0
-8942 8998 0
-8943 8999 0
-8944 9000 0
-8945 9001 0
-8946 9002 0
-8947 9003 0
-8948 9004 0
-8949 9005 0
-8950 9006 0
-8951 9007 0
-8952 9008 0
-8953 9009 0
-8954 9010 0
-8955 9011 0
-8956 9012 0
-8957 9013 0
-8958 9014 0
-8959 9015 0
-8960 9016 0
-8961 9017 0
-8962 9018 0
-8963 9019 0
-8964 9020 0
-8965 9021 0
-8966 9022 0
-8967 9023 0
-8968 9024 0
-1098 -8913 8970 0
-1098 -8914 8971 0
-1098 -8915 8972 0
-1098 -8916 8973 0
-1098 -8917 8974 0
-1098 -8918 8975 0
-1098 -8919 8976 0
-1098 -8920 8977 0
-1098 -8921 8978 0
-1098 -8922 8979 0
-1098 -8923 8980 0
-1098 -8924 8981 0
-1098 -8925 8982 0
-1098 -8926 8983 0
-1098 -8927 8984 0
-1098 -8928 8985 0
-1098 -8929 8986 0
-1098 -8930 8987 0
-1098 -8931 8988 0
-1098 -8932 8989 0
-1098 -8933 8990 0
-1098 -8934 8991 0
-1098 -8935 8992 0
-1098 -8936 8993 0
-1098 -8937 8994 0
-1098 -8938 8995 0
-1098 -8939 8996 0
-1098 -8940 8997 0
-1098 -8941 8998 0
-1098 -8942 8999 0
-1098 -8943 9000 0
-1098 -8944 9001 0
-1098 -8945 9002 0
-1098 -8946 9003 0
-1098 -8947 9004 0
-1098 -8948 9005 0
-1098 -8949 9006 0
-1098 -8950 9007 0
-1098 -8951 9008 0
-1098 -8952 9009 0
-1098 -8953 9010 0
-1098 -8954 9011 0
-1098 -8955 9012 0
-1098 -8956 9013 0
-1098 -8957 9014 0
-1098 -8958 9015 0
-1098 -8959 9016 0
-1098 -8960 9017 0
-1098 -8961 9018 0
-1098 -8962 9019 0
-1098 -8963 9020 0
-1098 -8964 9021 0
-1098 -8965 9022 0
-1098 -8966 9023 0
-1098 -8967 9024 0
-1098 -8968 0
-8969 9025 0
-8970 9026 0
-8971 9027 0
-8972 9028 0
-8973 9029 0
-8974 9030 0
-8975 9031 0
-8976 9032 0
-8977 9033 0
-8978 9034 0
-8979 9035 0
-8980 9036 0
-8981 9037 0
-8982 9038 0
-8983 9039 0
-8984 9040 0
-8985 9041 0
-8986 9042 0
-8987 9043 0
-8988 9044 0
-8989 9045 0
-8990 9046 0
-8991 9047 0
-8992 9048 0
-8993 9049 0
-8994 9050 0
-8995 9051 0
-8996 9052 0
-8997 9053 0
-8998 9054 0
-8999 9055 0
-9000 9056 0
-9001 9057 0
-9002 9058 0
-9003 9059 0
-9004 9060 0
-9005 9061 0
-9006 9062 0
-9007 9063 0
-9008 9064 0
-9009 9065 0
-9010 9066 0
-9011 9067 0
-9012 9068 0
-9013 9069 0
-9014 9070 0
-9015 9071 0
-9016 9072 0
-9017 9073 0
-9018 9074 0
-9019 9075 0
-9020 9076 0
-9021 9077 0
-9022 9078 0
-9023 9079 0
-9024 9080 0
-1100 -8969 9026 0
-1100 -8970 9027 0
-1100 -8971 9028 0
-1100 -8972 9029 0
-1100 -8973 9030 0
-1100 -8974 9031 0
-1100 -8975 9032 0
-1100 -8976 9033 0
-1100 -8977 9034 0
-1100 -8978 9035 0
-1100 -8979 9036 0
-1100 -8980 9037 0
-1100 -8981 9038 0
-1100 -8982 9039 0
-1100 -8983 9040 0
-1100 -8984 9041 0
-1100 -8985 9042 0
-1100 -8986 9043 0
-1100 -8987 9044 0
-1100 -8988 9045 0
-1100 -8989 9046 0
-1100 -8990 9047 0
-1100 -8991 9048 0
-1100 -8992 9049 0
-1100 -8993 9050 0
-1100 -8994 9051 0
-1100 -8995 9052 0
-1100 -8996 9053 0
-1100 -8997 9054 0
-1100 -8998 9055 0
-1100 -8999 9056 0
-1100 -9000 9057 0
-1100 -9001 9058 0
-1100 -9002 9059 0
-1100 -9003 9060 0
-1100 -9004 9061 0
-1100 -9005 9062 0
-1100 -9006 9063 0
-1100 -9007 9064 0
-1100 -9008 9065 0
-1100 -9009 9066 0
-1100 -9010 9067 0
-1100 -9011 9068 0
-1100 -9012 9069 0
-1100 -9013 9070 0
-1100 -9014 9071 0
-1100 -9015 9072 0
-1100 -9016 9073 0
-1100 -9017 9074 0
-1100 -9018 9075 0
-1100 -9019 9076 0
-1100 -9020 9077 0
-1100 -9021 9078 0
-1100 -9022 9079 0
-1100 -9023 9080 0
-1100 -9024 0
-9025 9081 0
-9026 9082 0
-9027 9083 0
-9028 9084 0
-9029 9085 0
-9030 9086 0
-9031 9087 0
-9032 9088 0
-9033 9089 0
-9034 9090 0
-9035 9091 0
-9036 9092 0
-9037 9093 0
-9038 9094 0
-9039 9095 0
-9040 9096 0
-9041 9097 0
-9042 9098 0
-9043 9099 0
-9044 9100 0
-9045 9101 0
-9046 9102 0
-9047 9103 0
-9048 9104 0
-9049 9105 0
-9050 9106 0
-9051 9107 0
-9052 9108 0
-9053 9109 0
-9054 9110 0
-9055 9111 0
-9056 9112 0
-9057 9113 0
-9058 9114 0
-9059 9115 0
-9060 9116 0
-9061 9117 0
-9062 9118 0
-9063 9119 0
-9064 9120 0
-9065 9121 0
-9066 9122 0
-9067 9123 0
-9068 9124 0
-9069 9125 0
-9070 9126 0
-9071 9127 0
-9072 9128 0
-9073 9129 0
-9074 9130 0
-9075 9131 0
-9076 9132 0
-9077 9133 0
-9078 9134 0
-9079 9135 0
-9080 9136 0
-1102 -9025 9082 0
-1102 -9026 9083 0
-1102 -9027 9084 0
-1102 -9028 9085 0
-1102 -9029 9086 0
-1102 -9030 9087 0
-1102 -9031 9088 0
-1102 -9032 9089 0
-1102 -9033 9090 0
-1102 -9034 9091 0
-1102 -9035 9092 0
-1102 -9036 9093 0
-1102 -9037 9094 0
-1102 -9038 9095 0
-1102 -9039 9096 0
-1102 -9040 9097 0
-1102 -9041 9098 0
-1102 -9042 9099 0
-1102 -9043 9100 0
-1102 -9044 9101 0
-1102 -9045 9102 0
-1102 -9046 9103 0
-1102 -9047 9104 0
-1102 -9048 9105 0
-1102 -9049 9106 0
-1102 -9050 9107 0
-1102 -9051 9108 0
-1102 -9052 9109 0
-1102 -9053 9110 0
-1102 -9054 9111 0
-1102 -9055 9112 0
-1102 -9056 9113 0
-1102 -9057 9114 0
-1102 -9058 9115 0
-1102 -9059 9116 0
-1102 -9060 9117 0
-1102 -9061 9118 0
-1102 -9062 9119 0
-1102 -9063 9120 0
-1102 -9064 9121 0
-1102 -9065 9122 0
-1102 -9066 9123 0
-1102 -9067 9124 0
-1102 -9068 9125 0
-1102 -9069 9126 0
-1102 -9070 9127 0
-1102 -9071 9128 0
-1102 -9072 9129 0
-1102 -9073 9130 0
-1102 -9074 9131 0
-1102 -9075 9132 0
-1102 -9076 9133 0
-1102 -9077 9134 0
-1102 -9078 9135 0
-1102 -9079 9136 0
-1102 -9080 0
-9081 9137 0
-9082 9138 0
-9083 9139 0
-9084 9140 0
-9085 9141 0
-9086 9142 0
-9087 9143 0
-9088 9144 0
-9089 9145 0
-9090 9146 0
-9091 9147 0
-9092 9148 0
-9093 9149 0
-9094 9150 0
-9095 9151 0
-9096 9152 0
-9097 9153 0
-9098 9154 0
-9099 9155 0
-9100 9156 0
-9101 9157 0
-9102 9158 0
-9103 9159 0
-9104 9160 0
-9105 9161 0
-9106 9162 0
-9107 9163 0
-9108 9164 0
-9109 9165 0
-9110 9166 0
-9111 9167 0
-9112 9168 0
-9113 9169 0
-9114 9170 0
-9115 9171 0
-9116 9172 0
-9117 9173 0
-9118 9174 0
-9119 9175 0
-9120 9176 0
-9121 9177 0
-9122 9178 0
-9123 9179 0
-9124 9180 0
-9125 9181 0
-9126 9182 0
-9127 9183 0
-9128 9184 0
-9129 9185 0
-9130 9186 0
-9131 9187 0
-9132 9188 0
-9133 9189 0
-9134 9190 0
-9135 9191 0
-9136 9192 0
-1104 -9081 9138 0
-1104 -9082 9139 0
-1104 -9083 9140 0
-1104 -9084 9141 0
-1104 -9085 9142 0
-1104 -9086 9143 0
-1104 -9087 9144 0
-1104 -9088 9145 0
-1104 -9089 9146 0
-1104 -9090 9147 0
-1104 -9091 9148 0
-1104 -9092 9149 0
-1104 -9093 9150 0
-1104 -9094 9151 0
-1104 -9095 9152 0
-1104 -9096 9153 0
-1104 -9097 9154 0
-1104 -9098 9155 0
-1104 -9099 9156 0
-1104 -9100 9157 0
-1104 -9101 9158 0
-1104 -9102 9159 0
-1104 -9103 9160 0
-1104 -9104 9161 0
-1104 -9105 9162 0
-1104 -9106 9163 0
-1104 -9107 9164 0
-1104 -9108 9165 0
-1104 -9109 9166 0
-1104 -9110 9167 0
-1104 -9111 9168 0
-1104 -9112 9169 0
-1104 -9113 9170 0
-1104 -9114 9171 0
-1104 -9115 9172 0
-1104 -9116 9173 0
-1104 -9117 9174 0
-1104 -9118 9175 0
-1104 -9119 9176 0
-1104 -9120 9177 0
-1104 -9121 9178 0
-1104 -9122 9179 0
-1104 -9123 9180 0
-1104 -9124 9181 0
-1104 -9125 9182 0
-1104 -9126 9183 0
-1104 -9127 9184 0
-1104 -9128 9185 0
-1104 -9129 9186 0
-1104 -9130 9187 0
-1104 -9131 9188 0
-1104 -9132 9189 0
-1104 -9133 9190 0
-1104 -9134 9191 0
-1104 -9135 9192 0
-1104 -9136 0
-9137 9193 0
-9138 9194 0
-9139 9195 0
-9140 9196 0
-9141 9197 0
-9142 9198 0
-9143 9199 0
-9144 9200 0
-9145 9201 0
-9146 9202 0
-9147 9203 0
-9148 9204 0
-9149 9205 0
-9150 9206 0
-9151 9207 0
-9152 9208 0
-9153 9209 0
-9154 9210 0
-9155 9211 0
-9156 9212 0
-9157 9213 0
-9158 9214 0
-9159 9215 0
-9160 9216 0
-9161 9217 0
-9162 9218 0
-9163 9219 0
-9164 9220 0
-9165 9221 0
-9166 9222 0
-9167 9223 0
-9168 9224 0
-9169 9225 0
-9170 9226 0
-9171 9227 0
-9172 9228 0
-9173 9229 0
-9174 9230 0
-9175 9231 0
-9176 9232 0
-9177 9233 0
-9178 9234 0
-9179 9235 0
-9180 9236 0
-9181 9237 0
-9182 9238 0
-9183 9239 0
-9184 9240 0
-9185 9241 0
-9186 9242 0
-9187 9243 0
-9188 9244 0
-9189 9245 0
-9190 9246 0
-9191 9247 0
-9192 9248 0
-1106 -9137 9194 0
-1106 -9138 9195 0
-1106 -9139 9196 0
-1106 -9140 9197 0
-1106 -9141 9198 0
-1106 -9142 9199 0
-1106 -9143 9200 0
-1106 -9144 9201 0
-1106 -9145 9202 0
-1106 -9146 9203 0
-1106 -9147 9204 0
-1106 -9148 9205 0
-1106 -9149 9206 0
-1106 -9150 9207 0
-1106 -9151 9208 0
-1106 -9152 9209 0
-1106 -9153 9210 0
-1106 -9154 9211 0
-1106 -9155 9212 0
-1106 -9156 9213 0
-1106 -9157 9214 0
-1106 -9158 9215 0
-1106 -9159 9216 0
-1106 -9160 9217 0
-1106 -9161 9218 0
-1106 -9162 9219 0
-1106 -9163 9220 0
-1106 -9164 9221 0
-1106 -9165 9222 0
-1106 -9166 9223 0
-1106 -9167 9224 0
-1106 -9168 9225 0
-1106 -9169 9226 0
-1106 -9170 9227 0
-1106 -9171 9228 0
-1106 -9172 9229 0
-1106 -9173 9230 0
-1106 -9174 9231 0
-1106 -9175 9232 0
-1106 -9176 9233 0
-1106 -9177 9234 0
-1106 -9178 9235 0
-1106 -9179 9236 0
-1106 -9180 9237 0
-1106 -9181 9238 0
-1106 -9182 9239 0
-1106 -9183 9240 0
-1106 -9184 9241 0
-1106 -9185 9242 0
-1106 -9186 9243 0
-1106 -9187 9244 0
-1106 -9188 9245 0
-1106 -9189 9246 0
-1106 -9190 9247 0
-1106 -9191 9248 0
-1106 -9192 0
-9193 9249 0
-9194 9250 0
-9195 9251 0
-9196 9252 0
-9197 9253 0
-9198 9254 0
-9199 9255 0
-9200 9256 0
-9201 9257 0
-9202 9258 0
-9203 9259 0
-9204 9260 0
-9205 9261 0
-9206 9262 0
-9207 9263 0
-9208 9264 0
-9209 9265 0
-9210 9266 0
-9211 9267 0
-9212 9268 0
-9213 9269 0
-9214 9270 0
-9215 9271 0
-9216 9272 0
-9217 9273 0
-9218 9274 0
-9219 9275 0
-9220 9276 0
-9221 9277 0
-9222 9278 0
-9223 9279 0
-9224 9280 0
-9225 9281 0
-9226 9282 0
-9227 9283 0
-9228 9284 0
-9229 9285 0
-9230 9286 0
-9231 9287 0
-9232 9288 0
-9233 9289 0
-9234 9290 0
-9235 9291 0
-9236 9292 0
-9237 9293 0
-9238 9294 0
-9239 9295 0
-9240 9296 0
-9241 9297 0
-9242 9298 0
-9243 9299 0
-9244 9300 0
-9245 9301 0
-9246 9302 0
-9247 9303 0
-9248 9304 0
-1108 -9193 9250 0
-1108 -9194 9251 0
-1108 -9195 9252 0
-1108 -9196 9253 0
-1108 -9197 9254 0
-1108 -9198 9255 0
-1108 -9199 9256 0
-1108 -9200 9257 0
-1108 -9201 9258 0
-1108 -9202 9259 0
-1108 -9203 9260 0
-1108 -9204 9261 0
-1108 -9205 9262 0
-1108 -9206 9263 0
-1108 -9207 9264 0
-1108 -9208 9265 0
-1108 -9209 9266 0
-1108 -9210 9267 0
-1108 -9211 9268 0
-1108 -9212 9269 0
-1108 -9213 9270 0
-1108 -9214 9271 0
-1108 -9215 9272 0
-1108 -9216 9273 0
-1108 -9217 9274 0
-1108 -9218 9275 0
-1108 -9219 9276 0
-1108 -9220 9277 0
-1108 -9221 9278 0
-1108 -9222 9279 0
-1108 -9223 9280 0
-1108 -9224 9281 0
-1108 -9225 9282 0
-1108 -9226 9283 0
-1108 -9227 9284 0
-1108 -9228 9285 0
-1108 -9229 9286 0
-1108 -9230 9287 0
-1108 -9231 9288 0
-1108 -9232 9289 0
-1108 -9233 9290 0
-1108 -9234 9291 0
-1108 -9235 9292 0
-1108 -9236 9293 0
-1108 -9237 9294 0
-1108 -9238 9295 0
-1108 -9239 9296 0
-1108 -9240 9297 0
-1108 -9241 9298 0
-1108 -9242 9299 0
-1108 -9243 9300 0
-1108 -9244 9301 0
-1108 -9245 9302 0
-1108 -9246 9303 0
-1108 -9247 9304 0
-1108 -9248 0
-9249 9305 0
-9250 9306 0
-9251 9307 0
-9252 9308 0
-9253 9309 0
-9254 9310 0
-9255 9311 0
-9256 9312 0
-9257 9313 0
-9258 9314 0
-9259 9315 0
-9260 9316 0
-9261 9317 0
-9262 9318 0
-9263 9319 0
-9264 9320 0
-9265 9321 0
-9266 9322 0
-9267 9323 0
-9268 9324 0
-9269 9325 0
-9270 9326 0
-9271 9327 0
-9272 9328 0
-9273 9329 0
-9274 9330 0
-9275 9331 0
-9276 9332 0
-9277 9333 0
-9278 9334 0
-9279 9335 0
-9280 9336 0
-9281 9337 0
-9282 9338 0
-9283 9339 0
-9284 9340 0
-9285 9341 0
-9286 9342 0
-9287 9343 0
-9288 9344 0
-9289 9345 0
-9290 9346 0
-9291 9347 0
-9292 9348 0
-9293 9349 0
-9294 9350 0
-9295 9351 0
-9296 9352 0
-9297 9353 0
-9298 9354 0
-9299 9355 0
-9300 9356 0
-9301 9357 0
-9302 9358 0
-9303 9359 0
-9304 9360 0
-1110 -9249 9306 0
-1110 -9250 9307 0
-1110 -9251 9308 0
-1110 -9252 9309 0
-1110 -9253 9310 0
-1110 -9254 9311 0
-1110 -9255 9312 0
-1110 -9256 9313 0
-1110 -9257 9314 0
-1110 -9258 9315 0
-1110 -9259 9316 0
-1110 -9260 9317 0
-1110 -9261 9318 0
-1110 -9262 9319 0
-1110 -9263 9320 0
-1110 -9264 9321 0
-1110 -9265 9322 0
-1110 -9266 9323 0
-1110 -9267 9324 0
-1110 -9268 9325 0
-1110 -9269 9326 0
-1110 -9270 9327 0
-1110 -9271 9328 0
-1110 -9272 9329 0
-1110 -9273 9330 0
-1110 -9274 9331 0
-1110 -9275 9332 0
-1110 -9276 9333 0
-1110 -9277 9334 0
-1110 -9278 9335 0
-1110 -9279 9336 0
-1110 -9280 9337 0
-1110 -9281 9338 0
-1110 -9282 9339 0
-1110 -9283 9340 0
-1110 -9284 9341 0
-1110 -9285 9342 0
-1110 -9286 9343 0
-1110 -9287 9344 0
-1110 -9288 9345 0
-1110 -9289 9346 0
-1110 -9290 9347 0
-1110 -9291 9348 0
-1110 -9292 9349 0
-1110 -9293 9350 0
-1110 -9294 9351 0
-1110 -9295 9352 0
-1110 -9296 9353 0
-1110 -9297 9354 0
-1110 -9298 9355 0
-1110 -9299 9356 0
-1110 -9300 9357 0
-1110 -9301 9358 0
-1110 -9302 9359 0
-1110 -9303 9360 0
-1110 -9304 0
-9305 9361 0
-9306 9362 0
-9307 9363 0
-9308 9364 0
-9309 9365 0
-9310 9366 0
-9311 9367 0
-9312 9368 0
-9313 9369 0
-9314 9370 0
-9315 9371 0
-9316 9372 0
-9317 9373 0
-9318 9374 0
-9319 9375 0
-9320 9376 0
-9321 9377 0
-9322 9378 0
-9323 9379 0
-9324 9380 0
-9325 9381 0
-9326 9382 0
-9327 9383 0
-9328 9384 0
-9329 9385 0
-9330 9386 0
-9331 9387 0
-9332 9388 0
-9333 9389 0
-9334 9390 0
-9335 9391 0
-9336 9392 0
-9337 9393 0
-9338 9394 0
-9339 9395 0
-9340 9396 0
-9341 9397 0
-9342 9398 0
-9343 9399 0
-9344 9400 0
-9345 9401 0
-9346 9402 0
-9347 9403 0
-9348 9404 0
-9349 9405 0
-9350 9406 0
-9351 9407 0
-9352 9408 0
-9353 9409 0
-9354 9410 0
-9355 9411 0
-9356 9412 0
-9357 9413 0
-9358 9414 0
-9359 9415 0
-9360 9416 0
-1112 -9305 9362 0
-1112 -9306 9363 0
-1112 -9307 9364 0
-1112 -9308 9365 0
-1112 -9309 9366 0
-1112 -9310 9367 0
-1112 -9311 9368 0
-1112 -9312 9369 0
-1112 -9313 9370 0
-1112 -9314 9371 0
-1112 -9315 9372 0
-1112 -9316 9373 0
-1112 -9317 9374 0
-1112 -9318 9375 0
-1112 -9319 9376 0
-1112 -9320 9377 0
-1112 -9321 9378 0
-1112 -9322 9379 0
-1112 -9323 9380 0
-1112 -9324 9381 0
-1112 -9325 9382 0
-1112 -9326 9383 0
-1112 -9327 9384 0
-1112 -9328 9385 0
-1112 -9329 9386 0
-1112 -9330 9387 0
-1112 -9331 9388 0
-1112 -9332 9389 0
-1112 -9333 9390 0
-1112 -9334 9391 0
-1112 -9335 9392 0
-1112 -9336 9393 0
-1112 -9337 9394 0
-1112 -9338 9395 0
-1112 -9339 9396 0
-1112 -9340 9397 0
-1112 -9341 9398 0
-1112 -9342 9399 0
-1112 -9343 9400 0
-1112 -9344 9401 0
-1112 -9345 9402 0
-1112 -9346 9403 0
-1112 -9347 9404 0
-1112 -9348 9405 0
-1112 -9349 9406 0
-1112 -9350 9407 0
-1112 -9351 9408 0
-1112 -9352 9409 0
-1112 -9353 9410 0
-1112 -9354 9411 0
-1112 -9355 9412 0
-1112 -9356 9413 0
-1112 -9357 9414 0
-1112 -9358 9415 0
-1112 -9359 9416 0
-1112 -9360 0
-9361 9417 0
-9362 9418 0
-9363 9419 0
-9364 9420 0
-9365 9421 0
-9366 9422 0
-9367 9423 0
-9368 9424 0
-9369 9425 0
-9370 9426 0
-9371 9427 0
-9372 9428 0
-9373 9429 0
-9374 9430 0
-9375 9431 0
-9376 9432 0
-9377 9433 0
-9378 9434 0
-9379 9435 0
-9380 9436 0
-9381 9437 0
-9382 9438 0
-9383 9439 0
-9384 9440 0
-9385 9441 0
-9386 9442 0
-9387 9443 0
-9388 9444 0
-9389 9445 0
-9390 9446 0
-9391 9447 0
-9392 9448 0
-9393 9449 0
-9394 9450 0
-9395 9451 0
-9396 9452 0
-9397 9453 0
-9398 9454 0
-9399 9455 0
-9400 9456 0
-9401 9457 0
-9402 9458 0
-9403 9459 0
-9404 9460 0
-9405 9461 0
-9406 9462 0
-9407 9463 0
-9408 9464 0
-9409 9465 0
-9410 9466 0
-9411 9467 0
-9412 9468 0
-9413 9469 0
-9414 9470 0
-9415 9471 0
-9416 9472 0
-1114 -9361 9418 0
-1114 -9362 9419 0
-1114 -9363 9420 0
-1114 -9364 9421 0
-1114 -9365 9422 0
-1114 -9366 9423 0
-1114 -9367 9424 0
-1114 -9368 9425 0
-1114 -9369 9426 0
-1114 -9370 9427 0
-1114 -9371 9428 0
-1114 -9372 9429 0
-1114 -9373 9430 0
-1114 -9374 9431 0
-1114 -9375 9432 0
-1114 -9376 9433 0
-1114 -9377 9434 0
-1114 -9378 9435 0
-1114 -9379 9436 0
-1114 -9380 9437 0
-1114 -9381 9438 0
-1114 -9382 9439 0
-1114 -9383 9440 0
-1114 -9384 9441 0
-1114 -9385 9442 0
-1114 -9386 9443 0
-1114 -9387 9444 0
-1114 -9388 9445 0
-1114 -9389 9446 0
-1114 -9390 9447 0
-1114 -9391 9448 0
-1114 -9392 9449 0
-1114 -9393 9450 0
-1114 -9394 9451 0
-1114 -9395 9452 0
-1114 -9396 9453 0
-1114 -9397 9454 0
-1114 -9398 9455 0
-1114 -9399 9456 0
-1114 -9400 9457 0
-1114 -9401 9458 0
-1114 -9402 9459 0
-1114 -9403 9460 0
-1114 -9404 9461 0
-1114 -9405 9462 0
-1114 -9406 9463 0
-1114 -9407 9464 0
-1114 -9408 9465 0
-1114 -9409 9466 0
-1114 -9410 9467 0
-1114 -9411 9468 0
-1114 -9412 9469 0
-1114 -9413 9470 0
-1114 -9414 9471 0
-1114 -9415 9472 0
-1114 -9416 0
-9417 9473 0
-9418 9474 0
-9419 9475 0
-9420 9476 0
-9421 9477 0
-9422 9478 0
-9423 9479 0
-9424 9480 0
-9425 9481 0
-9426 9482 0
-9427 9483 0
-9428 9484 0
-9429 9485 0
-9430 9486 0
-9431 9487 0
-9432 9488 0
-9433 9489 0
-9434 9490 0
-9435 9491 0
-9436 9492 0
-9437 9493 0
-9438 9494 0
-9439 9495 0
-9440 9496 0
-9441 9497 0
-9442 9498 0
-9443 9499 0
-9444 9500 0
-9445 9501 0
-9446 9502 0
-9447 9503 0
-9448 9504 0
-9449 9505 0
-9450 9506 0
-9451 9507 0
-9452 9508 0
-9453 9509 0
-9454 9510 0
-9455 9511 0
-9456 9512 0
-9457 9513 0
-9458 9514 0
-9459 9515 0
-9460 9516 0
-9461 9517 0
-9462 9518 0
-9463 9519 0
-9464 9520 0
-9465 9521 0
-9466 9522 0
-9467 9523 0
-9468 9524 0
-9469 9525 0
-9470 9526 0
-9471 9527 0
-9472 9528 0
-1116 -9417 9474 0
-1116 -9418 9475 0
-1116 -9419 9476 0
-1116 -9420 9477 0
-1116 -9421 9478 0
-1116 -9422 9479 0
-1116 -9423 9480 0
-1116 -9424 9481 0
-1116 -9425 9482 0
-1116 -9426 9483 0
-1116 -9427 9484 0
-1116 -9428 9485 0
-1116 -9429 9486 0
-1116 -9430 9487 0
-1116 -9431 9488 0
-1116 -9432 9489 0
-1116 -9433 9490 0
-1116 -9434 9491 0
-1116 -9435 9492 0
-1116 -9436 9493 0
-1116 -9437 9494 0
-1116 -9438 9495 0
-1116 -9439 9496 0
-1116 -9440 9497 0
-1116 -9441 9498 0
-1116 -9442 9499 0
-1116 -9443 9500 0
-1116 -9444 9501 0
-1116 -9445 9502 0
-1116 -9446 9503 0
-1116 -9447 9504 0
-1116 -9448 9505 0
-1116 -9449 9506 0
-1116 -9450 9507 0
-1116 -9451 9508 0
-1116 -9452 9509 0
-1116 -9453 9510 0
-1116 -9454 9511 0
-1116 -9455 9512 0
-1116 -9456 9513 0
-1116 -9457 9514 0
-1116 -9458 9515 0
-1116 -9459 9516 0
-1116 -9460 9517 0
-1116 -9461 9518 0
-1116 -9462 9519 0
-1116 -9463 9520 0
-1116 -9464 9521 0
-1116 -9465 9522 0
-1116 -9466 9523 0
-1116 -9467 9524 0
-1116 -9468 9525 0
-1116 -9469 9526 0
-1116 -9470 9527 0
-1116 -9471 9528 0
-1116 -9472 0
-9473 9529 0
-9474 9530 0
-9475 9531 0
-9476 9532 0
-9477 9533 0
-9478 9534 0
-9479 9535 0
-9480 9536 0
-9481 9537 0
-9482 9538 0
-9483 9539 0
-9484 9540 0
-9485 9541 0
-9486 9542 0
-9487 9543 0
-9488 9544 0
-9489 9545 0
-9490 9546 0
-9491 9547 0
-9492 9548 0
-9493 9549 0
-9494 9550 0
-9495 9551 0
-9496 9552 0
-9497 9553 0
-9498 9554 0
-9499 9555 0
-9500 9556 0
-9501 9557 0
-9502 9558 0
-9503 9559 0
-9504 9560 0
-9505 9561 0
-9506 9562 0
-9507 9563 0
-9508 9564 0
-9509 9565 0
-9510 9566 0
-9511 9567 0
-9512 9568 0
-9513 9569 0
-9514 9570 0
-9515 9571 0
-9516 9572 0
-9517 9573 0
-9518 9574 0
-9519 9575 0
-9520 9576 0
-9521 9577 0
-9522 9578 0
-9523 9579 0
-9524 9580 0
-9525 9581 0
-9526 9582 0
-9527 9583 0
-9528 9584 0
-1118 -9473 9530 0
-1118 -9474 9531 0
-1118 -9475 9532 0
-1118 -9476 9533 0
-1118 -9477 9534 0
-1118 -9478 9535 0
-1118 -9479 9536 0
-1118 -9480 9537 0
-1118 -9481 9538 0
-1118 -9482 9539 0
-1118 -9483 9540 0
-1118 -9484 9541 0
-1118 -9485 9542 0
-1118 -9486 9543 0
-1118 -9487 9544 0
-1118 -9488 9545 0
-1118 -9489 9546 0
-1118 -9490 9547 0
-1118 -9491 9548 0
-1118 -9492 9549 0
-1118 -9493 9550 0
-1118 -9494 9551 0
-1118 -9495 9552 0
-1118 -9496 9553 0
-1118 -9497 9554 0
-1118 -9498 9555 0
-1118 -9499 9556 0
-1118 -9500 9557 0
-1118 -9501 9558 0
-1118 -9502 9559 0
-1118 -9503 9560 0
-1118 -9504 9561 0
-1118 -9505 9562 0
-1118 -9506 9563 0
-1118 -9507 9564 0
-1118 -9508 9565 0
-1118 -9509 9566 0
-1118 -9510 9567 0
-1118 -9511 9568 0
-1118 -9512 9569 0
-1118 -9513 9570 0
-1118 -9514 9571 0
-1118 -9515 9572 0
-1118 -9516 9573 0
-1118 -9517 9574 0
-1118 -9518 9575 0
-1118 -9519 9576 0
-1118 -9520 9577 0
-1118 -9521 9578 0
-1118 -9522 9579 0
-1118 -9523 9580 0
-1118 -9524 9581 0
-1118 -9525 9582 0
-1118 -9526 9583 0
-1118 -9527 9584 0
-1118 -9528 0
-9529 9585 0
-9530 9586 0
-9531 9587 0
-9532 9588 0
-9533 9589 0
-9534 9590 0
-9535 9591 0
-9536 9592 0
-9537 9593 0
-9538 9594 0
-9539 9595 0
-9540 9596 0
-9541 9597 0
-9542 9598 0
-9543 9599 0
-9544 9600 0
-9545 9601 0
-9546 9602 0
-9547 9603 0
-9548 9604 0
-9549 9605 0
-9550 9606 0
-9551 9607 0
-9552 9608 0
-9553 9609 0
-9554 9610 0
-9555 9611 0
-9556 9612 0
-9557 9613 0
-9558 9614 0
-9559 9615 0
-9560 9616 0
-9561 9617 0
-9562 9618 0
-9563 9619 0
-9564 9620 0
-9565 9621 0
-9566 9622 0
-9567 9623 0
-9568 9624 0
-9569 9625 0
-9570 9626 0
-9571 9627 0
-9572 9628 0
-9573 9629 0
-9574 9630 0
-9575 9631 0
-9576 9632 0
-9577 9633 0
-9578 9634 0
-9579 9635 0
-9580 9636 0
-9581 9637 0
-9582 9638 0
-9583 9639 0
-9584 9640 0
-1120 -9529 9586 0
-1120 -9530 9587 0
-1120 -9531 9588 0
-1120 -9532 9589 0
-1120 -9533 9590 0
-1120 -9534 9591 0
-1120 -9535 9592 0
-1120 -9536 9593 0
-1120 -9537 9594 0
-1120 -9538 9595 0
-1120 -9539 9596 0
-1120 -9540 9597 0
-1120 -9541 9598 0
-1120 -9542 9599 0
-1120 -9543 9600 0
-1120 -9544 9601 0
-1120 -9545 9602 0
-1120 -9546 9603 0
-1120 -9547 9604 0
-1120 -9548 9605 0
-1120 -9549 9606 0
-1120 -9550 9607 0
-1120 -9551 9608 0
-1120 -9552 9609 0
-1120 -9553 9610 0
-1120 -9554 9611 0
-1120 -9555 9612 0
-1120 -9556 9613 0
-1120 -9557 9614 0
-1120 -9558 9615 0
-1120 -9559 9616 0
-1120 -9560 9617 0
-1120 -9561 9618 0
-1120 -9562 9619 0
-1120 -9563 9620 0
-1120 -9564 9621 0
-1120 -9565 9622 0
-1120 -9566 9623 0
-1120 -9567 9624 0
-1120 -9568 9625 0
-1120 -9569 9626 0
-1120 -9570 9627 0
-1120 -9571 9628 0
-1120 -9572 9629 0
-1120 -9573 9630 0
-1120 -9574 9631 0
-1120 -9575 9632 0
-1120 -9576 9633 0
-1120 -9577 9634 0
-1120 -9578 9635 0
-1120 -9579 9636 0
-1120 -9580 9637 0
-1120 -9581 9638 0
-1120 -9582 9639 0
-1120 -9583 9640 0
-1120 -9584 0
-9585 9641 0
-9586 9642 0
-9587 9643 0
-9588 9644 0
-9589 9645 0
-9590 9646 0
-9591 9647 0
-9592 9648 0
-9593 9649 0
-9594 9650 0
-9595 9651 0
-9596 9652 0
-9597 9653 0
-9598 9654 0
-9599 9655 0
-9600 9656 0
-9601 9657 0
-9602 9658 0
-9603 9659 0
-9604 9660 0
-9605 9661 0
-9606 9662 0
-9607 9663 0
-9608 9664 0
-9609 9665 0
-9610 9666 0
-9611 9667 0
-9612 9668 0
-9613 9669 0
-9614 9670 0
-9615 9671 0
-9616 9672 0
-9617 9673 0
-9618 9674 0
-9619 9675 0
-9620 9676 0
-9621 9677 0
-9622 9678 0
-9623 9679 0
-9624 9680 0
-9625 9681 0
-9626 9682 0
-9627 9683 0
-9628 9684 0
-9629 9685 0
-9630 9686 0
-9631 9687 0
-9632 9688 0
-9633 9689 0
-9634 9690 0
-9635 9691 0
-9636 9692 0
-9637 9693 0
-9638 9694 0
-9639 9695 0
-9640 9696 0
-1122 -9585 9642 0
-1122 -9586 9643 0
-1122 -9587 9644 0
-1122 -9588 9645 0
-1122 -9589 9646 0
-1122 -9590 9647 0
-1122 -9591 9648 0
-1122 -9592 9649 0
-1122 -9593 9650 0
-1122 -9594 9651 0
-1122 -9595 9652 0
-1122 -9596 9653 0
-1122 -9597 9654 0
-1122 -9598 9655 0
-1122 -9599 9656 0
-1122 -9600 9657 0
-1122 -9601 9658 0
-1122 -9602 9659 0
-1122 -9603 9660 0
-1122 -9604 9661 0
-1122 -9605 9662 0
-1122 -9606 9663 0
-1122 -9607 9664 0
-1122 -9608 9665 0
-1122 -9609 9666 0
-1122 -9610 9667 0
-1122 -9611 9668 0
-1122 -9612 9669 0
-1122 -9613 9670 0
-1122 -9614 9671 0
-1122 -9615 9672 0
-1122 -9616 9673 0
-1122 -9617 9674 0
-1122 -9618 9675 0
-1122 -9619 9676 0
-1122 -9620 9677 0
-1122 -9621 9678 0
-1122 -9622 9679 0
-1122 -9623 9680 0
-1122 -9624 9681 0
-1122 -9625 9682 0
-1122 -9626 9683 0
-1122 -9627 9684 0
-1122 -9628 9685 0
-1122 -9629 9686 0
-1122 -9630 9687 0
-1122 -9631 9688 0
-1122 -9632 9689 0
-1122 -9633 9690 0
-1122 -9634 9691 0
-1122 -9635 9692 0
-1122 -9636 9693 0
-1122 -9637 9694 0
-1122 -9638 9695 0
-1122 -9639 9696 0
-1122 -9640 0
-9641 9697 0
-9642 9698 0
-9643 9699 0
-9644 9700 0
-9645 9701 0
-9646 9702 0
-9647 9703 0
-9648 9704 0
-9649 9705 0
-9650 9706 0
-9651 9707 0
-9652 9708 0
-9653 9709 0
-9654 9710 0
-9655 9711 0
-9656 9712 0
-9657 9713 0
-9658 9714 0
-9659 9715 0
-9660 9716 0
-9661 9717 0
-9662 9718 0
-9663 9719 0
-9664 9720 0
-9665 9721 0
-9666 9722 0
-9667 9723 0
-9668 9724 0
-9669 9725 0
-9670 9726 0
-9671 9727 0
-9672 9728 0
-9673 9729 0
-9674 9730 0
-9675 9731 0
-9676 9732 0
-9677 9733 0
-9678 9734 0
-9679 9735 0
-9680 9736 0
-9681 9737 0
-9682 9738 0
-9683 9739 0
-9684 9740 0
-9685 9741 0
-9686 9742 0
-9687 9743 0
-9688 9744 0
-9689 9745 0
-9690 9746 0
-9691 9747 0
-9692 9748 0
-9693 9749 0
-9694 9750 0
-9695 9751 0
-9696 9752 0
-1124 -9641 9698 0
-1124 -9642 9699 0
-1124 -9643 9700 0
-1124 -9644 9701 0
-1124 -9645 9702 0
-1124 -9646 9703 0
-1124 -9647 9704 0
-1124 -9648 9705 0
-1124 -9649 9706 0
-1124 -9650 9707 0
-1124 -9651 9708 0
-1124 -9652 9709 0
-1124 -9653 9710 0
-1124 -9654 9711 0
-1124 -9655 9712 0
-1124 -9656 9713 0
-1124 -9657 9714 0
-1124 -9658 9715 0
-1124 -9659 9716 0
-1124 -9660 9717 0
-1124 -9661 9718 0
-1124 -9662 9719 0
-1124 -9663 9720 0
-1124 -9664 9721 0
-1124 -9665 9722 0
-1124 -9666 9723 0
-1124 -9667 9724 0
-1124 -9668 9725 0
-1124 -9669 9726 0
-1124 -9670 9727 0
-1124 -9671 9728 0
-1124 -9672 9729 0
-1124 -9673 9730 0
-1124 -9674 9731 0
-1124 -9675 9732 0
-1124 -9676 9733 0
-1124 -9677 9734 0
-1124 -9678 9735 0
-1124 -9679 9736 0
-1124 -9680 9737 0
-1124 -9681 9738 0
-1124 -9682 9739 0
-1124 -9683 9740 0
-1124 -9684 9741 0
-1124 -9685 9742 0
-1124 -9686 9743 0
-1124 -9687 9744 0
-1124 -9688 9745 0
-1124 -9689 9746 0
-1124 -9690 9747 0
-1124 -9691 9748 0
-1124 -9692 9749 0
-1124 -9693 9750 0
-1124 -9694 9751 0
-1124 -9695 9752 0
-1124 -9696 0
-9697 9753 0
-9698 9754 0
-9699 9755 0
-9700 9756 0
-9701 9757 0
-9702 9758 0
-9703 9759 0
-9704 9760 0
-9705 9761 0
-9706 9762 0
-9707 9763 0
-9708 9764 0
-9709 9765 0
-9710 9766 0
-9711 9767 0
-9712 9768 0
-9713 9769 0
-9714 9770 0
-9715 9771 0
-9716 9772 0
-9717 9773 0
-9718 9774 0
-9719 9775 0
-9720 9776 0
-9721 9777 0
-9722 9778 0
-9723 9779 0
-9724 9780 0
-9725 9781 0
-9726 9782 0
-9727 9783 0
-9728 9784 0
-9729 9785 0
-9730 9786 0
-9731 9787 0
-9732 9788 0
-9733 9789 0
-9734 9790 0
-9735 9791 0
-9736 9792 0
-9737 9793 0
-9738 9794 0
-9739 9795 0
-9740 9796 0
-9741 9797 0
-9742 9798 0
-9743 9799 0
-9744 9800 0
-9745 9801 0
-9746 9802 0
-9747 9803 0
-9748 9804 0
-9749 9805 0
-9750 9806 0
-9751 9807 0
-9752 9808 0
-1126 -9697 9754 0
-1126 -9698 9755 0
-1126 -9699 9756 0
-1126 -9700 9757 0
-1126 -9701 9758 0
-1126 -9702 9759 0
-1126 -9703 9760 0
-1126 -9704 9761 0
-1126 -9705 9762 0
-1126 -9706 9763 0
-1126 -9707 9764 0
-1126 -9708 9765 0
-1126 -9709 9766 0
-1126 -9710 9767 0
-1126 -9711 9768 0
-1126 -9712 9769 0
-1126 -9713 9770 0
-1126 -9714 9771 0
-1126 -9715 9772 0
-1126 -9716 9773 0
-1126 -9717 9774 0
-1126 -9718 9775 0
-1126 -9719 9776 0
-1126 -9720 9777 0
-1126 -9721 9778 0
-1126 -9722 9779 0
-1126 -9723 9780 0
-1126 -9724 9781 0
-1126 -9725 9782 0
-1126 -9726 9783 0
-1126 -9727 9784 0
-1126 -9728 9785 0
-1126 -9729 9786 0
-1126 -9730 9787 0
-1126 -9731 9788 0
-1126 -9732 9789 0
-1126 -9733 9790 0
-1126 -9734 9791 0
-1126 -9735 9792 0
-1126 -9736 9793 0
-1126 -9737 9794 0
-1126 -9738 9795 0
-1126 -9739 9796 0
-1126 -9740 9797 0
-1126 -9741 9798 0
-1126 -9742 9799 0
-1126 -9743 9800 0
-1126 -9744 9801 0
-1126 -9745 9802 0
-1126 -9746 9803 0
-1126 -9747 9804 0
-1126 -9748 9805 0
-1126 -9749 9806 0
-1126 -9750 9807 0
-1126 -9751 9808 0
-1126 -9752 0
-9753 9809 0
-9754 9810 0
-9755 9811 0
-9756 9812 0
-9757 9813 0
-9758 9814 0
-9759 9815 0
-9760 9816 0
-9761 9817 0
-9762 9818 0
-9763 9819 0
-9764 9820 0
-9765 9821 0
-9766 9822 0
-9767 9823 0
-9768 9824 0
-9769 9825 0
-9770 9826 0
-9771 9827 0
-9772 9828 0
-9773 9829 0
-9774 9830 0
-9775 9831 0
-9776 9832 0
-9777 9833 0
-9778 9834 0
-9779 9835 0
-9780 9836 0
-9781 9837 0
-9782 9838 0
-9783 9839 0
-9784 9840 0
-9785 9841 0
-9786 9842 0
-9787 9843 0
-9788 9844 0
-9789 9845 0
-9790 9846 0
-9791 9847 0
-9792 9848 0
-9793 9849 0
-9794 9850 0
-9795 9851 0
-9796 9852 0
-9797 9853 0
-9798 9854 0
-9799 9855 0
-9800 9856 0
-9801 9857 0
-9802 9858 0
-9803 9859 0
-9804 9860 0
-9805 9861 0
-9806 9862 0
-9807 9863 0
-9808 9864 0
-1128 -9753 9810 0
-1128 -9754 9811 0
-1128 -9755 9812 0
-1128 -9756 9813 0
-1128 -9757 9814 0
-1128 -9758 9815 0
-1128 -9759 9816 0
-1128 -9760 9817 0
-1128 -9761 9818 0
-1128 -9762 9819 0
-1128 -9763 9820 0
-1128 -9764 9821 0
-1128 -9765 9822 0
-1128 -9766 9823 0
-1128 -9767 9824 0
-1128 -9768 9825 0
-1128 -9769 9826 0
-1128 -9770 9827 0
-1128 -9771 9828 0
-1128 -9772 9829 0
-1128 -9773 9830 0
-1128 -9774 9831 0
-1128 -9775 9832 0
-1128 -9776 9833 0
-1128 -9777 9834 0
-1128 -9778 9835 0
-1128 -9779 9836 0
-1128 -9780 9837 0
-1128 -9781 9838 0
-1128 -9782 9839 0
-1128 -9783 9840 0
-1128 -9784 9841 0
-1128 -9785 9842 0
-1128 -9786 9843 0
-1128 -9787 9844 0
-1128 -9788 9845 0
-1128 -9789 9846 0
-1128 -9790 9847 0
-1128 -9791 9848 0
-1128 -9792 9849 0
-1128 -9793 9850 0
-1128 -9794 9851 0
-1128 -9795 9852 0
-1128 -9796 9853 0
-1128 -9797 9854 0
-1128 -9798 9855 0
-1128 -9799 9856 0
-1128 -9800 9857 0
-1128 -9801 9858 0
-1128 -9802 9859 0
-1128 -9803 9860 0
-1128 -9804 9861 0
-1128 -9805 9862 0
-1128 -9806 9863 0
-1128 -9807 9864 0
-1128 -9808 0
-9809 9865 0
-9810 9866 0
-9811 9867 0
-9812 9868 0
-9813 9869 0
-9814 9870 0
-9815 9871 0
-9816 9872 0
-9817 9873 0
-9818 9874 0
-9819 9875 0
-9820 9876 0
-9821 9877 0
-9822 9878 0
-9823 9879 0
-9824 9880 0
-9825 9881 0
-9826 9882 0
-9827 9883 0
-9828 9884 0
-9829 9885 0
-9830 9886 0
-9831 9887 0
-9832 9888 0
-9833 9889 0
-9834 9890 0
-9835 9891 0
-9836 9892 0
-9837 9893 0
-9838 9894 0
-9839 9895 0
-9840 9896 0
-9841 9897 0
-9842 9898 0
-9843 9899 0
-9844 9900 0
-9845 9901 0
-9846 9902 0
-9847 9903 0
-9848 9904 0
-9849 9905 0
-9850 9906 0
-9851 9907 0
-9852 9908 0
-9853 9909 0
-9854 9910 0
-9855 9911 0
-9856 9912 0
-9857 9913 0
-9858 9914 0
-9859 9915 0
-9860 9916 0
-9861 9917 0
-9862 9918 0
-9863 9919 0
-9864 9920 0
-1130 -9809 9866 0
-1130 -9810 9867 0
-1130 -9811 9868 0
-1130 -9812 9869 0
-1130 -9813 9870 0
-1130 -9814 9871 0
-1130 -9815 9872 0
-1130 -9816 9873 0
-1130 -9817 9874 0
-1130 -9818 9875 0
-1130 -9819 9876 0
-1130 -9820 9877 0
-1130 -9821 9878 0
-1130 -9822 9879 0
-1130 -9823 9880 0
-1130 -9824 9881 0
-1130 -9825 9882 0
-1130 -9826 9883 0
-1130 -9827 9884 0
-1130 -9828 9885 0
-1130 -9829 9886 0
-1130 -9830 9887 0
-1130 -9831 9888 0
-1130 -9832 9889 0
-1130 -9833 9890 0
-1130 -9834 9891 0
-1130 -9835 9892 0
-1130 -9836 9893 0
-1130 -9837 9894 0
-1130 -9838 9895 0
-1130 -9839 9896 0
-1130 -9840 9897 0
-1130 -9841 9898 0
-1130 -9842 9899 0
-1130 -9843 9900 0
-1130 -9844 9901 0
-1130 -9845 9902 0
-1130 -9846 9903 0
-1130 -9847 9904 0
-1130 -9848 9905 0
-1130 -9849 9906 0
-1130 -9850 9907 0
-1130 -9851 9908 0
-1130 -9852 9909 0
-1130 -9853 9910 0
-1130 -9854 9911 0
-1130 -9855 9912 0
-1130 -9856 9913 0
-1130 -9857 9914 0
-1130 -9858 9915 0
-1130 -9859 9916 0
-1130 -9860 9917 0
-1130 -9861 9918 0
-1130 -9862 9919 0
-1130 -9863 9920 0
-1130 -9864 0
-9865 9921 0
-9866 9922 0
-9867 9923 0
-9868 9924 0
-9869 9925 0
-9870 9926 0
-9871 9927 0
-9872 9928 0
-9873 9929 0
-9874 9930 0
-9875 9931 0
-9876 9932 0
-9877 9933 0
-9878 9934 0
-9879 9935 0
-9880 9936 0
-9881 9937 0
-9882 9938 0
-9883 9939 0
-9884 9940 0
-9885 9941 0
-9886 9942 0
-9887 9943 0
-9888 9944 0
-9889 9945 0
-9890 9946 0
-9891 9947 0
-9892 9948 0
-9893 9949 0
-9894 9950 0
-9895 9951 0
-9896 9952 0
-9897 9953 0
-9898 9954 0
-9899 9955 0
-9900 9956 0
-9901 9957 0
-9902 9958 0
-9903 9959 0
-9904 9960 0
-9905 9961 0
-9906 9962 0
-9907 9963 0
-9908 9964 0
-9909 9965 0
-9910 9966 0
-9911 9967 0
-9912 9968 0
-9913 9969 0
-9914 9970 0
-9915 9971 0
-9916 9972 0
-9917 9973 0
-9918 9974 0
-9919 9975 0
-9920 9976 0
-1132 -9865 9922 0
-1132 -9866 9923 0
-1132 -9867 9924 0
-1132 -9868 9925 0
-1132 -9869 9926 0
-1132 -9870 9927 0
-1132 -9871 9928 0
-1132 -9872 9929 0
-1132 -9873 9930 0
-1132 -9874 9931 0
-1132 -9875 9932 0
-1132 -9876 9933 0
-1132 -9877 9934 0
-1132 -9878 9935 0
-1132 -9879 9936 0
-1132 -9880 9937 0
-1132 -9881 9938 0
-1132 -9882 9939 0
-1132 -9883 9940 0
-1132 -9884 9941 0
-1132 -9885 9942 0
-1132 -9886 9943 0
-1132 -9887 9944 0
-1132 -9888 9945 0
-1132 -9889 9946 0
-1132 -9890 9947 0
-1132 -9891 9948 0
-1132 -9892 9949 0
-1132 -9893 9950 0
-1132 -9894 9951 0
-1132 -9895 9952 0
-1132 -9896 9953 0
-1132 -9897 9954 0
-1132 -9898 9955 0
-1132 -9899 9956 0
-1132 -9900 9957 0
-1132 -9901 9958 0
-1132 -9902 9959 0
-1132 -9903 9960 0
-1132 -9904 9961 0
-1132 -9905 9962 0
-1132 -9906 9963 0
-1132 -9907 9964 0
-1132 -9908 9965 0
-1132 -9909 9966 0
-1132 -9910 9967 0
-1132 -9911 9968 0
-1132 -9912 9969 0
-1132 -9913 9970 0
-1132 -9914 9971 0
-1132 -9915 9972 0
-1132 -9916 9973 0
-1132 -9917 9974 0
-1132 -9918 9975 0
-1132 -9919 9976 0
-1132 -9920 0
-9921 9977 0
-9922 9978 0
-9923 9979 0
-9924 9980 0
-9925 9981 0
-9926 9982 0
-9927 9983 0
-9928 9984 0
-9929 9985 0
-9930 9986 0
-9931 9987 0
-9932 9988 0
-9933 9989 0
-9934 9990 0
-9935 9991 0
-9936 9992 0
-9937 9993 0
-9938 9994 0
-9939 9995 0
-9940 9996 0
-9941 9997 0
-9942 9998 0
-9943 9999 0
-9944 10000 0
-9945 10001 0
-9946 10002 0
-9947 10003 0
-9948 10004 0
-9949 10005 0
-9950 10006 0
-9951 10007 0
-9952 10008 0
-9953 10009 0
-9954 10010 0
-9955 10011 0
-9956 10012 0
-9957 10013 0
-9958 10014 0
-9959 10015 0
-9960 10016 0
-9961 10017 0
-9962 10018 0
-9963 10019 0
-9964 10020 0
-9965 10021 0
-9966 10022 0
-9967 10023 0
-9968 10024 0
-9969 10025 0
-9970 10026 0
-9971 10027 0
-9972 10028 0
-9973 10029 0
-9974 10030 0
-9975 10031 0
-9976 10032 0
-1134 -9921 9978 0
-1134 -9922 9979 0
-1134 -9923 9980 0
-1134 -9924 9981 0
-1134 -9925 9982 0
-1134 -9926 9983 0
-1134 -9927 9984 0
-1134 -9928 9985 0
-1134 -9929 9986 0
-1134 -9930 9987 0
-1134 -9931 9988 0
-1134 -9932 9989 0
-1134 -9933 9990 0
-1134 -9934 9991 0
-1134 -9935 9992 0
-1134 -9936 9993 0
-1134 -9937 9994 0
-1134 -9938 9995 0
-1134 -9939 9996 0
-1134 -9940 9997 0
-1134 -9941 9998 0
-1134 -9942 9999 0
-1134 -9943 10000 0
-1134 -9944 10001 0
-1134 -9945 10002 0
-1134 -9946 10003 0
-1134 -9947 10004 0
-1134 -9948 10005 0
-1134 -9949 10006 0
-1134 -9950 10007 0
-1134 -9951 10008 0
-1134 -9952 10009 0
-1134 -9953 10010 0
-1134 -9954 10011 0
-1134 -9955 10012 0
-1134 -9956 10013 0
-1134 -9957 10014 0
-1134 -9958 10015 0
-1134 -9959 10016 0
-1134 -9960 10017 0
-1134 -9961 10018 0
-1134 -9962 10019 0
-1134 -9963 10020 0
-1134 -9964 10021 0
-1134 -9965 10022 0
-1134 -9966 10023 0
-1134 -9967 10024 0
-1134 -9968 10025 0
-1134 -9969 10026 0
-1134 -9970 10027 0
-1134 -9971 10028 0
-1134 -9972 10029 0
-1134 -9973 10030 0
-1134 -9974 10031 0
-1134 -9975 10032 0
-1134 -9976 0
-9977 10033 0
-9978 10034 0
-9979 10035 0
-9980 10036 0
-9981 10037 0
-9982 10038 0
-9983 10039 0
-9984 10040 0
-9985 10041 0
-9986 10042 0
-9987 10043 0
-9988 10044 0
-9989 10045 0
-9990 10046 0
-9991 10047 0
-9992 10048 0
-9993 10049 0
-9994 10050 0
-9995 10051 0
-9996 10052 0
-9997 10053 0
-9998 10054 0
-9999 10055 0
-10000 10056 0
-10001 10057 0
-10002 10058 0
-10003 10059 0
-10004 10060 0
-10005 10061 0
-10006 10062 0
-10007 10063 0
-10008 10064 0
-10009 10065 0
-10010 10066 0
-10011 10067 0
-10012 10068 0
-10013 10069 0
-10014 10070 0
-10015 10071 0
-10016 10072 0
-10017 10073 0
-10018 10074 0
-10019 10075 0
-10020 10076 0
-10021 10077 0
-10022 10078 0
-10023 10079 0
-10024 10080 0
-10025 10081 0
-10026 10082 0
-10027 10083 0
-10028 10084 0
-10029 10085 0
-10030 10086 0
-10031 10087 0
-10032 10088 0
-1136 -9977 10034 0
-1136 -9978 10035 0
-1136 -9979 10036 0
-1136 -9980 10037 0
-1136 -9981 10038 0
-1136 -9982 10039 0
-1136 -9983 10040 0
-1136 -9984 10041 0
-1136 -9985 10042 0
-1136 -9986 10043 0
-1136 -9987 10044 0
-1136 -9988 10045 0
-1136 -9989 10046 0
-1136 -9990 10047 0
-1136 -9991 10048 0
-1136 -9992 10049 0
-1136 -9993 10050 0
-1136 -9994 10051 0
-1136 -9995 10052 0
-1136 -9996 10053 0
-1136 -9997 10054 0
-1136 -9998 10055 0
-1136 -9999 10056 0
-1136 -10000 10057 0
-1136 -10001 10058 0
-1136 -10002 10059 0
-1136 -10003 10060 0
-1136 -10004 10061 0
-1136 -10005 10062 0
-1136 -10006 10063 0
-1136 -10007 10064 0
-1136 -10008 10065 0
-1136 -10009 10066 0
-1136 -10010 10067 0
-1136 -10011 10068 0
-1136 -10012 10069 0
-1136 -10013 10070 0
-1136 -10014 10071 0
-1136 -10015 10072 0
-1136 -10016 10073 0
-1136 -10017 10074 0
-1136 -10018 10075 0
-1136 -10019 10076 0
-1136 -10020 10077 0
-1136 -10021 10078 0
-1136 -10022 10079 0
-1136 -10023 10080 0
-1136 -10024 10081 0
-1136 -10025 10082 0
-1136 -10026 10083 0
-1136 -10027 10084 0
-1136 -10028 10085 0
-1136 -10029 10086 0
-1136 -10030 10087 0
-1136 -10031 10088 0
-1136 -10032 0
-10033 10089 0
-10034 10090 0
-10035 10091 0
-10036 10092 0
-10037 10093 0
-10038 10094 0
-10039 10095 0
-10040 10096 0
-10041 10097 0
-10042 10098 0
-10043 10099 0
-10044 10100 0
-10045 10101 0
-10046 10102 0
-10047 10103 0
-10048 10104 0
-10049 10105 0
-10050 10106 0
-10051 10107 0
-10052 10108 0
-10053 10109 0
-10054 10110 0
-10055 10111 0
-10056 10112 0
-10057 10113 0
-10058 10114 0
-10059 10115 0
-10060 10116 0
-10061 10117 0
-10062 10118 0
-10063 10119 0
-10064 10120 0
-10065 10121 0
-10066 10122 0
-10067 10123 0
-10068 10124 0
-10069 10125 0
-10070 10126 0
-10071 10127 0
-10072 10128 0
-10073 10129 0
-10074 10130 0
-10075 10131 0
-10076 10132 0
-10077 10133 0
-10078 10134 0
-10079 10135 0
-10080 10136 0
-10081 10137 0
-10082 10138 0
-10083 10139 0
-10084 10140 0
-10085 10141 0
-10086 10142 0
-10087 10143 0
-10088 10144 0
-1138 -10033 10090 0
-1138 -10034 10091 0
-1138 -10035 10092 0
-1138 -10036 10093 0
-1138 -10037 10094 0
-1138 -10038 10095 0
-1138 -10039 10096 0
-1138 -10040 10097 0
-1138 -10041 10098 0
-1138 -10042 10099 0
-1138 -10043 10100 0
-1138 -10044 10101 0
-1138 -10045 10102 0
-1138 -10046 10103 0
-1138 -10047 10104 0
-1138 -10048 10105 0
-1138 -10049 10106 0
-1138 -10050 10107 0
-1138 -10051 10108 0
-1138 -10052 10109 0
-1138 -10053 10110 0
-1138 -10054 10111 0
-1138 -10055 10112 0
-1138 -10056 10113 0
-1138 -10057 10114 0
-1138 -10058 10115 0
-1138 -10059 10116 0
-1138 -10060 10117 0
-1138 -10061 10118 0
-1138 -10062 10119 0
-1138 -10063 10120 0
-1138 -10064 10121 0
-1138 -10065 10122 0
-1138 -10066 10123 0
-1138 -10067 10124 0
-1138 -10068 10125 0
-1138 -10069 10126 0
-1138 -10070 10127 0
-1138 -10071 10128 0
-1138 -10072 10129 0
-1138 -10073 10130 0
-1138 -10074 10131 0
-1138 -10075 10132 0
-1138 -10076 10133 0
-1138 -10077 10134 0
-1138 -10078 10135 0
-1138 -10079 10136 0
-1138 -10080 10137 0
-1138 -10081 10138 0
-1138 -10082 10139 0
-1138 -10083 10140 0
-1138 -10084 10141 0
-1138 -10085 10142 0
-1138 -10086 10143 0
-1138 -10087 10144 0
-1138 -10088 0
-10089 10145 0
-10090 10146 0
-10091 10147 0
-10092 10148 0
-10093 10149 0
-10094 10150 0
-10095 10151 0
-10096 10152 0
-10097 10153 0
-10098 10154 0
-10099 10155 0
-10100 10156 0
-10101 10157 0
-10102 10158 0
-10103 10159 0
-10104 10160 0
-10105 10161 0
-10106 10162 0
-10107 10163 0
-10108 10164 0
-10109 10165 0
-10110 10166 0
-10111 10167 0
-10112 10168 0
-10113 10169 0
-10114 10170 0
-10115 10171 0
-10116 10172 0
-10117 10173 0
-10118 10174 0
-10119 10175 0
-10120 10176 0
-10121 10177 0
-10122 10178 0
-10123 10179 0
-10124 10180 0
-10125 10181 0
-10126 10182 0
-10127 10183 0
-10128 10184 0
-10129 10185 0
-10130 10186 0
-10131 10187 0
-10132 10188 0
-10133 10189 0
-10134 10190 0
-10135 10191 0
-10136 10192 0
-10137 10193 0
-10138 10194 0
-10139 10195 0
-10140 10196 0
-10141 10197 0
-10142 10198 0
-10143 10199 0
-10144 10200 0
-1140 -10089 10146 0
-1140 -10090 10147 0
-1140 -10091 10148 0
-1140 -10092 10149 0
-1140 -10093 10150 0
-1140 -10094 10151 0
-1140 -10095 10152 0
-1140 -10096 10153 0
-1140 -10097 10154 0
-1140 -10098 10155 0
-1140 -10099 10156 0
-1140 -10100 10157 0
-1140 -10101 10158 0
-1140 -10102 10159 0
-1140 -10103 10160 0
-1140 -10104 10161 0
-1140 -10105 10162 0
-1140 -10106 10163 0
-1140 -10107 10164 0
-1140 -10108 10165 0
-1140 -10109 10166 0
-1140 -10110 10167 0
-1140 -10111 10168 0
-1140 -10112 10169 0
-1140 -10113 10170 0
-1140 -10114 10171 0
-1140 -10115 10172 0
-1140 -10116 10173 0
-1140 -10117 10174 0
-1140 -10118 10175 0
-1140 -10119 10176 0
-1140 -10120 10177 0
-1140 -10121 10178 0
-1140 -10122 10179 0
-1140 -10123 10180 0
-1140 -10124 10181 0
-1140 -10125 10182 0
-1140 -10126 10183 0
-1140 -10127 10184 0
-1140 -10128 10185 0
-1140 -10129 10186 0
-1140 -10130 10187 0
-1140 -10131 10188 0
-1140 -10132 10189 0
-1140 -10133 10190 0
-1140 -10134 10191 0
-1140 -10135 10192 0
-1140 -10136 10193 0
-1140 -10137 10194 0
-1140 -10138 10195 0
-1140 -10139 10196 0
-1140 -10140 10197 0
-1140 -10141 10198 0
-1140 -10142 10199 0
-1140 -10143 10200 0
-1140 -10144 0
-10145 10201 0
-10146 10202 0
-10147 10203 0
-10148 10204 0
-10149 10205 0
-10150 10206 0
-10151 10207 0
-10152 10208 0
-10153 10209 0
-10154 10210 0
-10155 10211 0
-10156 10212 0
-10157 10213 0
-10158 10214 0
-10159 10215 0
-10160 10216 0
-10161 10217 0
-10162 10218 0
-10163 10219 0
-10164 10220 0
-10165 10221 0
-10166 10222 0
-10167 10223 0
-10168 10224 0
-10169 10225 0
-10170 10226 0
-10171 10227 0
-10172 10228 0
-10173 10229 0
-10174 10230 0
-10175 10231 0
-10176 10232 0
-10177 10233 0
-10178 10234 0
-10179 10235 0
-10180 10236 0
-10181 10237 0
-10182 10238 0
-10183 10239 0
-10184 10240 0
-10185 10241 0
-10186 10242 0
-10187 10243 0
-10188 10244 0
-10189 10245 0
-10190 10246 0
-10191 10247 0
-10192 10248 0
-10193 10249 0
-10194 10250 0
-10195 10251 0
-10196 10252 0
-10197 10253 0
-10198 10254 0
-10199 10255 0
-10200 10256 0
-1142 -10145 10202 0
-1142 -10146 10203 0
-1142 -10147 10204 0
-1142 -10148 10205 0
-1142 -10149 10206 0
-1142 -10150 10207 0
-1142 -10151 10208 0
-1142 -10152 10209 0
-1142 -10153 10210 0
-1142 -10154 10211 0
-1142 -10155 10212 0
-1142 -10156 10213 0
-1142 -10157 10214 0
-1142 -10158 10215 0
-1142 -10159 10216 0
-1142 -10160 10217 0
-1142 -10161 10218 0
-1142 -10162 10219 0
-1142 -10163 10220 0
-1142 -10164 10221 0
-1142 -10165 10222 0
-1142 -10166 10223 0
-1142 -10167 10224 0
-1142 -10168 10225 0
-1142 -10169 10226 0
-1142 -10170 10227 0
-1142 -10171 10228 0
-1142 -10172 10229 0
-1142 -10173 10230 0
-1142 -10174 10231 0
-1142 -10175 10232 0
-1142 -10176 10233 0
-1142 -10177 10234 0
-1142 -10178 10235 0
-1142 -10179 10236 0
-1142 -10180 10237 0
-1142 -10181 10238 0
-1142 -10182 10239 0
-1142 -10183 10240 0
-1142 -10184 10241 0
-1142 -10185 10242 0
-1142 -10186 10243 0
-1142 -10187 10244 0
-1142 -10188 10245 0
-1142 -10189 10246 0
-1142 -10190 10247 0
-1142 -10191 10248 0
-1142 -10192 10249 0
-1142 -10193 10250 0
-1142 -10194 10251 0
-1142 -10195 10252 0
-1142 -10196 10253 0
-1142 -10197 10254 0
-1142 -10198 10255 0
-1142 -10199 10256 0
-1142 -10200 0
-10201 10257 0
-10202 10258 0
-10203 10259 0
-10204 10260 0
-10205 10261 0
-10206 10262 0
-10207 10263 0
-10208 10264 0
-10209 10265 0
-10210 10266 0
-10211 10267 0
-10212 10268 0
-10213 10269 0
-10214 10270 0
-10215 10271 0
-10216 10272 0
-10217 10273 0
-10218 10274 0
-10219 10275 0
-10220 10276 0
-10221 10277 0
-10222 10278 0
-10223 10279 0
-10224 10280 0
-10225 10281 0
-10226 10282 0
-10227 10283 0
-10228 10284 0
-10229 10285 0
-10230 10286 0
-10231 10287 0
-10232 10288 0
-10233 10289 0
-10234 10290 0
-10235 10291 0
-10236 10292 0
-10237 10293 0
-10238 10294 0
-10239 10295 0
-10240 10296 0
-10241 10297 0
-10242 10298 0
-10243 10299 0
-10244 10300 0
-10245 10301 0
-10246 10302 0
-10247 10303 0
-10248 10304 0
-10249 10305 0
-10250 10306 0
-10251 10307 0
-10252 10308 0
-10253 10309 0
-10254 10310 0
-10255 10311 0
-10256 10312 0
-1144 -10201 10258 0
-1144 -10202 10259 0
-1144 -10203 10260 0
-1144 -10204 10261 0
-1144 -10205 10262 0
-1144 -10206 10263 0
-1144 -10207 10264 0
-1144 -10208 10265 0
-1144 -10209 10266 0
-1144 -10210 10267 0
-1144 -10211 10268 0
-1144 -10212 10269 0
-1144 -10213 10270 0
-1144 -10214 10271 0
-1144 -10215 10272 0
-1144 -10216 10273 0
-1144 -10217 10274 0
-1144 -10218 10275 0
-1144 -10219 10276 0
-1144 -10220 10277 0
-1144 -10221 10278 0
-1144 -10222 10279 0
-1144 -10223 10280 0
-1144 -10224 10281 0
-1144 -10225 10282 0
-1144 -10226 10283 0
-1144 -10227 10284 0
-1144 -10228 10285 0
-1144 -10229 10286 0
-1144 -10230 10287 0
-1144 -10231 10288 0
-1144 -10232 10289 0
-1144 -10233 10290 0
-1144 -10234 10291 0
-1144 -10235 10292 0
-1144 -10236 10293 0
-1144 -10237 10294 0
-1144 -10238 10295 0
-1144 -10239 10296 0
-1144 -10240 10297 0
-1144 -10241 10298 0
-1144 -10242 10299 0
-1144 -10243 10300 0
-1144 -10244 10301 0
-1144 -10245 10302 0
-1144 -10246 10303 0
-1144 -10247 10304 0
-1144 -10248 10305 0
-1144 -10249 10306 0
-1144 -10250 10307 0
-1144 -10251 10308 0
-1144 -10252 10309 0
-1144 -10253 10310 0
-1144 -10254 10311 0
-1144 -10255 10312 0
-1144 -10256 0
-10257 10313 0
-10258 10314 0
-10259 10315 0
-10260 10316 0
-10261 10317 0
-10262 10318 0
-10263 10319 0
-10264 10320 0
-10265 10321 0
-10266 10322 0
-10267 10323 0
-10268 10324 0
-10269 10325 0
-10270 10326 0
-10271 10327 0
-10272 10328 0
-10273 10329 0
-10274 10330 0
-10275 10331 0
-10276 10332 0
-10277 10333 0
-10278 10334 0
-10279 10335 0
-10280 10336 0
-10281 10337 0
-10282 10338 0
-10283 10339 0
-10284 10340 0
-10285 10341 0
-10286 10342 0
-10287 10343 0
-10288 10344 0
-10289 10345 0
-10290 10346 0
-10291 10347 0
-10292 10348 0
-10293 10349 0
-10294 10350 0
-10295 10351 0
-10296 10352 0
-10297 10353 0
-10298 10354 0
-10299 10355 0
-10300 10356 0
-10301 10357 0
-10302 10358 0
-10303 10359 0
-10304 10360 0
-10305 10361 0
-10306 10362 0
-10307 10363 0
-10308 10364 0
-10309 10365 0
-10310 10366 0
-10311 10367 0
-10312 10368 0
-1146 -10257 10314 0
-1146 -10258 10315 0
-1146 -10259 10316 0
-1146 -10260 10317 0
-1146 -10261 10318 0
-1146 -10262 10319 0
-1146 -10263 10320 0
-1146 -10264 10321 0
-1146 -10265 10322 0
-1146 -10266 10323 0
-1146 -10267 10324 0
-1146 -10268 10325 0
-1146 -10269 10326 0
-1146 -10270 10327 0
-1146 -10271 10328 0
-1146 -10272 10329 0
-1146 -10273 10330 0
-1146 -10274 10331 0
-1146 -10275 10332 0
-1146 -10276 10333 0
-1146 -10277 10334 0
-1146 -10278 10335 0
-1146 -10279 10336 0
-1146 -10280 10337 0
-1146 -10281 10338 0
-1146 -10282 10339 0
-1146 -10283 10340 0
-1146 -10284 10341 0
-1146 -10285 10342 0
-1146 -10286 10343 0
-1146 -10287 10344 0
-1146 -10288 10345 0
-1146 -10289 10346 0
-1146 -10290 10347 0
-1146 -10291 10348 0
-1146 -10292 10349 0
-1146 -10293 10350 0
-1146 -10294 10351 0
-1146 -10295 10352 0
-1146 -10296 10353 0
-1146 -10297 10354 0
-1146 -10298 10355 0
-1146 -10299 10356 0
-1146 -10300 10357 0
-1146 -10301 10358 0
-1146 -10302 10359 0
-1146 -10303 10360 0
-1146 -10304 10361 0
-1146 -10305 10362 0
-1146 -10306 10363 0
-1146 -10307 10364 0
-1146 -10308 10365 0
-1146 -10309 10366 0
-1146 -10310 10367 0
-1146 -10311 10368 0
-1146 -10312 0
-10313 10369 0
-10314 10370 0
-10315 10371 0
-10316 10372 0
-10317 10373 0
-10318 10374 0
-10319 10375 0
-10320 10376 0
-10321 10377 0
-10322 10378 0
-10323 10379 0
-10324 10380 0
-10325 10381 0
-10326 10382 0
-10327 10383 0
-10328 10384 0
-10329 10385 0
-10330 10386 0
-10331 10387 0
-10332 10388 0
-10333 10389 0
-10334 10390 0
-10335 10391 0
-10336 10392 0
-10337 10393 0
-10338 10394 0
-10339 10395 0
-10340 10396 0
-10341 10397 0
-10342 10398 0
-10343 10399 0
-10344 10400 0
-10345 10401 0
-10346 10402 0
-10347 10403 0
-10348 10404 0
-10349 10405 0
-10350 10406 0
-10351 10407 0
-10352 10408 0
-10353 10409 0
-10354 10410 0
-10355 10411 0
-10356 10412 0
-10357 10413 0
-10358 10414 0
-10359 10415 0
-10360 10416 0
-10361 10417 0
-10362 10418 0
-10363 10419 0
-10364 10420 0
-10365 10421 0
-10366 10422 0
-10367 10423 0
-10368 10424 0
-1148 -10313 10370 0
-1148 -10314 10371 0
-1148 -10315 10372 0
-1148 -10316 10373 0
-1148 -10317 10374 0
-1148 -10318 10375 0
-1148 -10319 10376 0
-1148 -10320 10377 0
-1148 -10321 10378 0
-1148 -10322 10379 0
-1148 -10323 10380 0
-1148 -10324 10381 0
-1148 -10325 10382 0
-1148 -10326 10383 0
-1148 -10327 10384 0
-1148 -10328 10385 0
-1148 -10329 10386 0
-1148 -10330 10387 0
-1148 -10331 10388 0
-1148 -10332 10389 0
-1148 -10333 10390 0
-1148 -10334 10391 0
-1148 -10335 10392 0
-1148 -10336 10393 0
-1148 -10337 10394 0
-1148 -10338 10395 0
-1148 -10339 10396 0
-1148 -10340 10397 0
-1148 -10341 10398 0
-1148 -10342 10399 0
-1148 -10343 10400 0
-1148 -10344 10401 0
-1148 -10345 10402 0
-1148 -10346 10403 0
-1148 -10347 10404 0
-1148 -10348 10405 0
-1148 -10349 10406 0
-1148 -10350 10407 0
-1148 -10351 10408 0
-1148 -10352 10409 0
-1148 -10353 10410 0
-1148 -10354 10411 0
-1148 -10355 10412 0
-1148 -10356 10413 0
-1148 -10357 10414 0
-1148 -10358 10415 0
-1148 -10359 10416 0
-1148 -10360 10417 0
-1148 -10361 10418 0
-1148 -10362 10419 0
-1148 -10363 10420 0
-1148 -10364 10421 0
-1148 -10365 10422 0
-1148 -10366 10423 0
-1148 -10367 10424 0
-1148 -10368 0
-10369 10425 0
-10370 10426 0
-10371 10427 0
-10372 10428 0
-10373 10429 0
-10374 10430 0
-10375 10431 0
-10376 10432 0
-10377 10433 0
-10378 10434 0
-10379 10435 0
-10380 10436 0
-10381 10437 0
-10382 10438 0
-10383 10439 0
-10384 10440 0
-10385 10441 0
-10386 10442 0
-10387 10443 0
-10388 10444 0
-10389 10445 0
-10390 10446 0
-10391 10447 0
-10392 10448 0
-10393 10449 0
-10394 10450 0
-10395 10451 0
-10396 10452 0
-10397 10453 0
-10398 10454 0
-10399 10455 0
-10400 10456 0
-10401 10457 0
-10402 10458 0
-10403 10459 0
-10404 10460 0
-10405 10461 0
-10406 10462 0
-10407 10463 0
-10408 10464 0
-10409 10465 0
-10410 10466 0
-10411 10467 0
-10412 10468 0
-10413 10469 0
-10414 10470 0
-10415 10471 0
-10416 10472 0
-10417 10473 0
-10418 10474 0
-10419 10475 0
-10420 10476 0
-10421 10477 0
-10422 10478 0
-10423 10479 0
-10424 10480 0
-1150 -10369 10426 0
-1150 -10370 10427 0
-1150 -10371 10428 0
-1150 -10372 10429 0
-1150 -10373 10430 0
-1150 -10374 10431 0
-1150 -10375 10432 0
-1150 -10376 10433 0
-1150 -10377 10434 0
-1150 -10378 10435 0
-1150 -10379 10436 0
-1150 -10380 10437 0
-1150 -10381 10438 0
-1150 -10382 10439 0
-1150 -10383 10440 0
-1150 -10384 10441 0
-1150 -10385 10442 0
-1150 -10386 10443 0
-1150 -10387 10444 0
-1150 -10388 10445 0
-1150 -10389 10446 0
-1150 -10390 10447 0
-1150 -10391 10448 0
-1150 -10392 10449 0
-1150 -10393 10450 0
-1150 -10394 10451 0
-1150 -10395 10452 0
-1150 -10396 10453 0
-1150 -10397 10454 0
-1150 -10398 10455 0
-1150 -10399 10456 0
-1150 -10400 10457 0
-1150 -10401 10458 0
-1150 -10402 10459 0
-1150 -10403 10460 0
-1150 -10404 10461 0
-1150 -10405 10462 0
-1150 -10406 10463 0
-1150 -10407 10464 0
-1150 -10408 10465 0
-1150 -10409 10466 0
-1150 -10410 10467 0
-1150 -10411 10468 0
-1150 -10412 10469 0
-1150 -10413 10470 0
-1150 -10414 10471 0
-1150 -10415 10472 0
-1150 -10416 10473 0
-1150 -10417 10474 0
-1150 -10418 10475 0
-1150 -10419 10476 0
-1150 -10420 10477 0
-1150 -10421 10478 0
-1150 -10422 10479 0
-1150 -10423 10480 0
-1150 -10424 0
-10425 10481 0
-10426 10482 0
-10427 10483 0
-10428 10484 0
-10429 10485 0
-10430 10486 0
-10431 10487 0
-10432 10488 0
-10433 10489 0
-10434 10490 0
-10435 10491 0
-10436 10492 0
-10437 10493 0
-10438 10494 0
-10439 10495 0
-10440 10496 0
-10441 10497 0
-10442 10498 0
-10443 10499 0
-10444 10500 0
-10445 10501 0
-10446 10502 0
-10447 10503 0
-10448 10504 0
-10449 10505 0
-10450 10506 0
-10451 10507 0
-10452 10508 0
-10453 10509 0
-10454 10510 0
-10455 10511 0
-10456 10512 0
-10457 10513 0
-10458 10514 0
-10459 10515 0
-10460 10516 0
-10461 10517 0
-10462 10518 0
-10463 10519 0
-10464 10520 0
-10465 10521 0
-10466 10522 0
-10467 10523 0
-10468 10524 0
-10469 10525 0
-10470 10526 0
-10471 10527 0
-10472 10528 0
-10473 10529 0
-10474 10530 0
-10475 10531 0
-10476 10532 0
-10477 10533 0
-10478 10534 0
-10479 10535 0
-10480 10536 0
-1152 -10425 10482 0
-1152 -10426 10483 0
-1152 -10427 10484 0
-1152 -10428 10485 0
-1152 -10429 10486 0
-1152 -10430 10487 0
-1152 -10431 10488 0
-1152 -10432 10489 0
-1152 -10433 10490 0
-1152 -10434 10491 0
-1152 -10435 10492 0
-1152 -10436 10493 0
-1152 -10437 10494 0
-1152 -10438 10495 0
-1152 -10439 10496 0
-1152 -10440 10497 0
-1152 -10441 10498 0
-1152 -10442 10499 0
-1152 -10443 10500 0
-1152 -10444 10501 0
-1152 -10445 10502 0
-1152 -10446 10503 0
-1152 -10447 10504 0
-1152 -10448 10505 0
-1152 -10449 10506 0
-1152 -10450 10507 0
-1152 -10451 10508 0
-1152 -10452 10509 0
-1152 -10453 10510 0
-1152 -10454 10511 0
-1152 -10455 10512 0
-1152 -10456 10513 0
-1152 -10457 10514 0
-1152 -10458 10515 0
-1152 -10459 10516 0
-1152 -10460 10517 0
-1152 -10461 10518 0
-1152 -10462 10519 0
-1152 -10463 10520 0
-1152 -10464 10521 0
-1152 -10465 10522 0
-1152 -10466 10523 0
-1152 -10467 10524 0
-1152 -10468 10525 0
-1152 -10469 10526 0
-1152 -10470 10527 0
-1152 -10471 10528 0
-1152 -10472 10529 0
-1152 -10473 10530 0
-1152 -10474 10531 0
-1152 -10475 10532 0
-1152 -10476 10533 0
-1152 -10477 10534 0
-1152 -10478 10535 0
-1152 -10479 10536 0
-1152 -10480 0
-10481 10537 0
-10482 10538 0
-10483 10539 0
-10484 10540 0
-10485 10541 0
-10486 10542 0
-10487 10543 0
-10488 10544 0
-10489 10545 0
-10490 10546 0
-10491 10547 0
-10492 10548 0
-10493 10549 0
-10494 10550 0
-10495 10551 0
-10496 10552 0
-10497 10553 0
-10498 10554 0
-10499 10555 0
-10500 10556 0
-10501 10557 0
-10502 10558 0
-10503 10559 0
-10504 10560 0
-10505 10561 0
-10506 10562 0
-10507 10563 0
-10508 10564 0
-10509 10565 0
-10510 10566 0
-10511 10567 0
-10512 10568 0
-10513 10569 0
-10514 10570 0
-10515 10571 0
-10516 10572 0
-10517 10573 0
-10518 10574 0
-10519 10575 0
-10520 10576 0
-10521 10577 0
-10522 10578 0
-10523 10579 0
-10524 10580 0
-10525 10581 0
-10526 10582 0
-10527 10583 0
-10528 10584 0
-10529 10585 0
-10530 10586 0
-10531 10587 0
-10532 10588 0
-10533 10589 0
-10534 10590 0
-10535 10591 0
-10536 10592 0
-1154 -10481 10538 0
-1154 -10482 10539 0
-1154 -10483 10540 0
-1154 -10484 10541 0
-1154 -10485 10542 0
-1154 -10486 10543 0
-1154 -10487 10544 0
-1154 -10488 10545 0
-1154 -10489 10546 0
-1154 -10490 10547 0
-1154 -10491 10548 0
-1154 -10492 10549 0
-1154 -10493 10550 0
-1154 -10494 10551 0
-1154 -10495 10552 0
-1154 -10496 10553 0
-1154 -10497 10554 0
-1154 -10498 10555 0
-1154 -10499 10556 0
-1154 -10500 10557 0
-1154 -10501 10558 0
-1154 -10502 10559 0
-1154 -10503 10560 0
-1154 -10504 10561 0
-1154 -10505 10562 0
-1154 -10506 10563 0
-1154 -10507 10564 0
-1154 -10508 10565 0
-1154 -10509 10566 0
-1154 -10510 10567 0
-1154 -10511 10568 0
-1154 -10512 10569 0
-1154 -10513 10570 0
-1154 -10514 10571 0
-1154 -10515 10572 0
-1154 -10516 10573 0
-1154 -10517 10574 0
-1154 -10518 10575 0
-1154 -10519 10576 0
-1154 -10520 10577 0
-1154 -10521 10578 0
-1154 -10522 10579 0
-1154 -10523 10580 0
-1154 -10524 10581 0
-1154 -10525 10582 0
-1154 -10526 10583 0
-1154 -10527 10584 0
-1154 -10528 10585 0
-1154 -10529 10586 0
-1154 -10530 10587 0
-1154 -10531 10588 0
-1154 -10532 10589 0
-1154 -10533 10590 0
-1154 -10534 10591 0
-1154 -10535 10592 0
-1154 -10536 0
-10537 10593 0
-10538 10594 0
-10539 10595 0
-10540 10596 0
-10541 10597 0
-10542 10598 0
-10543 10599 0
-10544 10600 0
-10545 10601 0
-10546 10602 0
-10547 10603 0
-10548 10604 0
-10549 10605 0
-10550 10606 0
-10551 10607 0
-10552 10608 0
-10553 10609 0
-10554 10610 0
-10555 10611 0
-10556 10612 0
-10557 10613 0
-10558 10614 0
-10559 10615 0
-10560 10616 0
-10561 10617 0
-10562 10618 0
-10563 10619 0
-10564 10620 0
-10565 10621 0
-10566 10622 0
-10567 10623 0
-10568 10624 0
-10569 10625 0
-10570 10626 0
-10571 10627 0
-10572 10628 0
-10573 10629 0
-10574 10630 0
-10575 10631 0
-10576 10632 0
-10577 10633 0
-10578 10634 0
-10579 10635 0
-10580 10636 0
-10581 10637 0
-10582 10638 0
-10583 10639 0
-10584 10640 0
-10585 10641 0
-10586 10642 0
-10587 10643 0
-10588 10644 0
-10589 10645 0
-10590 10646 0
-10591 10647 0
-10592 10648 0
-1156 -10537 10594 0
-1156 -10538 10595 0
-1156 -10539 10596 0
-1156 -10540 10597 0
-1156 -10541 10598 0
-1156 -10542 10599 0
-1156 -10543 10600 0
-1156 -10544 10601 0
-1156 -10545 10602 0
-1156 -10546 10603 0
-1156 -10547 10604 0
-1156 -10548 10605 0
-1156 -10549 10606 0
-1156 -10550 10607 0
-1156 -10551 10608 0
-1156 -10552 10609 0
-1156 -10553 10610 0
-1156 -10554 10611 0
-1156 -10555 10612 0
-1156 -10556 10613 0
-1156 -10557 10614 0
-1156 -10558 10615 0
-1156 -10559 10616 0
-1156 -10560 10617 0
-1156 -10561 10618 0
-1156 -10562 10619 0
-1156 -10563 10620 0
-1156 -10564 10621 0
-1156 -10565 10622 0
-1156 -10566 10623 0
-1156 -10567 10624 0
-1156 -10568 10625 0
-1156 -10569 10626 0
-1156 -10570 10627 0
-1156 -10571 10628 0
-1156 -10572 10629 0
-1156 -10573 10630 0
-1156 -10574 10631 0
-1156 -10575 10632 0
-1156 -10576 10633 0
-1156 -10577 10634 0
-1156 -10578 10635 0
-1156 -10579 10636 0
-1156 -10580 10637 0
-1156 -10581 10638 0
-1156 -10582 10639 0
-1156 -10583 10640 0
-1156 -10584 10641 0
-1156 -10585 10642 0
-1156 -10586 10643 0
-1156 -10587 10644 0
-1156 -10588 10645 0
-1156 -10589 10646 0
-1156 -10590 10647 0
-1156 -10591 10648 0
-1156 -10592 0
-10593 10649 0
-10594 10650 0
-10595 10651 0
-10596 10652 0
-10597 10653 0
-10598 10654 0
-10599 10655 0
-10600 10656 0
-10601 10657 0
-10602 10658 0
-10603 10659 0
-10604 10660 0
-10605 10661 0
-10606 10662 0
-10607 10663 0
-10608 10664 0
-10609 10665 0
-10610 10666 0
-10611 10667 0
-10612 10668 0
-10613 10669 0
-10614 10670 0
-10615 10671 0
-10616 10672 0
-10617 10673 0
-10618 10674 0
-10619 10675 0
-10620 10676 0
-10621 10677 0
-10622 10678 0
-10623 10679 0
-10624 10680 0
-10625 10681 0
-10626 10682 0
-10627 10683 0
-10628 10684 0
-10629 10685 0
-10630 10686 0
-10631 10687 0
-10632 10688 0
-10633 10689 0
-10634 10690 0
-10635 10691 0
-10636 10692 0
-10637 10693 0
-10638 10694 0
-10639 10695 0
-10640 10696 0
-10641 10697 0
-10642 10698 0
-10643 10699 0
-10644 10700 0
-10645 10701 0
-10646 10702 0
-10647 10703 0
-10648 10704 0
-1158 -10593 10650 0
-1158 -10594 10651 0
-1158 -10595 10652 0
-1158 -10596 10653 0
-1158 -10597 10654 0
-1158 -10598 10655 0
-1158 -10599 10656 0
-1158 -10600 10657 0
-1158 -10601 10658 0
-1158 -10602 10659 0
-1158 -10603 10660 0
-1158 -10604 10661 0
-1158 -10605 10662 0
-1158 -10606 10663 0
-1158 -10607 10664 0
-1158 -10608 10665 0
-1158 -10609 10666 0
-1158 -10610 10667 0
-1158 -10611 10668 0
-1158 -10612 10669 0
-1158 -10613 10670 0
-1158 -10614 10671 0
-1158 -10615 10672 0
-1158 -10616 10673 0
-1158 -10617 10674 0
-1158 -10618 10675 0
-1158 -10619 10676 0
-1158 -10620 10677 0
-1158 -10621 10678 0
-1158 -10622 10679 0
-1158 -10623 10680 0
-1158 -10624 10681 0
-1158 -10625 10682 0
-1158 -10626 10683 0
-1158 -10627 10684 0
-1158 -10628 10685 0
-1158 -10629 10686 0
-1158 -10630 10687 0
-1158 -10631 10688 0
-1158 -10632 10689 0
-1158 -10633 10690 0
-1158 -10634 10691 0
-1158 -10635 10692 0
-1158 -10636 10693 0
-1158 -10637 10694 0
-1158 -10638 10695 0
-1158 -10639 10696 0
-1158 -10640 10697 0
-1158 -10641 10698 0
-1158 -10642 10699 0
-1158 -10643 10700 0
-1158 -10644 10701 0
-1158 -10645 10702 0
-1158 -10646 10703 0
-1158 -10647 10704 0
-1158 -10648 0
-10649 10705 0
-10650 10706 0
-10651 10707 0
-10652 10708 0
-10653 10709 0
-10654 10710 0
-10655 10711 0
-10656 10712 0
-10657 10713 0
-10658 10714 0
-10659 10715 0
-10660 10716 0
-10661 10717 0
-10662 10718 0
-10663 10719 0
-10664 10720 0
-10665 10721 0
-10666 10722 0
-10667 10723 0
-10668 10724 0
-10669 10725 0
-10670 10726 0
-10671 10727 0
-10672 10728 0
-10673 10729 0
-10674 10730 0
-10675 10731 0
-10676 10732 0
-10677 10733 0
-10678 10734 0
-10679 10735 0
-10680 10736 0
-10681 10737 0
-10682 10738 0
-10683 10739 0
-10684 10740 0
-10685 10741 0
-10686 10742 0
-10687 10743 0
-10688 10744 0
-10689 10745 0
-10690 10746 0
-10691 10747 0
-10692 10748 0
-10693 10749 0
-10694 10750 0
-10695 10751 0
-10696 10752 0
-10697 10753 0
-10698 10754 0
-10699 10755 0
-10700 10756 0
-10701 10757 0
-10702 10758 0
-10703 10759 0
-10704 10760 0
-1160 -10649 10706 0
-1160 -10650 10707 0
-1160 -10651 10708 0
-1160 -10652 10709 0
-1160 -10653 10710 0
-1160 -10654 10711 0
-1160 -10655 10712 0
-1160 -10656 10713 0
-1160 -10657 10714 0
-1160 -10658 10715 0
-1160 -10659 10716 0
-1160 -10660 10717 0
-1160 -10661 10718 0
-1160 -10662 10719 0
-1160 -10663 10720 0
-1160 -10664 10721 0
-1160 -10665 10722 0
-1160 -10666 10723 0
-1160 -10667 10724 0
-1160 -10668 10725 0
-1160 -10669 10726 0
-1160 -10670 10727 0
-1160 -10671 10728 0
-1160 -10672 10729 0
-1160 -10673 10730 0
-1160 -10674 10731 0
-1160 -10675 10732 0
-1160 -10676 10733 0
-1160 -10677 10734 0
-1160 -10678 10735 0
-1160 -10679 10736 0
-1160 -10680 10737 0
-1160 -10681 10738 0
-1160 -10682 10739 0
-1160 -10683 10740 0
-1160 -10684 10741 0
-1160 -10685 10742 0
-1160 -10686 10743 0
-1160 -10687 10744 0
-1160 -10688 10745 0
-1160 -10689 10746 0
-1160 -10690 10747 0
-1160 -10691 10748 0
-1160 -10692 10749 0
-1160 -10693 10750 0
-1160 -10694 10751 0
-1160 -10695 10752 0
-1160 -10696 10753 0
-1160 -10697 10754 0
-1160 -10698 10755 0
-1160 -10699 10756 0
-1160 -10700 10757 0
-1160 -10701 10758 0
-1160 -10702 10759 0
-1160 -10703 10760 0
-1160 -10704 0
-10705 10761 0
-10706 10762 0
-10707 10763 0
-10708 10764 0
-10709 10765 0
-10710 10766 0
-10711 10767 0
-10712 10768 0
-10713 10769 0
-10714 10770 0
-10715 10771 0
-10716 10772 0
-10717 10773 0
-10718 10774 0
-10719 10775 0
-10720 10776 0
-10721 10777 0
-10722 10778 0
-10723 10779 0
-10724 10780 0
-10725 10781 0
-10726 10782 0
-10727 10783 0
-10728 10784 0
-10729 10785 0
-10730 10786 0
-10731 10787 0
-10732 10788 0
-10733 10789 0
-10734 10790 0
-10735 10791 0
-10736 10792 0
-10737 10793 0
-10738 10794 0
-10739 10795 0
-10740 10796 0
-10741 10797 0
-10742 10798 0
-10743 10799 0
-10744 10800 0
-10745 10801 0
-10746 10802 0
-10747 10803 0
-10748 10804 0
-10749 10805 0
-10750 10806 0
-10751 10807 0
-10752 10808 0
-10753 10809 0
-10754 10810 0
-10755 10811 0
-10756 10812 0
-10757 10813 0
-10758 10814 0
-10759 10815 0
-10760 10816 0
-1162 -10705 10762 0
-1162 -10706 10763 0
-1162 -10707 10764 0
-1162 -10708 10765 0
-1162 -10709 10766 0
-1162 -10710 10767 0
-1162 -10711 10768 0
-1162 -10712 10769 0
-1162 -10713 10770 0
-1162 -10714 10771 0
-1162 -10715 10772 0
-1162 -10716 10773 0
-1162 -10717 10774 0
-1162 -10718 10775 0
-1162 -10719 10776 0
-1162 -10720 10777 0
-1162 -10721 10778 0
-1162 -10722 10779 0
-1162 -10723 10780 0
-1162 -10724 10781 0
-1162 -10725 10782 0
-1162 -10726 10783 0
-1162 -10727 10784 0
-1162 -10728 10785 0
-1162 -10729 10786 0
-1162 -10730 10787 0
-1162 -10731 10788 0
-1162 -10732 10789 0
-1162 -10733 10790 0
-1162 -10734 10791 0
-1162 -10735 10792 0
-1162 -10736 10793 0
-1162 -10737 10794 0
-1162 -10738 10795 0
-1162 -10739 10796 0
-1162 -10740 10797 0
-1162 -10741 10798 0
-1162 -10742 10799 0
-1162 -10743 10800 0
-1162 -10744 10801 0
-1162 -10745 10802 0
-1162 -10746 10803 0
-1162 -10747 10804 0
-1162 -10748 10805 0
-1162 -10749 10806 0
-1162 -10750 10807 0
-1162 -10751 10808 0
-1162 -10752 10809 0
-1162 -10753 10810 0
-1162 -10754 10811 0
-1162 -10755 10812 0
-1162 -10756 10813 0
-1162 -10757 10814 0
-1162 -10758 10815 0
-1162 -10759 10816 0
-1162 -10760 0
-10761 10817 0
-10762 10818 0
-10763 10819 0
-10764 10820 0
-10765 10821 0
-10766 10822 0
-10767 10823 0
-10768 10824 0
-10769 10825 0
-10770 10826 0
-10771 10827 0
-10772 10828 0
-10773 10829 0
-10774 10830 0
-10775 10831 0
-10776 10832 0
-10777 10833 0
-10778 10834 0
-10779 10835 0
-10780 10836 0
-10781 10837 0
-10782 10838 0
-10783 10839 0
-10784 10840 0
-10785 10841 0
-10786 10842 0
-10787 10843 0
-10788 10844 0
-10789 10845 0
-10790 10846 0
-10791 10847 0
-10792 10848 0
-10793 10849 0
-10794 10850 0
-10795 10851 0
-10796 10852 0
-10797 10853 0
-10798 10854 0
-10799 10855 0
-10800 10856 0
-10801 10857 0
-10802 10858 0
-10803 10859 0
-10804 10860 0
-10805 10861 0
-10806 10862 0
-10807 10863 0
-10808 10864 0
-10809 10865 0
-10810 10866 0
-10811 10867 0
-10812 10868 0
-10813 10869 0
-10814 10870 0
-10815 10871 0
-10816 10872 0
-1164 -10761 10818 0
-1164 -10762 10819 0
-1164 -10763 10820 0
-1164 -10764 10821 0
-1164 -10765 10822 0
-1164 -10766 10823 0
-1164 -10767 10824 0
-1164 -10768 10825 0
-1164 -10769 10826 0
-1164 -10770 10827 0
-1164 -10771 10828 0
-1164 -10772 10829 0
-1164 -10773 10830 0
-1164 -10774 10831 0
-1164 -10775 10832 0
-1164 -10776 10833 0
-1164 -10777 10834 0
-1164 -10778 10835 0
-1164 -10779 10836 0
-1164 -10780 10837 0
-1164 -10781 10838 0
-1164 -10782 10839 0
-1164 -10783 10840 0
-1164 -10784 10841 0
-1164 -10785 10842 0
-1164 -10786 10843 0
-1164 -10787 10844 0
-1164 -10788 10845 0
-1164 -10789 10846 0
-1164 -10790 10847 0
-1164 -10791 10848 0
-1164 -10792 10849 0
-1164 -10793 10850 0
-1164 -10794 10851 0
-1164 -10795 10852 0
-1164 -10796 10853 0
-1164 -10797 10854 0
-1164 -10798 10855 0
-1164 -10799 10856 0
-1164 -10800 10857 0
-1164 -10801 10858 0
-1164 -10802 10859 0
-1164 -10803 10860 0
-1164 -10804 10861 0
-1164 -10805 10862 0
-1164 -10806 10863 0
-1164 -10807 10864 0
-1164 -10808 10865 0
-1164 -10809 10866 0
-1164 -10810 10867 0
-1164 -10811 10868 0
-1164 -10812 10869 0
-1164 -10813 10870 0
-1164 -10814 10871 0
-1164 -10815 10872 0
-1164 -10816 0
-10817 10873 0
-10818 10874 0
-10819 10875 0
-10820 10876 0
-10821 10877 0
-10822 10878 0
-10823 10879 0
-10824 10880 0
-10825 10881 0
-10826 10882 0
-10827 10883 0
-10828 10884 0
-10829 10885 0
-10830 10886 0
-10831 10887 0
-10832 10888 0
-10833 10889 0
-10834 10890 0
-10835 10891 0
-10836 10892 0
-10837 10893 0
-10838 10894 0
-10839 10895 0
-10840 10896 0
-10841 10897 0
-10842 10898 0
-10843 10899 0
-10844 10900 0
-10845 10901 0
-10846 10902 0
-10847 10903 0
-10848 10904 0
-10849 10905 0
-10850 10906 0
-10851 10907 0
-10852 10908 0
-10853 10909 0
-10854 10910 0
-10855 10911 0
-10856 10912 0
-10857 10913 0
-10858 10914 0
-10859 10915 0
-10860 10916 0
-10861 10917 0
-10862 10918 0
-10863 10919 0
-10864 10920 0
-10865 10921 0
-10866 10922 0
-10867 10923 0
-10868 10924 0
-10869 10925 0
-10870 10926 0
-10871 10927 0
-10872 10928 0
-1166 -10817 10874 0
-1166 -10818 10875 0
-1166 -10819 10876 0
-1166 -10820 10877 0
-1166 -10821 10878 0
-1166 -10822 10879 0
-1166 -10823 10880 0
-1166 -10824 10881 0
-1166 -10825 10882 0
-1166 -10826 10883 0
-1166 -10827 10884 0
-1166 -10828 10885 0
-1166 -10829 10886 0
-1166 -10830 10887 0
-1166 -10831 10888 0
-1166 -10832 10889 0
-1166 -10833 10890 0
-1166 -10834 10891 0
-1166 -10835 10892 0
-1166 -10836 10893 0
-1166 -10837 10894 0
-1166 -10838 10895 0
-1166 -10839 10896 0
-1166 -10840 10897 0
-1166 -10841 10898 0
-1166 -10842 10899 0
-1166 -10843 10900 0
-1166 -10844 10901 0
-1166 -10845 10902 0
-1166 -10846 10903 0
-1166 -10847 10904 0
-1166 -10848 10905 0
-1166 -10849 10906 0
-1166 -10850 10907 0
-1166 -10851 10908 0
-1166 -10852 10909 0
-1166 -10853 10910 0
-1166 -10854 10911 0
-1166 -10855 10912 0
-1166 -10856 10913 0
-1166 -10857 10914 0
-1166 -10858 10915 0
-1166 -10859 10916 0
-1166 -10860 10917 0
-1166 -10861 10918 0
-1166 -10862 10919 0
-1166 -10863 10920 0
-1166 -10864 10921 0
-1166 -10865 10922 0
-1166 -10866 10923 0
-1166 -10867 10924 0
-1166 -10868 10925 0
-1166 -10869 10926 0
-1166 -10870 10927 0
-1166 -10871 10928 0
-1166 -10872 0
-10873 10929 0
-10874 10930 0
-10875 10931 0
-10876 10932 0
-10877 10933 0
-10878 10934 0
-10879 10935 0
-10880 10936 0
-10881 10937 0
-10882 10938 0
-10883 10939 0
-10884 10940 0
-10885 10941 0
-10886 10942 0
-10887 10943 0
-10888 10944 0
-10889 10945 0
-10890 10946 0
-10891 10947 0
-10892 10948 0
-10893 10949 0
-10894 10950 0
-10895 10951 0
-10896 10952 0
-10897 10953 0
-10898 10954 0
-10899 10955 0
-10900 10956 0
-10901 10957 0
-10902 10958 0
-10903 10959 0
-10904 10960 0
-10905 10961 0
-10906 10962 0
-10907 10963 0
-10908 10964 0
-10909 10965 0
-10910 10966 0
-10911 10967 0
-10912 10968 0
-10913 10969 0
-10914 10970 0
-10915 10971 0
-10916 10972 0
-10917 10973 0
-10918 10974 0
-10919 10975 0
-10920 10976 0
-10921 10977 0
-10922 10978 0
-10923 10979 0
-10924 10980 0
-10925 10981 0
-10926 10982 0
-10927 10983 0
-10928 10984 0
-1168 -10873 10930 0
-1168 -10874 10931 0
-1168 -10875 10932 0
-1168 -10876 10933 0
-1168 -10877 10934 0
-1168 -10878 10935 0
-1168 -10879 10936 0
-1168 -10880 10937 0
-1168 -10881 10938 0
-1168 -10882 10939 0
-1168 -10883 10940 0
-1168 -10884 10941 0
-1168 -10885 10942 0
-1168 -10886 10943 0
-1168 -10887 10944 0
-1168 -10888 10945 0
-1168 -10889 10946 0
-1168 -10890 10947 0
-1168 -10891 10948 0
-1168 -10892 10949 0
-1168 -10893 10950 0
-1168 -10894 10951 0
-1168 -10895 10952 0
-1168 -10896 10953 0
-1168 -10897 10954 0
-1168 -10898 10955 0
-1168 -10899 10956 0
-1168 -10900 10957 0
-1168 -10901 10958 0
-1168 -10902 10959 0
-1168 -10903 10960 0
-1168 -10904 10961 0
-1168 -10905 10962 0
-1168 -10906 10963 0
-1168 -10907 10964 0
-1168 -10908 10965 0
-1168 -10909 10966 0
-1168 -10910 10967 0
-1168 -10911 10968 0
-1168 -10912 10969 0
-1168 -10913 10970 0
-1168 -10914 10971 0
-1168 -10915 10972 0
-1168 -10916 10973 0
-1168 -10917 10974 0
-1168 -10918 10975 0
-1168 -10919 10976 0
-1168 -10920 10977 0
-1168 -10921 10978 0
-1168 -10922 10979 0
-1168 -10923 10980 0
-1168 -10924 10981 0
-1168 -10925 10982 0
-1168 -10926 10983 0
-1168 -10927 10984 0
-1168 -10928 0
-10929 10985 0
-10930 10986 0
-10931 10987 0
-10932 10988 0
-10933 10989 0
-10934 10990 0
-10935 10991 0
-10936 10992 0
-10937 10993 0
-10938 10994 0
-10939 10995 0
-10940 10996 0
-10941 10997 0
-10942 10998 0
-10943 10999 0
-10944 11000 0
-10945 11001 0
-10946 11002 0
-10947 11003 0
-10948 11004 0
-10949 11005 0
-10950 11006 0
-10951 11007 0
-10952 11008 0
-10953 11009 0
-10954 11010 0
-10955 11011 0
-10956 11012 0
-10957 11013 0
-10958 11014 0
-10959 11015 0
-10960 11016 0
-10961 11017 0
-10962 11018 0
-10963 11019 0
-10964 11020 0
-10965 11021 0
-10966 11022 0
-10967 11023 0
-10968 11024 0
-10969 11025 0
-10970 11026 0
-10971 11027 0
-10972 11028 0
-10973 11029 0
-10974 11030 0
-10975 11031 0
-10976 11032 0
-10977 11033 0
-10978 11034 0
-10979 11035 0
-10980 11036 0
-10981 11037 0
-10982 11038 0
-10983 11039 0
-10984 11040 0
-1170 -10929 10986 0
-1170 -10930 10987 0
-1170 -10931 10988 0
-1170 -10932 10989 0
-1170 -10933 10990 0
-1170 -10934 10991 0
-1170 -10935 10992 0
-1170 -10936 10993 0
-1170 -10937 10994 0
-1170 -10938 10995 0
-1170 -10939 10996 0
-1170 -10940 10997 0
-1170 -10941 10998 0
-1170 -10942 10999 0
-1170 -10943 11000 0
-1170 -10944 11001 0
-1170 -10945 11002 0
-1170 -10946 11003 0
-1170 -10947 11004 0
-1170 -10948 11005 0
-1170 -10949 11006 0
-1170 -10950 11007 0
-1170 -10951 11008 0
-1170 -10952 11009 0
-1170 -10953 11010 0
-1170 -10954 11011 0
-1170 -10955 11012 0
-1170 -10956 11013 0
-1170 -10957 11014 0
-1170 -10958 11015 0
-1170 -10959 11016 0
-1170 -10960 11017 0
-1170 -10961 11018 0
-1170 -10962 11019 0
-1170 -10963 11020 0
-1170 -10964 11021 0
-1170 -10965 11022 0
-1170 -10966 11023 0
-1170 -10967 11024 0
-1170 -10968 11025 0
-1170 -10969 11026 0
-1170 -10970 11027 0
-1170 -10971 11028 0
-1170 -10972 11029 0
-1170 -10973 11030 0
-1170 -10974 11031 0
-1170 -10975 11032 0
-1170 -10976 11033 0
-1170 -10977 11034 0
-1170 -10978 11035 0
-1170 -10979 11036 0
-1170 -10980 11037 0
-1170 -10981 11038 0
-1170 -10982 11039 0
-1170 -10983 11040 0
-1170 -10984 0
-10985 11041 0
-10986 11042 0
-10987 11043 0
-10988 11044 0
-10989 11045 0
-10990 11046 0
-10991 11047 0
-10992 11048 0
-10993 11049 0
-10994 11050 0
-10995 11051 0
-10996 11052 0
-10997 11053 0
-10998 11054 0
-10999 11055 0
-11000 11056 0
-11001 11057 0
-11002 11058 0
-11003 11059 0
-11004 11060 0
-11005 11061 0
-11006 11062 0
-11007 11063 0
-11008 11064 0
-11009 11065 0
-11010 11066 0
-11011 11067 0
-11012 11068 0
-11013 11069 0
-11014 11070 0
-11015 11071 0
-11016 11072 0
-11017 11073 0
-11018 11074 0
-11019 11075 0
-11020 11076 0
-11021 11077 0
-11022 11078 0
-11023 11079 0
-11024 11080 0
-11025 11081 0
-11026 11082 0
-11027 11083 0
-11028 11084 0
-11029 11085 0
-11030 11086 0
-11031 11087 0
-11032 11088 0
-11033 11089 0
-11034 11090 0
-11035 11091 0
-11036 11092 0
-11037 11093 0
-11038 11094 0
-11039 11095 0
-11040 11096 0
-1172 -10985 11042 0
-1172 -10986 11043 0
-1172 -10987 11044 0
-1172 -10988 11045 0
-1172 -10989 11046 0
-1172 -10990 11047 0
-1172 -10991 11048 0
-1172 -10992 11049 0
-1172 -10993 11050 0
-1172 -10994 11051 0
-1172 -10995 11052 0
-1172 -10996 11053 0
-1172 -10997 11054 0
-1172 -10998 11055 0
-1172 -10999 11056 0
-1172 -11000 11057 0
-1172 -11001 11058 0
-1172 -11002 11059 0
-1172 -11003 11060 0
-1172 -11004 11061 0
-1172 -11005 11062 0
-1172 -11006 11063 0
-1172 -11007 11064 0
-1172 -11008 11065 0
-1172 -11009 11066 0
-1172 -11010 11067 0
-1172 -11011 11068 0
-1172 -11012 11069 0
-1172 -11013 11070 0
-1172 -11014 11071 0
-1172 -11015 11072 0
-1172 -11016 11073 0
-1172 -11017 11074 0
-1172 -11018 11075 0
-1172 -11019 11076 0
-1172 -11020 11077 0
-1172 -11021 11078 0
-1172 -11022 11079 0
-1172 -11023 11080 0
-1172 -11024 11081 0
-1172 -11025 11082 0
-1172 -11026 11083 0
-1172 -11027 11084 0
-1172 -11028 11085 0
-1172 -11029 11086 0
-1172 -11030 11087 0
-1172 -11031 11088 0
-1172 -11032 11089 0
-1172 -11033 11090 0
-1172 -11034 11091 0
-1172 -11035 11092 0
-1172 -11036 11093 0
-1172 -11037 11094 0
-1172 -11038 11095 0
-1172 -11039 11096 0
-1172 -11040 0
-11041 11097 0
-11042 11098 0
-11043 11099 0
-11044 11100 0
-11045 11101 0
-11046 11102 0
-11047 11103 0
-11048 11104 0
-11049 11105 0
-11050 11106 0
-11051 11107 0
-11052 11108 0
-11053 11109 0
-11054 11110 0
-11055 11111 0
-11056 11112 0
-11057 11113 0
-11058 11114 0
-11059 11115 0
-11060 11116 0
-11061 11117 0
-11062 11118 0
-11063 11119 0
-11064 11120 0
-11065 11121 0
-11066 11122 0
-11067 11123 0
-11068 11124 0
-11069 11125 0
-11070 11126 0
-11071 11127 0
-11072 11128 0
-11073 11129 0
-11074 11130 0
-11075 11131 0
-11076 11132 0
-11077 11133 0
-11078 11134 0
-11079 11135 0
-11080 11136 0
-11081 11137 0
-11082 11138 0
-11083 11139 0
-11084 11140 0
-11085 11141 0
-11086 11142 0
-11087 11143 0
-11088 11144 0
-11089 11145 0
-11090 11146 0
-11091 11147 0
-11092 11148 0
-11093 11149 0
-11094 11150 0
-11095 11151 0
-11096 11152 0
-1174 -11041 11098 0
-1174 -11042 11099 0
-1174 -11043 11100 0
-1174 -11044 11101 0
-1174 -11045 11102 0
-1174 -11046 11103 0
-1174 -11047 11104 0
-1174 -11048 11105 0
-1174 -11049 11106 0
-1174 -11050 11107 0
-1174 -11051 11108 0
-1174 -11052 11109 0
-1174 -11053 11110 0
-1174 -11054 11111 0
-1174 -11055 11112 0
-1174 -11056 11113 0
-1174 -11057 11114 0
-1174 -11058 11115 0
-1174 -11059 11116 0
-1174 -11060 11117 0
-1174 -11061 11118 0
-1174 -11062 11119 0
-1174 -11063 11120 0
-1174 -11064 11121 0
-1174 -11065 11122 0
-1174 -11066 11123 0
-1174 -11067 11124 0
-1174 -11068 11125 0
-1174 -11069 11126 0
-1174 -11070 11127 0
-1174 -11071 11128 0
-1174 -11072 11129 0
-1174 -11073 11130 0
-1174 -11074 11131 0
-1174 -11075 11132 0
-1174 -11076 11133 0
-1174 -11077 11134 0
-1174 -11078 11135 0
-1174 -11079 11136 0
-1174 -11080 11137 0
-1174 -11081 11138 0
-1174 -11082 11139 0
-1174 -11083 11140 0
-1174 -11084 11141 0
-1174 -11085 11142 0
-1174 -11086 11143 0
-1174 -11087 11144 0
-1174 -11088 11145 0
-1174 -11089 11146 0
-1174 -11090 11147 0
-1174 -11091 11148 0
-1174 -11092 11149 0
-1174 -11093 11150 0
-1174 -11094 11151 0
-1174 -11095 11152 0
-1174 -11096 0
-11097 11153 0
-11098 11154 0
-11099 11155 0
-11100 11156 0
-11101 11157 0
-11102 11158 0
-11103 11159 0
-11104 11160 0
-11105 11161 0
-11106 11162 0
-11107 11163 0
-11108 11164 0
-11109 11165 0
-11110 11166 0
-11111 11167 0
-11112 11168 0
-11113 11169 0
-11114 11170 0
-11115 11171 0
-11116 11172 0
-11117 11173 0
-11118 11174 0
-11119 11175 0
-11120 11176 0
-11121 11177 0
-11122 11178 0
-11123 11179 0
-11124 11180 0
-11125 11181 0
-11126 11182 0
-11127 11183 0
-11128 11184 0
-11129 11185 0
-11130 11186 0
-11131 11187 0
-11132 11188 0
-11133 11189 0
-11134 11190 0
-11135 11191 0
-11136 11192 0
-11137 11193 0
-11138 11194 0
-11139 11195 0
-11140 11196 0
-11141 11197 0
-11142 11198 0
-11143 11199 0
-11144 11200 0
-11145 11201 0
-11146 11202 0
-11147 11203 0
-11148 11204 0
-11149 11205 0
-11150 11206 0
-11151 11207 0
-11152 11208 0
-1176 -11097 11154 0
-1176 -11098 11155 0
-1176 -11099 11156 0
-1176 -11100 11157 0
-1176 -11101 11158 0
-1176 -11102 11159 0
-1176 -11103 11160 0
-1176 -11104 11161 0
-1176 -11105 11162 0
-1176 -11106 11163 0
-1176 -11107 11164 0
-1176 -11108 11165 0
-1176 -11109 11166 0
-1176 -11110 11167 0
-1176 -11111 11168 0
-1176 -11112 11169 0
-1176 -11113 11170 0
-1176 -11114 11171 0
-1176 -11115 11172 0
-1176 -11116 11173 0
-1176 -11117 11174 0
-1176 -11118 11175 0
-1176 -11119 11176 0
-1176 -11120 11177 0
-1176 -11121 11178 0
-1176 -11122 11179 0
-1176 -11123 11180 0
-1176 -11124 11181 0
-1176 -11125 11182 0
-1176 -11126 11183 0
-1176 -11127 11184 0
-1176 -11128 11185 0
-1176 -11129 11186 0
-1176 -11130 11187 0
-1176 -11131 11188 0
-1176 -11132 11189 0
-1176 -11133 11190 0
-1176 -11134 11191 0
-1176 -11135 11192 0
-1176 -11136 11193 0
-1176 -11137 11194 0
-1176 -11138 11195 0
-1176 -11139 11196 0
-1176 -11140 11197 0
-1176 -11141 11198 0
-1176 -11142 11199 0
-1176 -11143 11200 0
-1176 -11144 11201 0
-1176 -11145 11202 0
-1176 -11146 11203 0
-1176 -11147 11204 0
-1176 -11148 11205 0
-1176 -11149 11206 0
-1176 -11150 11207 0
-1176 -11151 11208 0
-1176 -11152 0
-11153 11209 0
-11154 11210 0
-11155 11211 0
-11156 11212 0
-11157 11213 0
-11158 11214 0
-11159 11215 0
-11160 11216 0
-11161 11217 0
-11162 11218 0
-11163 11219 0
-11164 11220 0
-11165 11221 0
-11166 11222 0
-11167 11223 0
-11168 11224 0
-11169 11225 0
-11170 11226 0
-11171 11227 0
-11172 11228 0
-11173 11229 0
-11174 11230 0
-11175 11231 0
-11176 11232 0
-11177 11233 0
-11178 11234 0
-11179 11235 0
-11180 11236 0
-11181 11237 0
-11182 11238 0
-11183 11239 0
-11184 11240 0
-11185 11241 0
-11186 11242 0
-11187 11243 0
-11188 11244 0
-11189 11245 0
-11190 11246 0
-11191 11247 0
-11192 11248 0
-11193 11249 0
-11194 11250 0
-11195 11251 0
-11196 11252 0
-11197 11253 0
-11198 11254 0
-11199 11255 0
-11200 11256 0
-11201 11257 0
-11202 11258 0
-11203 11259 0
-11204 11260 0
-11205 11261 0
-11206 11262 0
-11207 11263 0
-11208 11264 0
-1178 -11153 11210 0
-1178 -11154 11211 0
-1178 -11155 11212 0
-1178 -11156 11213 0
-1178 -11157 11214 0
-1178 -11158 11215 0
-1178 -11159 11216 0
-1178 -11160 11217 0
-1178 -11161 11218 0
-1178 -11162 11219 0
-1178 -11163 11220 0
-1178 -11164 11221 0
-1178 -11165 11222 0
-1178 -11166 11223 0
-1178 -11167 11224 0
-1178 -11168 11225 0
-1178 -11169 11226 0
-1178 -11170 11227 0
-1178 -11171 11228 0
-1178 -11172 11229 0
-1178 -11173 11230 0
-1178 -11174 11231 0
-1178 -11175 11232 0
-1178 -11176 11233 0
-1178 -11177 11234 0
-1178 -11178 11235 0
-1178 -11179 11236 0
-1178 -11180 11237 0
-1178 -11181 11238 0
-1178 -11182 11239 0
-1178 -11183 11240 0
-1178 -11184 11241 0
-1178 -11185 11242 0
-1178 -11186 11243 0
-1178 -11187 11244 0
-1178 -11188 11245 0
-1178 -11189 11246 0
-1178 -11190 11247 0
-1178 -11191 11248 0
-1178 -11192 11249 0
-1178 -11193 11250 0
-1178 -11194 11251 0
-1178 -11195 11252 0
-1178 -11196 11253 0
-1178 -11197 11254 0
-1178 -11198 11255 0
-1178 -11199 11256 0
-1178 -11200 11257 0
-1178 -11201 11258 0
-1178 -11202 11259 0
-1178 -11203 11260 0
-1178 -11204 11261 0
-1178 -11205 11262 0
-1178 -11206 11263 0
-1178 -11207 11264 0
-1178 -11208 0
-11209 11265 0
-11210 11266 0
-11211 11267 0
-11212 11268 0
-11213 11269 0
-11214 11270 0
-11215 11271 0
-11216 11272 0
-11217 11273 0
-11218 11274 0
-11219 11275 0
-11220 11276 0
-11221 11277 0
-11222 11278 0
-11223 11279 0
-11224 11280 0
-11225 11281 0
-11226 11282 0
-11227 11283 0
-11228 11284 0
-11229 11285 0
-11230 11286 0
-11231 11287 0
-11232 11288 0
-11233 11289 0
-11234 11290 0
-11235 11291 0
-11236 11292 0
-11237 11293 0
-11238 11294 0
-11239 11295 0
-11240 11296 0
-11241 11297 0
-11242 11298 0
-11243 11299 0
-11244 11300 0
-11245 11301 0
-11246 11302 0
-11247 11303 0
-11248 11304 0
-11249 11305 0
-11250 11306 0
-11251 11307 0
-11252 11308 0
-11253 11309 0
-11254 11310 0
-11255 11311 0
-11256 11312 0
-11257 11313 0
-11258 11314 0
-11259 11315 0
-11260 11316 0
-11261 11317 0
-11262 11318 0
-11263 11319 0
-11264 11320 0
-1180 -11209 11266 0
-1180 -11210 11267 0
-1180 -11211 11268 0
-1180 -11212 11269 0
-1180 -11213 11270 0
-1180 -11214 11271 0
-1180 -11215 11272 0
-1180 -11216 11273 0
-1180 -11217 11274 0
-1180 -11218 11275 0
-1180 -11219 11276 0
-1180 -11220 11277 0
-1180 -11221 11278 0
-1180 -11222 11279 0
-1180 -11223 11280 0
-1180 -11224 11281 0
-1180 -11225 11282 0
-1180 -11226 11283 0
-1180 -11227 11284 0
-1180 -11228 11285 0
-1180 -11229 11286 0
-1180 -11230 11287 0
-1180 -11231 11288 0
-1180 -11232 11289 0
-1180 -11233 11290 0
-1180 -11234 11291 0
-1180 -11235 11292 0
-1180 -11236 11293 0
-1180 -11237 11294 0
-1180 -11238 11295 0
-1180 -11239 11296 0
-1180 -11240 11297 0
-1180 -11241 11298 0
-1180 -11242 11299 0
-1180 -11243 11300 0
-1180 -11244 11301 0
-1180 -11245 11302 0
-1180 -11246 11303 0
-1180 -11247 11304 0
-1180 -11248 11305 0
-1180 -11249 11306 0
-1180 -11250 11307 0
-1180 -11251 11308 0
-1180 -11252 11309 0
-1180 -11253 11310 0
-1180 -11254 11311 0
-1180 -11255 11312 0
-1180 -11256 11313 0
-1180 -11257 11314 0
-1180 -11258 11315 0
-1180 -11259 11316 0
-1180 -11260 11317 0
-1180 -11261 11318 0
-1180 -11262 11319 0
-1180 -11263 11320 0
-1180 -11264 0
-11265 11321 0
-11266 11322 0
-11267 11323 0
-11268 11324 0
-11269 11325 0
-11270 11326 0
-11271 11327 0
-11272 11328 0
-11273 11329 0
-11274 11330 0
-11275 11331 0
-11276 11332 0
-11277 11333 0
-11278 11334 0
-11279 11335 0
-11280 11336 0
-11281 11337 0
-11282 11338 0
-11283 11339 0
-11284 11340 0
-11285 11341 0
-11286 11342 0
-11287 11343 0
-11288 11344 0
-11289 11345 0
-11290 11346 0
-11291 11347 0
-11292 11348 0
-11293 11349 0
-11294 11350 0
-11295 11351 0
-11296 11352 0
-11297 11353 0
-11298 11354 0
-11299 11355 0
-11300 11356 0
-11301 11357 0
-11302 11358 0
-11303 11359 0
-11304 11360 0
-11305 11361 0
-11306 11362 0
-11307 11363 0
-11308 11364 0
-11309 11365 0
-11310 11366 0
-11311 11367 0
-11312 11368 0
-11313 11369 0
-11314 11370 0
-11315 11371 0
-11316 11372 0
-11317 11373 0
-11318 11374 0
-11319 11375 0
-11320 11376 0
-1182 -11265 11322 0
-1182 -11266 11323 0
-1182 -11267 11324 0
-1182 -11268 11325 0
-1182 -11269 11326 0
-1182 -11270 11327 0
-1182 -11271 11328 0
-1182 -11272 11329 0
-1182 -11273 11330 0
-1182 -11274 11331 0
-1182 -11275 11332 0
-1182 -11276 11333 0
-1182 -11277 11334 0
-1182 -11278 11335 0
-1182 -11279 11336 0
-1182 -11280 11337 0
-1182 -11281 11338 0
-1182 -11282 11339 0
-1182 -11283 11340 0
-1182 -11284 11341 0
-1182 -11285 11342 0
-1182 -11286 11343 0
-1182 -11287 11344 0
-1182 -11288 11345 0
-1182 -11289 11346 0
-1182 -11290 11347 0
-1182 -11291 11348 0
-1182 -11292 11349 0
-1182 -11293 11350 0
-1182 -11294 11351 0
-1182 -11295 11352 0
-1182 -11296 11353 0
-1182 -11297 11354 0
-1182 -11298 11355 0
-1182 -11299 11356 0
-1182 -11300 11357 0
-1182 -11301 11358 0
-1182 -11302 11359 0
-1182 -11303 11360 0
-1182 -11304 11361 0
-1182 -11305 11362 0
-1182 -11306 11363 0
-1182 -11307 11364 0
-1182 -11308 11365 0
-1182 -11309 11366 0
-1182 -11310 11367 0
-1182 -11311 11368 0
-1182 -11312 11369 0
-1182 -11313 11370 0
-1182 -11314 11371 0
-1182 -11315 11372 0
-1182 -11316 11373 0
-1182 -11317 11374 0
-1182 -11318 11375 0
-1182 -11319 11376 0
-1182 -11320 0
-11321 11377 0
-11322 11378 0
-11323 11379 0
-11324 11380 0
-11325 11381 0
-11326 11382 0
-11327 11383 0
-11328 11384 0
-11329 11385 0
-11330 11386 0
-11331 11387 0
-11332 11388 0
-11333 11389 0
-11334 11390 0
-11335 11391 0
-11336 11392 0
-11337 11393 0
-11338 11394 0
-11339 11395 0
-11340 11396 0
-11341 11397 0
-11342 11398 0
-11343 11399 0
-11344 11400 0
-11345 11401 0
-11346 11402 0
-11347 11403 0
-11348 11404 0
-11349 11405 0
-11350 11406 0
-11351 11407 0
-11352 11408 0
-11353 11409 0
-11354 11410 0
-11355 11411 0
-11356 11412 0
-11357 11413 0
-11358 11414 0
-11359 11415 0
-11360 11416 0
-11361 11417 0
-11362 11418 0
-11363 11419 0
-11364 11420 0
-11365 11421 0
-11366 11422 0
-11367 11423 0
-11368 11424 0
-11369 11425 0
-11370 11426 0
-11371 11427 0
-11372 11428 0
-11373 11429 0
-11374 11430 0
-11375 11431 0
-11376 11432 0
-1184 -11321 11378 0
-1184 -11322 11379 0
-1184 -11323 11380 0
-1184 -11324 11381 0
-1184 -11325 11382 0
-1184 -11326 11383 0
-1184 -11327 11384 0
-1184 -11328 11385 0
-1184 -11329 11386 0
-1184 -11330 11387 0
-1184 -11331 11388 0
-1184 -11332 11389 0
-1184 -11333 11390 0
-1184 -11334 11391 0
-1184 -11335 11392 0
-1184 -11336 11393 0
-1184 -11337 11394 0
-1184 -11338 11395 0
-1184 -11339 11396 0
-1184 -11340 11397 0
-1184 -11341 11398 0
-1184 -11342 11399 0
-1184 -11343 11400 0
-1184 -11344 11401 0
-1184 -11345 11402 0
-1184 -11346 11403 0
-1184 -11347 11404 0
-1184 -11348 11405 0
-1184 -11349 11406 0
-1184 -11350 11407 0
-1184 -11351 11408 0
-1184 -11352 11409 0
-1184 -11353 11410 0
-1184 -11354 11411 0
-1184 -11355 11412 0
-1184 -11356 11413 0
-1184 -11357 11414 0
-1184 -11358 11415 0
-1184 -11359 11416 0
-1184 -11360 11417 0
-1184 -11361 11418 0
-1184 -11362 11419 0
-1184 -11363 11420 0
-1184 -11364 11421 0
-1184 -11365 11422 0
-1184 -11366 11423 0
-1184 -11367 11424 0
-1184 -11368 11425 0
-1184 -11369 11426 0
-1184 -11370 11427 0
-1184 -11371 11428 0
-1184 -11372 11429 0
-1184 -11373 11430 0
-1184 -11374 11431 0
-1184 -11375 11432 0
-1184 -11376 0
-11377 11433 0
-11378 11434 0
-11379 11435 0
-11380 11436 0
-11381 11437 0
-11382 11438 0
-11383 11439 0
-11384 11440 0
-11385 11441 0
-11386 11442 0
-11387 11443 0
-11388 11444 0
-11389 11445 0
-11390 11446 0
-11391 11447 0
-11392 11448 0
-11393 11449 0
-11394 11450 0
-11395 11451 0
-11396 11452 0
-11397 11453 0
-11398 11454 0
-11399 11455 0
-11400 11456 0
-11401 11457 0
-11402 11458 0
-11403 11459 0
-11404 11460 0
-11405 11461 0
-11406 11462 0
-11407 11463 0
-11408 11464 0
-11409 11465 0
-11410 11466 0
-11411 11467 0
-11412 11468 0
-11413 11469 0
-11414 11470 0
-11415 11471 0
-11416 11472 0
-11417 11473 0
-11418 11474 0
-11419 11475 0
-11420 11476 0
-11421 11477 0
-11422 11478 0
-11423 11479 0
-11424 11480 0
-11425 11481 0
-11426 11482 0
-11427 11483 0
-11428 11484 0
-11429 11485 0
-11430 11486 0
-11431 11487 0
-11432 11488 0
-1186 -11377 11434 0
-1186 -11378 11435 0
-1186 -11379 11436 0
-1186 -11380 11437 0
-1186 -11381 11438 0
-1186 -11382 11439 0
-1186 -11383 11440 0
-1186 -11384 11441 0
-1186 -11385 11442 0
-1186 -11386 11443 0
-1186 -11387 11444 0
-1186 -11388 11445 0
-1186 -11389 11446 0
-1186 -11390 11447 0
-1186 -11391 11448 0
-1186 -11392 11449 0
-1186 -11393 11450 0
-1186 -11394 11451 0
-1186 -11395 11452 0
-1186 -11396 11453 0
-1186 -11397 11454 0
-1186 -11398 11455 0
-1186 -11399 11456 0
-1186 -11400 11457 0
-1186 -11401 11458 0
-1186 -11402 11459 0
-1186 -11403 11460 0
-1186 -11404 11461 0
-1186 -11405 11462 0
-1186 -11406 11463 0
-1186 -11407 11464 0
-1186 -11408 11465 0
-1186 -11409 11466 0
-1186 -11410 11467 0
-1186 -11411 11468 0
-1186 -11412 11469 0
-1186 -11413 11470 0
-1186 -11414 11471 0
-1186 -11415 11472 0
-1186 -11416 11473 0
-1186 -11417 11474 0
-1186 -11418 11475 0
-1186 -11419 11476 0
-1186 -11420 11477 0
-1186 -11421 11478 0
-1186 -11422 11479 0
-1186 -11423 11480 0
-1186 -11424 11481 0
-1186 -11425 11482 0
-1186 -11426 11483 0
-1186 -11427 11484 0
-1186 -11428 11485 0
-1186 -11429 11486 0
-1186 -11430 11487 0
-1186 -11431 11488 0
-1186 -11432 0
-11433 11489 0
-11434 11490 0
-11435 11491 0
-11436 11492 0
-11437 11493 0
-11438 11494 0
-11439 11495 0
-11440 11496 0
-11441 11497 0
-11442 11498 0
-11443 11499 0
-11444 11500 0
-11445 11501 0
-11446 11502 0
-11447 11503 0
-11448 11504 0
-11449 11505 0
-11450 11506 0
-11451 11507 0
-11452 11508 0
-11453 11509 0
-11454 11510 0
-11455 11511 0
-11456 11512 0
-11457 11513 0
-11458 11514 0
-11459 11515 0
-11460 11516 0
-11461 11517 0
-11462 11518 0
-11463 11519 0
-11464 11520 0
-11465 11521 0
-11466 11522 0
-11467 11523 0
-11468 11524 0
-11469 11525 0
-11470 11526 0
-11471 11527 0
-11472 11528 0
-11473 11529 0
-11474 11530 0
-11475 11531 0
-11476 11532 0
-11477 11533 0
-11478 11534 0
-11479 11535 0
-11480 11536 0
-11481 11537 0
-11482 11538 0
-11483 11539 0
-11484 11540 0
-11485 11541 0
-11486 11542 0
-11487 11543 0
-11488 11544 0
-1188 -11433 11490 0
-1188 -11434 11491 0
-1188 -11435 11492 0
-1188 -11436 11493 0
-1188 -11437 11494 0
-1188 -11438 11495 0
-1188 -11439 11496 0
-1188 -11440 11497 0
-1188 -11441 11498 0
-1188 -11442 11499 0
-1188 -11443 11500 0
-1188 -11444 11501 0
-1188 -11445 11502 0
-1188 -11446 11503 0
-1188 -11447 11504 0
-1188 -11448 11505 0
-1188 -11449 11506 0
-1188 -11450 11507 0
-1188 -11451 11508 0
-1188 -11452 11509 0
-1188 -11453 11510 0
-1188 -11454 11511 0
-1188 -11455 11512 0
-1188 -11456 11513 0
-1188 -11457 11514 0
-1188 -11458 11515 0
-1188 -11459 11516 0
-1188 -11460 11517 0
-1188 -11461 11518 0
-1188 -11462 11519 0
-1188 -11463 11520 0
-1188 -11464 11521 0
-1188 -11465 11522 0
-1188 -11466 11523 0
-1188 -11467 11524 0
-1188 -11468 11525 0
-1188 -11469 11526 0
-1188 -11470 11527 0
-1188 -11471 11528 0
-1188 -11472 11529 0
-1188 -11473 11530 0
-1188 -11474 11531 0
-1188 -11475 11532 0
-1188 -11476 11533 0
-1188 -11477 11534 0
-1188 -11478 11535 0
-1188 -11479 11536 0
-1188 -11480 11537 0
-1188 -11481 11538 0
-1188 -11482 11539 0
-1188 -11483 11540 0
-1188 -11484 11541 0
-1188 -11485 11542 0
-1188 -11486 11543 0
-1188 -11487 11544 0
-1188 -11488 0
-11489 11545 0
-11490 11546 0
-11491 11547 0
-11492 11548 0
-11493 11549 0
-11494 11550 0
-11495 11551 0
-11496 11552 0
-11497 11553 0
-11498 11554 0
-11499 11555 0
-11500 11556 0
-11501 11557 0
-11502 11558 0
-11503 11559 0
-11504 11560 0
-11505 11561 0
-11506 11562 0
-11507 11563 0
-11508 11564 0
-11509 11565 0
-11510 11566 0
-11511 11567 0
-11512 11568 0
-11513 11569 0
-11514 11570 0
-11515 11571 0
-11516 11572 0
-11517 11573 0
-11518 11574 0
-11519 11575 0
-11520 11576 0
-11521 11577 0
-11522 11578 0
-11523 11579 0
-11524 11580 0
-11525 11581 0
-11526 11582 0
-11527 11583 0
-11528 11584 0
-11529 11585 0
-11530 11586 0
-11531 11587 0
-11532 11588 0
-11533 11589 0
-11534 11590 0
-11535 11591 0
-11536 11592 0
-11537 11593 0
-11538 11594 0
-11539 11595 0
-11540 11596 0
-11541 11597 0
-11542 11598 0
-11543 11599 0
-11544 11600 0
-1190 -11489 11546 0
-1190 -11490 11547 0
-1190 -11491 11548 0
-1190 -11492 11549 0
-1190 -11493 11550 0
-1190 -11494 11551 0
-1190 -11495 11552 0
-1190 -11496 11553 0
-1190 -11497 11554 0
-1190 -11498 11555 0
-1190 -11499 11556 0
-1190 -11500 11557 0
-1190 -11501 11558 0
-1190 -11502 11559 0
-1190 -11503 11560 0
-1190 -11504 11561 0
-1190 -11505 11562 0
-1190 -11506 11563 0
-1190 -11507 11564 0
-1190 -11508 11565 0
-1190 -11509 11566 0
-1190 -11510 11567 0
-1190 -11511 11568 0
-1190 -11512 11569 0
-1190 -11513 11570 0
-1190 -11514 11571 0
-1190 -11515 11572 0
-1190 -11516 11573 0
-1190 -11517 11574 0
-1190 -11518 11575 0
-1190 -11519 11576 0
-1190 -11520 11577 0
-1190 -11521 11578 0
-1190 -11522 11579 0
-1190 -11523 11580 0
-1190 -11524 11581 0
-1190 -11525 11582 0
-1190 -11526 11583 0
-1190 -11527 11584 0
-1190 -11528 11585 0
-1190 -11529 11586 0
-1190 -11530 11587 0
-1190 -11531 11588 0
-1190 -11532 11589 0
-1190 -11533 11590 0
-1190 -11534 11591 0
-1190 -11535 11592 0
-1190 -11536 11593 0
-1190 -11537 11594 0
-1190 -11538 11595 0
-1190 -11539 11596 0
-1190 -11540 11597 0
-1190 -11541 11598 0
-1190 -11542 11599 0
-1190 -11543 11600 0
-1190 -11544 0
-11545 11601 0
-11546 11602 0
-11547 11603 0
-11548 11604 0
-11549 11605 0
-11550 11606 0
-11551 11607 0
-11552 11608 0
-11553 11609 0
-11554 11610 0
-11555 11611 0
-11556 11612 0
-11557 11613 0
-11558 11614 0
-11559 11615 0
-11560 11616 0
-11561 11617 0
-11562 11618 0
-11563 11619 0
-11564 11620 0
-11565 11621 0
-11566 11622 0
-11567 11623 0
-11568 11624 0
-11569 11625 0
-11570 11626 0
-11571 11627 0
-11572 11628 0
-11573 11629 0
-11574 11630 0
-11575 11631 0
-11576 11632 0
-11577 11633 0
-11578 11634 0
-11579 11635 0
-11580 11636 0
-11581 11637 0
-11582 11638 0
-11583 11639 0
-11584 11640 0
-11585 11641 0
-11586 11642 0
-11587 11643 0
-11588 11644 0
-11589 11645 0
-11590 11646 0
-11591 11647 0
-11592 11648 0
-11593 11649 0
-11594 11650 0
-11595 11651 0
-11596 11652 0
-11597 11653 0
-11598 11654 0
-11599 11655 0
-11600 11656 0
-1192 -11545 11602 0
-1192 -11546 11603 0
-1192 -11547 11604 0
-1192 -11548 11605 0
-1192 -11549 11606 0
-1192 -11550 11607 0
-1192 -11551 11608 0
-1192 -11552 11609 0
-1192 -11553 11610 0
-1192 -11554 11611 0
-1192 -11555 11612 0
-1192 -11556 11613 0
-1192 -11557 11614 0
-1192 -11558 11615 0
-1192 -11559 11616 0
-1192 -11560 11617 0
-1192 -11561 11618 0
-1192 -11562 11619 0
-1192 -11563 11620 0
-1192 -11564 11621 0
-1192 -11565 11622 0
-1192 -11566 11623 0
-1192 -11567 11624 0
-1192 -11568 11625 0
-1192 -11569 11626 0
-1192 -11570 11627 0
-1192 -11571 11628 0
-1192 -11572 11629 0
-1192 -11573 11630 0
-1192 -11574 11631 0
-1192 -11575 11632 0
-1192 -11576 11633 0
-1192 -11577 11634 0
-1192 -11578 11635 0
-1192 -11579 11636 0
-1192 -11580 11637 0
-1192 -11581 11638 0
-1192 -11582 11639 0
-1192 -11583 11640 0
-1192 -11584 11641 0
-1192 -11585 11642 0
-1192 -11586 11643 0
-1192 -11587 11644 0
-1192 -11588 11645 0
-1192 -11589 11646 0
-1192 -11590 11647 0
-1192 -11591 11648 0
-1192 -11592 11649 0
-1192 -11593 11650 0
-1192 -11594 11651 0
-1192 -11595 11652 0
-1192 -11596 11653 0
-1192 -11597 11654 0
-1192 -11598 11655 0
-1192 -11599 11656 0
-1192 -11600 0
-11601 11657 0
-11602 11658 0
-11603 11659 0
-11604 11660 0
-11605 11661 0
-11606 11662 0
-11607 11663 0
-11608 11664 0
-11609 11665 0
-11610 11666 0
-11611 11667 0
-11612 11668 0
-11613 11669 0
-11614 11670 0
-11615 11671 0
-11616 11672 0
-11617 11673 0
-11618 11674 0
-11619 11675 0
-11620 11676 0
-11621 11677 0
-11622 11678 0
-11623 11679 0
-11624 11680 0
-11625 11681 0
-11626 11682 0
-11627 11683 0
-11628 11684 0
-11629 11685 0
-11630 11686 0
-11631 11687 0
-11632 11688 0
-11633 11689 0
-11634 11690 0
-11635 11691 0
-11636 11692 0
-11637 11693 0
-11638 11694 0
-11639 11695 0
-11640 11696 0
-11641 11697 0
-11642 11698 0
-11643 11699 0
-11644 11700 0
-11645 11701 0
-11646 11702 0
-11647 11703 0
-11648 11704 0
-11649 11705 0
-11650 11706 0
-11651 11707 0
-11652 11708 0
-11653 11709 0
-11654 11710 0
-11655 11711 0
-11656 11712 0
-1194 -11601 11658 0
-1194 -11602 11659 0
-1194 -11603 11660 0
-1194 -11604 11661 0
-1194 -11605 11662 0
-1194 -11606 11663 0
-1194 -11607 11664 0
-1194 -11608 11665 0
-1194 -11609 11666 0
-1194 -11610 11667 0
-1194 -11611 11668 0
-1194 -11612 11669 0
-1194 -11613 11670 0
-1194 -11614 11671 0
-1194 -11615 11672 0
-1194 -11616 11673 0
-1194 -11617 11674 0
-1194 -11618 11675 0
-1194 -11619 11676 0
-1194 -11620 11677 0
-1194 -11621 11678 0
-1194 -11622 11679 0
-1194 -11623 11680 0
-1194 -11624 11681 0
-1194 -11625 11682 0
-1194 -11626 11683 0
-1194 -11627 11684 0
-1194 -11628 11685 0
-1194 -11629 11686 0
-1194 -11630 11687 0
-1194 -11631 11688 0
-1194 -11632 11689 0
-1194 -11633 11690 0
-1194 -11634 11691 0
-1194 -11635 11692 0
-1194 -11636 11693 0
-1194 -11637 11694 0
-1194 -11638 11695 0
-1194 -11639 11696 0
-1194 -11640 11697 0
-1194 -11641 11698 0
-1194 -11642 11699 0
-1194 -11643 11700 0
-1194 -11644 11701 0
-1194 -11645 11702 0
-1194 -11646 11703 0
-1194 -11647 11704 0
-1194 -11648 11705 0
-1194 -11649 11706 0
-1194 -11650 11707 0
-1194 -11651 11708 0
-1194 -11652 11709 0
-1194 -11653 11710 0
-1194 -11654 11711 0
-1194 -11655 11712 0
-1194 -11656 0
-11657 11713 0
-11658 11714 0
-11659 11715 0
-11660 11716 0
-11661 11717 0
-11662 11718 0
-11663 11719 0
-11664 11720 0
-11665 11721 0
-11666 11722 0
-11667 11723 0
-11668 11724 0
-11669 11725 0
-11670 11726 0
-11671 11727 0
-11672 11728 0
-11673 11729 0
-11674 11730 0
-11675 11731 0
-11676 11732 0
-11677 11733 0
-11678 11734 0
-11679 11735 0
-11680 11736 0
-11681 11737 0
-11682 11738 0
-11683 11739 0
-11684 11740 0
-11685 11741 0
-11686 11742 0
-11687 11743 0
-11688 11744 0
-11689 11745 0
-11690 11746 0
-11691 11747 0
-11692 11748 0
-11693 11749 0
-11694 11750 0
-11695 11751 0
-11696 11752 0
-11697 11753 0
-11698 11754 0
-11699 11755 0
-11700 11756 0
-11701 11757 0
-11702 11758 0
-11703 11759 0
-11704 11760 0
-11705 11761 0
-11706 11762 0
-11707 11763 0
-11708 11764 0
-11709 11765 0
-11710 11766 0
-11711 11767 0
-11712 11768 0
-1196 -11657 11714 0
-1196 -11658 11715 0
-1196 -11659 11716 0
-1196 -11660 11717 0
-1196 -11661 11718 0
-1196 -11662 11719 0
-1196 -11663 11720 0
-1196 -11664 11721 0
-1196 -11665 11722 0
-1196 -11666 11723 0
-1196 -11667 11724 0
-1196 -11668 11725 0
-1196 -11669 11726 0
-1196 -11670 11727 0
-1196 -11671 11728 0
-1196 -11672 11729 0
-1196 -11673 11730 0
-1196 -11674 11731 0
-1196 -11675 11732 0
-1196 -11676 11733 0
-1196 -11677 11734 0
-1196 -11678 11735 0
-1196 -11679 11736 0
-1196 -11680 11737 0
-1196 -11681 11738 0
-1196 -11682 11739 0
-1196 -11683 11740 0
-1196 -11684 11741 0
-1196 -11685 11742 0
-1196 -11686 11743 0
-1196 -11687 11744 0
-1196 -11688 11745 0
-1196 -11689 11746 0
-1196 -11690 11747 0
-1196 -11691 11748 0
-1196 -11692 11749 0
-1196 -11693 11750 0
-1196 -11694 11751 0
-1196 -11695 11752 0
-1196 -11696 11753 0
-1196 -11697 11754 0
-1196 -11698 11755 0
-1196 -11699 11756 0
-1196 -11700 11757 0
-1196 -11701 11758 0
-1196 -11702 11759 0
-1196 -11703 11760 0
-1196 -11704 11761 0
-1196 -11705 11762 0
-1196 -11706 11763 0
-1196 -11707 11764 0
-1196 -11708 11765 0
-1196 -11709 11766 0
-1196 -11710 11767 0
-1196 -11711 11768 0
-1196 -11712 0
-11713 11769 0
-11714 11770 0
-11715 11771 0
-11716 11772 0
-11717 11773 0
-11718 11774 0
-11719 11775 0
-11720 11776 0
-11721 11777 0
-11722 11778 0
-11723 11779 0
-11724 11780 0
-11725 11781 0
-11726 11782 0
-11727 11783 0
-11728 11784 0
-11729 11785 0
-11730 11786 0
-11731 11787 0
-11732 11788 0
-11733 11789 0
-11734 11790 0
-11735 11791 0
-11736 11792 0
-11737 11793 0
-11738 11794 0
-11739 11795 0
-11740 11796 0
-11741 11797 0
-11742 11798 0
-11743 11799 0
-11744 11800 0
-11745 11801 0
-11746 11802 0
-11747 11803 0
-11748 11804 0
-11749 11805 0
-11750 11806 0
-11751 11807 0
-11752 11808 0
-11753 11809 0
-11754 11810 0
-11755 11811 0
-11756 11812 0
-11757 11813 0
-11758 11814 0
-11759 11815 0
-11760 11816 0
-11761 11817 0
-11762 11818 0
-11763 11819 0
-11764 11820 0
-11765 11821 0
-11766 11822 0
-11767 11823 0
-11768 11824 0
-1198 -11713 11770 0
-1198 -11714 11771 0
-1198 -11715 11772 0
-1198 -11716 11773 0
-1198 -11717 11774 0
-1198 -11718 11775 0
-1198 -11719 11776 0
-1198 -11720 11777 0
-1198 -11721 11778 0
-1198 -11722 11779 0
-1198 -11723 11780 0
-1198 -11724 11781 0
-1198 -11725 11782 0
-1198 -11726 11783 0
-1198 -11727 11784 0
-1198 -11728 11785 0
-1198 -11729 11786 0
-1198 -11730 11787 0
-1198 -11731 11788 0
-1198 -11732 11789 0
-1198 -11733 11790 0
-1198 -11734 11791 0
-1198 -11735 11792 0
-1198 -11736 11793 0
-1198 -11737 11794 0
-1198 -11738 11795 0
-1198 -11739 11796 0
-1198 -11740 11797 0
-1198 -11741 11798 0
-1198 -11742 11799 0
-1198 -11743 11800 0
-1198 -11744 11801 0
-1198 -11745 11802 0
-1198 -11746 11803 0
-1198 -11747 11804 0
-1198 -11748 11805 0
-1198 -11749 11806 0
-1198 -11750 11807 0
-1198 -11751 11808 0
-1198 -11752 11809 0
-1198 -11753 11810 0
-1198 -11754 11811 0
-1198 -11755 11812 0
-1198 -11756 11813 0
-1198 -11757 11814 0
-1198 -11758 11815 0
-1198 -11759 11816 0
-1198 -11760 11817 0
-1198 -11761 11818 0
-1198 -11762 11819 0
-1198 -11763 11820 0
-1198 -11764 11821 0
-1198 -11765 11822 0
-1198 -11766 11823 0
-1198 -11767 11824 0
-1198 -11768 0
-11769 11825 0
-11770 11826 0
-11771 11827 0
-11772 11828 0
-11773 11829 0
-11774 11830 0
-11775 11831 0
-11776 11832 0
-11777 11833 0
-11778 11834 0
-11779 11835 0
-11780 11836 0
-11781 11837 0
-11782 11838 0
-11783 11839 0
-11784 11840 0
-11785 11841 0
-11786 11842 0
-11787 11843 0
-11788 11844 0
-11789 11845 0
-11790 11846 0
-11791 11847 0
-11792 11848 0
-11793 11849 0
-11794 11850 0
-11795 11851 0
-11796 11852 0
-11797 11853 0
-11798 11854 0
-11799 11855 0
-11800 11856 0
-11801 11857 0
-11802 11858 0
-11803 11859 0
-11804 11860 0
-11805 11861 0
-11806 11862 0
-11807 11863 0
-11808 11864 0
-11809 11865 0
-11810 11866 0
-11811 11867 0
-11812 11868 0
-11813 11869 0
-11814 11870 0
-11815 11871 0
-11816 11872 0
-11817 11873 0
-11818 11874 0
-11819 11875 0
-11820 11876 0
-11821 11877 0
-11822 11878 0
-11823 11879 0
-11824 11880 0
-1200 -11769 11826 0
-1200 -11770 11827 0
-1200 -11771 11828 0
-1200 -11772 11829 0
-1200 -11773 11830 0
-1200 -11774 11831 0
-1200 -11775 11832 0
-1200 -11776 11833 0
-1200 -11777 11834 0
-1200 -11778 11835 0
-1200 -11779 11836 0
-1200 -11780 11837 0
-1200 -11781 11838 0
-1200 -11782 11839 0
-1200 -11783 11840 0
-1200 -11784 11841 0
-1200 -11785 11842 0
-1200 -11786 11843 0
-1200 -11787 11844 0
-1200 -11788 11845 0
-1200 -11789 11846 0
-1200 -11790 11847 0
-1200 -11791 11848 0
-1200 -11792 11849 0
-1200 -11793 11850 0
-1200 -11794 11851 0
-1200 -11795 11852 0
-1200 -11796 11853 0
-1200 -11797 11854 0
-1200 -11798 11855 0
-1200 -11799 11856 0
-1200 -11800 11857 0
-1200 -11801 11858 0
-1200 -11802 11859 0
-1200 -11803 11860 0
-1200 -11804 11861 0
-1200 -11805 11862 0
-1200 -11806 11863 0
-1200 -11807 11864 0
-1200 -11808 11865 0
-1200 -11809 11866 0
-1200 -11810 11867 0
-1200 -11811 11868 0
-1200 -11812 11869 0
-1200 -11813 11870 0
-1200 -11814 11871 0
-1200 -11815 11872 0
-1200 -11816 11873 0
-1200 -11817 11874 0
-1200 -11818 11875 0
-1200 -11819 11876 0
-1200 -11820 11877 0
-1200 -11821 11878 0
-1200 -11822 11879 0
-1200 -11823 11880 0
-1200 -11824 0
-11825 11881 0
-11826 11882 0
-11827 11883 0
-11828 11884 0
-11829 11885 0
-11830 11886 0
-11831 11887 0
-11832 11888 0
-11833 11889 0
-11834 11890 0
-11835 11891 0
-11836 11892 0
-11837 11893 0
-11838 11894 0
-11839 11895 0
-11840 11896 0
-11841 11897 0
-11842 11898 0
-11843 11899 0
-11844 11900 0
-11845 11901 0
-11846 11902 0
-11847 11903 0
-11848 11904 0
-11849 11905 0
-11850 11906 0
-11851 11907 0
-11852 11908 0
-11853 11909 0
-11854 11910 0
-11855 11911 0
-11856 11912 0
-11857 11913 0
-11858 11914 0
-11859 11915 0
-11860 11916 0
-11861 11917 0
-11862 11918 0
-11863 11919 0
-11864 11920 0
-11865 11921 0
-11866 11922 0
-11867 11923 0
-11868 11924 0
-11869 11925 0
-11870 11926 0
-11871 11927 0
-11872 11928 0
-11873 11929 0
-11874 11930 0
-11875 11931 0
-11876 11932 0
-11877 11933 0
-11878 11934 0
-11879 11935 0
-11880 11936 0
-1202 -11825 11882 0
-1202 -11826 11883 0
-1202 -11827 11884 0
-1202 -11828 11885 0
-1202 -11829 11886 0
-1202 -11830 11887 0
-1202 -11831 11888 0
-1202 -11832 11889 0
-1202 -11833 11890 0
-1202 -11834 11891 0
-1202 -11835 11892 0
-1202 -11836 11893 0
-1202 -11837 11894 0
-1202 -11838 11895 0
-1202 -11839 11896 0
-1202 -11840 11897 0
-1202 -11841 11898 0
-1202 -11842 11899 0
-1202 -11843 11900 0
-1202 -11844 11901 0
-1202 -11845 11902 0
-1202 -11846 11903 0
-1202 -11847 11904 0
-1202 -11848 11905 0
-1202 -11849 11906 0
-1202 -11850 11907 0
-1202 -11851 11908 0
-1202 -11852 11909 0
-1202 -11853 11910 0
-1202 -11854 11911 0
-1202 -11855 11912 0
-1202 -11856 11913 0
-1202 -11857 11914 0
-1202 -11858 11915 0
-1202 -11859 11916 0
-1202 -11860 11917 0
-1202 -11861 11918 0
-1202 -11862 11919 0
-1202 -11863 11920 0
-1202 -11864 11921 0
-1202 -11865 11922 0
-1202 -11866 11923 0
-1202 -11867 11924 0
-1202 -11868 11925 0
-1202 -11869 11926 0
-1202 -11870 11927 0
-1202 -11871 11928 0
-1202 -11872 11929 0
-1202 -11873 11930 0
-1202 -11874 11931 0
-1202 -11875 11932 0
-1202 -11876 11933 0
-1202 -11877 11934 0
-1202 -11878 11935 0
-1202 -11879 11936 0
-1202 -11880 0
-11881 11937 0
-11882 11938 0
-11883 11939 0
-11884 11940 0
-11885 11941 0
-11886 11942 0
-11887 11943 0
-11888 11944 0
-11889 11945 0
-11890 11946 0
-11891 11947 0
-11892 11948 0
-11893 11949 0
-11894 11950 0
-11895 11951 0
-11896 11952 0
-11897 11953 0
-11898 11954 0
-11899 11955 0
-11900 11956 0
-11901 11957 0
-11902 11958 0
-11903 11959 0
-11904 11960 0
-11905 11961 0
-11906 11962 0
-11907 11963 0
-11908 11964 0
-11909 11965 0
-11910 11966 0
-11911 11967 0
-11912 11968 0
-11913 11969 0
-11914 11970 0
-11915 11971 0
-11916 11972 0
-11917 11973 0
-11918 11974 0
-11919 11975 0
-11920 11976 0
-11921 11977 0
-11922 11978 0
-11923 11979 0
-11924 11980 0
-11925 11981 0
-11926 11982 0
-11927 11983 0
-11928 11984 0
-11929 11985 0
-11930 11986 0
-11931 11987 0
-11932 11988 0
-11933 11989 0
-11934 11990 0
-11935 11991 0
-11936 11992 0
-1204 -11881 11938 0
-1204 -11882 11939 0
-1204 -11883 11940 0
-1204 -11884 11941 0
-1204 -11885 11942 0
-1204 -11886 11943 0
-1204 -11887 11944 0
-1204 -11888 11945 0
-1204 -11889 11946 0
-1204 -11890 11947 0
-1204 -11891 11948 0
-1204 -11892 11949 0
-1204 -11893 11950 0
-1204 -11894 11951 0
-1204 -11895 11952 0
-1204 -11896 11953 0
-1204 -11897 11954 0
-1204 -11898 11955 0
-1204 -11899 11956 0
-1204 -11900 11957 0
-1204 -11901 11958 0
-1204 -11902 11959 0
-1204 -11903 11960 0
-1204 -11904 11961 0
-1204 -11905 11962 0
-1204 -11906 11963 0
-1204 -11907 11964 0
-1204 -11908 11965 0
-1204 -11909 11966 0
-1204 -11910 11967 0
-1204 -11911 11968 0
-1204 -11912 11969 0
-1204 -11913 11970 0
-1204 -11914 11971 0
-1204 -11915 11972 0
-1204 -11916 11973 0
-1204 -11917 11974 0
-1204 -11918 11975 0
-1204 -11919 11976 0
-1204 -11920 11977 0
-1204 -11921 11978 0
-1204 -11922 11979 0
-1204 -11923 11980 0
-1204 -11924 11981 0
-1204 -11925 11982 0
-1204 -11926 11983 0
-1204 -11927 11984 0
-1204 -11928 11985 0
-1204 -11929 11986 0
-1204 -11930 11987 0
-1204 -11931 11988 0
-1204 -11932 11989 0
-1204 -11933 11990 0
-1204 -11934 11991 0
-1204 -11935 11992 0
-1204 -11936 0
-11937 11993 0
-11938 11994 0
-11939 11995 0
-11940 11996 0
-11941 11997 0
-11942 11998 0
-11943 11999 0
-11944 12000 0
-11945 12001 0
-11946 12002 0
-11947 12003 0
-11948 12004 0
-11949 12005 0
-11950 12006 0
-11951 12007 0
-11952 12008 0
-11953 12009 0
-11954 12010 0
-11955 12011 0
-11956 12012 0
-11957 12013 0
-11958 12014 0
-11959 12015 0
-11960 12016 0
-11961 12017 0
-11962 12018 0
-11963 12019 0
-11964 12020 0
-11965 12021 0
-11966 12022 0
-11967 12023 0
-11968 12024 0
-11969 12025 0
-11970 12026 0
-11971 12027 0
-11972 12028 0
-11973 12029 0
-11974 12030 0
-11975 12031 0
-11976 12032 0
-11977 12033 0
-11978 12034 0
-11979 12035 0
-11980 12036 0
-11981 12037 0
-11982 12038 0
-11983 12039 0
-11984 12040 0
-11985 12041 0
-11986 12042 0
-11987 12043 0
-11988 12044 0
-11989 12045 0
-11990 12046 0
-11991 12047 0
-11992 12048 0
-1206 -11937 11994 0
-1206 -11938 11995 0
-1206 -11939 11996 0
-1206 -11940 11997 0
-1206 -11941 11998 0
-1206 -11942 11999 0
-1206 -11943 12000 0
-1206 -11944 12001 0
-1206 -11945 12002 0
-1206 -11946 12003 0
-1206 -11947 12004 0
-1206 -11948 12005 0
-1206 -11949 12006 0
-1206 -11950 12007 0
-1206 -11951 12008 0
-1206 -11952 12009 0
-1206 -11953 12010 0
-1206 -11954 12011 0
-1206 -11955 12012 0
-1206 -11956 12013 0
-1206 -11957 12014 0
-1206 -11958 12015 0
-1206 -11959 12016 0
-1206 -11960 12017 0
-1206 -11961 12018 0
-1206 -11962 12019 0
-1206 -11963 12020 0
-1206 -11964 12021 0
-1206 -11965 12022 0
-1206 -11966 12023 0
-1206 -11967 12024 0
-1206 -11968 12025 0
-1206 -11969 12026 0
-1206 -11970 12027 0
-1206 -11971 12028 0
-1206 -11972 12029 0
-1206 -11973 12030 0
-1206 -11974 12031 0
-1206 -11975 12032 0
-1206 -11976 12033 0
-1206 -11977 12034 0
-1206 -11978 12035 0
-1206 -11979 12036 0
-1206 -11980 12037 0
-1206 -11981 12038 0
-1206 -11982 12039 0
-1206 -11983 12040 0
-1206 -11984 12041 0
-1206 -11985 12042 0
-1206 -11986 12043 0
-1206 -11987 12044 0
-1206 -11988 12045 0
-1206 -11989 12046 0
-1206 -11990 12047 0
-1206 -11991 12048 0
-1206 -11992 0
-11993 12049 0
-11994 12050 0
-11995 12051 0
-11996 12052 0
-11997 12053 0
-11998 12054 0
-11999 12055 0
-12000 12056 0
-12001 12057 0
-12002 12058 0
-12003 12059 0
-12004 12060 0
-12005 12061 0
-12006 12062 0
-12007 12063 0
-12008 12064 0
-12009 12065 0
-12010 12066 0
-12011 12067 0
-12012 12068 0
-12013 12069 0
-12014 12070 0
-12015 12071 0
-12016 12072 0
-12017 12073 0
-12018 12074 0
-12019 12075 0
-12020 12076 0
-12021 12077 0
-12022 12078 0
-12023 12079 0
-12024 12080 0
-12025 12081 0
-12026 12082 0
-12027 12083 0
-12028 12084 0
-12029 12085 0
-12030 12086 0
-12031 12087 0
-12032 12088 0
-12033 12089 0
-12034 12090 0
-12035 12091 0
-12036 12092 0
-12037 12093 0
-12038 12094 0
-12039 12095 0
-12040 12096 0
-12041 12097 0
-12042 12098 0
-12043 12099 0
-12044 12100 0
-12045 12101 0
-12046 12102 0
-12047 12103 0
-12048 12104 0
-1208 -11993 12050 0
-1208 -11994 12051 0
-1208 -11995 12052 0
-1208 -11996 12053 0
-1208 -11997 12054 0
-1208 -11998 12055 0
-1208 -11999 12056 0
-1208 -12000 12057 0
-1208 -12001 12058 0
-1208 -12002 12059 0
-1208 -12003 12060 0
-1208 -12004 12061 0
-1208 -12005 12062 0
-1208 -12006 12063 0
-1208 -12007 12064 0
-1208 -12008 12065 0
-1208 -12009 12066 0
-1208 -12010 12067 0
-1208 -12011 12068 0
-1208 -12012 12069 0
-1208 -12013 12070 0
-1208 -12014 12071 0
-1208 -12015 12072 0
-1208 -12016 12073 0
-1208 -12017 12074 0
-1208 -12018 12075 0
-1208 -12019 12076 0
-1208 -12020 12077 0
-1208 -12021 12078 0
-1208 -12022 12079 0
-1208 -12023 12080 0
-1208 -12024 12081 0
-1208 -12025 12082 0
-1208 -12026 12083 0
-1208 -12027 12084 0
-1208 -12028 12085 0
-1208 -12029 12086 0
-1208 -12030 12087 0
-1208 -12031 12088 0
-1208 -12032 12089 0
-1208 -12033 12090 0
-1208 -12034 12091 0
-1208 -12035 12092 0
-1208 -12036 12093 0
-1208 -12037 12094 0
-1208 -12038 12095 0
-1208 -12039 12096 0
-1208 -12040 12097 0
-1208 -12041 12098 0
-1208 -12042 12099 0
-1208 -12043 12100 0
-1208 -12044 12101 0
-1208 -12045 12102 0
-1208 -12046 12103 0
-1208 -12047 12104 0
-1208 -12048 0
-12049 12105 0
-12050 12106 0
-12051 12107 0
-12052 12108 0
-12053 12109 0
-12054 12110 0
-12055 12111 0
-12056 12112 0
-12057 12113 0
-12058 12114 0
-12059 12115 0
-12060 12116 0
-12061 12117 0
-12062 12118 0
-12063 12119 0
-12064 12120 0
-12065 12121 0
-12066 12122 0
-12067 12123 0
-12068 12124 0
-12069 12125 0
-12070 12126 0
-12071 12127 0
-12072 12128 0
-12073 12129 0
-12074 12130 0
-12075 12131 0
-12076 12132 0
-12077 12133 0
-12078 12134 0
-12079 12135 0
-12080 12136 0
-12081 12137 0
-12082 12138 0
-12083 12139 0
-12084 12140 0
-12085 12141 0
-12086 12142 0
-12087 12143 0
-12088 12144 0
-12089 12145 0
-12090 12146 0
-12091 12147 0
-12092 12148 0
-12093 12149 0
-12094 12150 0
-12095 12151 0
-12096 12152 0
-12097 12153 0
-12098 12154 0
-12099 12155 0
-12100 12156 0
-12101 12157 0
-12102 12158 0
-12103 12159 0
-12104 12160 0
-1210 -12049 12106 0
-1210 -12050 12107 0
-1210 -12051 12108 0
-1210 -12052 12109 0
-1210 -12053 12110 0
-1210 -12054 12111 0
-1210 -12055 12112 0
-1210 -12056 12113 0
-1210 -12057 12114 0
-1210 -12058 12115 0
-1210 -12059 12116 0
-1210 -12060 12117 0
-1210 -12061 12118 0
-1210 -12062 12119 0
-1210 -12063 12120 0
-1210 -12064 12121 0
-1210 -12065 12122 0
-1210 -12066 12123 0
-1210 -12067 12124 0
-1210 -12068 12125 0
-1210 -12069 12126 0
-1210 -12070 12127 0
-1210 -12071 12128 0
-1210 -12072 12129 0
-1210 -12073 12130 0
-1210 -12074 12131 0
-1210 -12075 12132 0
-1210 -12076 12133 0
-1210 -12077 12134 0
-1210 -12078 12135 0
-1210 -12079 12136 0
-1210 -12080 12137 0
-1210 -12081 12138 0
-1210 -12082 12139 0
-1210 -12083 12140 0
-1210 -12084 12141 0
-1210 -12085 12142 0
-1210 -12086 12143 0
-1210 -12087 12144 0
-1210 -12088 12145 0
-1210 -12089 12146 0
-1210 -12090 12147 0
-1210 -12091 12148 0
-1210 -12092 12149 0
-1210 -12093 12150 0
-1210 -12094 12151 0
-1210 -12095 12152 0
-1210 -12096 12153 0
-1210 -12097 12154 0
-1210 -12098 12155 0
-1210 -12099 12156 0
-1210 -12100 12157 0
-1210 -12101 12158 0
-1210 -12102 12159 0
-1210 -12103 12160 0
-1210 -12104 0
-12105 12161 0
-12106 12162 0
-12107 12163 0
-12108 12164 0
-12109 12165 0
-12110 12166 0
-12111 12167 0
-12112 12168 0
-12113 12169 0
-12114 12170 0
-12115 12171 0
-12116 12172 0
-12117 12173 0
-12118 12174 0
-12119 12175 0
-12120 12176 0
-12121 12177 0
-12122 12178 0
-12123 12179 0
-12124 12180 0
-12125 12181 0
-12126 12182 0
-12127 12183 0
-12128 12184 0
-12129 12185 0
-12130 12186 0
-12131 12187 0
-12132 12188 0
-12133 12189 0
-12134 12190 0
-12135 12191 0
-12136 12192 0
-12137 12193 0
-12138 12194 0
-12139 12195 0
-12140 12196 0
-12141 12197 0
-12142 12198 0
-12143 12199 0
-12144 12200 0
-12145 12201 0
-12146 12202 0
-12147 12203 0
-12148 12204 0
-12149 12205 0
-12150 12206 0
-12151 12207 0
-12152 12208 0
-12153 12209 0
-12154 12210 0
-12155 12211 0
-12156 12212 0
-12157 12213 0
-12158 12214 0
-12159 12215 0
-12160 12216 0
-1212 -12105 12162 0
-1212 -12106 12163 0
-1212 -12107 12164 0
-1212 -12108 12165 0
-1212 -12109 12166 0
-1212 -12110 12167 0
-1212 -12111 12168 0
-1212 -12112 12169 0
-1212 -12113 12170 0
-1212 -12114 12171 0
-1212 -12115 12172 0
-1212 -12116 12173 0
-1212 -12117 12174 0
-1212 -12118 12175 0
-1212 -12119 12176 0
-1212 -12120 12177 0
-1212 -12121 12178 0
-1212 -12122 12179 0
-1212 -12123 12180 0
-1212 -12124 12181 0
-1212 -12125 12182 0
-1212 -12126 12183 0
-1212 -12127 12184 0
-1212 -12128 12185 0
-1212 -12129 12186 0
-1212 -12130 12187 0
-1212 -12131 12188 0
-1212 -12132 12189 0
-1212 -12133 12190 0
-1212 -12134 12191 0
-1212 -12135 12192 0
-1212 -12136 12193 0
-1212 -12137 12194 0
-1212 -12138 12195 0
-1212 -12139 12196 0
-1212 -12140 12197 0
-1212 -12141 12198 0
-1212 -12142 12199 0
-1212 -12143 12200 0
-1212 -12144 12201 0
-1212 -12145 12202 0
-1212 -12146 12203 0
-1212 -12147 12204 0
-1212 -12148 12205 0
-1212 -12149 12206 0
-1212 -12150 12207 0
-1212 -12151 12208 0
-1212 -12152 12209 0
-1212 -12153 12210 0
-1212 -12154 12211 0
-1212 -12155 12212 0
-1212 -12156 12213 0
-1212 -12157 12214 0
-1212 -12158 12215 0
-1212 -12159 12216 0
-1212 -12160 0
-12161 12217 0
-12162 12218 0
-12163 12219 0
-12164 12220 0
-12165 12221 0
-12166 12222 0
-12167 12223 0
-12168 12224 0
-12169 12225 0
-12170 12226 0
-12171 12227 0
-12172 12228 0
-12173 12229 0
-12174 12230 0
-12175 12231 0
-12176 12232 0
-12177 12233 0
-12178 12234 0
-12179 12235 0
-12180 12236 0
-12181 12237 0
-12182 12238 0
-12183 12239 0
-12184 12240 0
-12185 12241 0
-12186 12242 0
-12187 12243 0
-12188 12244 0
-12189 12245 0
-12190 12246 0
-12191 12247 0
-12192 12248 0
-12193 12249 0
-12194 12250 0
-12195 12251 0
-12196 12252 0
-12197 12253 0
-12198 12254 0
-12199 12255 0
-12200 12256 0
-12201 12257 0
-12202 12258 0
-12203 12259 0
-12204 12260 0
-12205 12261 0
-12206 12262 0
-12207 12263 0
-12208 12264 0
-12209 12265 0
-12210 12266 0
-12211 12267 0
-12212 12268 0
-12213 12269 0
-12214 12270 0
-12215 12271 0
-12216 12272 0
-1214 -12161 12218 0
-1214 -12162 12219 0
-1214 -12163 12220 0
-1214 -12164 12221 0
-1214 -12165 12222 0
-1214 -12166 12223 0
-1214 -12167 12224 0
-1214 -12168 12225 0
-1214 -12169 12226 0
-1214 -12170 12227 0
-1214 -12171 12228 0
-1214 -12172 12229 0
-1214 -12173 12230 0
-1214 -12174 12231 0
-1214 -12175 12232 0
-1214 -12176 12233 0
-1214 -12177 12234 0
-1214 -12178 12235 0
-1214 -12179 12236 0
-1214 -12180 12237 0
-1214 -12181 12238 0
-1214 -12182 12239 0
-1214 -12183 12240 0
-1214 -12184 12241 0
-1214 -12185 12242 0
-1214 -12186 12243 0
-1214 -12187 12244 0
-1214 -12188 12245 0
-1214 -12189 12246 0
-1214 -12190 12247 0
-1214 -12191 12248 0
-1214 -12192 12249 0
-1214 -12193 12250 0
-1214 -12194 12251 0
-1214 -12195 12252 0
-1214 -12196 12253 0
-1214 -12197 12254 0
-1214 -12198 12255 0
-1214 -12199 12256 0
-1214 -12200 12257 0
-1214 -12201 12258 0
-1214 -12202 12259 0
-1214 -12203 12260 0
-1214 -12204 12261 0
-1214 -12205 12262 0
-1214 -12206 12263 0
-1214 -12207 12264 0
-1214 -12208 12265 0
-1214 -12209 12266 0
-1214 -12210 12267 0
-1214 -12211 12268 0
-1214 -12212 12269 0
-1214 -12213 12270 0
-1214 -12214 12271 0
-1214 -12215 12272 0
-1214 -12216 0
-12217 12273 0
-12218 12274 0
-12219 12275 0
-12220 12276 0
-12221 12277 0
-12222 12278 0
-12223 12279 0
-12224 12280 0
-12225 12281 0
-12226 12282 0
-12227 12283 0
-12228 12284 0
-12229 12285 0
-12230 12286 0
-12231 12287 0
-12232 12288 0
-12233 12289 0
-12234 12290 0
-12235 12291 0
-12236 12292 0
-12237 12293 0
-12238 12294 0
-12239 12295 0
-12240 12296 0
-12241 12297 0
-12242 12298 0
-12243 12299 0
-12244 12300 0
-12245 12301 0
-12246 12302 0
-12247 12303 0
-12248 12304 0
-12249 12305 0
-12250 12306 0
-12251 12307 0
-12252 12308 0
-12253 12309 0
-12254 12310 0
-12255 12311 0
-12256 12312 0
-12257 12313 0
-12258 12314 0
-12259 12315 0
-12260 12316 0
-12261 12317 0
-12262 12318 0
-12263 12319 0
-12264 12320 0
-12265 12321 0
-12266 12322 0
-12267 12323 0
-12268 12324 0
-12269 12325 0
-12270 12326 0
-12271 12327 0
-12272 12328 0
-1216 -12217 12274 0
-1216 -12218 12275 0
-1216 -12219 12276 0
-1216 -12220 12277 0
-1216 -12221 12278 0
-1216 -12222 12279 0
-1216 -12223 12280 0
-1216 -12224 12281 0
-1216 -12225 12282 0
-1216 -12226 12283 0
-1216 -12227 12284 0
-1216 -12228 12285 0
-1216 -12229 12286 0
-1216 -12230 12287 0
-1216 -12231 12288 0
-1216 -12232 12289 0
-1216 -12233 12290 0
-1216 -12234 12291 0
-1216 -12235 12292 0
-1216 -12236 12293 0
-1216 -12237 12294 0
-1216 -12238 12295 0
-1216 -12239 12296 0
-1216 -12240 12297 0
-1216 -12241 12298 0
-1216 -12242 12299 0
-1216 -12243 12300 0
-1216 -12244 12301 0
-1216 -12245 12302 0
-1216 -12246 12303 0
-1216 -12247 12304 0
-1216 -12248 12305 0
-1216 -12249 12306 0
-1216 -12250 12307 0
-1216 -12251 12308 0
-1216 -12252 12309 0
-1216 -12253 12310 0
-1216 -12254 12311 0
-1216 -12255 12312 0
-1216 -12256 12313 0
-1216 -12257 12314 0
-1216 -12258 12315 0
-1216 -12259 12316 0
-1216 -12260 12317 0
-1216 -12261 12318 0
-1216 -12262 12319 0
-1216 -12263 12320 0
-1216 -12264 12321 0
-1216 -12265 12322 0
-1216 -12266 12323 0
-1216 -12267 12324 0
-1216 -12268 12325 0
-1216 -12269 12326 0
-1216 -12270 12327 0
-1216 -12271 12328 0
-1216 -12272 0
-12273 12329 0
-12274 12330 0
-12275 12331 0
-12276 12332 0
-12277 12333 0
-12278 12334 0
-12279 12335 0
-12280 12336 0
-12281 12337 0
-12282 12338 0
-12283 12339 0
-12284 12340 0
-12285 12341 0
-12286 12342 0
-12287 12343 0
-12288 12344 0
-12289 12345 0
-12290 12346 0
-12291 12347 0
-12292 12348 0
-12293 12349 0
-12294 12350 0
-12295 12351 0
-12296 12352 0
-12297 12353 0
-12298 12354 0
-12299 12355 0
-12300 12356 0
-12301 12357 0
-12302 12358 0
-12303 12359 0
-12304 12360 0
-12305 12361 0
-12306 12362 0
-12307 12363 0
-12308 12364 0
-12309 12365 0
-12310 12366 0
-12311 12367 0
-12312 12368 0
-12313 12369 0
-12314 12370 0
-12315 12371 0
-12316 12372 0
-12317 12373 0
-12318 12374 0
-12319 12375 0
-12320 12376 0
-12321 12377 0
-12322 12378 0
-12323 12379 0
-12324 12380 0
-12325 12381 0
-12326 12382 0
-12327 12383 0
-12328 12384 0
-1218 -12273 12330 0
-1218 -12274 12331 0
-1218 -12275 12332 0
-1218 -12276 12333 0
-1218 -12277 12334 0
-1218 -12278 12335 0
-1218 -12279 12336 0
-1218 -12280 12337 0
-1218 -12281 12338 0
-1218 -12282 12339 0
-1218 -12283 12340 0
-1218 -12284 12341 0
-1218 -12285 12342 0
-1218 -12286 12343 0
-1218 -12287 12344 0
-1218 -12288 12345 0
-1218 -12289 12346 0
-1218 -12290 12347 0
-1218 -12291 12348 0
-1218 -12292 12349 0
-1218 -12293 12350 0
-1218 -12294 12351 0
-1218 -12295 12352 0
-1218 -12296 12353 0
-1218 -12297 12354 0
-1218 -12298 12355 0
-1218 -12299 12356 0
-1218 -12300 12357 0
-1218 -12301 12358 0
-1218 -12302 12359 0
-1218 -12303 12360 0
-1218 -12304 12361 0
-1218 -12305 12362 0
-1218 -12306 12363 0
-1218 -12307 12364 0
-1218 -12308 12365 0
-1218 -12309 12366 0
-1218 -12310 12367 0
-1218 -12311 12368 0
-1218 -12312 12369 0
-1218 -12313 12370 0
-1218 -12314 12371 0
-1218 -12315 12372 0
-1218 -12316 12373 0
-1218 -12317 12374 0
-1218 -12318 12375 0
-1218 -12319 12376 0
-1218 -12320 12377 0
-1218 -12321 12378 0
-1218 -12322 12379 0
-1218 -12323 12380 0
-1218 -12324 12381 0
-1218 -12325 12382 0
-1218 -12326 12383 0
-1218 -12327 12384 0
-1218 -12328 0
-12329 12385 0
-12330 12386 0
-12331 12387 0
-12332 12388 0
-12333 12389 0
-12334 12390 0
-12335 12391 0
-12336 12392 0
-12337 12393 0
-12338 12394 0
-12339 12395 0
-12340 12396 0
-12341 12397 0
-12342 12398 0
-12343 12399 0
-12344 12400 0
-12345 12401 0
-12346 12402 0
-12347 12403 0
-12348 12404 0
-12349 12405 0
-12350 12406 0
-12351 12407 0
-12352 12408 0
-12353 12409 0
-12354 12410 0
-12355 12411 0
-12356 12412 0
-12357 12413 0
-12358 12414 0
-12359 12415 0
-12360 12416 0
-12361 12417 0
-12362 12418 0
-12363 12419 0
-12364 12420 0
-12365 12421 0
-12366 12422 0
-12367 12423 0
-12368 12424 0
-12369 12425 0
-12370 12426 0
-12371 12427 0
-12372 12428 0
-12373 12429 0
-12374 12430 0
-12375 12431 0
-12376 12432 0
-12377 12433 0
-12378 12434 0
-12379 12435 0
-12380 12436 0
-12381 12437 0
-12382 12438 0
-12383 12439 0
-12384 12440 0
-1220 -12329 12386 0
-1220 -12330 12387 0
-1220 -12331 12388 0
-1220 -12332 12389 0
-1220 -12333 12390 0
-1220 -12334 12391 0
-1220 -12335 12392 0
-1220 -12336 12393 0
-1220 -12337 12394 0
-1220 -12338 12395 0
-1220 -12339 12396 0
-1220 -12340 12397 0
-1220 -12341 12398 0
-1220 -12342 12399 0
-1220 -12343 12400 0
-1220 -12344 12401 0
-1220 -12345 12402 0
-1220 -12346 12403 0
-1220 -12347 12404 0
-1220 -12348 12405 0
-1220 -12349 12406 0
-1220 -12350 12407 0
-1220 -12351 12408 0
-1220 -12352 12409 0
-1220 -12353 12410 0
-1220 -12354 12411 0
-1220 -12355 12412 0
-1220 -12356 12413 0
-1220 -12357 12414 0
-1220 -12358 12415 0
-1220 -12359 12416 0
-1220 -12360 12417 0
-1220 -12361 12418 0
-1220 -12362 12419 0
-1220 -12363 12420 0
-1220 -12364 12421 0
-1220 -12365 12422 0
-1220 -12366 12423 0
-1220 -12367 12424 0
-1220 -12368 12425 0
-1220 -12369 12426 0
-1220 -12370 12427 0
-1220 -12371 12428 0
-1220 -12372 12429 0
-1220 -12373 12430 0
-1220 -12374 12431 0
-1220 -12375 12432 0
-1220 -12376 12433 0
-1220 -12377 12434 0
-1220 -12378 12435 0
-1220 -12379 12436 0
-1220 -12380 12437 0
-1220 -12381 12438 0
-1220 -12382 12439 0
-1220 -12383 12440 0
-1220 -12384 0
-12385 12441 0
-12386 12442 0
-12387 12443 0
-12388 12444 0
-12389 12445 0
-12390 12446 0
-12391 12447 0
-12392 12448 0
-12393 12449 0
-12394 12450 0
-12395 12451 0
-12396 12452 0
-12397 12453 0
-12398 12454 0
-12399 12455 0
-12400 12456 0
-12401 12457 0
-12402 12458 0
-12403 12459 0
-12404 12460 0
-12405 12461 0
-12406 12462 0
-12407 12463 0
-12408 12464 0
-12409 12465 0
-12410 12466 0
-12411 12467 0
-12412 12468 0
-12413 12469 0
-12414 12470 0
-12415 12471 0
-12416 12472 0
-12417 12473 0
-12418 12474 0
-12419 12475 0
-12420 12476 0
-12421 12477 0
-12422 12478 0
-12423 12479 0
-12424 12480 0
-12425 12481 0
-12426 12482 0
-12427 12483 0
-12428 12484 0
-12429 12485 0
-12430 12486 0
-12431 12487 0
-12432 12488 0
-12433 12489 0
-12434 12490 0
-12435 12491 0
-12436 12492 0
-12437 12493 0
-12438 12494 0
-12439 12495 0
-12440 12496 0
-1222 -12385 12442 0
-1222 -12386 12443 0
-1222 -12387 12444 0
-1222 -12388 12445 0
-1222 -12389 12446 0
-1222 -12390 12447 0
-1222 -12391 12448 0
-1222 -12392 12449 0
-1222 -12393 12450 0
-1222 -12394 12451 0
-1222 -12395 12452 0
-1222 -12396 12453 0
-1222 -12397 12454 0
-1222 -12398 12455 0
-1222 -12399 12456 0
-1222 -12400 12457 0
-1222 -12401 12458 0
-1222 -12402 12459 0
-1222 -12403 12460 0
-1222 -12404 12461 0
-1222 -12405 12462 0
-1222 -12406 12463 0
-1222 -12407 12464 0
-1222 -12408 12465 0
-1222 -12409 12466 0
-1222 -12410 12467 0
-1222 -12411 12468 0
-1222 -12412 12469 0
-1222 -12413 12470 0
-1222 -12414 12471 0
-1222 -12415 12472 0
-1222 -12416 12473 0
-1222 -12417 12474 0
-1222 -12418 12475 0
-1222 -12419 12476 0
-1222 -12420 12477 0
-1222 -12421 12478 0
-1222 -12422 12479 0
-1222 -12423 12480 0
-1222 -12424 12481 0
-1222 -12425 12482 0
-1222 -12426 12483 0
-1222 -12427 12484 0
-1222 -12428 12485 0
-1222 -12429 12486 0
-1222 -12430 12487 0
-1222 -12431 12488 0
-1222 -12432 12489 0
-1222 -12433 12490 0
-1222 -12434 12491 0
-1222 -12435 12492 0
-1222 -12436 12493 0
-1222 -12437 12494 0
-1222 -12438 12495 0
-1222 -12439 12496 0
-1222 -12440 0
-12441 12497 0
-12442 12498 0
-12443 12499 0
-12444 12500 0
-12445 12501 0
-12446 12502 0
-12447 12503 0
-12448 12504 0
-12449 12505 0
-12450 12506 0
-12451 12507 0
-12452 12508 0
-12453 12509 0
-12454 12510 0
-12455 12511 0
-12456 12512 0
-12457 12513 0
-12458 12514 0
-12459 12515 0
-12460 12516 0
-12461 12517 0
-12462 12518 0
-12463 12519 0
-12464 12520 0
-12465 12521 0
-12466 12522 0
-12467 12523 0
-12468 12524 0
-12469 12525 0
-12470 12526 0
-12471 12527 0
-12472 12528 0
-12473 12529 0
-12474 12530 0
-12475 12531 0
-12476 12532 0
-12477 12533 0
-12478 12534 0
-12479 12535 0
-12480 12536 0
-12481 12537 0
-12482 12538 0
-12483 12539 0
-12484 12540 0
-12485 12541 0
-12486 12542 0
-12487 12543 0
-12488 12544 0
-12489 12545 0
-12490 12546 0
-12491 12547 0
-12492 12548 0
-12493 12549 0
-12494 12550 0
-12495 12551 0
-12496 12552 0
-1224 -12441 12498 0
-1224 -12442 12499 0
-1224 -12443 12500 0
-1224 -12444 12501 0
-1224 -12445 12502 0
-1224 -12446 12503 0
-1224 -12447 12504 0
-1224 -12448 12505 0
-1224 -12449 12506 0
-1224 -12450 12507 0
-1224 -12451 12508 0
-1224 -12452 12509 0
-1224 -12453 12510 0
-1224 -12454 12511 0
-1224 -12455 12512 0
-1224 -12456 12513 0
-1224 -12457 12514 0
-1224 -12458 12515 0
-1224 -12459 12516 0
-1224 -12460 12517 0
-1224 -12461 12518 0
-1224 -12462 12519 0
-1224 -12463 12520 0
-1224 -12464 12521 0
-1224 -12465 12522 0
-1224 -12466 12523 0
-1224 -12467 12524 0
-1224 -12468 12525 0
-1224 -12469 12526 0
-1224 -12470 12527 0
-1224 -12471 12528 0
-1224 -12472 12529 0
-1224 -12473 12530 0
-1224 -12474 12531 0
-1224 -12475 12532 0
-1224 -12476 12533 0
-1224 -12477 12534 0
-1224 -12478 12535 0
-1224 -12479 12536 0
-1224 -12480 12537 0
-1224 -12481 12538 0
-1224 -12482 12539 0
-1224 -12483 12540 0
-1224 -12484 12541 0
-1224 -12485 12542 0
-1224 -12486 12543 0
-1224 -12487 12544 0
-1224 -12488 12545 0
-1224 -12489 12546 0
-1224 -12490 12547 0
-1224 -12491 12548 0
-1224 -12492 12549 0
-1224 -12493 12550 0
-1224 -12494 12551 0
-1224 -12495 12552 0
-1224 -12496 0
-12497 12553 0
-12498 12554 0
-12499 12555 0
-12500 12556 0
-12501 12557 0
-12502 12558 0
-12503 12559 0
-12504 12560 0
-12505 12561 0
-12506 12562 0
-12507 12563 0
-12508 12564 0
-12509 12565 0
-12510 12566 0
-12511 12567 0
-12512 12568 0
-12513 12569 0
-12514 12570 0
-12515 12571 0
-12516 12572 0
-12517 12573 0
-12518 12574 0
-12519 12575 0
-12520 12576 0
-12521 12577 0
-12522 12578 0
-12523 12579 0
-12524 12580 0
-12525 12581 0
-12526 12582 0
-12527 12583 0
-12528 12584 0
-12529 12585 0
-12530 12586 0
-12531 12587 0
-12532 12588 0
-12533 12589 0
-12534 12590 0
-12535 12591 0
-12536 12592 0
-12537 12593 0
-12538 12594 0
-12539 12595 0
-12540 12596 0
-12541 12597 0
-12542 12598 0
-12543 12599 0
-12544 12600 0
-12545 12601 0
-12546 12602 0
-12547 12603 0
-12548 12604 0
-12549 12605 0
-12550 12606 0
-12551 12607 0
-12552 12608 0
-1226 -12497 12554 0
-1226 -12498 12555 0
-1226 -12499 12556 0
-1226 -12500 12557 0
-1226 -12501 12558 0
-1226 -12502 12559 0
-1226 -12503 12560 0
-1226 -12504 12561 0
-1226 -12505 12562 0
-1226 -12506 12563 0
-1226 -12507 12564 0
-1226 -12508 12565 0
-1226 -12509 12566 0
-1226 -12510 12567 0
-1226 -12511 12568 0
-1226 -12512 12569 0
-1226 -12513 12570 0
-1226 -12514 12571 0
-1226 -12515 12572 0
-1226 -12516 12573 0
-1226 -12517 12574 0
-1226 -12518 12575 0
-1226 -12519 12576 0
-1226 -12520 12577 0
-1226 -12521 12578 0
-1226 -12522 12579 0
-1226 -12523 12580 0
-1226 -12524 12581 0
-1226 -12525 12582 0
-1226 -12526 12583 0
-1226 -12527 12584 0
-1226 -12528 12585 0
-1226 -12529 12586 0
-1226 -12530 12587 0
-1226 -12531 12588 0
-1226 -12532 12589 0
-1226 -12533 12590 0
-1226 -12534 12591 0
-1226 -12535 12592 0
-1226 -12536 12593 0
-1226 -12537 12594 0
-1226 -12538 12595 0
-1226 -12539 12596 0
-1226 -12540 12597 0
-1226 -12541 12598 0
-1226 -12542 12599 0
-1226 -12543 12600 0
-1226 -12544 12601 0
-1226 -12545 12602 0
-1226 -12546 12603 0
-1226 -12547 12604 0
-1226 -12548 12605 0
-1226 -12549 12606 0
-1226 -12550 12607 0
-1226 -12551 12608 0
-1226 -12552 0
-12553 12609 0
-12554 12610 0
-12555 12611 0
-12556 12612 0
-12557 12613 0
-12558 12614 0
-12559 12615 0
-12560 12616 0
-12561 12617 0
-12562 12618 0
-12563 12619 0
-12564 12620 0
-12565 12621 0
-12566 12622 0
-12567 12623 0
-12568 12624 0
-12569 12625 0
-12570 12626 0
-12571 12627 0
-12572 12628 0
-12573 12629 0
-12574 12630 0
-12575 12631 0
-12576 12632 0
-12577 12633 0
-12578 12634 0
-12579 12635 0
-12580 12636 0
-12581 12637 0
-12582 12638 0
-12583 12639 0
-12584 12640 0
-12585 12641 0
-12586 12642 0
-12587 12643 0
-12588 12644 0
-12589 12645 0
-12590 12646 0
-12591 12647 0
-12592 12648 0
-12593 12649 0
-12594 12650 0
-12595 12651 0
-12596 12652 0
-12597 12653 0
-12598 12654 0
-12599 12655 0
-12600 12656 0
-12601 12657 0
-12602 12658 0
-12603 12659 0
-12604 12660 0
-12605 12661 0
-12606 12662 0
-12607 12663 0
-12608 12664 0
-1228 -12553 12610 0
-1228 -12554 12611 0
-1228 -12555 12612 0
-1228 -12556 12613 0
-1228 -12557 12614 0
-1228 -12558 12615 0
-1228 -12559 12616 0
-1228 -12560 12617 0
-1228 -12561 12618 0
-1228 -12562 12619 0
-1228 -12563 12620 0
-1228 -12564 12621 0
-1228 -12565 12622 0
-1228 -12566 12623 0
-1228 -12567 12624 0
-1228 -12568 12625 0
-1228 -12569 12626 0
-1228 -12570 12627 0
-1228 -12571 12628 0
-1228 -12572 12629 0
-1228 -12573 12630 0
-1228 -12574 12631 0
-1228 -12575 12632 0
-1228 -12576 12633 0
-1228 -12577 12634 0
-1228 -12578 12635 0
-1228 -12579 12636 0
-1228 -12580 12637 0
-1228 -12581 12638 0
-1228 -12582 12639 0
-1228 -12583 12640 0
-1228 -12584 12641 0
-1228 -12585 12642 0
-1228 -12586 12643 0
-1228 -12587 12644 0
-1228 -12588 12645 0
-1228 -12589 12646 0
-1228 -12590 12647 0
-1228 -12591 12648 0
-1228 -12592 12649 0
-1228 -12593 12650 0
-1228 -12594 12651 0
-1228 -12595 12652 0
-1228 -12596 12653 0
-1228 -12597 12654 0
-1228 -12598 12655 0
-1228 -12599 12656 0
-1228 -12600 12657 0
-1228 -12601 12658 0
-1228 -12602 12659 0
-1228 -12603 12660 0
-1228 -12604 12661 0
-1228 -12605 12662 0
-1228 -12606 12663 0
-1228 -12607 12664 0
-1228 -12608 0
-12609 12665 0
-12610 12666 0
-12611 12667 0
-12612 12668 0
-12613 12669 0
-12614 12670 0
-12615 12671 0
-12616 12672 0
-12617 12673 0
-12618 12674 0
-12619 12675 0
-12620 12676 0
-12621 12677 0
-12622 12678 0
-12623 12679 0
-12624 12680 0
-12625 12681 0
-12626 12682 0
-12627 12683 0
-12628 12684 0
-12629 12685 0
-12630 12686 0
-12631 12687 0
-12632 12688 0
-12633 12689 0
-12634 12690 0
-12635 12691 0
-12636 12692 0
-12637 12693 0
-12638 12694 0
-12639 12695 0
-12640 12696 0
-12641 12697 0
-12642 12698 0
-12643 12699 0
-12644 12700 0
-12645 12701 0
-12646 12702 0
-12647 12703 0
-12648 12704 0
-12649 12705 0
-12650 12706 0
-12651 12707 0
-12652 12708 0
-12653 12709 0
-12654 12710 0
-12655 12711 0
-12656 12712 0
-12657 12713 0
-12658 12714 0
-12659 12715 0
-12660 12716 0
-12661 12717 0
-12662 12718 0
-12663 12719 0
-12664 12720 0
-1230 -12609 12666 0
-1230 -12610 12667 0
-1230 -12611 12668 0
-1230 -12612 12669 0
-1230 -12613 12670 0
-1230 -12614 12671 0
-1230 -12615 12672 0
-1230 -12616 12673 0
-1230 -12617 12674 0
-1230 -12618 12675 0
-1230 -12619 12676 0
-1230 -12620 12677 0
-1230 -12621 12678 0
-1230 -12622 12679 0
-1230 -12623 12680 0
-1230 -12624 12681 0
-1230 -12625 12682 0
-1230 -12626 12683 0
-1230 -12627 12684 0
-1230 -12628 12685 0
-1230 -12629 12686 0
-1230 -12630 12687 0
-1230 -12631 12688 0
-1230 -12632 12689 0
-1230 -12633 12690 0
-1230 -12634 12691 0
-1230 -12635 12692 0
-1230 -12636 12693 0
-1230 -12637 12694 0
-1230 -12638 12695 0
-1230 -12639 12696 0
-1230 -12640 12697 0
-1230 -12641 12698 0
-1230 -12642 12699 0
-1230 -12643 12700 0
-1230 -12644 12701 0
-1230 -12645 12702 0
-1230 -12646 12703 0
-1230 -12647 12704 0
-1230 -12648 12705 0
-1230 -12649 12706 0
-1230 -12650 12707 0
-1230 -12651 12708 0
-1230 -12652 12709 0
-1230 -12653 12710 0
-1230 -12654 12711 0
-1230 -12655 12712 0
-1230 -12656 12713 0
-1230 -12657 12714 0
-1230 -12658 12715 0
-1230 -12659 12716 0
-1230 -12660 12717 0
-1230 -12661 12718 0
-1230 -12662 12719 0
-1230 -12663 12720 0
-1230 -12664 0
-12665 12721 0
-12666 12722 0
-12667 12723 0
-12668 12724 0
-12669 12725 0
-12670 12726 0
-12671 12727 0
-12672 12728 0
-12673 12729 0
-12674 12730 0
-12675 12731 0
-12676 12732 0
-12677 12733 0
-12678 12734 0
-12679 12735 0
-12680 12736 0
-12681 12737 0
-12682 12738 0
-12683 12739 0
-12684 12740 0
-12685 12741 0
-12686 12742 0
-12687 12743 0
-12688 12744 0
-12689 12745 0
-12690 12746 0
-12691 12747 0
-12692 12748 0
-12693 12749 0
-12694 12750 0
-12695 12751 0
-12696 12752 0
-12697 12753 0
-12698 12754 0
-12699 12755 0
-12700 12756 0
-12701 12757 0
-12702 12758 0
-12703 12759 0
-12704 12760 0
-12705 12761 0
-12706 12762 0
-12707 12763 0
-12708 12764 0
-12709 12765 0
-12710 12766 0
-12711 12767 0
-12712 12768 0
-12713 12769 0
-12714 12770 0
-12715 12771 0
-12716 12772 0
-12717 12773 0
-12718 12774 0
-12719 12775 0
-12720 12776 0
-1232 -12665 12722 0
-1232 -12666 12723 0
-1232 -12667 12724 0
-1232 -12668 12725 0
-1232 -12669 12726 0
-1232 -12670 12727 0
-1232 -12671 12728 0
-1232 -12672 12729 0
-1232 -12673 12730 0
-1232 -12674 12731 0
-1232 -12675 12732 0
-1232 -12676 12733 0
-1232 -12677 12734 0
-1232 -12678 12735 0
-1232 -12679 12736 0
-1232 -12680 12737 0
-1232 -12681 12738 0
-1232 -12682 12739 0
-1232 -12683 12740 0
-1232 -12684 12741 0
-1232 -12685 12742 0
-1232 -12686 12743 0
-1232 -12687 12744 0
-1232 -12688 12745 0
-1232 -12689 12746 0
-1232 -12690 12747 0
-1232 -12691 12748 0
-1232 -12692 12749 0
-1232 -12693 12750 0
-1232 -12694 12751 0
-1232 -12695 12752 0
-1232 -12696 12753 0
-1232 -12697 12754 0
-1232 -12698 12755 0
-1232 -12699 12756 0
-1232 -12700 12757 0
-1232 -12701 12758 0
-1232 -12702 12759 0
-1232 -12703 12760 0
-1232 -12704 12761 0
-1232 -12705 12762 0
-1232 -12706 12763 0
-1232 -12707 12764 0
-1232 -12708 12765 0
-1232 -12709 12766 0
-1232 -12710 12767 0
-1232 -12711 12768 0
-1232 -12712 12769 0
-1232 -12713 12770 0
-1232 -12714 12771 0
-1232 -12715 12772 0
-1232 -12716 12773 0
-1232 -12717 12774 0
-1232 -12718 12775 0
-1232 -12719 12776 0
-1232 -12720 0
-12721 12777 0
-12722 12778 0
-12723 12779 0
-12724 12780 0
-12725 12781 0
-12726 12782 0
-12727 12783 0
-12728 12784 0
-12729 12785 0
-12730 12786 0
-12731 12787 0
-12732 12788 0
-12733 12789 0
-12734 12790 0
-12735 12791 0
-12736 12792 0
-12737 12793 0
-12738 12794 0
-12739 12795 0
-12740 12796 0
-12741 12797 0
-12742 12798 0
-12743 12799 0
-12744 12800 0
-12745 12801 0
-12746 12802 0
-12747 12803 0
-12748 12804 0
-12749 12805 0
-12750 12806 0
-12751 12807 0
-12752 12808 0
-12753 12809 0
-12754 12810 0
-12755 12811 0
-12756 12812 0
-12757 12813 0
-12758 12814 0
-12759 12815 0
-12760 12816 0
-12761 12817 0
-12762 12818 0
-12763 12819 0
-12764 12820 0
-12765 12821 0
-12766 12822 0
-12767 12823 0
-12768 12824 0
-12769 12825 0
-12770 12826 0
-12771 12827 0
-12772 12828 0
-12773 12829 0
-12774 12830 0
-12775 12831 0
-12776 12832 0
-1234 -12721 12778 0
-1234 -12722 12779 0
-1234 -12723 12780 0
-1234 -12724 12781 0
-1234 -12725 12782 0
-1234 -12726 12783 0
-1234 -12727 12784 0
-1234 -12728 12785 0
-1234 -12729 12786 0
-1234 -12730 12787 0
-1234 -12731 12788 0
-1234 -12732 12789 0
-1234 -12733 12790 0
-1234 -12734 12791 0
-1234 -12735 12792 0
-1234 -12736 12793 0
-1234 -12737 12794 0
-1234 -12738 12795 0
-1234 -12739 12796 0
-1234 -12740 12797 0
-1234 -12741 12798 0
-1234 -12742 12799 0
-1234 -12743 12800 0
-1234 -12744 12801 0
-1234 -12745 12802 0
-1234 -12746 12803 0
-1234 -12747 12804 0
-1234 -12748 12805 0
-1234 -12749 12806 0
-1234 -12750 12807 0
-1234 -12751 12808 0
-1234 -12752 12809 0
-1234 -12753 12810 0
-1234 -12754 12811 0
-1234 -12755 12812 0
-1234 -12756 12813 0
-1234 -12757 12814 0
-1234 -12758 12815 0
-1234 -12759 12816 0
-1234 -12760 12817 0
-1234 -12761 12818 0
-1234 -12762 12819 0
-1234 -12763 12820 0
-1234 -12764 12821 0
-1234 -12765 12822 0
-1234 -12766 12823 0
-1234 -12767 12824 0
-1234 -12768 12825 0
-1234 -12769 12826 0
-1234 -12770 12827 0
-1234 -12771 12828 0
-1234 -12772 12829 0
-1234 -12773 12830 0
-1234 -12774 12831 0
-1234 -12775 12832 0
-1234 -12776 0
-12777 12833 0
-12778 12834 0
-12779 12835 0
-12780 12836 0
-12781 12837 0
-12782 12838 0
-12783 12839 0
-12784 12840 0
-12785 12841 0
-12786 12842 0
-12787 12843 0
-12788 12844 0
-12789 12845 0
-12790 12846 0
-12791 12847 0
-12792 12848 0
-12793 12849 0
-12794 12850 0
-12795 12851 0
-12796 12852 0
-12797 12853 0
-12798 12854 0
-12799 12855 0
-12800 12856 0
-12801 12857 0
-12802 12858 0
-12803 12859 0
-12804 12860 0
-12805 12861 0
-12806 12862 0
-12807 12863 0
-12808 12864 0
-12809 12865 0
-12810 12866 0
-12811 12867 0
-12812 12868 0
-12813 12869 0
-12814 12870 0
-12815 12871 0
-12816 12872 0
-12817 12873 0
-12818 12874 0
-12819 12875 0
-12820 12876 0
-12821 12877 0
-12822 12878 0
-12823 12879 0
-12824 12880 0
-12825 12881 0
-12826 12882 0
-12827 12883 0
-12828 12884 0
-12829 12885 0
-12830 12886 0
-12831 12887 0
-12832 12888 0
-1236 -12777 12834 0
-1236 -12778 12835 0
-1236 -12779 12836 0
-1236 -12780 12837 0
-1236 -12781 12838 0
-1236 -12782 12839 0
-1236 -12783 12840 0
-1236 -12784 12841 0
-1236 -12785 12842 0
-1236 -12786 12843 0
-1236 -12787 12844 0
-1236 -12788 12845 0
-1236 -12789 12846 0
-1236 -12790 12847 0
-1236 -12791 12848 0
-1236 -12792 12849 0
-1236 -12793 12850 0
-1236 -12794 12851 0
-1236 -12795 12852 0
-1236 -12796 12853 0
-1236 -12797 12854 0
-1236 -12798 12855 0
-1236 -12799 12856 0
-1236 -12800 12857 0
-1236 -12801 12858 0
-1236 -12802 12859 0
-1236 -12803 12860 0
-1236 -12804 12861 0
-1236 -12805 12862 0
-1236 -12806 12863 0
-1236 -12807 12864 0
-1236 -12808 12865 0
-1236 -12809 12866 0
-1236 -12810 12867 0
-1236 -12811 12868 0
-1236 -12812 12869 0
-1236 -12813 12870 0
-1236 -12814 12871 0
-1236 -12815 12872 0
-1236 -12816 12873 0
-1236 -12817 12874 0
-1236 -12818 12875 0
-1236 -12819 12876 0
-1236 -12820 12877 0
-1236 -12821 12878 0
-1236 -12822 12879 0
-1236 -12823 12880 0
-1236 -12824 12881 0
-1236 -12825 12882 0
-1236 -12826 12883 0
-1236 -12827 12884 0
-1236 -12828 12885 0
-1236 -12829 12886 0
-1236 -12830 12887 0
-1236 -12831 12888 0
-1236 -12832 0
-12833 12889 0
-12834 12890 0
-12835 12891 0
-12836 12892 0
-12837 12893 0
-12838 12894 0
-12839 12895 0
-12840 12896 0
-12841 12897 0
-12842 12898 0
-12843 12899 0
-12844 12900 0
-12845 12901 0
-12846 12902 0
-12847 12903 0
-12848 12904 0
-12849 12905 0
-12850 12906 0
-12851 12907 0
-12852 12908 0
-12853 12909 0
-12854 12910 0
-12855 12911 0
-12856 12912 0
-12857 12913 0
-12858 12914 0
-12859 12915 0
-12860 12916 0
-12861 12917 0
-12862 12918 0
-12863 12919 0
-12864 12920 0
-12865 12921 0
-12866 12922 0
-12867 12923 0
-12868 12924 0
-12869 12925 0
-12870 12926 0
-12871 12927 0
-12872 12928 0
-12873 12929 0
-12874 12930 0
-12875 12931 0
-12876 12932 0
-12877 12933 0
-12878 12934 0
-12879 12935 0
-12880 12936 0
-12881 12937 0
-12882 12938 0
-12883 12939 0
-12884 12940 0
-12885 12941 0
-12886 12942 0
-12887 12943 0
-12888 12944 0
-1238 -12833 12890 0
-1238 -12834 12891 0
-1238 -12835 12892 0
-1238 -12836 12893 0
-1238 -12837 12894 0
-1238 -12838 12895 0
-1238 -12839 12896 0
-1238 -12840 12897 0
-1238 -12841 12898 0
-1238 -12842 12899 0
-1238 -12843 12900 0
-1238 -12844 12901 0
-1238 -12845 12902 0
-1238 -12846 12903 0
-1238 -12847 12904 0
-1238 -12848 12905 0
-1238 -12849 12906 0
-1238 -12850 12907 0
-1238 -12851 12908 0
-1238 -12852 12909 0
-1238 -12853 12910 0
-1238 -12854 12911 0
-1238 -12855 12912 0
-1238 -12856 12913 0
-1238 -12857 12914 0
-1238 -12858 12915 0
-1238 -12859 12916 0
-1238 -12860 12917 0
-1238 -12861 12918 0
-1238 -12862 12919 0
-1238 -12863 12920 0
-1238 -12864 12921 0
-1238 -12865 12922 0
-1238 -12866 12923 0
-1238 -12867 12924 0
-1238 -12868 12925 0
-1238 -12869 12926 0
-1238 -12870 12927 0
-1238 -12871 12928 0
-1238 -12872 12929 0
-1238 -12873 12930 0
-1238 -12874 12931 0
-1238 -12875 12932 0
-1238 -12876 12933 0
-1238 -12877 12934 0
-1238 -12878 12935 0
-1238 -12879 12936 0
-1238 -12880 12937 0
-1238 -12881 12938 0
-1238 -12882 12939 0
-1238 -12883 12940 0
-1238 -12884 12941 0
-1238 -12885 12942 0
-1238 -12886 12943 0
-1238 -12887 12944 0
-1238 -12888 0
-12889 12945 0
-12890 12946 0
-12891 12947 0
-12892 12948 0
-12893 12949 0
-12894 12950 0
-12895 12951 0
-12896 12952 0
-12897 12953 0
-12898 12954 0
-12899 12955 0
-12900 12956 0
-12901 12957 0
-12902 12958 0
-12903 12959 0
-12904 12960 0
-12905 12961 0
-12906 12962 0
-12907 12963 0
-12908 12964 0
-12909 12965 0
-12910 12966 0
-12911 12967 0
-12912 12968 0
-12913 12969 0
-12914 12970 0
-12915 12971 0
-12916 12972 0
-12917 12973 0
-12918 12974 0
-12919 12975 0
-12920 12976 0
-12921 12977 0
-12922 12978 0
-12923 12979 0
-12924 12980 0
-12925 12981 0
-12926 12982 0
-12927 12983 0
-12928 12984 0
-12929 12985 0
-12930 12986 0
-12931 12987 0
-12932 12988 0
-12933 12989 0
-12934 12990 0
-12935 12991 0
-12936 12992 0
-12937 12993 0
-12938 12994 0
-12939 12995 0
-12940 12996 0
-12941 12997 0
-12942 12998 0
-12943 12999 0
-12944 13000 0
-1240 -12889 12946 0
-1240 -12890 12947 0
-1240 -12891 12948 0
-1240 -12892 12949 0
-1240 -12893 12950 0
-1240 -12894 12951 0
-1240 -12895 12952 0
-1240 -12896 12953 0
-1240 -12897 12954 0
-1240 -12898 12955 0
-1240 -12899 12956 0
-1240 -12900 12957 0
-1240 -12901 12958 0
-1240 -12902 12959 0
-1240 -12903 12960 0
-1240 -12904 12961 0
-1240 -12905 12962 0
-1240 -12906 12963 0
-1240 -12907 12964 0
-1240 -12908 12965 0
-1240 -12909 12966 0
-1240 -12910 12967 0
-1240 -12911 12968 0
-1240 -12912 12969 0
-1240 -12913 12970 0
-1240 -12914 12971 0
-1240 -12915 12972 0
-1240 -12916 12973 0
-1240 -12917 12974 0
-1240 -12918 12975 0
-1240 -12919 12976 0
-1240 -12920 12977 0
-1240 -12921 12978 0
-1240 -12922 12979 0
-1240 -12923 12980 0
-1240 -12924 12981 0
-1240 -12925 12982 0
-1240 -12926 12983 0
-1240 -12927 12984 0
-1240 -12928 12985 0
-1240 -12929 12986 0
-1240 -12930 12987 0
-1240 -12931 12988 0
-1240 -12932 12989 0
-1240 -12933 12990 0
-1240 -12934 12991 0
-1240 -12935 12992 0
-1240 -12936 12993 0
-1240 -12937 12994 0
-1240 -12938 12995 0
-1240 -12939 12996 0
-1240 -12940 12997 0
-1240 -12941 12998 0
-1240 -12942 12999 0
-1240 -12943 13000 0
-1240 -12944 0
-12945 13001 0
-12946 13002 0
-12947 13003 0
-12948 13004 0
-12949 13005 0
-12950 13006 0
-12951 13007 0
-12952 13008 0
-12953 13009 0
-12954 13010 0
-12955 13011 0
-12956 13012 0
-12957 13013 0
-12958 13014 0
-12959 13015 0
-12960 13016 0
-12961 13017 0
-12962 13018 0
-12963 13019 0
-12964 13020 0
-12965 13021 0
-12966 13022 0
-12967 13023 0
-12968 13024 0
-12969 13025 0
-12970 13026 0
-12971 13027 0
-12972 13028 0
-12973 13029 0
-12974 13030 0
-12975 13031 0
-12976 13032 0
-12977 13033 0
-12978 13034 0
-12979 13035 0
-12980 13036 0
-12981 13037 0
-12982 13038 0
-12983 13039 0
-12984 13040 0
-12985 13041 0
-12986 13042 0
-12987 13043 0
-12988 13044 0
-12989 13045 0
-12990 13046 0
-12991 13047 0
-12992 13048 0
-12993 13049 0
-12994 13050 0
-12995 13051 0
-12996 13052 0
-12997 13053 0
-12998 13054 0
-12999 13055 0
-13000 13056 0
-1242 -12945 13002 0
-1242 -12946 13003 0
-1242 -12947 13004 0
-1242 -12948 13005 0
-1242 -12949 13006 0
-1242 -12950 13007 0
-1242 -12951 13008 0
-1242 -12952 13009 0
-1242 -12953 13010 0
-1242 -12954 13011 0
-1242 -12955 13012 0
-1242 -12956 13013 0
-1242 -12957 13014 0
-1242 -12958 13015 0
-1242 -12959 13016 0
-1242 -12960 13017 0
-1242 -12961 13018 0
-1242 -12962 13019 0
-1242 -12963 13020 0
-1242 -12964 13021 0
-1242 -12965 13022 0
-1242 -12966 13023 0
-1242 -12967 13024 0
-1242 -12968 13025 0
-1242 -12969 13026 0
-1242 -12970 13027 0
-1242 -12971 13028 0
-1242 -12972 13029 0
-1242 -12973 13030 0
-1242 -12974 13031 0
-1242 -12975 13032 0
-1242 -12976 13033 0
-1242 -12977 13034 0
-1242 -12978 13035 0
-1242 -12979 13036 0
-1242 -12980 13037 0
-1242 -12981 13038 0
-1242 -12982 13039 0
-1242 -12983 13040 0
-1242 -12984 13041 0
-1242 -12985 13042 0
-1242 -12986 13043 0
-1242 -12987 13044 0
-1242 -12988 13045 0
-1242 -12989 13046 0
-1242 -12990 13047 0
-1242 -12991 13048 0
-1242 -12992 13049 0
-1242 -12993 13050 0
-1242 -12994 13051 0
-1242 -12995 13052 0
-1242 -12996 13053 0
-1242 -12997 13054 0
-1242 -12998 13055 0
-1242 -12999 13056 0
-1242 -13000 0
-13001 13057 0
-13002 13058 0
-13003 13059 0
-13004 13060 0
-13005 13061 0
-13006 13062 0
-13007 13063 0
-13008 13064 0
-13009 13065 0
-13010 13066 0
-13011 13067 0
-13012 13068 0
-13013 13069 0
-13014 13070 0
-13015 13071 0
-13016 13072 0
-13017 13073 0
-13018 13074 0
-13019 13075 0
-13020 13076 0
-13021 13077 0
-13022 13078 0
-13023 13079 0
-13024 13080 0
-13025 13081 0
-13026 13082 0
-13027 13083 0
-13028 13084 0
-13029 13085 0
-13030 13086 0
-13031 13087 0
-13032 13088 0
-13033 13089 0
-13034 13090 0
-13035 13091 0
-13036 13092 0
-13037 13093 0
-13038 13094 0
-13039 13095 0
-13040 13096 0
-13041 13097 0
-13042 13098 0
-13043 13099 0
-13044 13100 0
-13045 13101 0
-13046 13102 0
-13047 13103 0
-13048 13104 0
-13049 13105 0
-13050 13106 0
-13051 13107 0
-13052 13108 0
-13053 13109 0
-13054 13110 0
-13055 13111 0
-13056 13112 0
-1244 -13001 13058 0
-1244 -13002 13059 0
-1244 -13003 13060 0
-1244 -13004 13061 0
-1244 -13005 13062 0
-1244 -13006 13063 0
-1244 -13007 13064 0
-1244 -13008 13065 0
-1244 -13009 13066 0
-1244 -13010 13067 0
-1244 -13011 13068 0
-1244 -13012 13069 0
-1244 -13013 13070 0
-1244 -13014 13071 0
-1244 -13015 13072 0
-1244 -13016 13073 0
-1244 -13017 13074 0
-1244 -13018 13075 0
-1244 -13019 13076 0
-1244 -13020 13077 0
-1244 -13021 13078 0
-1244 -13022 13079 0
-1244 -13023 13080 0
-1244 -13024 13081 0
-1244 -13025 13082 0
-1244 -13026 13083 0
-1244 -13027 13084 0
-1244 -13028 13085 0
-1244 -13029 13086 0
-1244 -13030 13087 0
-1244 -13031 13088 0
-1244 -13032 13089 0
-1244 -13033 13090 0
-1244 -13034 13091 0
-1244 -13035 13092 0
-1244 -13036 13093 0
-1244 -13037 13094 0
-1244 -13038 13095 0
-1244 -13039 13096 0
-1244 -13040 13097 0
-1244 -13041 13098 0
-1244 -13042 13099 0
-1244 -13043 13100 0
-1244 -13044 13101 0
-1244 -13045 13102 0
-1244 -13046 13103 0
-1244 -13047 13104 0
-1244 -13048 13105 0
-1244 -13049 13106 0
-1244 -13050 13107 0
-1244 -13051 13108 0
-1244 -13052 13109 0
-1244 -13053 13110 0
-1244 -13054 13111 0
-1244 -13055 13112 0
-1244 -13056 0
-13057 13113 0
-13058 13114 0
-13059 13115 0
-13060 13116 0
-13061 13117 0
-13062 13118 0
-13063 13119 0
-13064 13120 0
-13065 13121 0
-13066 13122 0
-13067 13123 0
-13068 13124 0
-13069 13125 0
-13070 13126 0
-13071 13127 0
-13072 13128 0
-13073 13129 0
-13074 13130 0
-13075 13131 0
-13076 13132 0
-13077 13133 0
-13078 13134 0
-13079 13135 0
-13080 13136 0
-13081 13137 0
-13082 13138 0
-13083 13139 0
-13084 13140 0
-13085 13141 0
-13086 13142 0
-13087 13143 0
-13088 13144 0
-13089 13145 0
-13090 13146 0
-13091 13147 0
-13092 13148 0
-13093 13149 0
-13094 13150 0
-13095 13151 0
-13096 13152 0
-13097 13153 0
-13098 13154 0
-13099 13155 0
-13100 13156 0
-13101 13157 0
-13102 13158 0
-13103 13159 0
-13104 13160 0
-13105 13161 0
-13106 13162 0
-13107 13163 0
-13108 13164 0
-13109 13165 0
-13110 13166 0
-13111 13167 0
-13112 13168 0
-1246 -13057 13114 0
-1246 -13058 13115 0
-1246 -13059 13116 0
-1246 -13060 13117 0
-1246 -13061 13118 0
-1246 -13062 13119 0
-1246 -13063 13120 0
-1246 -13064 13121 0
-1246 -13065 13122 0
-1246 -13066 13123 0
-1246 -13067 13124 0
-1246 -13068 13125 0
-1246 -13069 13126 0
-1246 -13070 13127 0
-1246 -13071 13128 0
-1246 -13072 13129 0
-1246 -13073 13130 0
-1246 -13074 13131 0
-1246 -13075 13132 0
-1246 -13076 13133 0
-1246 -13077 13134 0
-1246 -13078 13135 0
-1246 -13079 13136 0
-1246 -13080 13137 0
-1246 -13081 13138 0
-1246 -13082 13139 0
-1246 -13083 13140 0
-1246 -13084 13141 0
-1246 -13085 13142 0
-1246 -13086 13143 0
-1246 -13087 13144 0
-1246 -13088 13145 0
-1246 -13089 13146 0
-1246 -13090 13147 0
-1246 -13091 13148 0
-1246 -13092 13149 0
-1246 -13093 13150 0
-1246 -13094 13151 0
-1246 -13095 13152 0
-1246 -13096 13153 0
-1246 -13097 13154 0
-1246 -13098 13155 0
-1246 -13099 13156 0
-1246 -13100 13157 0
-1246 -13101 13158 0
-1246 -13102 13159 0
-1246 -13103 13160 0
-1246 -13104 13161 0
-1246 -13105 13162 0
-1246 -13106 13163 0
-1246 -13107 13164 0
-1246 -13108 13165 0
-1246 -13109 13166 0
-1246 -13110 13167 0
-1246 -13111 13168 0
-1246 -13112 0
-13113 13169 0
-13114 13170 0
-13115 13171 0
-13116 13172 0
-13117 13173 0
-13118 13174 0
-13119 13175 0
-13120 13176 0
-13121 13177 0
-13122 13178 0
-13123 13179 0
-13124 13180 0
-13125 13181 0
-13126 13182 0
-13127 13183 0
-13128 13184 0
-13129 13185 0
-13130 13186 0
-13131 13187 0
-13132 13188 0
-13133 13189 0
-13134 13190 0
-13135 13191 0
-13136 13192 0
-13137 13193 0
-13138 13194 0
-13139 13195 0
-13140 13196 0
-13141 13197 0
-13142 13198 0
-13143 13199 0
-13144 13200 0
-13145 13201 0
-13146 13202 0
-13147 13203 0
-13148 13204 0
-13149 13205 0
-13150 13206 0
-13151 13207 0
-13152 13208 0
-13153 13209 0
-13154 13210 0
-13155 13211 0
-13156 13212 0
-13157 13213 0
-13158 13214 0
-13159 13215 0
-13160 13216 0
-13161 13217 0
-13162 13218 0
-13163 13219 0
-13164 13220 0
-13165 13221 0
-13166 13222 0
-13167 13223 0
-13168 13224 0
-1248 -13113 13170 0
-1248 -13114 13171 0
-1248 -13115 13172 0
-1248 -13116 13173 0
-1248 -13117 13174 0
-1248 -13118 13175 0
-1248 -13119 13176 0
-1248 -13120 13177 0
-1248 -13121 13178 0
-1248 -13122 13179 0
-1248 -13123 13180 0
-1248 -13124 13181 0
-1248 -13125 13182 0
-1248 -13126 13183 0
-1248 -13127 13184 0
-1248 -13128 13185 0
-1248 -13129 13186 0
-1248 -13130 13187 0
-1248 -13131 13188 0
-1248 -13132 13189 0
-1248 -13133 13190 0
-1248 -13134 13191 0
-1248 -13135 13192 0
-1248 -13136 13193 0
-1248 -13137 13194 0
-1248 -13138 13195 0
-1248 -13139 13196 0
-1248 -13140 13197 0
-1248 -13141 13198 0
-1248 -13142 13199 0
-1248 -13143 13200 0
-1248 -13144 13201 0
-1248 -13145 13202 0
-1248 -13146 13203 0
-1248 -13147 13204 0
-1248 -13148 13205 0
-1248 -13149 13206 0
-1248 -13150 13207 0
-1248 -13151 13208 0
-1248 -13152 13209 0
-1248 -13153 13210 0
-1248 -13154 13211 0
-1248 -13155 13212 0
-1248 -13156 13213 0
-1248 -13157 13214 0
-1248 -13158 13215 0
-1248 -13159 13216 0
-1248 -13160 13217 0
-1248 -13161 13218 0
-1248 -13162 13219 0
-1248 -13163 13220 0
-1248 -13164 13221 0
-1248 -13165 13222 0
-1248 -13166 13223 0
-1248 -13167 13224 0
-1248 -13168 0
-13169 13225 0
-13170 13226 0
-13171 13227 0
-13172 13228 0
-13173 13229 0
-13174 13230 0
-13175 13231 0
-13176 13232 0
-13177 13233 0
-13178 13234 0
-13179 13235 0
-13180 13236 0
-13181 13237 0
-13182 13238 0
-13183 13239 0
-13184 13240 0
-13185 13241 0
-13186 13242 0
-13187 13243 0
-13188 13244 0
-13189 13245 0
-13190 13246 0
-13191 13247 0
-13192 13248 0
-13193 13249 0
-13194 13250 0
-13195 13251 0
-13196 13252 0
-13197 13253 0
-13198 13254 0
-13199 13255 0
-13200 13256 0
-13201 13257 0
-13202 13258 0
-13203 13259 0
-13204 13260 0
-13205 13261 0
-13206 13262 0
-13207 13263 0
-13208 13264 0
-13209 13265 0
-13210 13266 0
-13211 13267 0
-13212 13268 0
-13213 13269 0
-13214 13270 0
-13215 13271 0
-13216 13272 0
-13217 13273 0
-13218 13274 0
-13219 13275 0
-13220 13276 0
-13221 13277 0
-13222 13278 0
-13223 13279 0
-13224 13280 0
-1250 -13169 13226 0
-1250 -13170 13227 0
-1250 -13171 13228 0
-1250 -13172 13229 0
-1250 -13173 13230 0
-1250 -13174 13231 0
-1250 -13175 13232 0
-1250 -13176 13233 0
-1250 -13177 13234 0
-1250 -13178 13235 0
-1250 -13179 13236 0
-1250 -13180 13237 0
-1250 -13181 13238 0
-1250 -13182 13239 0
-1250 -13183 13240 0
-1250 -13184 13241 0
-1250 -13185 13242 0
-1250 -13186 13243 0
-1250 -13187 13244 0
-1250 -13188 13245 0
-1250 -13189 13246 0
-1250 -13190 13247 0
-1250 -13191 13248 0
-1250 -13192 13249 0
-1250 -13193 13250 0
-1250 -13194 13251 0
-1250 -13195 13252 0
-1250 -13196 13253 0
-1250 -13197 13254 0
-1250 -13198 13255 0
-1250 -13199 13256 0
-1250 -13200 13257 0
-1250 -13201 13258 0
-1250 -13202 13259 0
-1250 -13203 13260 0
-1250 -13204 13261 0
-1250 -13205 13262 0
-1250 -13206 13263 0
-1250 -13207 13264 0
-1250 -13208 13265 0
-1250 -13209 13266 0
-1250 -13210 13267 0
-1250 -13211 13268 0
-1250 -13212 13269 0
-1250 -13213 13270 0
-1250 -13214 13271 0
-1250 -13215 13272 0
-1250 -13216 13273 0
-1250 -13217 13274 0
-1250 -13218 13275 0
-1250 -13219 13276 0
-1250 -13220 13277 0
-1250 -13221 13278 0
-1250 -13222 13279 0
-1250 -13223 13280 0
-1250 -13224 0
-13225 13281 0
-13226 13282 0
-13227 13283 0
-13228 13284 0
-13229 13285 0
-13230 13286 0
-13231 13287 0
-13232 13288 0
-13233 13289 0
-13234 13290 0
-13235 13291 0
-13236 13292 0
-13237 13293 0
-13238 13294 0
-13239 13295 0
-13240 13296 0
-13241 13297 0
-13242 13298 0
-13243 13299 0
-13244 13300 0
-13245 13301 0
-13246 13302 0
-13247 13303 0
-13248 13304 0
-13249 13305 0
-13250 13306 0
-13251 13307 0
-13252 13308 0
-13253 13309 0
-13254 13310 0
-13255 13311 0
-13256 13312 0
-13257 13313 0
-13258 13314 0
-13259 13315 0
-13260 13316 0
-13261 13317 0
-13262 13318 0
-13263 13319 0
-13264 13320 0
-13265 13321 0
-13266 13322 0
-13267 13323 0
-13268 13324 0
-13269 13325 0
-13270 13326 0
-13271 13327 0
-13272 13328 0
-13273 13329 0
-13274 13330 0
-13275 13331 0
-13276 13332 0
-13277 13333 0
-13278 13334 0
-13279 13335 0
-13280 13336 0
-1252 -13225 13282 0
-1252 -13226 13283 0
-1252 -13227 13284 0
-1252 -13228 13285 0
-1252 -13229 13286 0
-1252 -13230 13287 0
-1252 -13231 13288 0
-1252 -13232 13289 0
-1252 -13233 13290 0
-1252 -13234 13291 0
-1252 -13235 13292 0
-1252 -13236 13293 0
-1252 -13237 13294 0
-1252 -13238 13295 0
-1252 -13239 13296 0
-1252 -13240 13297 0
-1252 -13241 13298 0
-1252 -13242 13299 0
-1252 -13243 13300 0
-1252 -13244 13301 0
-1252 -13245 13302 0
-1252 -13246 13303 0
-1252 -13247 13304 0
-1252 -13248 13305 0
-1252 -13249 13306 0
-1252 -13250 13307 0
-1252 -13251 13308 0
-1252 -13252 13309 0
-1252 -13253 13310 0
-1252 -13254 13311 0
-1252 -13255 13312 0
-1252 -13256 13313 0
-1252 -13257 13314 0
-1252 -13258 13315 0
-1252 -13259 13316 0
-1252 -13260 13317 0
-1252 -13261 13318 0
-1252 -13262 13319 0
-1252 -13263 13320 0
-1252 -13264 13321 0
-1252 -13265 13322 0
-1252 -13266 13323 0
-1252 -13267 13324 0
-1252 -13268 13325 0
-1252 -13269 13326 0
-1252 -13270 13327 0
-1252 -13271 13328 0
-1252 -13272 13329 0
-1252 -13273 13330 0
-1252 -13274 13331 0
-1252 -13275 13332 0
-1252 -13276 13333 0
-1252 -13277 13334 0
-1252 -13278 13335 0
-1252 -13279 13336 0
-1252 -13280 0
-13281 13337 0
-13282 13338 0
-13283 13339 0
-13284 13340 0
-13285 13341 0
-13286 13342 0
-13287 13343 0
-13288 13344 0
-13289 13345 0
-13290 13346 0
-13291 13347 0
-13292 13348 0
-13293 13349 0
-13294 13350 0
-13295 13351 0
-13296 13352 0
-13297 13353 0
-13298 13354 0
-13299 13355 0
-13300 13356 0
-13301 13357 0
-13302 13358 0
-13303 13359 0
-13304 13360 0
-13305 13361 0
-13306 13362 0
-13307 13363 0
-13308 13364 0
-13309 13365 0
-13310 13366 0
-13311 13367 0
-13312 13368 0
-13313 13369 0
-13314 13370 0
-13315 13371 0
-13316 13372 0
-13317 13373 0
-13318 13374 0
-13319 13375 0
-13320 13376 0
-13321 13377 0
-13322 13378 0
-13323 13379 0
-13324 13380 0
-13325 13381 0
-13326 13382 0
-13327 13383 0
-13328 13384 0
-13329 13385 0
-13330 13386 0
-13331 13387 0
-13332 13388 0
-13333 13389 0
-13334 13390 0
-13335 13391 0
-13336 13392 0
-1254 -13281 13338 0
-1254 -13282 13339 0
-1254 -13283 13340 0
-1254 -13284 13341 0
-1254 -13285 13342 0
-1254 -13286 13343 0
-1254 -13287 13344 0
-1254 -13288 13345 0
-1254 -13289 13346 0
-1254 -13290 13347 0
-1254 -13291 13348 0
-1254 -13292 13349 0
-1254 -13293 13350 0
-1254 -13294 13351 0
-1254 -13295 13352 0
-1254 -13296 13353 0
-1254 -13297 13354 0
-1254 -13298 13355 0
-1254 -13299 13356 0
-1254 -13300 13357 0
-1254 -13301 13358 0
-1254 -13302 13359 0
-1254 -13303 13360 0
-1254 -13304 13361 0
-1254 -13305 13362 0
-1254 -13306 13363 0
-1254 -13307 13364 0
-1254 -13308 13365 0
-1254 -13309 13366 0
-1254 -13310 13367 0
-1254 -13311 13368 0
-1254 -13312 13369 0
-1254 -13313 13370 0
-1254 -13314 13371 0
-1254 -13315 13372 0
-1254 -13316 13373 0
-1254 -13317 13374 0
-1254 -13318 13375 0
-1254 -13319 13376 0
-1254 -13320 13377 0
-1254 -13321 13378 0
-1254 -13322 13379 0
-1254 -13323 13380 0
-1254 -13324 13381 0
-1254 -13325 13382 0
-1254 -13326 13383 0
-1254 -13327 13384 0
-1254 -13328 13385 0
-1254 -13329 13386 0
-1254 -13330 13387 0
-1254 -13331 13388 0
-1254 -13332 13389 0
-1254 -13333 13390 0
-1254 -13334 13391 0
-1254 -13335 13392 0
-1254 -13336 0
-13337 13393 0
-13338 13394 0
-13339 13395 0
-13340 13396 0
-13341 13397 0
-13342 13398 0
-13343 13399 0
-13344 13400 0
-13345 13401 0
-13346 13402 0
-13347 13403 0
-13348 13404 0
-13349 13405 0
-13350 13406 0
-13351 13407 0
-13352 13408 0
-13353 13409 0
-13354 13410 0
-13355 13411 0
-13356 13412 0
-13357 13413 0
-13358 13414 0
-13359 13415 0
-13360 13416 0
-13361 13417 0
-13362 13418 0
-13363 13419 0
-13364 13420 0
-13365 13421 0
-13366 13422 0
-13367 13423 0
-13368 13424 0
-13369 13425 0
-13370 13426 0
-13371 13427 0
-13372 13428 0
-13373 13429 0
-13374 13430 0
-13375 13431 0
-13376 13432 0
-13377 13433 0
-13378 13434 0
-13379 13435 0
-13380 13436 0
-13381 13437 0
-13382 13438 0
-13383 13439 0
-13384 13440 0
-13385 13441 0
-13386 13442 0
-13387 13443 0
-13388 13444 0
-13389 13445 0
-13390 13446 0
-13391 13447 0
-13392 13448 0
-1256 -13337 13394 0
-1256 -13338 13395 0
-1256 -13339 13396 0
-1256 -13340 13397 0
-1256 -13341 13398 0
-1256 -13342 13399 0
-1256 -13343 13400 0
-1256 -13344 13401 0
-1256 -13345 13402 0
-1256 -13346 13403 0
-1256 -13347 13404 0
-1256 -13348 13405 0
-1256 -13349 13406 0
-1256 -13350 13407 0
-1256 -13351 13408 0
-1256 -13352 13409 0
-1256 -13353 13410 0
-1256 -13354 13411 0
-1256 -13355 13412 0
-1256 -13356 13413 0
-1256 -13357 13414 0
-1256 -13358 13415 0
-1256 -13359 13416 0
-1256 -13360 13417 0
-1256 -13361 13418 0
-1256 -13362 13419 0
-1256 -13363 13420 0
-1256 -13364 13421 0
-1256 -13365 13422 0
-1256 -13366 13423 0
-1256 -13367 13424 0
-1256 -13368 13425 0
-1256 -13369 13426 0
-1256 -13370 13427 0
-1256 -13371 13428 0
-1256 -13372 13429 0
-1256 -13373 13430 0
-1256 -13374 13431 0
-1256 -13375 13432 0
-1256 -13376 13433 0
-1256 -13377 13434 0
-1256 -13378 13435 0
-1256 -13379 13436 0
-1256 -13380 13437 0
-1256 -13381 13438 0
-1256 -13382 13439 0
-1256 -13383 13440 0
-1256 -13384 13441 0
-1256 -13385 13442 0
-1256 -13386 13443 0
-1256 -13387 13444 0
-1256 -13388 13445 0
-1256 -13389 13446 0
-1256 -13390 13447 0
-1256 -13391 13448 0
-1256 -13392 0
-13393 13449 0
-13394 13450 0
-13395 13451 0
-13396 13452 0
-13397 13453 0
-13398 13454 0
-13399 13455 0
-13400 13456 0
-13401 13457 0
-13402 13458 0
-13403 13459 0
-13404 13460 0
-13405 13461 0
-13406 13462 0
-13407 13463 0
-13408 13464 0
-13409 13465 0
-13410 13466 0
-13411 13467 0
-13412 13468 0
-13413 13469 0
-13414 13470 0
-13415 13471 0
-13416 13472 0
-13417 13473 0
-13418 13474 0
-13419 13475 0
-13420 13476 0
-13421 13477 0
-13422 13478 0
-13423 13479 0
-13424 13480 0
-13425 13481 0
-13426 13482 0
-13427 13483 0
-13428 13484 0
-13429 13485 0
-13430 13486 0
-13431 13487 0
-13432 13488 0
-13433 13489 0
-13434 13490 0
-13435 13491 0
-13436 13492 0
-13437 13493 0
-13438 13494 0
-13439 13495 0
-13440 13496 0
-13441 13497 0
-13442 13498 0
-13443 13499 0
-13444 13500 0
-13445 13501 0
-13446 13502 0
-13447 13503 0
-13448 13504 0
-1258 -13393 13450 0
-1258 -13394 13451 0
-1258 -13395 13452 0
-1258 -13396 13453 0
-1258 -13397 13454 0
-1258 -13398 13455 0
-1258 -13399 13456 0
-1258 -13400 13457 0
-1258 -13401 13458 0
-1258 -13402 13459 0
-1258 -13403 13460 0
-1258 -13404 13461 0
-1258 -13405 13462 0
-1258 -13406 13463 0
-1258 -13407 13464 0
-1258 -13408 13465 0
-1258 -13409 13466 0
-1258 -13410 13467 0
-1258 -13411 13468 0
-1258 -13412 13469 0
-1258 -13413 13470 0
-1258 -13414 13471 0
-1258 -13415 13472 0
-1258 -13416 13473 0
-1258 -13417 13474 0
-1258 -13418 13475 0
-1258 -13419 13476 0
-1258 -13420 13477 0
-1258 -13421 13478 0
-1258 -13422 13479 0
-1258 -13423 13480 0
-1258 -13424 13481 0
-1258 -13425 13482 0
-1258 -13426 13483 0
-1258 -13427 13484 0
-1258 -13428 13485 0
-1258 -13429 13486 0
-1258 -13430 13487 0
-1258 -13431 13488 0
-1258 -13432 13489 0
-1258 -13433 13490 0
-1258 -13434 13491 0
-1258 -13435 13492 0
-1258 -13436 13493 0
-1258 -13437 13494 0
-1258 -13438 13495 0
-1258 -13439 13496 0
-1258 -13440 13497 0
-1258 -13441 13498 0
-1258 -13442 13499 0
-1258 -13443 13500 0
-1258 -13444 13501 0
-1258 -13445 13502 0
-1258 -13446 13503 0
-1258 -13447 13504 0
-1258 -13448 0
-13449 13505 0
-13450 13506 0
-13451 13507 0
-13452 13508 0
-13453 13509 0
-13454 13510 0
-13455 13511 0
-13456 13512 0
-13457 13513 0
-13458 13514 0
-13459 13515 0
-13460 13516 0
-13461 13517 0
-13462 13518 0
-13463 13519 0
-13464 13520 0
-13465 13521 0
-13466 13522 0
-13467 13523 0
-13468 13524 0
-13469 13525 0
-13470 13526 0
-13471 13527 0
-13472 13528 0
-13473 13529 0
-13474 13530 0
-13475 13531 0
-13476 13532 0
-13477 13533 0
-13478 13534 0
-13479 13535 0
-13480 13536 0
-13481 13537 0
-13482 13538 0
-13483 13539 0
-13484 13540 0
-13485 13541 0
-13486 13542 0
-13487 13543 0
-13488 13544 0
-13489 13545 0
-13490 13546 0
-13491 13547 0
-13492 13548 0
-13493 13549 0
-13494 13550 0
-13495 13551 0
-13496 13552 0
-13497 13553 0
-13498 13554 0
-13499 13555 0
-13500 13556 0
-13501 13557 0
-13502 13558 0
-13503 13559 0
-13504 13560 0
-1260 -13449 13506 0
-1260 -13450 13507 0
-1260 -13451 13508 0
-1260 -13452 13509 0
-1260 -13453 13510 0
-1260 -13454 13511 0
-1260 -13455 13512 0
-1260 -13456 13513 0
-1260 -13457 13514 0
-1260 -13458 13515 0
-1260 -13459 13516 0
-1260 -13460 13517 0
-1260 -13461 13518 0
-1260 -13462 13519 0
-1260 -13463 13520 0
-1260 -13464 13521 0
-1260 -13465 13522 0
-1260 -13466 13523 0
-1260 -13467 13524 0
-1260 -13468 13525 0
-1260 -13469 13526 0
-1260 -13470 13527 0
-1260 -13471 13528 0
-1260 -13472 13529 0
-1260 -13473 13530 0
-1260 -13474 13531 0
-1260 -13475 13532 0
-1260 -13476 13533 0
-1260 -13477 13534 0
-1260 -13478 13535 0
-1260 -13479 13536 0
-1260 -13480 13537 0
-1260 -13481 13538 0
-1260 -13482 13539 0
-1260 -13483 13540 0
-1260 -13484 13541 0
-1260 -13485 13542 0
-1260 -13486 13543 0
-1260 -13487 13544 0
-1260 -13488 13545 0
-1260 -13489 13546 0
-1260 -13490 13547 0
-1260 -13491 13548 0
-1260 -13492 13549 0
-1260 -13493 13550 0
-1260 -13494 13551 0
-1260 -13495 13552 0
-1260 -13496 13553 0
-1260 -13497 13554 0
-1260 -13498 13555 0
-1260 -13499 13556 0
-1260 -13500 13557 0
-1260 -13501 13558 0
-1260 -13502 13559 0
-1260 -13503 13560 0
-1260 -13504 0
-13505 13561 0
-13506 13562 0
-13507 13563 0
-13508 13564 0
-13509 13565 0
-13510 13566 0
-13511 13567 0
-13512 13568 0
-13513 13569 0
-13514 13570 0
-13515 13571 0
-13516 13572 0
-13517 13573 0
-13518 13574 0
-13519 13575 0
-13520 13576 0
-13521 13577 0
-13522 13578 0
-13523 13579 0
-13524 13580 0
-13525 13581 0
-13526 13582 0
-13527 13583 0
-13528 13584 0
-13529 13585 0
-13530 13586 0
-13531 13587 0
-13532 13588 0
-13533 13589 0
-13534 13590 0
-13535 13591 0
-13536 13592 0
-13537 13593 0
-13538 13594 0
-13539 13595 0
-13540 13596 0
-13541 13597 0
-13542 13598 0
-13543 13599 0
-13544 13600 0
-13545 13601 0
-13546 13602 0
-13547 13603 0
-13548 13604 0
-13549 13605 0
-13550 13606 0
-13551 13607 0
-13552 13608 0
-13553 13609 0
-13554 13610 0
-13555 13611 0
-13556 13612 0
-13557 13613 0
-13558 13614 0
-13559 13615 0
-13560 13616 0
-1262 -13505 13562 0
-1262 -13506 13563 0
-1262 -13507 13564 0
-1262 -13508 13565 0
-1262 -13509 13566 0
-1262 -13510 13567 0
-1262 -13511 13568 0
-1262 -13512 13569 0
-1262 -13513 13570 0
-1262 -13514 13571 0
-1262 -13515 13572 0
-1262 -13516 13573 0
-1262 -13517 13574 0
-1262 -13518 13575 0
-1262 -13519 13576 0
-1262 -13520 13577 0
-1262 -13521 13578 0
-1262 -13522 13579 0
-1262 -13523 13580 0
-1262 -13524 13581 0
-1262 -13525 13582 0
-1262 -13526 13583 0
-1262 -13527 13584 0
-1262 -13528 13585 0
-1262 -13529 13586 0
-1262 -13530 13587 0
-1262 -13531 13588 0
-1262 -13532 13589 0
-1262 -13533 13590 0
-1262 -13534 13591 0
-1262 -13535 13592 0
-1262 -13536 13593 0
-1262 -13537 13594 0
-1262 -13538 13595 0
-1262 -13539 13596 0
-1262 -13540 13597 0
-1262 -13541 13598 0
-1262 -13542 13599 0
-1262 -13543 13600 0
-1262 -13544 13601 0
-1262 -13545 13602 0
-1262 -13546 13603 0
-1262 -13547 13604 0
-1262 -13548 13605 0
-1262 -13549 13606 0
-1262 -13550 13607 0
-1262 -13551 13608 0
-1262 -13552 13609 0
-1262 -13553 13610 0
-1262 -13554 13611 0
-1262 -13555 13612 0
-1262 -13556 13613 0
-1262 -13557 13614 0
-1262 -13558 13615 0
-1262 -13559 13616 0
-1262 -13560 0
-13561 13617 0
-13562 13618 0
-13563 13619 0
-13564 13620 0
-13565 13621 0
-13566 13622 0
-13567 13623 0
-13568 13624 0
-13569 13625 0
-13570 13626 0
-13571 13627 0
-13572 13628 0
-13573 13629 0
-13574 13630 0
-13575 13631 0
-13576 13632 0
-13577 13633 0
-13578 13634 0
-13579 13635 0
-13580 13636 0
-13581 13637 0
-13582 13638 0
-13583 13639 0
-13584 13640 0
-13585 13641 0
-13586 13642 0
-13587 13643 0
-13588 13644 0
-13589 13645 0
-13590 13646 0
-13591 13647 0
-13592 13648 0
-13593 13649 0
-13594 13650 0
-13595 13651 0
-13596 13652 0
-13597 13653 0
-13598 13654 0
-13599 13655 0
-13600 13656 0
-13601 13657 0
-13602 13658 0
-13603 13659 0
-13604 13660 0
-13605 13661 0
-13606 13662 0
-13607 13663 0
-13608 13664 0
-13609 13665 0
-13610 13666 0
-13611 13667 0
-13612 13668 0
-13613 13669 0
-13614 13670 0
-13615 13671 0
-13616 13672 0
-1264 -13561 13618 0
-1264 -13562 13619 0
-1264 -13563 13620 0
-1264 -13564 13621 0
-1264 -13565 13622 0
-1264 -13566 13623 0
-1264 -13567 13624 0
-1264 -13568 13625 0
-1264 -13569 13626 0
-1264 -13570 13627 0
-1264 -13571 13628 0
-1264 -13572 13629 0
-1264 -13573 13630 0
-1264 -13574 13631 0
-1264 -13575 13632 0
-1264 -13576 13633 0
-1264 -13577 13634 0
-1264 -13578 13635 0
-1264 -13579 13636 0
-1264 -13580 13637 0
-1264 -13581 13638 0
-1264 -13582 13639 0
-1264 -13583 13640 0
-1264 -13584 13641 0
-1264 -13585 13642 0
-1264 -13586 13643 0
-1264 -13587 13644 0
-1264 -13588 13645 0
-1264 -13589 13646 0
-1264 -13590 13647 0
-1264 -13591 13648 0
-1264 -13592 13649 0
-1264 -13593 13650 0
-1264 -13594 13651 0
-1264 -13595 13652 0
-1264 -13596 13653 0
-1264 -13597 13654 0
-1264 -13598 13655 0
-1264 -13599 13656 0
-1264 -13600 13657 0
-1264 -13601 13658 0
-1264 -13602 13659 0
-1264 -13603 13660 0
-1264 -13604 13661 0
-1264 -13605 13662 0
-1264 -13606 13663 0
-1264 -13607 13664 0
-1264 -13608 13665 0
-1264 -13609 13666 0
-1264 -13610 13667 0
-1264 -13611 13668 0
-1264 -13612 13669 0
-1264 -13613 13670 0
-1264 -13614 13671 0
-1264 -13615 13672 0
-1264 -13616 0
-13617 13673 0
-13618 13674 0
-13619 13675 0
-13620 13676 0
-13621 13677 0
-13622 13678 0
-13623 13679 0
-13624 13680 0
-13625 13681 0
-13626 13682 0
-13627 13683 0
-13628 13684 0
-13629 13685 0
-13630 13686 0
-13631 13687 0
-13632 13688 0
-13633 13689 0
-13634 13690 0
-13635 13691 0
-13636 13692 0
-13637 13693 0
-13638 13694 0
-13639 13695 0
-13640 13696 0
-13641 13697 0
-13642 13698 0
-13643 13699 0
-13644 13700 0
-13645 13701 0
-13646 13702 0
-13647 13703 0
-13648 13704 0
-13649 13705 0
-13650 13706 0
-13651 13707 0
-13652 13708 0
-13653 13709 0
-13654 13710 0
-13655 13711 0
-13656 13712 0
-13657 13713 0
-13658 13714 0
-13659 13715 0
-13660 13716 0
-13661 13717 0
-13662 13718 0
-13663 13719 0
-13664 13720 0
-13665 13721 0
-13666 13722 0
-13667 13723 0
-13668 13724 0
-13669 13725 0
-13670 13726 0
-13671 13727 0
-13672 13728 0
-1266 -13617 13674 0
-1266 -13618 13675 0
-1266 -13619 13676 0
-1266 -13620 13677 0
-1266 -13621 13678 0
-1266 -13622 13679 0
-1266 -13623 13680 0
-1266 -13624 13681 0
-1266 -13625 13682 0
-1266 -13626 13683 0
-1266 -13627 13684 0
-1266 -13628 13685 0
-1266 -13629 13686 0
-1266 -13630 13687 0
-1266 -13631 13688 0
-1266 -13632 13689 0
-1266 -13633 13690 0
-1266 -13634 13691 0
-1266 -13635 13692 0
-1266 -13636 13693 0
-1266 -13637 13694 0
-1266 -13638 13695 0
-1266 -13639 13696 0
-1266 -13640 13697 0
-1266 -13641 13698 0
-1266 -13642 13699 0
-1266 -13643 13700 0
-1266 -13644 13701 0
-1266 -13645 13702 0
-1266 -13646 13703 0
-1266 -13647 13704 0
-1266 -13648 13705 0
-1266 -13649 13706 0
-1266 -13650 13707 0
-1266 -13651 13708 0
-1266 -13652 13709 0
-1266 -13653 13710 0
-1266 -13654 13711 0
-1266 -13655 13712 0
-1266 -13656 13713 0
-1266 -13657 13714 0
-1266 -13658 13715 0
-1266 -13659 13716 0
-1266 -13660 13717 0
-1266 -13661 13718 0
-1266 -13662 13719 0
-1266 -13663 13720 0
-1266 -13664 13721 0
-1266 -13665 13722 0
-1266 -13666 13723 0
-1266 -13667 13724 0
-1266 -13668 13725 0
-1266 -13669 13726 0
-1266 -13670 13727 0
-1266 -13671 13728 0
-1266 -13672 0
-13673 13729 0
-13674 13730 0
-13675 13731 0
-13676 13732 0
-13677 13733 0
-13678 13734 0
-13679 13735 0
-13680 13736 0
-13681 13737 0
-13682 13738 0
-13683 13739 0
-13684 13740 0
-13685 13741 0
-13686 13742 0
-13687 13743 0
-13688 13744 0
-13689 13745 0
-13690 13746 0
-13691 13747 0
-13692 13748 0
-13693 13749 0
-13694 13750 0
-13695 13751 0
-13696 13752 0
-13697 13753 0
-13698 13754 0
-13699 13755 0
-13700 13756 0
-13701 13757 0
-13702 13758 0
-13703 13759 0
-13704 13760 0
-13705 13761 0
-13706 13762 0
-13707 13763 0
-13708 13764 0
-13709 13765 0
-13710 13766 0
-13711 13767 0
-13712 13768 0
-13713 13769 0
-13714 13770 0
-13715 13771 0
-13716 13772 0
-13717 13773 0
-13718 13774 0
-13719 13775 0
-13720 13776 0
-13721 13777 0
-13722 13778 0
-13723 13779 0
-13724 13780 0
-13725 13781 0
-13726 13782 0
-13727 13783 0
-13728 13784 0
-1268 -13673 13730 0
-1268 -13674 13731 0
-1268 -13675 13732 0
-1268 -13676 13733 0
-1268 -13677 13734 0
-1268 -13678 13735 0
-1268 -13679 13736 0
-1268 -13680 13737 0
-1268 -13681 13738 0
-1268 -13682 13739 0
-1268 -13683 13740 0
-1268 -13684 13741 0
-1268 -13685 13742 0
-1268 -13686 13743 0
-1268 -13687 13744 0
-1268 -13688 13745 0
-1268 -13689 13746 0
-1268 -13690 13747 0
-1268 -13691 13748 0
-1268 -13692 13749 0
-1268 -13693 13750 0
-1268 -13694 13751 0
-1268 -13695 13752 0
-1268 -13696 13753 0
-1268 -13697 13754 0
-1268 -13698 13755 0
-1268 -13699 13756 0
-1268 -13700 13757 0
-1268 -13701 13758 0
-1268 -13702 13759 0
-1268 -13703 13760 0
-1268 -13704 13761 0
-1268 -13705 13762 0
-1268 -13706 13763 0
-1268 -13707 13764 0
-1268 -13708 13765 0
-1268 -13709 13766 0
-1268 -13710 13767 0
-1268 -13711 13768 0
-1268 -13712 13769 0
-1268 -13713 13770 0
-1268 -13714 13771 0
-1268 -13715 13772 0
-1268 -13716 13773 0
-1268 -13717 13774 0
-1268 -13718 13775 0
-1268 -13719 13776 0
-1268 -13720 13777 0
-1268 -13721 13778 0
-1268 -13722 13779 0
-1268 -13723 13780 0
-1268 -13724 13781 0
-1268 -13725 13782 0
-1268 -13726 13783 0
-1268 -13727 13784 0
-1268 -13728 0
-13729 13785 0
-13730 13786 0
-13731 13787 0
-13732 13788 0
-13733 13789 0
-13734 13790 0
-13735 13791 0
-13736 13792 0
-13737 13793 0
-13738 13794 0
-13739 13795 0
-13740 13796 0
-13741 13797 0
-13742 13798 0
-13743 13799 0
-13744 13800 0
-13745 13801 0
-13746 13802 0
-13747 13803 0
-13748 13804 0
-13749 13805 0
-13750 13806 0
-13751 13807 0
-13752 13808 0
-13753 13809 0
-13754 13810 0
-13755 13811 0
-13756 13812 0
-13757 13813 0
-13758 13814 0
-13759 13815 0
-13760 13816 0
-13761 13817 0
-13762 13818 0
-13763 13819 0
-13764 13820 0
-13765 13821 0
-13766 13822 0
-13767 13823 0
-13768 13824 0
-13769 13825 0
-13770 13826 0
-13771 13827 0
-13772 13828 0
-13773 13829 0
-13774 13830 0
-13775 13831 0
-13776 13832 0
-13777 13833 0
-13778 13834 0
-13779 13835 0
-13780 13836 0
-13781 13837 0
-13782 13838 0
-13783 13839 0
-13784 13840 0
-1270 -13729 13786 0
-1270 -13730 13787 0
-1270 -13731 13788 0
-1270 -13732 13789 0
-1270 -13733 13790 0
-1270 -13734 13791 0
-1270 -13735 13792 0
-1270 -13736 13793 0
-1270 -13737 13794 0
-1270 -13738 13795 0
-1270 -13739 13796 0
-1270 -13740 13797 0
-1270 -13741 13798 0
-1270 -13742 13799 0
-1270 -13743 13800 0
-1270 -13744 13801 0
-1270 -13745 13802 0
-1270 -13746 13803 0
-1270 -13747 13804 0
-1270 -13748 13805 0
-1270 -13749 13806 0
-1270 -13750 13807 0
-1270 -13751 13808 0
-1270 -13752 13809 0
-1270 -13753 13810 0
-1270 -13754 13811 0
-1270 -13755 13812 0
-1270 -13756 13813 0
-1270 -13757 13814 0
-1270 -13758 13815 0
-1270 -13759 13816 0
-1270 -13760 13817 0
-1270 -13761 13818 0
-1270 -13762 13819 0
-1270 -13763 13820 0
-1270 -13764 13821 0
-1270 -13765 13822 0
-1270 -13766 13823 0
-1270 -13767 13824 0
-1270 -13768 13825 0
-1270 -13769 13826 0
-1270 -13770 13827 0
-1270 -13771 13828 0
-1270 -13772 13829 0
-1270 -13773 13830 0
-1270 -13774 13831 0
-1270 -13775 13832 0
-1270 -13776 13833 0
-1270 -13777 13834 0
-1270 -13778 13835 0
-1270 -13779 13836 0
-1270 -13780 13837 0
-1270 -13781 13838 0
-1270 -13782 13839 0
-1270 -13783 13840 0
-1270 -13784 0
-13785 13841 0
-13786 13842 0
-13787 13843 0
-13788 13844 0
-13789 13845 0
-13790 13846 0
-13791 13847 0
-13792 13848 0
-13793 13849 0
-13794 13850 0
-13795 13851 0
-13796 13852 0
-13797 13853 0
-13798 13854 0
-13799 13855 0
-13800 13856 0
-13801 13857 0
-13802 13858 0
-13803 13859 0
-13804 13860 0
-13805 13861 0
-13806 13862 0
-13807 13863 0
-13808 13864 0
-13809 13865 0
-13810 13866 0
-13811 13867 0
-13812 13868 0
-13813 13869 0
-13814 13870 0
-13815 13871 0
-13816 13872 0
-13817 13873 0
-13818 13874 0
-13819 13875 0
-13820 13876 0
-13821 13877 0
-13822 13878 0
-13823 13879 0
-13824 13880 0
-13825 13881 0
-13826 13882 0
-13827 13883 0
-13828 13884 0
-13829 13885 0
-13830 13886 0
-13831 13887 0
-13832 13888 0
-13833 13889 0
-13834 13890 0
-13835 13891 0
-13836 13892 0
-13837 13893 0
-13838 13894 0
-13839 13895 0
-13840 13896 0
-1272 -13785 13842 0
-1272 -13786 13843 0
-1272 -13787 13844 0
-1272 -13788 13845 0
-1272 -13789 13846 0
-1272 -13790 13847 0
-1272 -13791 13848 0
-1272 -13792 13849 0
-1272 -13793 13850 0
-1272 -13794 13851 0
-1272 -13795 13852 0
-1272 -13796 13853 0
-1272 -13797 13854 0
-1272 -13798 13855 0
-1272 -13799 13856 0
-1272 -13800 13857 0
-1272 -13801 13858 0
-1272 -13802 13859 0
-1272 -13803 13860 0
-1272 -13804 13861 0
-1272 -13805 13862 0
-1272 -13806 13863 0
-1272 -13807 13864 0
-1272 -13808 13865 0
-1272 -13809 13866 0
-1272 -13810 13867 0
-1272 -13811 13868 0
-1272 -13812 13869 0
-1272 -13813 13870 0
-1272 -13814 13871 0
-1272 -13815 13872 0
-1272 -13816 13873 0
-1272 -13817 13874 0
-1272 -13818 13875 0
-1272 -13819 13876 0
-1272 -13820 13877 0
-1272 -13821 13878 0
-1272 -13822 13879 0
-1272 -13823 13880 0
-1272 -13824 13881 0
-1272 -13825 13882 0
-1272 -13826 13883 0
-1272 -13827 13884 0
-1272 -13828 13885 0
-1272 -13829 13886 0
-1272 -13830 13887 0
-1272 -13831 13888 0
-1272 -13832 13889 0
-1272 -13833 13890 0
-1272 -13834 13891 0
-1272 -13835 13892 0
-1272 -13836 13893 0
-1272 -13837 13894 0
-1272 -13838 13895 0
-1272 -13839 13896 0
-1272 -13840 0
-13841 13897 0
-13842 13898 0
-13843 13899 0
-13844 13900 0
-13845 13901 0
-13846 13902 0
-13847 13903 0
-13848 13904 0
-13849 13905 0
-13850 13906 0
-13851 13907 0
-13852 13908 0
-13853 13909 0
-13854 13910 0
-13855 13911 0
-13856 13912 0
-13857 13913 0
-13858 13914 0
-13859 13915 0
-13860 13916 0
-13861 13917 0
-13862 13918 0
-13863 13919 0
-13864 13920 0
-13865 13921 0
-13866 13922 0
-13867 13923 0
-13868 13924 0
-13869 13925 0
-13870 13926 0
-13871 13927 0
-13872 13928 0
-13873 13929 0
-13874 13930 0
-13875 13931 0
-13876 13932 0
-13877 13933 0
-13878 13934 0
-13879 13935 0
-13880 13936 0
-13881 13937 0
-13882 13938 0
-13883 13939 0
-13884 13940 0
-13885 13941 0
-13886 13942 0
-13887 13943 0
-13888 13944 0
-13889 13945 0
-13890 13946 0
-13891 13947 0
-13892 13948 0
-13893 13949 0
-13894 13950 0
-13895 13951 0
-13896 13952 0
-1274 -13841 13898 0
-1274 -13842 13899 0
-1274 -13843 13900 0
-1274 -13844 13901 0
-1274 -13845 13902 0
-1274 -13846 13903 0
-1274 -13847 13904 0
-1274 -13848 13905 0
-1274 -13849 13906 0
-1274 -13850 13907 0
-1274 -13851 13908 0
-1274 -13852 13909 0
-1274 -13853 13910 0
-1274 -13854 13911 0
-1274 -13855 13912 0
-1274 -13856 13913 0
-1274 -13857 13914 0
-1274 -13858 13915 0
-1274 -13859 13916 0
-1274 -13860 13917 0
-1274 -13861 13918 0
-1274 -13862 13919 0
-1274 -13863 13920 0
-1274 -13864 13921 0
-1274 -13865 13922 0
-1274 -13866 13923 0
-1274 -13867 13924 0
-1274 -13868 13925 0
-1274 -13869 13926 0
-1274 -13870 13927 0
-1274 -13871 13928 0
-1274 -13872 13929 0
-1274 -13873 13930 0
-1274 -13874 13931 0
-1274 -13875 13932 0
-1274 -13876 13933 0
-1274 -13877 13934 0
-1274 -13878 13935 0
-1274 -13879 13936 0
-1274 -13880 13937 0
-1274 -13881 13938 0
-1274 -13882 13939 0
-1274 -13883 13940 0
-1274 -13884 13941 0
-1274 -13885 13942 0
-1274 -13886 13943 0
-1274 -13887 13944 0
-1274 -13888 13945 0
-1274 -13889 13946 0
-1274 -13890 13947 0
-1274 -13891 13948 0
-1274 -13892 13949 0
-1274 -13893 13950 0
-1274 -13894 13951 0
-1274 -13895 13952 0
-1274 -13896 0
-13897 13953 0
-13898 13954 0
-13899 13955 0
-13900 13956 0
-13901 13957 0
-13902 13958 0
-13903 13959 0
-13904 13960 0
-13905 13961 0
-13906 13962 0
-13907 13963 0
-13908 13964 0
-13909 13965 0
-13910 13966 0
-13911 13967 0
-13912 13968 0
-13913 13969 0
-13914 13970 0
-13915 13971 0
-13916 13972 0
-13917 13973 0
-13918 13974 0
-13919 13975 0
-13920 13976 0
-13921 13977 0
-13922 13978 0
-13923 13979 0
-13924 13980 0
-13925 13981 0
-13926 13982 0
-13927 13983 0
-13928 13984 0
-13929 13985 0
-13930 13986 0
-13931 13987 0
-13932 13988 0
-13933 13989 0
-13934 13990 0
-13935 13991 0
-13936 13992 0
-13937 13993 0
-13938 13994 0
-13939 13995 0
-13940 13996 0
-13941 13997 0
-13942 13998 0
-13943 13999 0
-13944 14000 0
-13945 14001 0
-13946 14002 0
-13947 14003 0
-13948 14004 0
-13949 14005 0
-13950 14006 0
-13951 14007 0
-13952 14008 0
-1276 -13897 13954 0
-1276 -13898 13955 0
-1276 -13899 13956 0
-1276 -13900 13957 0
-1276 -13901 13958 0
-1276 -13902 13959 0
-1276 -13903 13960 0
-1276 -13904 13961 0
-1276 -13905 13962 0
-1276 -13906 13963 0
-1276 -13907 13964 0
-1276 -13908 13965 0
-1276 -13909 13966 0
-1276 -13910 13967 0
-1276 -13911 13968 0
-1276 -13912 13969 0
-1276 -13913 13970 0
-1276 -13914 13971 0
-1276 -13915 13972 0
-1276 -13916 13973 0
-1276 -13917 13974 0
-1276 -13918 13975 0
-1276 -13919 13976 0
-1276 -13920 13977 0
-1276 -13921 13978 0
-1276 -13922 13979 0
-1276 -13923 13980 0
-1276 -13924 13981 0
-1276 -13925 13982 0
-1276 -13926 13983 0
-1276 -13927 13984 0
-1276 -13928 13985 0
-1276 -13929 13986 0
-1276 -13930 13987 0
-1276 -13931 13988 0
-1276 -13932 13989 0
-1276 -13933 13990 0
-1276 -13934 13991 0
-1276 -13935 13992 0
-1276 -13936 13993 0
-1276 -13937 13994 0
-1276 -13938 13995 0
-1276 -13939 13996 0
-1276 -13940 13997 0
-1276 -13941 13998 0
-1276 -13942 13999 0
-1276 -13943 14000 0
-1276 -13944 14001 0
-1276 -13945 14002 0
-1276 -13946 14003 0
-1276 -13947 14004 0
-1276 -13948 14005 0
-1276 -13949 14006 0
-1276 -13950 14007 0
-1276 -13951 14008 0
-1276 -13952 0
-13953 14009 0
-13954 14010 0
-13955 14011 0
-13956 14012 0
-13957 14013 0
-13958 14014 0
-13959 14015 0
-13960 14016 0
-13961 14017 0
-13962 14018 0
-13963 14019 0
-13964 14020 0
-13965 14021 0
-13966 14022 0
-13967 14023 0
-13968 14024 0
-13969 14025 0
-13970 14026 0
-13971 14027 0
-13972 14028 0
-13973 14029 0
-13974 14030 0
-13975 14031 0
-13976 14032 0
-13977 14033 0
-13978 14034 0
-13979 14035 0
-13980 14036 0
-13981 14037 0
-13982 14038 0
-13983 14039 0
-13984 14040 0
-13985 14041 0
-13986 14042 0
-13987 14043 0
-13988 14044 0
-13989 14045 0
-13990 14046 0
-13991 14047 0
-13992 14048 0
-13993 14049 0
-13994 14050 0
-13995 14051 0
-13996 14052 0
-13997 14053 0
-13998 14054 0
-13999 14055 0
-14000 14056 0
-14001 14057 0
-14002 14058 0
-14003 14059 0
-14004 14060 0
-14005 14061 0
-14006 14062 0
-14007 14063 0
-14008 14064 0
-1278 -13953 14010 0
-1278 -13954 14011 0
-1278 -13955 14012 0
-1278 -13956 14013 0
-1278 -13957 14014 0
-1278 -13958 14015 0
-1278 -13959 14016 0
-1278 -13960 14017 0
-1278 -13961 14018 0
-1278 -13962 14019 0
-1278 -13963 14020 0
-1278 -13964 14021 0
-1278 -13965 14022 0
-1278 -13966 14023 0
-1278 -13967 14024 0
-1278 -13968 14025 0
-1278 -13969 14026 0
-1278 -13970 14027 0
-1278 -13971 14028 0
-1278 -13972 14029 0
-1278 -13973 14030 0
-1278 -13974 14031 0
-1278 -13975 14032 0
-1278 -13976 14033 0
-1278 -13977 14034 0
-1278 -13978 14035 0
-1278 -13979 14036 0
-1278 -13980 14037 0
-1278 -13981 14038 0
-1278 -13982 14039 0
-1278 -13983 14040 0
-1278 -13984 14041 0
-1278 -13985 14042 0
-1278 -13986 14043 0
-1278 -13987 14044 0
-1278 -13988 14045 0
-1278 -13989 14046 0
-1278 -13990 14047 0
-1278 -13991 14048 0
-1278 -13992 14049 0
-1278 -13993 14050 0
-1278 -13994 14051 0
-1278 -13995 14052 0
-1278 -13996 14053 0
-1278 -13997 14054 0
-1278 -13998 14055 0
-1278 -13999 14056 0
-1278 -14000 14057 0
-1278 -14001 14058 0
-1278 -14002 14059 0
-1278 -14003 14060 0
-1278 -14004 14061 0
-1278 -14005 14062 0
-1278 -14006 14063 0
-1278 -14007 14064 0
-1278 -14008 0
-14009 14065 0
-14010 14066 0
-14011 14067 0
-14012 14068 0
-14013 14069 0
-14014 14070 0
-14015 14071 0
-14016 14072 0
-14017 14073 0
-14018 14074 0
-14019 14075 0
-14020 14076 0
-14021 14077 0
-14022 14078 0
-14023 14079 0
-14024 14080 0
-14025 14081 0
-14026 14082 0
-14027 14083 0
-14028 14084 0
-14029 14085 0
-14030 14086 0
-14031 14087 0
-14032 14088 0
-14033 14089 0
-14034 14090 0
-14035 14091 0
-14036 14092 0
-14037 14093 0
-14038 14094 0
-14039 14095 0
-14040 14096 0
-14041 14097 0
-14042 14098 0
-14043 14099 0
-14044 14100 0
-14045 14101 0
-14046 14102 0
-14047 14103 0
-14048 14104 0
-14049 14105 0
-14050 14106 0
-14051 14107 0
-14052 14108 0
-14053 14109 0
-14054 14110 0
-14055 14111 0
-14056 14112 0
-14057 14113 0
-14058 14114 0
-14059 14115 0
-14060 14116 0
-14061 14117 0
-14062 14118 0
-14063 14119 0
-14064 14120 0
-1280 -14009 14066 0
-1280 -14010 14067 0
-1280 -14011 14068 0
-1280 -14012 14069 0
-1280 -14013 14070 0
-1280 -14014 14071 0
-1280 -14015 14072 0
-1280 -14016 14073 0
-1280 -14017 14074 0
-1280 -14018 14075 0
-1280 -14019 14076 0
-1280 -14020 14077 0
-1280 -14021 14078 0
-1280 -14022 14079 0
-1280 -14023 14080 0
-1280 -14024 14081 0
-1280 -14025 14082 0
-1280 -14026 14083 0
-1280 -14027 14084 0
-1280 -14028 14085 0
-1280 -14029 14086 0
-1280 -14030 14087 0
-1280 -14031 14088 0
-1280 -14032 14089 0
-1280 -14033 14090 0
-1280 -14034 14091 0
-1280 -14035 14092 0
-1280 -14036 14093 0
-1280 -14037 14094 0
-1280 -14038 14095 0
-1280 -14039 14096 0
-1280 -14040 14097 0
-1280 -14041 14098 0
-1280 -14042 14099 0
-1280 -14043 14100 0
-1280 -14044 14101 0
-1280 -14045 14102 0
-1280 -14046 14103 0
-1280 -14047 14104 0
-1280 -14048 14105 0
-1280 -14049 14106 0
-1280 -14050 14107 0
-1280 -14051 14108 0
-1280 -14052 14109 0
-1280 -14053 14110 0
-1280 -14054 14111 0
-1280 -14055 14112 0
-1280 -14056 14113 0
-1280 -14057 14114 0
-1280 -14058 14115 0
-1280 -14059 14116 0
-1280 -14060 14117 0
-1280 -14061 14118 0
-1280 -14062 14119 0
-1280 -14063 14120 0
-1280 -14064 0
-14065 14121 0
-14066 14122 0
-14067 14123 0
-14068 14124 0
-14069 14125 0
-14070 14126 0
-14071 14127 0
-14072 14128 0
-14073 14129 0
-14074 14130 0
-14075 14131 0
-14076 14132 0
-14077 14133 0
-14078 14134 0
-14079 14135 0
-14080 14136 0
-14081 14137 0
-14082 14138 0
-14083 14139 0
-14084 14140 0
-14085 14141 0
-14086 14142 0
-14087 14143 0
-14088 14144 0
-14089 14145 0
-14090 14146 0
-14091 14147 0
-14092 14148 0
-14093 14149 0
-14094 14150 0
-14095 14151 0
-14096 14152 0
-14097 14153 0
-14098 14154 0
-14099 14155 0
-14100 14156 0
-14101 14157 0
-14102 14158 0
-14103 14159 0
-14104 14160 0
-14105 14161 0
-14106 14162 0
-14107 14163 0
-14108 14164 0
-14109 14165 0
-14110 14166 0
-14111 14167 0
-14112 14168 0
-14113 14169 0
-14114 14170 0
-14115 14171 0
-14116 14172 0
-14117 14173 0
-14118 14174 0
-14119 14175 0
-14120 14176 0
-1282 -14065 14122 0
-1282 -14066 14123 0
-1282 -14067 14124 0
-1282 -14068 14125 0
-1282 -14069 14126 0
-1282 -14070 14127 0
-1282 -14071 14128 0
-1282 -14072 14129 0
-1282 -14073 14130 0
-1282 -14074 14131 0
-1282 -14075 14132 0
-1282 -14076 14133 0
-1282 -14077 14134 0
-1282 -14078 14135 0
-1282 -14079 14136 0
-1282 -14080 14137 0
-1282 -14081 14138 0
-1282 -14082 14139 0
-1282 -14083 14140 0
-1282 -14084 14141 0
-1282 -14085 14142 0
-1282 -14086 14143 0
-1282 -14087 14144 0
-1282 -14088 14145 0
-1282 -14089 14146 0
-1282 -14090 14147 0
-1282 -14091 14148 0
-1282 -14092 14149 0
-1282 -14093 14150 0
-1282 -14094 14151 0
-1282 -14095 14152 0
-1282 -14096 14153 0
-1282 -14097 14154 0
-1282 -14098 14155 0
-1282 -14099 14156 0
-1282 -14100 14157 0
-1282 -14101 14158 0
-1282 -14102 14159 0
-1282 -14103 14160 0
-1282 -14104 14161 0
-1282 -14105 14162 0
-1282 -14106 14163 0
-1282 -14107 14164 0
-1282 -14108 14165 0
-1282 -14109 14166 0
-1282 -14110 14167 0
-1282 -14111 14168 0
-1282 -14112 14169 0
-1282 -14113 14170 0
-1282 -14114 14171 0
-1282 -14115 14172 0
-1282 -14116 14173 0
-1282 -14117 14174 0
-1282 -14118 14175 0
-1282 -14119 14176 0
-1282 -14120 0
-14121 14177 0
-14122 14178 0
-14123 14179 0
-14124 14180 0
-14125 14181 0
-14126 14182 0
-14127 14183 0
-14128 14184 0
-14129 14185 0
-14130 14186 0
-14131 14187 0
-14132 14188 0
-14133 14189 0
-14134 14190 0
-14135 14191 0
-14136 14192 0
-14137 14193 0
-14138 14194 0
-14139 14195 0
-14140 14196 0
-14141 14197 0
-14142 14198 0
-14143 14199 0
-14144 14200 0
-14145 14201 0
-14146 14202 0
-14147 14203 0
-14148 14204 0
-14149 14205 0
-14150 14206 0
-14151 14207 0
-14152 14208 0
-14153 14209 0
-14154 14210 0
-14155 14211 0
-14156 14212 0
-14157 14213 0
-14158 14214 0
-14159 14215 0
-14160 14216 0
-14161 14217 0
-14162 14218 0
-14163 14219 0
-14164 14220 0
-14165 14221 0
-14166 14222 0
-14167 14223 0
-14168 14224 0
-14169 14225 0
-14170 14226 0
-14171 14227 0
-14172 14228 0
-14173 14229 0
-14174 14230 0
-14175 14231 0
-14176 14232 0
-1284 -14121 14178 0
-1284 -14122 14179 0
-1284 -14123 14180 0
-1284 -14124 14181 0
-1284 -14125 14182 0
-1284 -14126 14183 0
-1284 -14127 14184 0
-1284 -14128 14185 0
-1284 -14129 14186 0
-1284 -14130 14187 0
-1284 -14131 14188 0
-1284 -14132 14189 0
-1284 -14133 14190 0
-1284 -14134 14191 0
-1284 -14135 14192 0
-1284 -14136 14193 0
-1284 -14137 14194 0
-1284 -14138 14195 0
-1284 -14139 14196 0
-1284 -14140 14197 0
-1284 -14141 14198 0
-1284 -14142 14199 0
-1284 -14143 14200 0
-1284 -14144 14201 0
-1284 -14145 14202 0
-1284 -14146 14203 0
-1284 -14147 14204 0
-1284 -14148 14205 0
-1284 -14149 14206 0
-1284 -14150 14207 0
-1284 -14151 14208 0
-1284 -14152 14209 0
-1284 -14153 14210 0
-1284 -14154 14211 0
-1284 -14155 14212 0
-1284 -14156 14213 0
-1284 -14157 14214 0
-1284 -14158 14215 0
-1284 -14159 14216 0
-1284 -14160 14217 0
-1284 -14161 14218 0
-1284 -14162 14219 0
-1284 -14163 14220 0
-1284 -14164 14221 0
-1284 -14165 14222 0
-1284 -14166 14223 0
-1284 -14167 14224 0
-1284 -14168 14225 0
-1284 -14169 14226 0
-1284 -14170 14227 0
-1284 -14171 14228 0
-1284 -14172 14229 0
-1284 -14173 14230 0
-1284 -14174 14231 0
-1284 -14175 14232 0
-1284 -14176 0
-14177 14233 0
-14178 14234 0
-14179 14235 0
-14180 14236 0
-14181 14237 0
-14182 14238 0
-14183 14239 0
-14184 14240 0
-14185 14241 0
-14186 14242 0
-14187 14243 0
-14188 14244 0
-14189 14245 0
-14190 14246 0
-14191 14247 0
-14192 14248 0
-14193 14249 0
-14194 14250 0
-14195 14251 0
-14196 14252 0
-14197 14253 0
-14198 14254 0
-14199 14255 0
-14200 14256 0
-14201 14257 0
-14202 14258 0
-14203 14259 0
-14204 14260 0
-14205 14261 0
-14206 14262 0
-14207 14263 0
-14208 14264 0
-14209 14265 0
-14210 14266 0
-14211 14267 0
-14212 14268 0
-14213 14269 0
-14214 14270 0
-14215 14271 0
-14216 14272 0
-14217 14273 0
-14218 14274 0
-14219 14275 0
-14220 14276 0
-14221 14277 0
-14222 14278 0
-14223 14279 0
-14224 14280 0
-14225 14281 0
-14226 14282 0
-14227 14283 0
-14228 14284 0
-14229 14285 0
-14230 14286 0
-14231 14287 0
-14232 14288 0
-1286 -14177 14234 0
-1286 -14178 14235 0
-1286 -14179 14236 0
-1286 -14180 14237 0
-1286 -14181 14238 0
-1286 -14182 14239 0
-1286 -14183 14240 0
-1286 -14184 14241 0
-1286 -14185 14242 0
-1286 -14186 14243 0
-1286 -14187 14244 0
-1286 -14188 14245 0
-1286 -14189 14246 0
-1286 -14190 14247 0
-1286 -14191 14248 0
-1286 -14192 14249 0
-1286 -14193 14250 0
-1286 -14194 14251 0
-1286 -14195 14252 0
-1286 -14196 14253 0
-1286 -14197 14254 0
-1286 -14198 14255 0
-1286 -14199 14256 0
-1286 -14200 14257 0
-1286 -14201 14258 0
-1286 -14202 14259 0
-1286 -14203 14260 0
-1286 -14204 14261 0
-1286 -14205 14262 0
-1286 -14206 14263 0
-1286 -14207 14264 0
-1286 -14208 14265 0
-1286 -14209 14266 0
-1286 -14210 14267 0
-1286 -14211 14268 0
-1286 -14212 14269 0
-1286 -14213 14270 0
-1286 -14214 14271 0
-1286 -14215 14272 0
-1286 -14216 14273 0
-1286 -14217 14274 0
-1286 -14218 14275 0
-1286 -14219 14276 0
-1286 -14220 14277 0
-1286 -14221 14278 0
-1286 -14222 14279 0
-1286 -14223 14280 0
-1286 -14224 14281 0
-1286 -14225 14282 0
-1286 -14226 14283 0
-1286 -14227 14284 0
-1286 -14228 14285 0
-1286 -14229 14286 0
-1286 -14230 14287 0
-1286 -14231 14288 0
-1286 -14232 0
-14233 14289 0
-14234 14290 0
-14235 14291 0
-14236 14292 0
-14237 14293 0
-14238 14294 0
-14239 14295 0
-14240 14296 0
-14241 14297 0
-14242 14298 0
-14243 14299 0
-14244 14300 0
-14245 14301 0
-14246 14302 0
-14247 14303 0
-14248 14304 0
-14249 14305 0
-14250 14306 0
-14251 14307 0
-14252 14308 0
-14253 14309 0
-14254 14310 0
-14255 14311 0
-14256 14312 0
-14257 14313 0
-14258 14314 0
-14259 14315 0
-14260 14316 0
-14261 14317 0
-14262 14318 0
-14263 14319 0
-14264 14320 0
-14265 14321 0
-14266 14322 0
-14267 14323 0
-14268 14324 0
-14269 14325 0
-14270 14326 0
-14271 14327 0
-14272 14328 0
-14273 14329 0
-14274 14330 0
-14275 14331 0
-14276 14332 0
-14277 14333 0
-14278 14334 0
-14279 14335 0
-14280 14336 0
-14281 14337 0
-14282 14338 0
-14283 14339 0
-14284 14340 0
-14285 14341 0
-14286 14342 0
-14287 14343 0
-14288 14344 0
-1288 -14233 14290 0
-1288 -14234 14291 0
-1288 -14235 14292 0
-1288 -14236 14293 0
-1288 -14237 14294 0
-1288 -14238 14295 0
-1288 -14239 14296 0
-1288 -14240 14297 0
-1288 -14241 14298 0
-1288 -14242 14299 0
-1288 -14243 14300 0
-1288 -14244 14301 0
-1288 -14245 14302 0
-1288 -14246 14303 0
-1288 -14247 14304 0
-1288 -14248 14305 0
-1288 -14249 14306 0
-1288 -14250 14307 0
-1288 -14251 14308 0
-1288 -14252 14309 0
-1288 -14253 14310 0
-1288 -14254 14311 0
-1288 -14255 14312 0
-1288 -14256 14313 0
-1288 -14257 14314 0
-1288 -14258 14315 0
-1288 -14259 14316 0
-1288 -14260 14317 0
-1288 -14261 14318 0
-1288 -14262 14319 0
-1288 -14263 14320 0
-1288 -14264 14321 0
-1288 -14265 14322 0
-1288 -14266 14323 0
-1288 -14267 14324 0
-1288 -14268 14325 0
-1288 -14269 14326 0
-1288 -14270 14327 0
-1288 -14271 14328 0
-1288 -14272 14329 0
-1288 -14273 14330 0
-1288 -14274 14331 0
-1288 -14275 14332 0
-1288 -14276 14333 0
-1288 -14277 14334 0
-1288 -14278 14335 0
-1288 -14279 14336 0
-1288 -14280 14337 0
-1288 -14281 14338 0
-1288 -14282 14339 0
-1288 -14283 14340 0
-1288 -14284 14341 0
-1288 -14285 14342 0
-1288 -14286 14343 0
-1288 -14287 14344 0
-1288 -14288 0
-14289 14345 0
-14290 14346 0
-14291 14347 0
-14292 14348 0
-14293 14349 0
-14294 14350 0
-14295 14351 0
-14296 14352 0
-14297 14353 0
-14298 14354 0
-14299 14355 0
-14300 14356 0
-14301 14357 0
-14302 14358 0
-14303 14359 0
-14304 14360 0
-14305 14361 0
-14306 14362 0
-14307 14363 0
-14308 14364 0
-14309 14365 0
-14310 14366 0
-14311 14367 0
-14312 14368 0
-14313 14369 0
-14314 14370 0
-14315 14371 0
-14316 14372 0
-14317 14373 0
-14318 14374 0
-14319 14375 0
-14320 14376 0
-14321 14377 0
-14322 14378 0
-14323 14379 0
-14324 14380 0
-14325 14381 0
-14326 14382 0
-14327 14383 0
-14328 14384 0
-14329 14385 0
-14330 14386 0
-14331 14387 0
-14332 14388 0
-14333 14389 0
-14334 14390 0
-14335 14391 0
-14336 14392 0
-14337 14393 0
-14338 14394 0
-14339 14395 0
-14340 14396 0
-14341 14397 0
-14342 14398 0
-14343 14399 0
-14344 14400 0
-1290 -14289 14346 0
-1290 -14290 14347 0
-1290 -14291 14348 0
-1290 -14292 14349 0
-1290 -14293 14350 0
-1290 -14294 14351 0
-1290 -14295 14352 0
-1290 -14296 14353 0
-1290 -14297 14354 0
-1290 -14298 14355 0
-1290 -14299 14356 0
-1290 -14300 14357 0
-1290 -14301 14358 0
-1290 -14302 14359 0
-1290 -14303 14360 0
-1290 -14304 14361 0
-1290 -14305 14362 0
-1290 -14306 14363 0
-1290 -14307 14364 0
-1290 -14308 14365 0
-1290 -14309 14366 0
-1290 -14310 14367 0
-1290 -14311 14368 0
-1290 -14312 14369 0
-1290 -14313 14370 0
-1290 -14314 14371 0
-1290 -14315 14372 0
-1290 -14316 14373 0
-1290 -14317 14374 0
-1290 -14318 14375 0
-1290 -14319 14376 0
-1290 -14320 14377 0
-1290 -14321 14378 0
-1290 -14322 14379 0
-1290 -14323 14380 0
-1290 -14324 14381 0
-1290 -14325 14382 0
-1290 -14326 14383 0
-1290 -14327 14384 0
-1290 -14328 14385 0
-1290 -14329 14386 0
-1290 -14330 14387 0
-1290 -14331 14388 0
-1290 -14332 14389 0
-1290 -14333 14390 0
-1290 -14334 14391 0
-1290 -14335 14392 0
-1290 -14336 14393 0
-1290 -14337 14394 0
-1290 -14338 14395 0
-1290 -14339 14396 0
-1290 -14340 14397 0
-1290 -14341 14398 0
-1290 -14342 14399 0
-1290 -14343 14400 0
-1290 -14344 0
-14345 14401 0
-14346 14402 0
-14347 14403 0
-14348 14404 0
-14349 14405 0
-14350 14406 0
-14351 14407 0
-14352 14408 0
-14353 14409 0
-14354 14410 0
-14355 14411 0
-14356 14412 0
-14357 14413 0
-14358 14414 0
-14359 14415 0
-14360 14416 0
-14361 14417 0
-14362 14418 0
-14363 14419 0
-14364 14420 0
-14365 14421 0
-14366 14422 0
-14367 14423 0
-14368 14424 0
-14369 14425 0
-14370 14426 0
-14371 14427 0
-14372 14428 0
-14373 14429 0
-14374 14430 0
-14375 14431 0
-14376 14432 0
-14377 14433 0
-14378 14434 0
-14379 14435 0
-14380 14436 0
-14381 14437 0
-14382 14438 0
-14383 14439 0
-14384 14440 0
-14385 14441 0
-14386 14442 0
-14387 14443 0
-14388 14444 0
-14389 14445 0
-14390 14446 0
-14391 14447 0
-14392 14448 0
-14393 14449 0
-14394 14450 0
-14395 14451 0
-14396 14452 0
-14397 14453 0
-14398 14454 0
-14399 14455 0
-14400 14456 0
-1292 -14345 14402 0
-1292 -14346 14403 0
-1292 -14347 14404 0
-1292 -14348 14405 0
-1292 -14349 14406 0
-1292 -14350 14407 0
-1292 -14351 14408 0
-1292 -14352 14409 0
-1292 -14353 14410 0
-1292 -14354 14411 0
-1292 -14355 14412 0
-1292 -14356 14413 0
-1292 -14357 14414 0
-1292 -14358 14415 0
-1292 -14359 14416 0
-1292 -14360 14417 0
-1292 -14361 14418 0
-1292 -14362 14419 0
-1292 -14363 14420 0
-1292 -14364 14421 0
-1292 -14365 14422 0
-1292 -14366 14423 0
-1292 -14367 14424 0
-1292 -14368 14425 0
-1292 -14369 14426 0
-1292 -14370 14427 0
-1292 -14371 14428 0
-1292 -14372 14429 0
-1292 -14373 14430 0
-1292 -14374 14431 0
-1292 -14375 14432 0
-1292 -14376 14433 0
-1292 -14377 14434 0
-1292 -14378 14435 0
-1292 -14379 14436 0
-1292 -14380 14437 0
-1292 -14381 14438 0
-1292 -14382 14439 0
-1292 -14383 14440 0
-1292 -14384 14441 0
-1292 -14385 14442 0
-1292 -14386 14443 0
-1292 -14387 14444 0
-1292 -14388 14445 0
-1292 -14389 14446 0
-1292 -14390 14447 0
-1292 -14391 14448 0
-1292 -14392 14449 0
-1292 -14393 14450 0
-1292 -14394 14451 0
-1292 -14395 14452 0
-1292 -14396 14453 0
-1292 -14397 14454 0
-1292 -14398 14455 0
-1292 -14399 14456 0
-1292 -14400 0
-14401 14457 0
-14402 14458 0
-14403 14459 0
-14404 14460 0
-14405 14461 0
-14406 14462 0
-14407 14463 0
-14408 14464 0
-14409 14465 0
-14410 14466 0
-14411 14467 0
-14412 14468 0
-14413 14469 0
-14414 14470 0
-14415 14471 0
-14416 14472 0
-14417 14473 0
-14418 14474 0
-14419 14475 0
-14420 14476 0
-14421 14477 0
-14422 14478 0
-14423 14479 0
-14424 14480 0
-14425 14481 0
-14426 14482 0
-14427 14483 0
-14428 14484 0
-14429 14485 0
-14430 14486 0
-14431 14487 0
-14432 14488 0
-14433 14489 0
-14434 14490 0
-14435 14491 0
-14436 14492 0
-14437 14493 0
-14438 14494 0
-14439 14495 0
-14440 14496 0
-14441 14497 0
-14442 14498 0
-14443 14499 0
-14444 14500 0
-14445 14501 0
-14446 14502 0
-14447 14503 0
-14448 14504 0
-14449 14505 0
-14450 14506 0
-14451 14507 0
-14452 14508 0
-14453 14509 0
-14454 14510 0
-14455 14511 0
-14456 14512 0
-1294 -14401 14458 0
-1294 -14402 14459 0
-1294 -14403 14460 0
-1294 -14404 14461 0
-1294 -14405 14462 0
-1294 -14406 14463 0
-1294 -14407 14464 0
-1294 -14408 14465 0
-1294 -14409 14466 0
-1294 -14410 14467 0
-1294 -14411 14468 0
-1294 -14412 14469 0
-1294 -14413 14470 0
-1294 -14414 14471 0
-1294 -14415 14472 0
-1294 -14416 14473 0
-1294 -14417 14474 0
-1294 -14418 14475 0
-1294 -14419 14476 0
-1294 -14420 14477 0
-1294 -14421 14478 0
-1294 -14422 14479 0
-1294 -14423 14480 0
-1294 -14424 14481 0
-1294 -14425 14482 0
-1294 -14426 14483 0
-1294 -14427 14484 0
-1294 -14428 14485 0
-1294 -14429 14486 0
-1294 -14430 14487 0
-1294 -14431 14488 0
-1294 -14432 14489 0
-1294 -14433 14490 0
-1294 -14434 14491 0
-1294 -14435 14492 0
-1294 -14436 14493 0
-1294 -14437 14494 0
-1294 -14438 14495 0
-1294 -14439 14496 0
-1294 -14440 14497 0
-1294 -14441 14498 0
-1294 -14442 14499 0
-1294 -14443 14500 0
-1294 -14444 14501 0
-1294 -14445 14502 0
-1294 -14446 14503 0
-1294 -14447 14504 0
-1294 -14448 14505 0
-1294 -14449 14506 0
-1294 -14450 14507 0
-1294 -14451 14508 0
-1294 -14452 14509 0
-1294 -14453 14510 0
-1294 -14454 14511 0
-1294 -14455 14512 0
-1294 -14456 0
-14457 14513 0
-14458 14514 0
-14459 14515 0
-14460 14516 0
-14461 14517 0
-14462 14518 0
-14463 14519 0
-14464 14520 0
-14465 14521 0
-14466 14522 0
-14467 14523 0
-14468 14524 0
-14469 14525 0
-14470 14526 0
-14471 14527 0
-14472 14528 0
-14473 14529 0
-14474 14530 0
-14475 14531 0
-14476 14532 0
-14477 14533 0
-14478 14534 0
-14479 14535 0
-14480 14536 0
-14481 14537 0
-14482 14538 0
-14483 14539 0
-14484 14540 0
-14485 14541 0
-14486 14542 0
-14487 14543 0
-14488 14544 0
-14489 14545 0
-14490 14546 0
-14491 14547 0
-14492 14548 0
-14493 14549 0
-14494 14550 0
-14495 14551 0
-14496 14552 0
-14497 14553 0
-14498 14554 0
-14499 14555 0
-14500 14556 0
-14501 14557 0
-14502 14558 0
-14503 14559 0
-14504 14560 0
-14505 14561 0
-14506 14562 0
-14507 14563 0
-14508 14564 0
-14509 14565 0
-14510 14566 0
-14511 14567 0
-14512 14568 0
-1296 -14457 14514 0
-1296 -14458 14515 0
-1296 -14459 14516 0
-1296 -14460 14517 0
-1296 -14461 14518 0
-1296 -14462 14519 0
-1296 -14463 14520 0
-1296 -14464 14521 0
-1296 -14465 14522 0
-1296 -14466 14523 0
-1296 -14467 14524 0
-1296 -14468 14525 0
-1296 -14469 14526 0
-1296 -14470 14527 0
-1296 -14471 14528 0
-1296 -14472 14529 0
-1296 -14473 14530 0
-1296 -14474 14531 0
-1296 -14475 14532 0
-1296 -14476 14533 0
-1296 -14477 14534 0
-1296 -14478 14535 0
-1296 -14479 14536 0
-1296 -14480 14537 0
-1296 -14481 14538 0
-1296 -14482 14539 0
-1296 -14483 14540 0
-1296 -14484 14541 0
-1296 -14485 14542 0
-1296 -14486 14543 0
-1296 -14487 14544 0
-1296 -14488 14545 0
-1296 -14489 14546 0
-1296 -14490 14547 0
-1296 -14491 14548 0
-1296 -14492 14549 0
-1296 -14493 14550 0
-1296 -14494 14551 0
-1296 -14495 14552 0
-1296 -14496 14553 0
-1296 -14497 14554 0
-1296 -14498 14555 0
-1296 -14499 14556 0
-1296 -14500 14557 0
-1296 -14501 14558 0
-1296 -14502 14559 0
-1296 -14503 14560 0
-1296 -14504 14561 0
-1296 -14505 14562 0
-1296 -14506 14563 0
-1296 -14507 14564 0
-1296 -14508 14565 0
-1296 -14509 14566 0
-1296 -14510 14567 0
-1296 -14511 14568 0
-1296 -14512 0
-14513 14569 0
-14514 14570 0
-14515 14571 0
-14516 14572 0
-14517 14573 0
-14518 14574 0
-14519 14575 0
-14520 14576 0
-14521 14577 0
-14522 14578 0
-14523 14579 0
-14524 14580 0
-14525 14581 0
-14526 14582 0
-14527 14583 0
-14528 14584 0
-14529 14585 0
-14530 14586 0
-14531 14587 0
-14532 14588 0
-14533 14589 0
-14534 14590 0
-14535 14591 0
-14536 14592 0
-14537 14593 0
-14538 14594 0
-14539 14595 0
-14540 14596 0
-14541 14597 0
-14542 14598 0
-14543 14599 0
-14544 14600 0
-14545 14601 0
-14546 14602 0
-14547 14603 0
-14548 14604 0
-14549 14605 0
-14550 14606 0
-14551 14607 0
-14552 14608 0
-14553 14609 0
-14554 14610 0
-14555 14611 0
-14556 14612 0
-14557 14613 0
-14558 14614 0
-14559 14615 0
-14560 14616 0
-14561 14617 0
-14562 14618 0
-14563 14619 0
-14564 14620 0
-14565 14621 0
-14566 14622 0
-14567 14623 0
-14568 14624 0
-1298 -14513 14570 0
-1298 -14514 14571 0
-1298 -14515 14572 0
-1298 -14516 14573 0
-1298 -14517 14574 0
-1298 -14518 14575 0
-1298 -14519 14576 0
-1298 -14520 14577 0
-1298 -14521 14578 0
-1298 -14522 14579 0
-1298 -14523 14580 0
-1298 -14524 14581 0
-1298 -14525 14582 0
-1298 -14526 14583 0
-1298 -14527 14584 0
-1298 -14528 14585 0
-1298 -14529 14586 0
-1298 -14530 14587 0
-1298 -14531 14588 0
-1298 -14532 14589 0
-1298 -14533 14590 0
-1298 -14534 14591 0
-1298 -14535 14592 0
-1298 -14536 14593 0
-1298 -14537 14594 0
-1298 -14538 14595 0
-1298 -14539 14596 0
-1298 -14540 14597 0
-1298 -14541 14598 0
-1298 -14542 14599 0
-1298 -14543 14600 0
-1298 -14544 14601 0
-1298 -14545 14602 0
-1298 -14546 14603 0
-1298 -14547 14604 0
-1298 -14548 14605 0
-1298 -14549 14606 0
-1298 -14550 14607 0
-1298 -14551 14608 0
-1298 -14552 14609 0
-1298 -14553 14610 0
-1298 -14554 14611 0
-1298 -14555 14612 0
-1298 -14556 14613 0
-1298 -14557 14614 0
-1298 -14558 14615 0
-1298 -14559 14616 0
-1298 -14560 14617 0
-1298 -14561 14618 0
-1298 -14562 14619 0
-1298 -14563 14620 0
-1298 -14564 14621 0
-1298 -14565 14622 0
-1298 -14566 14623 0
-1298 -14567 14624 0
-1298 -14568 0
-14569 14625 0
-14570 14626 0
-14571 14627 0
-14572 14628 0
-14573 14629 0
-14574 14630 0
-14575 14631 0
-14576 14632 0
-14577 14633 0
-14578 14634 0
-14579 14635 0
-14580 14636 0
-14581 14637 0
-14582 14638 0
-14583 14639 0
-14584 14640 0
-14585 14641 0
-14586 14642 0
-14587 14643 0
-14588 14644 0
-14589 14645 0
-14590 14646 0
-14591 14647 0
-14592 14648 0
-14593 14649 0
-14594 14650 0
-14595 14651 0
-14596 14652 0
-14597 14653 0
-14598 14654 0
-14599 14655 0
-14600 14656 0
-14601 14657 0
-14602 14658 0
-14603 14659 0
-14604 14660 0
-14605 14661 0
-14606 14662 0
-14607 14663 0
-14608 14664 0
-14609 14665 0
-14610 14666 0
-14611 14667 0
-14612 14668 0
-14613 14669 0
-14614 14670 0
-14615 14671 0
-14616 14672 0
-14617 14673 0
-14618 14674 0
-14619 14675 0
-14620 14676 0
-14621 14677 0
-14622 14678 0
-14623 14679 0
-14624 14680 0
-1300 -14569 14626 0
-1300 -14570 14627 0
-1300 -14571 14628 0
-1300 -14572 14629 0
-1300 -14573 14630 0
-1300 -14574 14631 0
-1300 -14575 14632 0
-1300 -14576 14633 0
-1300 -14577 14634 0
-1300 -14578 14635 0
-1300 -14579 14636 0
-1300 -14580 14637 0
-1300 -14581 14638 0
-1300 -14582 14639 0
-1300 -14583 14640 0
-1300 -14584 14641 0
-1300 -14585 14642 0
-1300 -14586 14643 0
-1300 -14587 14644 0
-1300 -14588 14645 0
-1300 -14589 14646 0
-1300 -14590 14647 0
-1300 -14591 14648 0
-1300 -14592 14649 0
-1300 -14593 14650 0
-1300 -14594 14651 0
-1300 -14595 14652 0
-1300 -14596 14653 0
-1300 -14597 14654 0
-1300 -14598 14655 0
-1300 -14599 14656 0
-1300 -14600 14657 0
-1300 -14601 14658 0
-1300 -14602 14659 0
-1300 -14603 14660 0
-1300 -14604 14661 0
-1300 -14605 14662 0
-1300 -14606 14663 0
-1300 -14607 14664 0
-1300 -14608 14665 0
-1300 -14609 14666 0
-1300 -14610 14667 0
-1300 -14611 14668 0
-1300 -14612 14669 0
-1300 -14613 14670 0
-1300 -14614 14671 0
-1300 -14615 14672 0
-1300 -14616 14673 0
-1300 -14617 14674 0
-1300 -14618 14675 0
-1300 -14619 14676 0
-1300 -14620 14677 0
-1300 -14621 14678 0
-1300 -14622 14679 0
-1300 -14623 14680 0
-1300 -14624 0
-14625 14681 0
-14626 14682 0
-14627 14683 0
-14628 14684 0
-14629 14685 0
-14630 14686 0
-14631 14687 0
-14632 14688 0
-14633 14689 0
-14634 14690 0
-14635 14691 0
-14636 14692 0
-14637 14693 0
-14638 14694 0
-14639 14695 0
-14640 14696 0
-14641 14697 0
-14642 14698 0
-14643 14699 0
-14644 14700 0
-14645 14701 0
-14646 14702 0
-14647 14703 0
-14648 14704 0
-14649 14705 0
-14650 14706 0
-14651 14707 0
-14652 14708 0
-14653 14709 0
-14654 14710 0
-14655 14711 0
-14656 14712 0
-14657 14713 0
-14658 14714 0
-14659 14715 0
-14660 14716 0
-14661 14717 0
-14662 14718 0
-14663 14719 0
-14664 14720 0
-14665 14721 0
-14666 14722 0
-14667 14723 0
-14668 14724 0
-14669 14725 0
-14670 14726 0
-14671 14727 0
-14672 14728 0
-14673 14729 0
-14674 14730 0
-14675 14731 0
-14676 14732 0
-14677 14733 0
-14678 14734 0
-14679 14735 0
-14680 14736 0
-1302 -14625 14682 0
-1302 -14626 14683 0
-1302 -14627 14684 0
-1302 -14628 14685 0
-1302 -14629 14686 0
-1302 -14630 14687 0
-1302 -14631 14688 0
-1302 -14632 14689 0
-1302 -14633 14690 0
-1302 -14634 14691 0
-1302 -14635 14692 0
-1302 -14636 14693 0
-1302 -14637 14694 0
-1302 -14638 14695 0
-1302 -14639 14696 0
-1302 -14640 14697 0
-1302 -14641 14698 0
-1302 -14642 14699 0
-1302 -14643 14700 0
-1302 -14644 14701 0
-1302 -14645 14702 0
-1302 -14646 14703 0
-1302 -14647 14704 0
-1302 -14648 14705 0
-1302 -14649 14706 0
-1302 -14650 14707 0
-1302 -14651 14708 0
-1302 -14652 14709 0
-1302 -14653 14710 0
-1302 -14654 14711 0
-1302 -14655 14712 0
-1302 -14656 14713 0
-1302 -14657 14714 0
-1302 -14658 14715 0
-1302 -14659 14716 0
-1302 -14660 14717 0
-1302 -14661 14718 0
-1302 -14662 14719 0
-1302 -14663 14720 0
-1302 -14664 14721 0
-1302 -14665 14722 0
-1302 -14666 14723 0
-1302 -14667 14724 0
-1302 -14668 14725 0
-1302 -14669 14726 0
-1302 -14670 14727 0
-1302 -14671 14728 0
-1302 -14672 14729 0
-1302 -14673 14730 0
-1302 -14674 14731 0
-1302 -14675 14732 0
-1302 -14676 14733 0
-1302 -14677 14734 0
-1302 -14678 14735 0
-1302 -14679 14736 0
-1302 -14680 0
-14681 14737 0
-14682 14738 0
-14683 14739 0
-14684 14740 0
-14685 14741 0
-14686 14742 0
-14687 14743 0
-14688 14744 0
-14689 14745 0
-14690 14746 0
-14691 14747 0
-14692 14748 0
-14693 14749 0
-14694 14750 0
-14695 14751 0
-14696 14752 0
-14697 14753 0
-14698 14754 0
-14699 14755 0
-14700 14756 0
-14701 14757 0
-14702 14758 0
-14703 14759 0
-14704 14760 0
-14705 14761 0
-14706 14762 0
-14707 14763 0
-14708 14764 0
-14709 14765 0
-14710 14766 0
-14711 14767 0
-14712 14768 0
-14713 14769 0
-14714 14770 0
-14715 14771 0
-14716 14772 0
-14717 14773 0
-14718 14774 0
-14719 14775 0
-14720 14776 0
-14721 14777 0
-14722 14778 0
-14723 14779 0
-14724 14780 0
-14725 14781 0
-14726 14782 0
-14727 14783 0
-14728 14784 0
-14729 14785 0
-14730 14786 0
-14731 14787 0
-14732 14788 0
-14733 14789 0
-14734 14790 0
-14735 14791 0
-14736 14792 0
-1304 -14681 14738 0
-1304 -14682 14739 0
-1304 -14683 14740 0
-1304 -14684 14741 0
-1304 -14685 14742 0
-1304 -14686 14743 0
-1304 -14687 14744 0
-1304 -14688 14745 0
-1304 -14689 14746 0
-1304 -14690 14747 0
-1304 -14691 14748 0
-1304 -14692 14749 0
-1304 -14693 14750 0
-1304 -14694 14751 0
-1304 -14695 14752 0
-1304 -14696 14753 0
-1304 -14697 14754 0
-1304 -14698 14755 0
-1304 -14699 14756 0
-1304 -14700 14757 0
-1304 -14701 14758 0
-1304 -14702 14759 0
-1304 -14703 14760 0
-1304 -14704 14761 0
-1304 -14705 14762 0
-1304 -14706 14763 0
-1304 -14707 14764 0
-1304 -14708 14765 0
-1304 -14709 14766 0
-1304 -14710 14767 0
-1304 -14711 14768 0
-1304 -14712 14769 0
-1304 -14713 14770 0
-1304 -14714 14771 0
-1304 -14715 14772 0
-1304 -14716 14773 0
-1304 -14717 14774 0
-1304 -14718 14775 0
-1304 -14719 14776 0
-1304 -14720 14777 0
-1304 -14721 14778 0
-1304 -14722 14779 0
-1304 -14723 14780 0
-1304 -14724 14781 0
-1304 -14725 14782 0
-1304 -14726 14783 0
-1304 -14727 14784 0
-1304 -14728 14785 0
-1304 -14729 14786 0
-1304 -14730 14787 0
-1304 -14731 14788 0
-1304 -14732 14789 0
-1304 -14733 14790 0
-1304 -14734 14791 0
-1304 -14735 14792 0
-1304 -14736 0
-14737 14793 0
-14738 14794 0
-14739 14795 0
-14740 14796 0
-14741 14797 0
-14742 14798 0
-14743 14799 0
-14744 14800 0
-14745 14801 0
-14746 14802 0
-14747 14803 0
-14748 14804 0
-14749 14805 0
-14750 14806 0
-14751 14807 0
-14752 14808 0
-14753 14809 0
-14754 14810 0
-14755 14811 0
-14756 14812 0
-14757 14813 0
-14758 14814 0
-14759 14815 0
-14760 14816 0
-14761 14817 0
-14762 14818 0
-14763 14819 0
-14764 14820 0
-14765 14821 0
-14766 14822 0
-14767 14823 0
-14768 14824 0
-14769 14825 0
-14770 14826 0
-14771 14827 0
-14772 14828 0
-14773 14829 0
-14774 14830 0
-14775 14831 0
-14776 14832 0
-14777 14833 0
-14778 14834 0
-14779 14835 0
-14780 14836 0
-14781 14837 0
-14782 14838 0
-14783 14839 0
-14784 14840 0
-14785 14841 0
-14786 14842 0
-14787 14843 0
-14788 14844 0
-14789 14845 0
-14790 14846 0
-14791 14847 0
-14792 14848 0
-1306 -14737 14794 0
-1306 -14738 14795 0
-1306 -14739 14796 0
-1306 -14740 14797 0
-1306 -14741 14798 0
-1306 -14742 14799 0
-1306 -14743 14800 0
-1306 -14744 14801 0
-1306 -14745 14802 0
-1306 -14746 14803 0
-1306 -14747 14804 0
-1306 -14748 14805 0
-1306 -14749 14806 0
-1306 -14750 14807 0
-1306 -14751 14808 0
-1306 -14752 14809 0
-1306 -14753 14810 0
-1306 -14754 14811 0
-1306 -14755 14812 0
-1306 -14756 14813 0
-1306 -14757 14814 0
-1306 -14758 14815 0
-1306 -14759 14816 0
-1306 -14760 14817 0
-1306 -14761 14818 0
-1306 -14762 14819 0
-1306 -14763 14820 0
-1306 -14764 14821 0
-1306 -14765 14822 0
-1306 -14766 14823 0
-1306 -14767 14824 0
-1306 -14768 14825 0
-1306 -14769 14826 0
-1306 -14770 14827 0
-1306 -14771 14828 0
-1306 -14772 14829 0
-1306 -14773 14830 0
-1306 -14774 14831 0
-1306 -14775 14832 0
-1306 -14776 14833 0
-1306 -14777 14834 0
-1306 -14778 14835 0
-1306 -14779 14836 0
-1306 -14780 14837 0
-1306 -14781 14838 0
-1306 -14782 14839 0
-1306 -14783 14840 0
-1306 -14784 14841 0
-1306 -14785 14842 0
-1306 -14786 14843 0
-1306 -14787 14844 0
-1306 -14788 14845 0
-1306 -14789 14846 0
-1306 -14790 14847 0
-1306 -14791 14848 0
-1306 -14792 0
-14793 14849 0
-14794 14850 0
-14795 14851 0
-14796 14852 0
-14797 14853 0
-14798 14854 0
-14799 14855 0
-14800 14856 0
-14801 14857 0
-14802 14858 0
-14803 14859 0
-14804 14860 0
-14805 14861 0
-14806 14862 0
-14807 14863 0
-14808 14864 0
-14809 14865 0
-14810 14866 0
-14811 14867 0
-14812 14868 0
-14813 14869 0
-14814 14870 0
-14815 14871 0
-14816 14872 0
-14817 14873 0
-14818 14874 0
-14819 14875 0
-14820 14876 0
-14821 14877 0
-14822 14878 0
-14823 14879 0
-14824 14880 0
-14825 14881 0
-14826 14882 0
-14827 14883 0
-14828 14884 0
-14829 14885 0
-14830 14886 0
-14831 14887 0
-14832 14888 0
-14833 14889 0
-14834 14890 0
-14835 14891 0
-14836 14892 0
-14837 14893 0
-14838 14894 0
-14839 14895 0
-14840 14896 0
-14841 14897 0
-14842 14898 0
-14843 14899 0
-14844 14900 0
-14845 14901 0
-14846 14902 0
-14847 14903 0
-14848 14904 0
-1308 -14793 14850 0
-1308 -14794 14851 0
-1308 -14795 14852 0
-1308 -14796 14853 0
-1308 -14797 14854 0
-1308 -14798 14855 0
-1308 -14799 14856 0
-1308 -14800 14857 0
-1308 -14801 14858 0
-1308 -14802 14859 0
-1308 -14803 14860 0
-1308 -14804 14861 0
-1308 -14805 14862 0
-1308 -14806 14863 0
-1308 -14807 14864 0
-1308 -14808 14865 0
-1308 -14809 14866 0
-1308 -14810 14867 0
-1308 -14811 14868 0
-1308 -14812 14869 0
-1308 -14813 14870 0
-1308 -14814 14871 0
-1308 -14815 14872 0
-1308 -14816 14873 0
-1308 -14817 14874 0
-1308 -14818 14875 0
-1308 -14819 14876 0
-1308 -14820 14877 0
-1308 -14821 14878 0
-1308 -14822 14879 0
-1308 -14823 14880 0
-1308 -14824 14881 0
-1308 -14825 14882 0
-1308 -14826 14883 0
-1308 -14827 14884 0
-1308 -14828 14885 0
-1308 -14829 14886 0
-1308 -14830 14887 0
-1308 -14831 14888 0
-1308 -14832 14889 0
-1308 -14833 14890 0
-1308 -14834 14891 0
-1308 -14835 14892 0
-1308 -14836 14893 0
-1308 -14837 14894 0
-1308 -14838 14895 0
-1308 -14839 14896 0
-1308 -14840 14897 0
-1308 -14841 14898 0
-1308 -14842 14899 0
-1308 -14843 14900 0
-1308 -14844 14901 0
-1308 -14845 14902 0
-1308 -14846 14903 0
-1308 -14847 14904 0
-1308 -14848 0
-14849 14905 0
-14850 14906 0
-14851 14907 0
-14852 14908 0
-14853 14909 0
-14854 14910 0
-14855 14911 0
-14856 14912 0
-14857 14913 0
-14858 14914 0
-14859 14915 0
-14860 14916 0
-14861 14917 0
-14862 14918 0
-14863 14919 0
-14864 14920 0
-14865 14921 0
-14866 14922 0
-14867 14923 0
-14868 14924 0
-14869 14925 0
-14870 14926 0
-14871 14927 0
-14872 14928 0
-14873 14929 0
-14874 14930 0
-14875 14931 0
-14876 14932 0
-14877 14933 0
-14878 14934 0
-14879 14935 0
-14880 14936 0
-14881 14937 0
-14882 14938 0
-14883 14939 0
-14884 14940 0
-14885 14941 0
-14886 14942 0
-14887 14943 0
-14888 14944 0
-14889 14945 0
-14890 14946 0
-14891 14947 0
-14892 14948 0
-14893 14949 0
-14894 14950 0
-14895 14951 0
-14896 14952 0
-14897 14953 0
-14898 14954 0
-14899 14955 0
-14900 14956 0
-14901 14957 0
-14902 14958 0
-14903 14959 0
-14904 14960 0
-1310 -14849 14906 0
-1310 -14850 14907 0
-1310 -14851 14908 0
-1310 -14852 14909 0
-1310 -14853 14910 0
-1310 -14854 14911 0
-1310 -14855 14912 0
-1310 -14856 14913 0
-1310 -14857 14914 0
-1310 -14858 14915 0
-1310 -14859 14916 0
-1310 -14860 14917 0
-1310 -14861 14918 0
-1310 -14862 14919 0
-1310 -14863 14920 0
-1310 -14864 14921 0
-1310 -14865 14922 0
-1310 -14866 14923 0
-1310 -14867 14924 0
-1310 -14868 14925 0
-1310 -14869 14926 0
-1310 -14870 14927 0
-1310 -14871 14928 0
-1310 -14872 14929 0
-1310 -14873 14930 0
-1310 -14874 14931 0
-1310 -14875 14932 0
-1310 -14876 14933 0
-1310 -14877 14934 0
-1310 -14878 14935 0
-1310 -14879 14936 0
-1310 -14880 14937 0
-1310 -14881 14938 0
-1310 -14882 14939 0
-1310 -14883 14940 0
-1310 -14884 14941 0
-1310 -14885 14942 0
-1310 -14886 14943 0
-1310 -14887 14944 0
-1310 -14888 14945 0
-1310 -14889 14946 0
-1310 -14890 14947 0
-1310 -14891 14948 0
-1310 -14892 14949 0
-1310 -14893 14950 0
-1310 -14894 14951 0
-1310 -14895 14952 0
-1310 -14896 14953 0
-1310 -14897 14954 0
-1310 -14898 14955 0
-1310 -14899 14956 0
-1310 -14900 14957 0
-1310 -14901 14958 0
-1310 -14902 14959 0
-1310 -14903 14960 0
-1310 -14904 0
-14905 14961 0
-14906 14962 0
-14907 14963 0
-14908 14964 0
-14909 14965 0
-14910 14966 0
-14911 14967 0
-14912 14968 0
-14913 14969 0
-14914 14970 0
-14915 14971 0
-14916 14972 0
-14917 14973 0
-14918 14974 0
-14919 14975 0
-14920 14976 0
-14921 14977 0
-14922 14978 0
-14923 14979 0
-14924 14980 0
-14925 14981 0
-14926 14982 0
-14927 14983 0
-14928 14984 0
-14929 14985 0
-14930 14986 0
-14931 14987 0
-14932 14988 0
-14933 14989 0
-14934 14990 0
-14935 14991 0
-14936 14992 0
-14937 14993 0
-14938 14994 0
-14939 14995 0
-14940 14996 0
-14941 14997 0
-14942 14998 0
-14943 14999 0
-14944 15000 0
-14945 15001 0
-14946 15002 0
-14947 15003 0
-14948 15004 0
-14949 15005 0
-14950 15006 0
-14951 15007 0
-14952 15008 0
-14953 15009 0
-14954 15010 0
-14955 15011 0
-14956 15012 0
-14957 15013 0
-14958 15014 0
-14959 15015 0
-14960 15016 0
-1312 -14905 14962 0
-1312 -14906 14963 0
-1312 -14907 14964 0
-1312 -14908 14965 0
-1312 -14909 14966 0
-1312 -14910 14967 0
-1312 -14911 14968 0
-1312 -14912 14969 0
-1312 -14913 14970 0
-1312 -14914 14971 0
-1312 -14915 14972 0
-1312 -14916 14973 0
-1312 -14917 14974 0
-1312 -14918 14975 0
-1312 -14919 14976 0
-1312 -14920 14977 0
-1312 -14921 14978 0
-1312 -14922 14979 0
-1312 -14923 14980 0
-1312 -14924 14981 0
-1312 -14925 14982 0
-1312 -14926 14983 0
-1312 -14927 14984 0
-1312 -14928 14985 0
-1312 -14929 14986 0
-1312 -14930 14987 0
-1312 -14931 14988 0
-1312 -14932 14989 0
-1312 -14933 14990 0
-1312 -14934 14991 0
-1312 -14935 14992 0
-1312 -14936 14993 0
-1312 -14937 14994 0
-1312 -14938 14995 0
-1312 -14939 14996 0
-1312 -14940 14997 0
-1312 -14941 14998 0
-1312 -14942 14999 0
-1312 -14943 15000 0
-1312 -14944 15001 0
-1312 -14945 15002 0
-1312 -14946 15003 0
-1312 -14947 15004 0
-1312 -14948 15005 0
-1312 -14949 15006 0
-1312 -14950 15007 0
-1312 -14951 15008 0
-1312 -14952 15009 0
-1312 -14953 15010 0
-1312 -14954 15011 0
-1312 -14955 15012 0
-1312 -14956 15013 0
-1312 -14957 15014 0
-1312 -14958 15015 0
-1312 -14959 15016 0
-1312 -14960 0
-14961 15017 0
-14962 15018 0
-14963 15019 0
-14964 15020 0
-14965 15021 0
-14966 15022 0
-14967 15023 0
-14968 15024 0
-14969 15025 0
-14970 15026 0
-14971 15027 0
-14972 15028 0
-14973 15029 0
-14974 15030 0
-14975 15031 0
-14976 15032 0
-14977 15033 0
-14978 15034 0
-14979 15035 0
-14980 15036 0
-14981 15037 0
-14982 15038 0
-14983 15039 0
-14984 15040 0
-14985 15041 0
-14986 15042 0
-14987 15043 0
-14988 15044 0
-14989 15045 0
-14990 15046 0
-14991 15047 0
-14992 15048 0
-14993 15049 0
-14994 15050 0
-14995 15051 0
-14996 15052 0
-14997 15053 0
-14998 15054 0
-14999 15055 0
-15000 15056 0
-15001 15057 0
-15002 15058 0
-15003 15059 0
-15004 15060 0
-15005 15061 0
-15006 15062 0
-15007 15063 0
-15008 15064 0
-15009 15065 0
-15010 15066 0
-15011 15067 0
-15012 15068 0
-15013 15069 0
-15014 15070 0
-15015 15071 0
-15016 15072 0
-1314 -14961 15018 0
-1314 -14962 15019 0
-1314 -14963 15020 0
-1314 -14964 15021 0
-1314 -14965 15022 0
-1314 -14966 15023 0
-1314 -14967 15024 0
-1314 -14968 15025 0
-1314 -14969 15026 0
-1314 -14970 15027 0
-1314 -14971 15028 0
-1314 -14972 15029 0
-1314 -14973 15030 0
-1314 -14974 15031 0
-1314 -14975 15032 0
-1314 -14976 15033 0
-1314 -14977 15034 0
-1314 -14978 15035 0
-1314 -14979 15036 0
-1314 -14980 15037 0
-1314 -14981 15038 0
-1314 -14982 15039 0
-1314 -14983 15040 0
-1314 -14984 15041 0
-1314 -14985 15042 0
-1314 -14986 15043 0
-1314 -14987 15044 0
-1314 -14988 15045 0
-1314 -14989 15046 0
-1314 -14990 15047 0
-1314 -14991 15048 0
-1314 -14992 15049 0
-1314 -14993 15050 0
-1314 -14994 15051 0
-1314 -14995 15052 0
-1314 -14996 15053 0
-1314 -14997 15054 0
-1314 -14998 15055 0
-1314 -14999 15056 0
-1314 -15000 15057 0
-1314 -15001 15058 0
-1314 -15002 15059 0
-1314 -15003 15060 0
-1314 -15004 15061 0
-1314 -15005 15062 0
-1314 -15006 15063 0
-1314 -15007 15064 0
-1314 -15008 15065 0
-1314 -15009 15066 0
-1314 -15010 15067 0
-1314 -15011 15068 0
-1314 -15012 15069 0
-1314 -15013 15070 0
-1314 -15014 15071 0
-1314 -15015 15072 0
-1314 -15016 0
-15017 15073 0
-15018 15074 0
-15019 15075 0
-15020 15076 0
-15021 15077 0
-15022 15078 0
-15023 15079 0
-15024 15080 0
-15025 15081 0
-15026 15082 0
-15027 15083 0
-15028 15084 0
-15029 15085 0
-15030 15086 0
-15031 15087 0
-15032 15088 0
-15033 15089 0
-15034 15090 0
-15035 15091 0
-15036 15092 0
-15037 15093 0
-15038 15094 0
-15039 15095 0
-15040 15096 0
-15041 15097 0
-15042 15098 0
-15043 15099 0
-15044 15100 0
-15045 15101 0
-15046 15102 0
-15047 15103 0
-15048 15104 0
-15049 15105 0
-15050 15106 0
-15051 15107 0
-15052 15108 0
-15053 15109 0
-15054 15110 0
-15055 15111 0
-15056 15112 0
-15057 15113 0
-15058 15114 0
-15059 15115 0
-15060 15116 0
-15061 15117 0
-15062 15118 0
-15063 15119 0
-15064 15120 0
-15065 15121 0
-15066 15122 0
-15067 15123 0
-15068 15124 0
-15069 15125 0
-15070 15126 0
-15071 15127 0
-15072 15128 0
-1316 -15017 15074 0
-1316 -15018 15075 0
-1316 -15019 15076 0
-1316 -15020 15077 0
-1316 -15021 15078 0
-1316 -15022 15079 0
-1316 -15023 15080 0
-1316 -15024 15081 0
-1316 -15025 15082 0
-1316 -15026 15083 0
-1316 -15027 15084 0
-1316 -15028 15085 0
-1316 -15029 15086 0
-1316 -15030 15087 0
-1316 -15031 15088 0
-1316 -15032 15089 0
-1316 -15033 15090 0
-1316 -15034 15091 0
-1316 -15035 15092 0
-1316 -15036 15093 0
-1316 -15037 15094 0
-1316 -15038 15095 0
-1316 -15039 15096 0
-1316 -15040 15097 0
-1316 -15041 15098 0
-1316 -15042 15099 0
-1316 -15043 15100 0
-1316 -15044 15101 0
-1316 -15045 15102 0
-1316 -15046 15103 0
-1316 -15047 15104 0
-1316 -15048 15105 0
-1316 -15049 15106 0
-1316 -15050 15107 0
-1316 -15051 15108 0
-1316 -15052 15109 0
-1316 -15053 15110 0
-1316 -15054 15111 0
-1316 -15055 15112 0
-1316 -15056 15113 0
-1316 -15057 15114 0
-1316 -15058 15115 0
-1316 -15059 15116 0
-1316 -15060 15117 0
-1316 -15061 15118 0
-1316 -15062 15119 0
-1316 -15063 15120 0
-1316 -15064 15121 0
-1316 -15065 15122 0
-1316 -15066 15123 0
-1316 -15067 15124 0
-1316 -15068 15125 0
-1316 -15069 15126 0
-1316 -15070 15127 0
-1316 -15071 15128 0
-1316 -15072 0
-15073 15129 0
-15074 15130 0
-15075 15131 0
-15076 15132 0
-15077 15133 0
-15078 15134 0
-15079 15135 0
-15080 15136 0
-15081 15137 0
-15082 15138 0
-15083 15139 0
-15084 15140 0
-15085 15141 0
-15086 15142 0
-15087 15143 0
-15088 15144 0
-15089 15145 0
-15090 15146 0
-15091 15147 0
-15092 15148 0
-15093 15149 0
-15094 15150 0
-15095 15151 0
-15096 15152 0
-15097 15153 0
-15098 15154 0
-15099 15155 0
-15100 15156 0
-15101 15157 0
-15102 15158 0
-15103 15159 0
-15104 15160 0
-15105 15161 0
-15106 15162 0
-15107 15163 0
-15108 15164 0
-15109 15165 0
-15110 15166 0
-15111 15167 0
-15112 15168 0
-15113 15169 0
-15114 15170 0
-15115 15171 0
-15116 15172 0
-15117 15173 0
-15118 15174 0
-15119 15175 0
-15120 15176 0
-15121 15177 0
-15122 15178 0
-15123 15179 0
-15124 15180 0
-15125 15181 0
-15126 15182 0
-15127 15183 0
-15128 15184 0
-1318 -15073 15130 0
-1318 -15074 15131 0
-1318 -15075 15132 0
-1318 -15076 15133 0
-1318 -15077 15134 0
-1318 -15078 15135 0
-1318 -15079 15136 0
-1318 -15080 15137 0
-1318 -15081 15138 0
-1318 -15082 15139 0
-1318 -15083 15140 0
-1318 -15084 15141 0
-1318 -15085 15142 0
-1318 -15086 15143 0
-1318 -15087 15144 0
-1318 -15088 15145 0
-1318 -15089 15146 0
-1318 -15090 15147 0
-1318 -15091 15148 0
-1318 -15092 15149 0
-1318 -15093 15150 0
-1318 -15094 15151 0
-1318 -15095 15152 0
-1318 -15096 15153 0
-1318 -15097 15154 0
-1318 -15098 15155 0
-1318 -15099 15156 0
-1318 -15100 15157 0
-1318 -15101 15158 0
-1318 -15102 15159 0
-1318 -15103 15160 0
-1318 -15104 15161 0
-1318 -15105 15162 0
-1318 -15106 15163 0
-1318 -15107 15164 0
-1318 -15108 15165 0
-1318 -15109 15166 0
-1318 -15110 15167 0
-1318 -15111 15168 0
-1318 -15112 15169 0
-1318 -15113 15170 0
-1318 -15114 15171 0
-1318 -15115 15172 0
-1318 -15116 15173 0
-1318 -15117 15174 0
-1318 -15118 15175 0
-1318 -15119 15176 0
-1318 -15120 15177 0
-1318 -15121 15178 0
-1318 -15122 15179 0
-1318 -15123 15180 0
-1318 -15124 15181 0
-1318 -15125 15182 0
-1318 -15126 15183 0
-1318 -15127 15184 0
-1318 -15128 0
-15129 15185 0
-15130 15186 0
-15131 15187 0
-15132 15188 0
-15133 15189 0
-15134 15190 0
-15135 15191 0
-15136 15192 0
-15137 15193 0
-15138 15194 0
-15139 15195 0
-15140 15196 0
-15141 15197 0
-15142 15198 0
-15143 15199 0
-15144 15200 0
-15145 15201 0
-15146 15202 0
-15147 15203 0
-15148 15204 0
-15149 15205 0
-15150 15206 0
-15151 15207 0
-15152 15208 0
-15153 15209 0
-15154 15210 0
-15155 15211 0
-15156 15212 0
-15157 15213 0
-15158 15214 0
-15159 15215 0
-15160 15216 0
-15161 15217 0
-15162 15218 0
-15163 15219 0
-15164 15220 0
-15165 15221 0
-15166 15222 0
-15167 15223 0
-15168 15224 0
-15169 15225 0
-15170 15226 0
-15171 15227 0
-15172 15228 0
-15173 15229 0
-15174 15230 0
-15175 15231 0
-15176 15232 0
-15177 15233 0
-15178 15234 0
-15179 15235 0
-15180 15236 0
-15181 15237 0
-15182 15238 0
-15183 15239 0
-15184 15240 0
-1320 -15129 15186 0
-1320 -15130 15187 0
-1320 -15131 15188 0
-1320 -15132 15189 0
-1320 -15133 15190 0
-1320 -15134 15191 0
-1320 -15135 15192 0
-1320 -15136 15193 0
-1320 -15137 15194 0
-1320 -15138 15195 0
-1320 -15139 15196 0
-1320 -15140 15197 0
-1320 -15141 15198 0
-1320 -15142 15199 0
-1320 -15143 15200 0
-1320 -15144 15201 0
-1320 -15145 15202 0
-1320 -15146 15203 0
-1320 -15147 15204 0
-1320 -15148 15205 0
-1320 -15149 15206 0
-1320 -15150 15207 0
-1320 -15151 15208 0
-1320 -15152 15209 0
-1320 -15153 15210 0
-1320 -15154 15211 0
-1320 -15155 15212 0
-1320 -15156 15213 0
-1320 -15157 15214 0
-1320 -15158 15215 0
-1320 -15159 15216 0
-1320 -15160 15217 0
-1320 -15161 15218 0
-1320 -15162 15219 0
-1320 -15163 15220 0
-1320 -15164 15221 0
-1320 -15165 15222 0
-1320 -15166 15223 0
-1320 -15167 15224 0
-1320 -15168 15225 0
-1320 -15169 15226 0
-1320 -15170 15227 0
-1320 -15171 15228 0
-1320 -15172 15229 0
-1320 -15173 15230 0
-1320 -15174 15231 0
-1320 -15175 15232 0
-1320 -15176 15233 0
-1320 -15177 15234 0
-1320 -15178 15235 0
-1320 -15179 15236 0
-1320 -15180 15237 0
-1320 -15181 15238 0
-1320 -15182 15239 0
-1320 -15183 15240 0
-1320 -15184 0
-15185 15241 0
-15186 15242 0
-15187 15243 0
-15188 15244 0
-15189 15245 0
-15190 15246 0
-15191 15247 0
-15192 15248 0
-15193 15249 0
-15194 15250 0
-15195 15251 0
-15196 15252 0
-15197 15253 0
-15198 15254 0
-15199 15255 0
-15200 15256 0
-15201 15257 0
-15202 15258 0
-15203 15259 0
-15204 15260 0
-15205 15261 0
-15206 15262 0
-15207 15263 0
-15208 15264 0
-15209 15265 0
-15210 15266 0
-15211 15267 0
-15212 15268 0
-15213 15269 0
-15214 15270 0
-15215 15271 0
-15216 15272 0
-15217 15273 0
-15218 15274 0
-15219 15275 0
-15220 15276 0
-15221 15277 0
-15222 15278 0
-15223 15279 0
-15224 15280 0
-15225 15281 0
-15226 15282 0
-15227 15283 0
-15228 15284 0
-15229 15285 0
-15230 15286 0
-15231 15287 0
-15232 15288 0
-15233 15289 0
-15234 15290 0
-15235 15291 0
-15236 15292 0
-15237 15293 0
-15238 15294 0
-15239 15295 0
-15240 15296 0
-1322 -15185 15242 0
-1322 -15186 15243 0
-1322 -15187 15244 0
-1322 -15188 15245 0
-1322 -15189 15246 0
-1322 -15190 15247 0
-1322 -15191 15248 0
-1322 -15192 15249 0
-1322 -15193 15250 0
-1322 -15194 15251 0
-1322 -15195 15252 0
-1322 -15196 15253 0
-1322 -15197 15254 0
-1322 -15198 15255 0
-1322 -15199 15256 0
-1322 -15200 15257 0
-1322 -15201 15258 0
-1322 -15202 15259 0
-1322 -15203 15260 0
-1322 -15204 15261 0
-1322 -15205 15262 0
-1322 -15206 15263 0
-1322 -15207 15264 0
-1322 -15208 15265 0
-1322 -15209 15266 0
-1322 -15210 15267 0
-1322 -15211 15268 0
-1322 -15212 15269 0
-1322 -15213 15270 0
-1322 -15214 15271 0
-1322 -15215 15272 0
-1322 -15216 15273 0
-1322 -15217 15274 0
-1322 -15218 15275 0
-1322 -15219 15276 0
-1322 -15220 15277 0
-1322 -15221 15278 0
-1322 -15222 15279 0
-1322 -15223 15280 0
-1322 -15224 15281 0
-1322 -15225 15282 0
-1322 -15226 15283 0
-1322 -15227 15284 0
-1322 -15228 15285 0
-1322 -15229 15286 0
-1322 -15230 15287 0
-1322 -15231 15288 0
-1322 -15232 15289 0
-1322 -15233 15290 0
-1322 -15234 15291 0
-1322 -15235 15292 0
-1322 -15236 15293 0
-1322 -15237 15294 0
-1322 -15238 15295 0
-1322 -15239 15296 0
-1322 -15240 0
-15241 15297 0
-15242 15298 0
-15243 15299 0
-15244 15300 0
-15245 15301 0
-15246 15302 0
-15247 15303 0
-15248 15304 0
-15249 15305 0
-15250 15306 0
-15251 15307 0
-15252 15308 0
-15253 15309 0
-15254 15310 0
-15255 15311 0
-15256 15312 0
-15257 15313 0
-15258 15314 0
-15259 15315 0
-15260 15316 0
-15261 15317 0
-15262 15318 0
-15263 15319 0
-15264 15320 0
-15265 15321 0
-15266 15322 0
-15267 15323 0
-15268 15324 0
-15269 15325 0
-15270 15326 0
-15271 15327 0
-15272 15328 0
-15273 15329 0
-15274 15330 0
-15275 15331 0
-15276 15332 0
-15277 15333 0
-15278 15334 0
-15279 15335 0
-15280 15336 0
-15281 15337 0
-15282 15338 0
-15283 15339 0
-15284 15340 0
-15285 15341 0
-15286 15342 0
-15287 15343 0
-15288 15344 0
-15289 15345 0
-15290 15346 0
-15291 15347 0
-15292 15348 0
-15293 15349 0
-15294 15350 0
-15295 15351 0
-15296 15352 0
-1324 -15241 15298 0
-1324 -15242 15299 0
-1324 -15243 15300 0
-1324 -15244 15301 0
-1324 -15245 15302 0
-1324 -15246 15303 0
-1324 -15247 15304 0
-1324 -15248 15305 0
-1324 -15249 15306 0
-1324 -15250 15307 0
-1324 -15251 15308 0
-1324 -15252 15309 0
-1324 -15253 15310 0
-1324 -15254 15311 0
-1324 -15255 15312 0
-1324 -15256 15313 0
-1324 -15257 15314 0
-1324 -15258 15315 0
-1324 -15259 15316 0
-1324 -15260 15317 0
-1324 -15261 15318 0
-1324 -15262 15319 0
-1324 -15263 15320 0
-1324 -15264 15321 0
-1324 -15265 15322 0
-1324 -15266 15323 0
-1324 -15267 15324 0
-1324 -15268 15325 0
-1324 -15269 15326 0
-1324 -15270 15327 0
-1324 -15271 15328 0
-1324 -15272 15329 0
-1324 -15273 15330 0
-1324 -15274 15331 0
-1324 -15275 15332 0
-1324 -15276 15333 0
-1324 -15277 15334 0
-1324 -15278 15335 0
-1324 -15279 15336 0
-1324 -15280 15337 0
-1324 -15281 15338 0
-1324 -15282 15339 0
-1324 -15283 15340 0
-1324 -15284 15341 0
-1324 -15285 15342 0
-1324 -15286 15343 0
-1324 -15287 15344 0
-1324 -15288 15345 0
-1324 -15289 15346 0
-1324 -15290 15347 0
-1324 -15291 15348 0
-1324 -15292 15349 0
-1324 -15293 15350 0
-1324 -15294 15351 0
-1324 -15295 15352 0
-1324 -15296 0
-15297 15353 0
-15298 15354 0
-15299 15355 0
-15300 15356 0
-15301 15357 0
-15302 15358 0
-15303 15359 0
-15304 15360 0
-15305 15361 0
-15306 15362 0
-15307 15363 0
-15308 15364 0
-15309 15365 0
-15310 15366 0
-15311 15367 0
-15312 15368 0
-15313 15369 0
-15314 15370 0
-15315 15371 0
-15316 15372 0
-15317 15373 0
-15318 15374 0
-15319 15375 0
-15320 15376 0
-15321 15377 0
-15322 15378 0
-15323 15379 0
-15324 15380 0
-15325 15381 0
-15326 15382 0
-15327 15383 0
-15328 15384 0
-15329 15385 0
-15330 15386 0
-15331 15387 0
-15332 15388 0
-15333 15389 0
-15334 15390 0
-15335 15391 0
-15336 15392 0
-15337 15393 0
-15338 15394 0
-15339 15395 0
-15340 15396 0
-15341 15397 0
-15342 15398 0
-15343 15399 0
-15344 15400 0
-15345 15401 0
-15346 15402 0
-15347 15403 0
-15348 15404 0
-15349 15405 0
-15350 15406 0
-15351 15407 0
-15352 15408 0
-1326 -15297 15354 0
-1326 -15298 15355 0
-1326 -15299 15356 0
-1326 -15300 15357 0
-1326 -15301 15358 0
-1326 -15302 15359 0
-1326 -15303 15360 0
-1326 -15304 15361 0
-1326 -15305 15362 0
-1326 -15306 15363 0
-1326 -15307 15364 0
-1326 -15308 15365 0
-1326 -15309 15366 0
-1326 -15310 15367 0
-1326 -15311 15368 0
-1326 -15312 15369 0
-1326 -15313 15370 0
-1326 -15314 15371 0
-1326 -15315 15372 0
-1326 -15316 15373 0
-1326 -15317 15374 0
-1326 -15318 15375 0
-1326 -15319 15376 0
-1326 -15320 15377 0
-1326 -15321 15378 0
-1326 -15322 15379 0
-1326 -15323 15380 0
-1326 -15324 15381 0
-1326 -15325 15382 0
-1326 -15326 15383 0
-1326 -15327 15384 0
-1326 -15328 15385 0
-1326 -15329 15386 0
-1326 -15330 15387 0
-1326 -15331 15388 0
-1326 -15332 15389 0
-1326 -15333 15390 0
-1326 -15334 15391 0
-1326 -15335 15392 0
-1326 -15336 15393 0
-1326 -15337 15394 0
-1326 -15338 15395 0
-1326 -15339 15396 0
-1326 -15340 15397 0
-1326 -15341 15398 0
-1326 -15342 15399 0
-1326 -15343 15400 0
-1326 -15344 15401 0
-1326 -15345 15402 0
-1326 -15346 15403 0
-1326 -15347 15404 0
-1326 -15348 15405 0
-1326 -15349 15406 0
-1326 -15350 15407 0
-1326 -15351 15408 0
-1326 -15352 0
-15353 15409 0
-15354 15410 0
-15355 15411 0
-15356 15412 0
-15357 15413 0
-15358 15414 0
-15359 15415 0
-15360 15416 0
-15361 15417 0
-15362 15418 0
-15363 15419 0
-15364 15420 0
-15365 15421 0
-15366 15422 0
-15367 15423 0
-15368 15424 0
-15369 15425 0
-15370 15426 0
-15371 15427 0
-15372 15428 0
-15373 15429 0
-15374 15430 0
-15375 15431 0
-15376 15432 0
-15377 15433 0
-15378 15434 0
-15379 15435 0
-15380 15436 0
-15381 15437 0
-15382 15438 0
-15383 15439 0
-15384 15440 0
-15385 15441 0
-15386 15442 0
-15387 15443 0
-15388 15444 0
-15389 15445 0
-15390 15446 0
-15391 15447 0
-15392 15448 0
-15393 15449 0
-15394 15450 0
-15395 15451 0
-15396 15452 0
-15397 15453 0
-15398 15454 0
-15399 15455 0
-15400 15456 0
-15401 15457 0
-15402 15458 0
-15403 15459 0
-15404 15460 0
-15405 15461 0
-15406 15462 0
-15407 15463 0
-15408 15464 0
-1328 -15353 15410 0
-1328 -15354 15411 0
-1328 -15355 15412 0
-1328 -15356 15413 0
-1328 -15357 15414 0
-1328 -15358 15415 0
-1328 -15359 15416 0
-1328 -15360 15417 0
-1328 -15361 15418 0
-1328 -15362 15419 0
-1328 -15363 15420 0
-1328 -15364 15421 0
-1328 -15365 15422 0
-1328 -15366 15423 0
-1328 -15367 15424 0
-1328 -15368 15425 0
-1328 -15369 15426 0
-1328 -15370 15427 0
-1328 -15371 15428 0
-1328 -15372 15429 0
-1328 -15373 15430 0
-1328 -15374 15431 0
-1328 -15375 15432 0
-1328 -15376 15433 0
-1328 -15377 15434 0
-1328 -15378 15435 0
-1328 -15379 15436 0
-1328 -15380 15437 0
-1328 -15381 15438 0
-1328 -15382 15439 0
-1328 -15383 15440 0
-1328 -15384 15441 0
-1328 -15385 15442 0
-1328 -15386 15443 0
-1328 -15387 15444 0
-1328 -15388 15445 0
-1328 -15389 15446 0
-1328 -15390 15447 0
-1328 -15391 15448 0
-1328 -15392 15449 0
-1328 -15393 15450 0
-1328 -15394 15451 0
-1328 -15395 15452 0
-1328 -15396 15453 0
-1328 -15397 15454 0
-1328 -15398 15455 0
-1328 -15399 15456 0
-1328 -15400 15457 0
-1328 -15401 15458 0
-1328 -15402 15459 0
-1328 -15403 15460 0
-1328 -15404 15461 0
-1328 -15405 15462 0
-1328 -15406 15463 0
-1328 -15407 15464 0
-1328 -15408 0
-15409 15465 0
-15410 15466 0
-15411 15467 0
-15412 15468 0
-15413 15469 0
-15414 15470 0
-15415 15471 0
-15416 15472 0
-15417 15473 0
-15418 15474 0
-15419 15475 0
-15420 15476 0
-15421 15477 0
-15422 15478 0
-15423 15479 0
-15424 15480 0
-15425 15481 0
-15426 15482 0
-15427 15483 0
-15428 15484 0
-15429 15485 0
-15430 15486 0
-15431 15487 0
-15432 15488 0
-15433 15489 0
-15434 15490 0
-15435 15491 0
-15436 15492 0
-15437 15493 0
-15438 15494 0
-15439 15495 0
-15440 15496 0
-15441 15497 0
-15442 15498 0
-15443 15499 0
-15444 15500 0
-15445 15501 0
-15446 15502 0
-15447 15503 0
-15448 15504 0
-15449 15505 0
-15450 15506 0
-15451 15507 0
-15452 15508 0
-15453 15509 0
-15454 15510 0
-15455 15511 0
-15456 15512 0
-15457 15513 0
-15458 15514 0
-15459 15515 0
-15460 15516 0
-15461 15517 0
-15462 15518 0
-15463 15519 0
-15464 15520 0
-1330 -15409 15466 0
-1330 -15410 15467 0
-1330 -15411 15468 0
-1330 -15412 15469 0
-1330 -15413 15470 0
-1330 -15414 15471 0
-1330 -15415 15472 0
-1330 -15416 15473 0
-1330 -15417 15474 0
-1330 -15418 15475 0
-1330 -15419 15476 0
-1330 -15420 15477 0
-1330 -15421 15478 0
-1330 -15422 15479 0
-1330 -15423 15480 0
-1330 -15424 15481 0
-1330 -15425 15482 0
-1330 -15426 15483 0
-1330 -15427 15484 0
-1330 -15428 15485 0
-1330 -15429 15486 0
-1330 -15430 15487 0
-1330 -15431 15488 0
-1330 -15432 15489 0
-1330 -15433 15490 0
-1330 -15434 15491 0
-1330 -15435 15492 0
-1330 -15436 15493 0
-1330 -15437 15494 0
-1330 -15438 15495 0
-1330 -15439 15496 0
-1330 -15440 15497 0
-1330 -15441 15498 0
-1330 -15442 15499 0
-1330 -15443 15500 0
-1330 -15444 15501 0
-1330 -15445 15502 0
-1330 -15446 15503 0
-1330 -15447 15504 0
-1330 -15448 15505 0
-1330 -15449 15506 0
-1330 -15450 15507 0
-1330 -15451 15508 0
-1330 -15452 15509 0
-1330 -15453 15510 0
-1330 -15454 15511 0
-1330 -15455 15512 0
-1330 -15456 15513 0
-1330 -15457 15514 0
-1330 -15458 15515 0
-1330 -15459 15516 0
-1330 -15460 15517 0
-1330 -15461 15518 0
-1330 -15462 15519 0
-1330 -15463 15520 0
-1330 -15464 0
-15465 15521 0
-15466 15522 0
-15467 15523 0
-15468 15524 0
-15469 15525 0
-15470 15526 0
-15471 15527 0
-15472 15528 0
-15473 15529 0
-15474 15530 0
-15475 15531 0
-15476 15532 0
-15477 15533 0
-15478 15534 0
-15479 15535 0
-15480 15536 0
-15481 15537 0
-15482 15538 0
-15483 15539 0
-15484 15540 0
-15485 15541 0
-15486 15542 0
-15487 15543 0
-15488 15544 0
-15489 15545 0
-15490 15546 0
-15491 15547 0
-15492 15548 0
-15493 15549 0
-15494 15550 0
-15495 15551 0
-15496 15552 0
-15497 15553 0
-15498 15554 0
-15499 15555 0
-15500 15556 0
-15501 15557 0
-15502 15558 0
-15503 15559 0
-15504 15560 0
-15505 15561 0
-15506 15562 0
-15507 15563 0
-15508 15564 0
-15509 15565 0
-15510 15566 0
-15511 15567 0
-15512 15568 0
-15513 15569 0
-15514 15570 0
-15515 15571 0
-15516 15572 0
-15517 15573 0
-15518 15574 0
-15519 15575 0
-15520 15576 0
-1332 -15465 15522 0
-1332 -15466 15523 0
-1332 -15467 15524 0
-1332 -15468 15525 0
-1332 -15469 15526 0
-1332 -15470 15527 0
-1332 -15471 15528 0
-1332 -15472 15529 0
-1332 -15473 15530 0
-1332 -15474 15531 0
-1332 -15475 15532 0
-1332 -15476 15533 0
-1332 -15477 15534 0
-1332 -15478 15535 0
-1332 -15479 15536 0
-1332 -15480 15537 0
-1332 -15481 15538 0
-1332 -15482 15539 0
-1332 -15483 15540 0
-1332 -15484 15541 0
-1332 -15485 15542 0
-1332 -15486 15543 0
-1332 -15487 15544 0
-1332 -15488 15545 0
-1332 -15489 15546 0
-1332 -15490 15547 0
-1332 -15491 15548 0
-1332 -15492 15549 0
-1332 -15493 15550 0
-1332 -15494 15551 0
-1332 -15495 15552 0
-1332 -15496 15553 0
-1332 -15497 15554 0
-1332 -15498 15555 0
-1332 -15499 15556 0
-1332 -15500 15557 0
-1332 -15501 15558 0
-1332 -15502 15559 0
-1332 -15503 15560 0
-1332 -15504 15561 0
-1332 -15505 15562 0
-1332 -15506 15563 0
-1332 -15507 15564 0
-1332 -15508 15565 0
-1332 -15509 15566 0
-1332 -15510 15567 0
-1332 -15511 15568 0
-1332 -15512 15569 0
-1332 -15513 15570 0
-1332 -15514 15571 0
-1332 -15515 15572 0
-1332 -15516 15573 0
-1332 -15517 15574 0
-1332 -15518 15575 0
-1332 -15519 15576 0
-1332 -15520 0
-15521 15577 0
-15522 15578 0
-15523 15579 0
-15524 15580 0
-15525 15581 0
-15526 15582 0
-15527 15583 0
-15528 15584 0
-15529 15585 0
-15530 15586 0
-15531 15587 0
-15532 15588 0
-15533 15589 0
-15534 15590 0
-15535 15591 0
-15536 15592 0
-15537 15593 0
-15538 15594 0
-15539 15595 0
-15540 15596 0
-15541 15597 0
-15542 15598 0
-15543 15599 0
-15544 15600 0
-15545 15601 0
-15546 15602 0
-15547 15603 0
-15548 15604 0
-15549 15605 0
-15550 15606 0
-15551 15607 0
-15552 15608 0
-15553 15609 0
-15554 15610 0
-15555 15611 0
-15556 15612 0
-15557 15613 0
-15558 15614 0
-15559 15615 0
-15560 15616 0
-15561 15617 0
-15562 15618 0
-15563 15619 0
-15564 15620 0
-15565 15621 0
-15566 15622 0
-15567 15623 0
-15568 15624 0
-15569 15625 0
-15570 15626 0
-15571 15627 0
-15572 15628 0
-15573 15629 0
-15574 15630 0
-15575 15631 0
-15576 15632 0
-1334 -15521 15578 0
-1334 -15522 15579 0
-1334 -15523 15580 0
-1334 -15524 15581 0
-1334 -15525 15582 0
-1334 -15526 15583 0
-1334 -15527 15584 0
-1334 -15528 15585 0
-1334 -15529 15586 0
-1334 -15530 15587 0
-1334 -15531 15588 0
-1334 -15532 15589 0
-1334 -15533 15590 0
-1334 -15534 15591 0
-1334 -15535 15592 0
-1334 -15536 15593 0
-1334 -15537 15594 0
-1334 -15538 15595 0
-1334 -15539 15596 0
-1334 -15540 15597 0
-1334 -15541 15598 0
-1334 -15542 15599 0
-1334 -15543 15600 0
-1334 -15544 15601 0
-1334 -15545 15602 0
-1334 -15546 15603 0
-1334 -15547 15604 0
-1334 -15548 15605 0
-1334 -15549 15606 0
-1334 -15550 15607 0
-1334 -15551 15608 0
-1334 -15552 15609 0
-1334 -15553 15610 0
-1334 -15554 15611 0
-1334 -15555 15612 0
-1334 -15556 15613 0
-1334 -15557 15614 0
-1334 -15558 15615 0
-1334 -15559 15616 0
-1334 -15560 15617 0
-1334 -15561 15618 0
-1334 -15562 15619 0
-1334 -15563 15620 0
-1334 -15564 15621 0
-1334 -15565 15622 0
-1334 -15566 15623 0
-1334 -15567 15624 0
-1334 -15568 15625 0
-1334 -15569 15626 0
-1334 -15570 15627 0
-1334 -15571 15628 0
-1334 -15572 15629 0
-1334 -15573 15630 0
-1334 -15574 15631 0
-1334 -15575 15632 0
-1334 -15576 0
-15577 15633 0
-15578 15634 0
-15579 15635 0
-15580 15636 0
-15581 15637 0
-15582 15638 0
-15583 15639 0
-15584 15640 0
-15585 15641 0
-15586 15642 0
-15587 15643 0
-15588 15644 0
-15589 15645 0
-15590 15646 0
-15591 15647 0
-15592 15648 0
-15593 15649 0
-15594 15650 0
-15595 15651 0
-15596 15652 0
-15597 15653 0
-15598 15654 0
-15599 15655 0
-15600 15656 0
-15601 15657 0
-15602 15658 0
-15603 15659 0
-15604 15660 0
-15605 15661 0
-15606 15662 0
-15607 15663 0
-15608 15664 0
-15609 15665 0
-15610 15666 0
-15611 15667 0
-15612 15668 0
-15613 15669 0
-15614 15670 0
-15615 15671 0
-15616 15672 0
-15617 15673 0
-15618 15674 0
-15619 15675 0
-15620 15676 0
-15621 15677 0
-15622 15678 0
-15623 15679 0
-15624 15680 0
-15625 15681 0
-15626 15682 0
-15627 15683 0
-15628 15684 0
-15629 15685 0
-15630 15686 0
-15631 15687 0
-15632 15688 0
-1336 -15577 15634 0
-1336 -15578 15635 0
-1336 -15579 15636 0
-1336 -15580 15637 0
-1336 -15581 15638 0
-1336 -15582 15639 0
-1336 -15583 15640 0
-1336 -15584 15641 0
-1336 -15585 15642 0
-1336 -15586 15643 0
-1336 -15587 15644 0
-1336 -15588 15645 0
-1336 -15589 15646 0
-1336 -15590 15647 0
-1336 -15591 15648 0
-1336 -15592 15649 0
-1336 -15593 15650 0
-1336 -15594 15651 0
-1336 -15595 15652 0
-1336 -15596 15653 0
-1336 -15597 15654 0
-1336 -15598 15655 0
-1336 -15599 15656 0
-1336 -15600 15657 0
-1336 -15601 15658 0
-1336 -15602 15659 0
-1336 -15603 15660 0
-1336 -15604 15661 0
-1336 -15605 15662 0
-1336 -15606 15663 0
-1336 -15607 15664 0
-1336 -15608 15665 0
-1336 -15609 15666 0
-1336 -15610 15667 0
-1336 -15611 15668 0
-1336 -15612 15669 0
-1336 -15613 15670 0
-1336 -15614 15671 0
-1336 -15615 15672 0
-1336 -15616 15673 0
-1336 -15617 15674 0
-1336 -15618 15675 0
-1336 -15619 15676 0
-1336 -15620 15677 0
-1336 -15621 15678 0
-1336 -15622 15679 0
-1336 -15623 15680 0
-1336 -15624 15681 0
-1336 -15625 15682 0
-1336 -15626 15683 0
-1336 -15627 15684 0
-1336 -15628 15685 0
-1336 -15629 15686 0
-1336 -15630 15687 0
-1336 -15631 15688 0
-1336 -15632 0
-15633 15689 0
-15634 15690 0
-15635 15691 0
-15636 15692 0
-15637 15693 0
-15638 15694 0
-15639 15695 0
-15640 15696 0
-15641 15697 0
-15642 15698 0
-15643 15699 0
-15644 15700 0
-15645 15701 0
-15646 15702 0
-15647 15703 0
-15648 15704 0
-15649 15705 0
-15650 15706 0
-15651 15707 0
-15652 15708 0
-15653 15709 0
-15654 15710 0
-15655 15711 0
-15656 15712 0
-15657 15713 0
-15658 15714 0
-15659 15715 0
-15660 15716 0
-15661 15717 0
-15662 15718 0
-15663 15719 0
-15664 15720 0
-15665 15721 0
-15666 15722 0
-15667 15723 0
-15668 15724 0
-15669 15725 0
-15670 15726 0
-15671 15727 0
-15672 15728 0
-15673 15729 0
-15674 15730 0
-15675 15731 0
-15676 15732 0
-15677 15733 0
-15678 15734 0
-15679 15735 0
-15680 15736 0
-15681 15737 0
-15682 15738 0
-15683 15739 0
-15684 15740 0
-15685 15741 0
-15686 15742 0
-15687 15743 0
-15688 15744 0
-1338 -15633 15690 0
-1338 -15634 15691 0
-1338 -15635 15692 0
-1338 -15636 15693 0
-1338 -15637 15694 0
-1338 -15638 15695 0
-1338 -15639 15696 0
-1338 -15640 15697 0
-1338 -15641 15698 0
-1338 -15642 15699 0
-1338 -15643 15700 0
-1338 -15644 15701 0
-1338 -15645 15702 0
-1338 -15646 15703 0
-1338 -15647 15704 0
-1338 -15648 15705 0
-1338 -15649 15706 0
-1338 -15650 15707 0
-1338 -15651 15708 0
-1338 -15652 15709 0
-1338 -15653 15710 0
-1338 -15654 15711 0
-1338 -15655 15712 0
-1338 -15656 15713 0
-1338 -15657 15714 0
-1338 -15658 15715 0
-1338 -15659 15716 0
-1338 -15660 15717 0
-1338 -15661 15718 0
-1338 -15662 15719 0
-1338 -15663 15720 0
-1338 -15664 15721 0
-1338 -15665 15722 0
-1338 -15666 15723 0
-1338 -15667 15724 0
-1338 -15668 15725 0
-1338 -15669 15726 0
-1338 -15670 15727 0
-1338 -15671 15728 0
-1338 -15672 15729 0
-1338 -15673 15730 0
-1338 -15674 15731 0
-1338 -15675 15732 0
-1338 -15676 15733 0
-1338 -15677 15734 0
-1338 -15678 15735 0
-1338 -15679 15736 0
-1338 -15680 15737 0
-1338 -15681 15738 0
-1338 -15682 15739 0
-1338 -15683 15740 0
-1338 -15684 15741 0
-1338 -15685 15742 0
-1338 -15686 15743 0
-1338 -15687 15744 0
-1338 -15688 0
-15689 15745 0
-15690 15746 0
-15691 15747 0
-15692 15748 0
-15693 15749 0
-15694 15750 0
-15695 15751 0
-15696 15752 0
-15697 15753 0
-15698 15754 0
-15699 15755 0
-15700 15756 0
-15701 15757 0
-15702 15758 0
-15703 15759 0
-15704 15760 0
-15705 15761 0
-15706 15762 0
-15707 15763 0
-15708 15764 0
-15709 15765 0
-15710 15766 0
-15711 15767 0
-15712 15768 0
-15713 15769 0
-15714 15770 0
-15715 15771 0
-15716 15772 0
-15717 15773 0
-15718 15774 0
-15719 15775 0
-15720 15776 0
-15721 15777 0
-15722 15778 0
-15723 15779 0
-15724 15780 0
-15725 15781 0
-15726 15782 0
-15727 15783 0
-15728 15784 0
-15729 15785 0
-15730 15786 0
-15731 15787 0
-15732 15788 0
-15733 15789 0
-15734 15790 0
-15735 15791 0
-15736 15792 0
-15737 15793 0
-15738 15794 0
-15739 15795 0
-15740 15796 0
-15741 15797 0
-15742 15798 0
-15743 15799 0
-15744 15800 0
-1340 -15689 15746 0
-1340 -15690 15747 0
-1340 -15691 15748 0
-1340 -15692 15749 0
-1340 -15693 15750 0
-1340 -15694 15751 0
-1340 -15695 15752 0
-1340 -15696 15753 0
-1340 -15697 15754 0
-1340 -15698 15755 0
-1340 -15699 15756 0
-1340 -15700 15757 0
-1340 -15701 15758 0
-1340 -15702 15759 0
-1340 -15703 15760 0
-1340 -15704 15761 0
-1340 -15705 15762 0
-1340 -15706 15763 0
-1340 -15707 15764 0
-1340 -15708 15765 0
-1340 -15709 15766 0
-1340 -15710 15767 0
-1340 -15711 15768 0
-1340 -15712 15769 0
-1340 -15713 15770 0
-1340 -15714 15771 0
-1340 -15715 15772 0
-1340 -15716 15773 0
-1340 -15717 15774 0
-1340 -15718 15775 0
-1340 -15719 15776 0
-1340 -15720 15777 0
-1340 -15721 15778 0
-1340 -15722 15779 0
-1340 -15723 15780 0
-1340 -15724 15781 0
-1340 -15725 15782 0
-1340 -15726 15783 0
-1340 -15727 15784 0
-1340 -15728 15785 0
-1340 -15729 15786 0
-1340 -15730 15787 0
-1340 -15731 15788 0
-1340 -15732 15789 0
-1340 -15733 15790 0
-1340 -15734 15791 0
-1340 -15735 15792 0
-1340 -15736 15793 0
-1340 -15737 15794 0
-1340 -15738 15795 0
-1340 -15739 15796 0
-1340 -15740 15797 0
-1340 -15741 15798 0
-1340 -15742 15799 0
-1340 -15743 15800 0
-1340 -15744 0
-15745 15801 0
-15746 15802 0
-15747 15803 0
-15748 15804 0
-15749 15805 0
-15750 15806 0
-15751 15807 0
-15752 15808 0
-15753 15809 0
-15754 15810 0
-15755 15811 0
-15756 15812 0
-15757 15813 0
-15758 15814 0
-15759 15815 0
-15760 15816 0
-15761 15817 0
-15762 15818 0
-15763 15819 0
-15764 15820 0
-15765 15821 0
-15766 15822 0
-15767 15823 0
-15768 15824 0
-15769 15825 0
-15770 15826 0
-15771 15827 0
-15772 15828 0
-15773 15829 0
-15774 15830 0
-15775 15831 0
-15776 15832 0
-15777 15833 0
-15778 15834 0
-15779 15835 0
-15780 15836 0
-15781 15837 0
-15782 15838 0
-15783 15839 0
-15784 15840 0
-15785 15841 0
-15786 15842 0
-15787 15843 0
-15788 15844 0
-15789 15845 0
-15790 15846 0
-15791 15847 0
-15792 15848 0
-15793 15849 0
-15794 15850 0
-15795 15851 0
-15796 15852 0
-15797 15853 0
-15798 15854 0
-15799 15855 0
-15800 15856 0
-1342 -15745 15802 0
-1342 -15746 15803 0
-1342 -15747 15804 0
-1342 -15748 15805 0
-1342 -15749 15806 0
-1342 -15750 15807 0
-1342 -15751 15808 0
-1342 -15752 15809 0
-1342 -15753 15810 0
-1342 -15754 15811 0
-1342 -15755 15812 0
-1342 -15756 15813 0
-1342 -15757 15814 0
-1342 -15758 15815 0
-1342 -15759 15816 0
-1342 -15760 15817 0
-1342 -15761 15818 0
-1342 -15762 15819 0
-1342 -15763 15820 0
-1342 -15764 15821 0
-1342 -15765 15822 0
-1342 -15766 15823 0
-1342 -15767 15824 0
-1342 -15768 15825 0
-1342 -15769 15826 0
-1342 -15770 15827 0
-1342 -15771 15828 0
-1342 -15772 15829 0
-1342 -15773 15830 0
-1342 -15774 15831 0
-1342 -15775 15832 0
-1342 -15776 15833 0
-1342 -15777 15834 0
-1342 -15778 15835 0
-1342 -15779 15836 0
-1342 -15780 15837 0
-1342 -15781 15838 0
-1342 -15782 15839 0
-1342 -15783 15840 0
-1342 -15784 15841 0
-1342 -15785 15842 0
-1342 -15786 15843 0
-1342 -15787 15844 0
-1342 -15788 15845 0
-1342 -15789 15846 0
-1342 -15790 15847 0
-1342 -15791 15848 0
-1342 -15792 15849 0
-1342 -15793 15850 0
-1342 -15794 15851 0
-1342 -15795 15852 0
-1342 -15796 15853 0
-1342 -15797 15854 0
-1342 -15798 15855 0
-1342 -15799 15856 0
-1342 -15800 0
-15801 15857 0
-15802 15858 0
-15803 15859 0
-15804 15860 0
-15805 15861 0
-15806 15862 0
-15807 15863 0
-15808 15864 0
-15809 15865 0
-15810 15866 0
-15811 15867 0
-15812 15868 0
-15813 15869 0
-15814 15870 0
-15815 15871 0
-15816 15872 0
-15817 15873 0
-15818 15874 0
-15819 15875 0
-15820 15876 0
-15821 15877 0
-15822 15878 0
-15823 15879 0
-15824 15880 0
-15825 15881 0
-15826 15882 0
-15827 15883 0
-15828 15884 0
-15829 15885 0
-15830 15886 0
-15831 15887 0
-15832 15888 0
-15833 15889 0
-15834 15890 0
-15835 15891 0
-15836 15892 0
-15837 15893 0
-15838 15894 0
-15839 15895 0
-15840 15896 0
-15841 15897 0
-15842 15898 0
-15843 15899 0
-15844 15900 0
-15845 15901 0
-15846 15902 0
-15847 15903 0
-15848 15904 0
-15849 15905 0
-15850 15906 0
-15851 15907 0
-15852 15908 0
-15853 15909 0
-15854 15910 0
-15855 15911 0
-15856 15912 0
-1344 -15801 15858 0
-1344 -15802 15859 0
-1344 -15803 15860 0
-1344 -15804 15861 0
-1344 -15805 15862 0
-1344 -15806 15863 0
-1344 -15807 15864 0
-1344 -15808 15865 0
-1344 -15809 15866 0
-1344 -15810 15867 0
-1344 -15811 15868 0
-1344 -15812 15869 0
-1344 -15813 15870 0
-1344 -15814 15871 0
-1344 -15815 15872 0
-1344 -15816 15873 0
-1344 -15817 15874 0
-1344 -15818 15875 0
-1344 -15819 15876 0
-1344 -15820 15877 0
-1344 -15821 15878 0
-1344 -15822 15879 0
-1344 -15823 15880 0
-1344 -15824 15881 0
-1344 -15825 15882 0
-1344 -15826 15883 0
-1344 -15827 15884 0
-1344 -15828 15885 0
-1344 -15829 15886 0
-1344 -15830 15887 0
-1344 -15831 15888 0
-1344 -15832 15889 0
-1344 -15833 15890 0
-1344 -15834 15891 0
-1344 -15835 15892 0
-1344 -15836 15893 0
-1344 -15837 15894 0
-1344 -15838 15895 0
-1344 -15839 15896 0
-1344 -15840 15897 0
-1344 -15841 15898 0
-1344 -15842 15899 0
-1344 -15843 15900 0
-1344 -15844 15901 0
-1344 -15845 15902 0
-1344 -15846 15903 0
-1344 -15847 15904 0
-1344 -15848 15905 0
-1344 -15849 15906 0
-1344 -15850 15907 0
-1344 -15851 15908 0
-1344 -15852 15909 0
-1344 -15853 15910 0
-1344 -15854 15911 0
-1344 -15855 15912 0
-1344 -15856 0
-15857 15913 0
-15858 15914 0
-15859 15915 0
-15860 15916 0
-15861 15917 0
-15862 15918 0
-15863 15919 0
-15864 15920 0
-15865 15921 0
-15866 15922 0
-15867 15923 0
-15868 15924 0
-15869 15925 0
-15870 15926 0
-15871 15927 0
-15872 15928 0
-15873 15929 0
-15874 15930 0
-15875 15931 0
-15876 15932 0
-15877 15933 0
-15878 15934 0
-15879 15935 0
-15880 15936 0
-15881 15937 0
-15882 15938 0
-15883 15939 0
-15884 15940 0
-15885 15941 0
-15886 15942 0
-15887 15943 0
-15888 15944 0
-15889 15945 0
-15890 15946 0
-15891 15947 0
-15892 15948 0
-15893 15949 0
-15894 15950 0
-15895 15951 0
-15896 15952 0
-15897 15953 0
-15898 15954 0
-15899 15955 0
-15900 15956 0
-15901 15957 0
-15902 15958 0
-15903 15959 0
-15904 15960 0
-15905 15961 0
-15906 15962 0
-15907 15963 0
-15908 15964 0
-15909 15965 0
-15910 15966 0
-15911 15967 0
-15912 15968 0
-1346 -15857 15914 0
-1346 -15858 15915 0
-1346 -15859 15916 0
-1346 -15860 15917 0
-1346 -15861 15918 0
-1346 -15862 15919 0
-1346 -15863 15920 0
-1346 -15864 15921 0
-1346 -15865 15922 0
-1346 -15866 15923 0
-1346 -15867 15924 0
-1346 -15868 15925 0
-1346 -15869 15926 0
-1346 -15870 15927 0
-1346 -15871 15928 0
-1346 -15872 15929 0
-1346 -15873 15930 0
-1346 -15874 15931 0
-1346 -15875 15932 0
-1346 -15876 15933 0
-1346 -15877 15934 0
-1346 -15878 15935 0
-1346 -15879 15936 0
-1346 -15880 15937 0
-1346 -15881 15938 0
-1346 -15882 15939 0
-1346 -15883 15940 0
-1346 -15884 15941 0
-1346 -15885 15942 0
-1346 -15886 15943 0
-1346 -15887 15944 0
-1346 -15888 15945 0
-1346 -15889 15946 0
-1346 -15890 15947 0
-1346 -15891 15948 0
-1346 -15892 15949 0
-1346 -15893 15950 0
-1346 -15894 15951 0
-1346 -15895 15952 0
-1346 -15896 15953 0
-1346 -15897 15954 0
-1346 -15898 15955 0
-1346 -15899 15956 0
-1346 -15900 15957 0
-1346 -15901 15958 0
-1346 -15902 15959 0
-1346 -15903 15960 0
-1346 -15904 15961 0
-1346 -15905 15962 0
-1346 -15906 15963 0
-1346 -15907 15964 0
-1346 -15908 15965 0
-1346 -15909 15966 0
-1346 -15910 15967 0
-1346 -15911 15968 0
-1346 -15912 0
-15913 15969 0
-15914 15970 0
-15915 15971 0
-15916 15972 0
-15917 15973 0
-15918 15974 0
-15919 15975 0
-15920 15976 0
-15921 15977 0
-15922 15978 0
-15923 15979 0
-15924 15980 0
-15925 15981 0
-15926 15982 0
-15927 15983 0
-15928 15984 0
-15929 15985 0
-15930 15986 0
-15931 15987 0
-15932 15988 0
-15933 15989 0
-15934 15990 0
-15935 15991 0
-15936 15992 0
-15937 15993 0
-15938 15994 0
-15939 15995 0
-15940 15996 0
-15941 15997 0
-15942 15998 0
-15943 15999 0
-15944 16000 0
-15945 16001 0
-15946 16002 0
-15947 16003 0
-15948 16004 0
-15949 16005 0
-15950 16006 0
-15951 16007 0
-15952 16008 0
-15953 16009 0
-15954 16010 0
-15955 16011 0
-15956 16012 0
-15957 16013 0
-15958 16014 0
-15959 16015 0
-15960 16016 0
-15961 16017 0
-15962 16018 0
-15963 16019 0
-15964 16020 0
-15965 16021 0
-15966 16022 0
-15967 16023 0
-15968 16024 0
-1348 -15913 15970 0
-1348 -15914 15971 0
-1348 -15915 15972 0
-1348 -15916 15973 0
-1348 -15917 15974 0
-1348 -15918 15975 0
-1348 -15919 15976 0
-1348 -15920 15977 0
-1348 -15921 15978 0
-1348 -15922 15979 0
-1348 -15923 15980 0
-1348 -15924 15981 0
-1348 -15925 15982 0
-1348 -15926 15983 0
-1348 -15927 15984 0
-1348 -15928 15985 0
-1348 -15929 15986 0
-1348 -15930 15987 0
-1348 -15931 15988 0
-1348 -15932 15989 0
-1348 -15933 15990 0
-1348 -15934 15991 0
-1348 -15935 15992 0
-1348 -15936 15993 0
-1348 -15937 15994 0
-1348 -15938 15995 0
-1348 -15939 15996 0
-1348 -15940 15997 0
-1348 -15941 15998 0
-1348 -15942 15999 0
-1348 -15943 16000 0
-1348 -15944 16001 0
-1348 -15945 16002 0
-1348 -15946 16003 0
-1348 -15947 16004 0
-1348 -15948 16005 0
-1348 -15949 16006 0
-1348 -15950 16007 0
-1348 -15951 16008 0
-1348 -15952 16009 0
-1348 -15953 16010 0
-1348 -15954 16011 0
-1348 -15955 16012 0
-1348 -15956 16013 0
-1348 -15957 16014 0
-1348 -15958 16015 0
-1348 -15959 16016 0
-1348 -15960 16017 0
-1348 -15961 16018 0
-1348 -15962 16019 0
-1348 -15963 16020 0
-1348 -15964 16021 0
-1348 -15965 16022 0
-1348 -15966 16023 0
-1348 -15967 16024 0
-1348 -15968 0
-15969 16025 0
-15970 16026 0
-15971 16027 0
-15972 16028 0
-15973 16029 0
-15974 16030 0
-15975 16031 0
-15976 16032 0
-15977 16033 0
-15978 16034 0
-15979 16035 0
-15980 16036 0
-15981 16037 0
-15982 16038 0
-15983 16039 0
-15984 16040 0
-15985 16041 0
-15986 16042 0
-15987 16043 0
-15988 16044 0
-15989 16045 0
-15990 16046 0
-15991 16047 0
-15992 16048 0
-15993 16049 0
-15994 16050 0
-15995 16051 0
-15996 16052 0
-15997 16053 0
-15998 16054 0
-15999 16055 0
-16000 16056 0
-16001 16057 0
-16002 16058 0
-16003 16059 0
-16004 16060 0
-16005 16061 0
-16006 16062 0
-16007 16063 0
-16008 16064 0
-16009 16065 0
-16010 16066 0
-16011 16067 0
-16012 16068 0
-16013 16069 0
-16014 16070 0
-16015 16071 0
-16016 16072 0
-16017 16073 0
-16018 16074 0
-16019 16075 0
-16020 16076 0
-16021 16077 0
-16022 16078 0
-16023 16079 0
-16024 16080 0
-1350 -15969 16026 0
-1350 -15970 16027 0
-1350 -15971 16028 0
-1350 -15972 16029 0
-1350 -15973 16030 0
-1350 -15974 16031 0
-1350 -15975 16032 0
-1350 -15976 16033 0
-1350 -15977 16034 0
-1350 -15978 16035 0
-1350 -15979 16036 0
-1350 -15980 16037 0
-1350 -15981 16038 0
-1350 -15982 16039 0
-1350 -15983 16040 0
-1350 -15984 16041 0
-1350 -15985 16042 0
-1350 -15986 16043 0
-1350 -15987 16044 0
-1350 -15988 16045 0
-1350 -15989 16046 0
-1350 -15990 16047 0
-1350 -15991 16048 0
-1350 -15992 16049 0
-1350 -15993 16050 0
-1350 -15994 16051 0
-1350 -15995 16052 0
-1350 -15996 16053 0
-1350 -15997 16054 0
-1350 -15998 16055 0
-1350 -15999 16056 0
-1350 -16000 16057 0
-1350 -16001 16058 0
-1350 -16002 16059 0
-1350 -16003 16060 0
-1350 -16004 16061 0
-1350 -16005 16062 0
-1350 -16006 16063 0
-1350 -16007 16064 0
-1350 -16008 16065 0
-1350 -16009 16066 0
-1350 -16010 16067 0
-1350 -16011 16068 0
-1350 -16012 16069 0
-1350 -16013 16070 0
-1350 -16014 16071 0
-1350 -16015 16072 0
-1350 -16016 16073 0
-1350 -16017 16074 0
-1350 -16018 16075 0
-1350 -16019 16076 0
-1350 -16020 16077 0
-1350 -16021 16078 0
-1350 -16022 16079 0
-1350 -16023 16080 0
-1350 -16024 0
-16025 16081 0
-16026 16082 0
-16027 16083 0
-16028 16084 0
-16029 16085 0
-16030 16086 0
-16031 16087 0
-16032 16088 0
-16033 16089 0
-16034 16090 0
-16035 16091 0
-16036 16092 0
-16037 16093 0
-16038 16094 0
-16039 16095 0
-16040 16096 0
-16041 16097 0
-16042 16098 0
-16043 16099 0
-16044 16100 0
-16045 16101 0
-16046 16102 0
-16047 16103 0
-16048 16104 0
-16049 16105 0
-16050 16106 0
-16051 16107 0
-16052 16108 0
-16053 16109 0
-16054 16110 0
-16055 16111 0
-16056 16112 0
-16057 16113 0
-16058 16114 0
-16059 16115 0
-16060 16116 0
-16061 16117 0
-16062 16118 0
-16063 16119 0
-16064 16120 0
-16065 16121 0
-16066 16122 0
-16067 16123 0
-16068 16124 0
-16069 16125 0
-16070 16126 0
-16071 16127 0
-16072 16128 0
-16073 16129 0
-16074 16130 0
-16075 16131 0
-16076 16132 0
-16077 16133 0
-16078 16134 0
-16079 16135 0
-16080 16136 0
-1352 -16025 16082 0
-1352 -16026 16083 0
-1352 -16027 16084 0
-1352 -16028 16085 0
-1352 -16029 16086 0
-1352 -16030 16087 0
-1352 -16031 16088 0
-1352 -16032 16089 0
-1352 -16033 16090 0
-1352 -16034 16091 0
-1352 -16035 16092 0
-1352 -16036 16093 0
-1352 -16037 16094 0
-1352 -16038 16095 0
-1352 -16039 16096 0
-1352 -16040 16097 0
-1352 -16041 16098 0
-1352 -16042 16099 0
-1352 -16043 16100 0
-1352 -16044 16101 0
-1352 -16045 16102 0
-1352 -16046 16103 0
-1352 -16047 16104 0
-1352 -16048 16105 0
-1352 -16049 16106 0
-1352 -16050 16107 0
-1352 -16051 16108 0
-1352 -16052 16109 0
-1352 -16053 16110 0
-1352 -16054 16111 0
-1352 -16055 16112 0
-1352 -16056 16113 0
-1352 -16057 16114 0
-1352 -16058 16115 0
-1352 -16059 16116 0
-1352 -16060 16117 0
-1352 -16061 16118 0
-1352 -16062 16119 0
-1352 -16063 16120 0
-1352 -16064 16121 0
-1352 -16065 16122 0
-1352 -16066 16123 0
-1352 -16067 16124 0
-1352 -16068 16125 0
-1352 -16069 16126 0
-1352 -16070 16127 0
-1352 -16071 16128 0
-1352 -16072 16129 0
-1352 -16073 16130 0
-1352 -16074 16131 0
-1352 -16075 16132 0
-1352 -16076 16133 0
-1352 -16077 16134 0
-1352 -16078 16135 0
-1352 -16079 16136 0
-1352 -16080 0
-16081 16137 0
-16082 16138 0
-16083 16139 0
-16084 16140 0
-16085 16141 0
-16086 16142 0
-16087 16143 0
-16088 16144 0
-16089 16145 0
-16090 16146 0
-16091 16147 0
-16092 16148 0
-16093 16149 0
-16094 16150 0
-16095 16151 0
-16096 16152 0
-16097 16153 0
-16098 16154 0
-16099 16155 0
-16100 16156 0
-16101 16157 0
-16102 16158 0
-16103 16159 0
-16104 16160 0
-16105 16161 0
-16106 16162 0
-16107 16163 0
-16108 16164 0
-16109 16165 0
-16110 16166 0
-16111 16167 0
-16112 16168 0
-16113 16169 0
-16114 16170 0
-16115 16171 0
-16116 16172 0
-16117 16173 0
-16118 16174 0
-16119 16175 0
-16120 16176 0
-16121 16177 0
-16122 16178 0
-16123 16179 0
-16124 16180 0
-16125 16181 0
-16126 16182 0
-16127 16183 0
-16128 16184 0
-16129 16185 0
-16130 16186 0
-16131 16187 0
-16132 16188 0
-16133 16189 0
-16134 16190 0
-16135 16191 0
-16136 16192 0
-1354 -16081 16138 0
-1354 -16082 16139 0
-1354 -16083 16140 0
-1354 -16084 16141 0
-1354 -16085 16142 0
-1354 -16086 16143 0
-1354 -16087 16144 0
-1354 -16088 16145 0
-1354 -16089 16146 0
-1354 -16090 16147 0
-1354 -16091 16148 0
-1354 -16092 16149 0
-1354 -16093 16150 0
-1354 -16094 16151 0
-1354 -16095 16152 0
-1354 -16096 16153 0
-1354 -16097 16154 0
-1354 -16098 16155 0
-1354 -16099 16156 0
-1354 -16100 16157 0
-1354 -16101 16158 0
-1354 -16102 16159 0
-1354 -16103 16160 0
-1354 -16104 16161 0
-1354 -16105 16162 0
-1354 -16106 16163 0
-1354 -16107 16164 0
-1354 -16108 16165 0
-1354 -16109 16166 0
-1354 -16110 16167 0
-1354 -16111 16168 0
-1354 -16112 16169 0
-1354 -16113 16170 0
-1354 -16114 16171 0
-1354 -16115 16172 0
-1354 -16116 16173 0
-1354 -16117 16174 0
-1354 -16118 16175 0
-1354 -16119 16176 0
-1354 -16120 16177 0
-1354 -16121 16178 0
-1354 -16122 16179 0
-1354 -16123 16180 0
-1354 -16124 16181 0
-1354 -16125 16182 0
-1354 -16126 16183 0
-1354 -16127 16184 0
-1354 -16128 16185 0
-1354 -16129 16186 0
-1354 -16130 16187 0
-1354 -16131 16188 0
-1354 -16132 16189 0
-1354 -16133 16190 0
-1354 -16134 16191 0
-1354 -16135 16192 0
-1354 -16136 0
-16137 16193 0
-16138 16194 0
-16139 16195 0
-16140 16196 0
-16141 16197 0
-16142 16198 0
-16143 16199 0
-16144 16200 0
-16145 16201 0
-16146 16202 0
-16147 16203 0
-16148 16204 0
-16149 16205 0
-16150 16206 0
-16151 16207 0
-16152 16208 0
-16153 16209 0
-16154 16210 0
-16155 16211 0
-16156 16212 0
-16157 16213 0
-16158 16214 0
-16159 16215 0
-16160 16216 0
-16161 16217 0
-16162 16218 0
-16163 16219 0
-16164 16220 0
-16165 16221 0
-16166 16222 0
-16167 16223 0
-16168 16224 0
-16169 16225 0
-16170 16226 0
-16171 16227 0
-16172 16228 0
-16173 16229 0
-16174 16230 0
-16175 16231 0
-16176 16232 0
-16177 16233 0
-16178 16234 0
-16179 16235 0
-16180 16236 0
-16181 16237 0
-16182 16238 0
-16183 16239 0
-16184 16240 0
-16185 16241 0
-16186 16242 0
-16187 16243 0
-16188 16244 0
-16189 16245 0
-16190 16246 0
-16191 16247 0
-16192 16248 0
-1356 -16137 16194 0
-1356 -16138 16195 0
-1356 -16139 16196 0
-1356 -16140 16197 0
-1356 -16141 16198 0
-1356 -16142 16199 0
-1356 -16143 16200 0
-1356 -16144 16201 0
-1356 -16145 16202 0
-1356 -16146 16203 0
-1356 -16147 16204 0
-1356 -16148 16205 0
-1356 -16149 16206 0
-1356 -16150 16207 0
-1356 -16151 16208 0
-1356 -16152 16209 0
-1356 -16153 16210 0
-1356 -16154 16211 0
-1356 -16155 16212 0
-1356 -16156 16213 0
-1356 -16157 16214 0
-1356 -16158 16215 0
-1356 -16159 16216 0
-1356 -16160 16217 0
-1356 -16161 16218 0
-1356 -16162 16219 0
-1356 -16163 16220 0
-1356 -16164 16221 0
-1356 -16165 16222 0
-1356 -16166 16223 0
-1356 -16167 16224 0
-1356 -16168 16225 0
-1356 -16169 16226 0
-1356 -16170 16227 0
-1356 -16171 16228 0
-1356 -16172 16229 0
-1356 -16173 16230 0
-1356 -16174 16231 0
-1356 -16175 16232 0
-1356 -16176 16233 0
-1356 -16177 16234 0
-1356 -16178 16235 0
-1356 -16179 16236 0
-1356 -16180 16237 0
-1356 -16181 16238 0
-1356 -16182 16239 0
-1356 -16183 16240 0
-1356 -16184 16241 0
-1356 -16185 16242 0
-1356 -16186 16243 0
-1356 -16187 16244 0
-1356 -16188 16245 0
-1356 -16189 16246 0
-1356 -16190 16247 0
-1356 -16191 16248 0
-1356 -16192 0
-16193 16249 0
-16194 16250 0
-16195 16251 0
-16196 16252 0
-16197 16253 0
-16198 16254 0
-16199 16255 0
-16200 16256 0
-16201 16257 0
-16202 16258 0
-16203 16259 0
-16204 16260 0
-16205 16261 0
-16206 16262 0
-16207 16263 0
-16208 16264 0
-16209 16265 0
-16210 16266 0
-16211 16267 0
-16212 16268 0
-16213 16269 0
-16214 16270 0
-16215 16271 0
-16216 16272 0
-16217 16273 0
-16218 16274 0
-16219 16275 0
-16220 16276 0
-16221 16277 0
-16222 16278 0
-16223 16279 0
-16224 16280 0
-16225 16281 0
-16226 16282 0
-16227 16283 0
-16228 16284 0
-16229 16285 0
-16230 16286 0
-16231 16287 0
-16232 16288 0
-16233 16289 0
-16234 16290 0
-16235 16291 0
-16236 16292 0
-16237 16293 0
-16238 16294 0
-16239 16295 0
-16240 16296 0
-16241 16297 0
-16242 16298 0
-16243 16299 0
-16244 16300 0
-16245 16301 0
-16246 16302 0
-16247 16303 0
-16248 16304 0
-1358 -16193 16250 0
-1358 -16194 16251 0
-1358 -16195 16252 0
-1358 -16196 16253 0
-1358 -16197 16254 0
-1358 -16198 16255 0
-1358 -16199 16256 0
-1358 -16200 16257 0
-1358 -16201 16258 0
-1358 -16202 16259 0
-1358 -16203 16260 0
-1358 -16204 16261 0
-1358 -16205 16262 0
-1358 -16206 16263 0
-1358 -16207 16264 0
-1358 -16208 16265 0
-1358 -16209 16266 0
-1358 -16210 16267 0
-1358 -16211 16268 0
-1358 -16212 16269 0
-1358 -16213 16270 0
-1358 -16214 16271 0
-1358 -16215 16272 0
-1358 -16216 16273 0
-1358 -16217 16274 0
-1358 -16218 16275 0
-1358 -16219 16276 0
-1358 -16220 16277 0
-1358 -16221 16278 0
-1358 -16222 16279 0
-1358 -16223 16280 0
-1358 -16224 16281 0
-1358 -16225 16282 0
-1358 -16226 16283 0
-1358 -16227 16284 0
-1358 -16228 16285 0
-1358 -16229 16286 0
-1358 -16230 16287 0
-1358 -16231 16288 0
-1358 -16232 16289 0
-1358 -16233 16290 0
-1358 -16234 16291 0
-1358 -16235 16292 0
-1358 -16236 16293 0
-1358 -16237 16294 0
-1358 -16238 16295 0
-1358 -16239 16296 0
-1358 -16240 16297 0
-1358 -16241 16298 0
-1358 -16242 16299 0
-1358 -16243 16300 0
-1358 -16244 16301 0
-1358 -16245 16302 0
-1358 -16246 16303 0
-1358 -16247 16304 0
-1358 -16248 0
-16249 16305 0
-16250 16306 0
-16251 16307 0
-16252 16308 0
-16253 16309 0
-16254 16310 0
-16255 16311 0
-16256 16312 0
-16257 16313 0
-16258 16314 0
-16259 16315 0
-16260 16316 0
-16261 16317 0
-16262 16318 0
-16263 16319 0
-16264 16320 0
-16265 16321 0
-16266 16322 0
-16267 16323 0
-16268 16324 0
-16269 16325 0
-16270 16326 0
-16271 16327 0
-16272 16328 0
-16273 16329 0
-16274 16330 0
-16275 16331 0
-16276 16332 0
-16277 16333 0
-16278 16334 0
-16279 16335 0
-16280 16336 0
-16281 16337 0
-16282 16338 0
-16283 16339 0
-16284 16340 0
-16285 16341 0
-16286 16342 0
-16287 16343 0
-16288 16344 0
-16289 16345 0
-16290 16346 0
-16291 16347 0
-16292 16348 0
-16293 16349 0
-16294 16350 0
-16295 16351 0
-16296 16352 0
-16297 16353 0
-16298 16354 0
-16299 16355 0
-16300 16356 0
-16301 16357 0
-16302 16358 0
-16303 16359 0
-16304 16360 0
-1360 -16249 16306 0
-1360 -16250 16307 0
-1360 -16251 16308 0
-1360 -16252 16309 0
-1360 -16253 16310 0
-1360 -16254 16311 0
-1360 -16255 16312 0
-1360 -16256 16313 0
-1360 -16257 16314 0
-1360 -16258 16315 0
-1360 -16259 16316 0
-1360 -16260 16317 0
-1360 -16261 16318 0
-1360 -16262 16319 0
-1360 -16263 16320 0
-1360 -16264 16321 0
-1360 -16265 16322 0
-1360 -16266 16323 0
-1360 -16267 16324 0
-1360 -16268 16325 0
-1360 -16269 16326 0
-1360 -16270 16327 0
-1360 -16271 16328 0
-1360 -16272 16329 0
-1360 -16273 16330 0
-1360 -16274 16331 0
-1360 -16275 16332 0
-1360 -16276 16333 0
-1360 -16277 16334 0
-1360 -16278 16335 0
-1360 -16279 16336 0
-1360 -16280 16337 0
-1360 -16281 16338 0
-1360 -16282 16339 0
-1360 -16283 16340 0
-1360 -16284 16341 0
-1360 -16285 16342 0
-1360 -16286 16343 0
-1360 -16287 16344 0
-1360 -16288 16345 0
-1360 -16289 16346 0
-1360 -16290 16347 0
-1360 -16291 16348 0
-1360 -16292 16349 0
-1360 -16293 16350 0
-1360 -16294 16351 0
-1360 -16295 16352 0
-1360 -16296 16353 0
-1360 -16297 16354 0
-1360 -16298 16355 0
-1360 -16299 16356 0
-1360 -16300 16357 0
-1360 -16301 16358 0
-1360 -16302 16359 0
-1360 -16303 16360 0
-1360 -16304 0
-16305 16361 0
-16306 16362 0
-16307 16363 0
-16308 16364 0
-16309 16365 0
-16310 16366 0
-16311 16367 0
-16312 16368 0
-16313 16369 0
-16314 16370 0
-16315 16371 0
-16316 16372 0
-16317 16373 0
-16318 16374 0
-16319 16375 0
-16320 16376 0
-16321 16377 0
-16322 16378 0
-16323 16379 0
-16324 16380 0
-16325 16381 0
-16326 16382 0
-16327 16383 0
-16328 16384 0
-16329 16385 0
-16330 16386 0
-16331 16387 0
-16332 16388 0
-16333 16389 0
-16334 16390 0
-16335 16391 0
-16336 16392 0
-16337 16393 0
-16338 16394 0
-16339 16395 0
-16340 16396 0
-16341 16397 0
-16342 16398 0
-16343 16399 0
-16344 16400 0
-16345 16401 0
-16346 16402 0
-16347 16403 0
-16348 16404 0
-16349 16405 0
-16350 16406 0
-16351 16407 0
-16352 16408 0
-16353 16409 0
-16354 16410 0
-16355 16411 0
-16356 16412 0
-16357 16413 0
-16358 16414 0
-16359 16415 0
-16360 16416 0
-1362 -16305 16362 0
-1362 -16306 16363 0
-1362 -16307 16364 0
-1362 -16308 16365 0
-1362 -16309 16366 0
-1362 -16310 16367 0
-1362 -16311 16368 0
-1362 -16312 16369 0
-1362 -16313 16370 0
-1362 -16314 16371 0
-1362 -16315 16372 0
-1362 -16316 16373 0
-1362 -16317 16374 0
-1362 -16318 16375 0
-1362 -16319 16376 0
-1362 -16320 16377 0
-1362 -16321 16378 0
-1362 -16322 16379 0
-1362 -16323 16380 0
-1362 -16324 16381 0
-1362 -16325 16382 0
-1362 -16326 16383 0
-1362 -16327 16384 0
-1362 -16328 16385 0
-1362 -16329 16386 0
-1362 -16330 16387 0
-1362 -16331 16388 0
-1362 -16332 16389 0
-1362 -16333 16390 0
-1362 -16334 16391 0
-1362 -16335 16392 0
-1362 -16336 16393 0
-1362 -16337 16394 0
-1362 -16338 16395 0
-1362 -16339 16396 0
-1362 -16340 16397 0
-1362 -16341 16398 0
-1362 -16342 16399 0
-1362 -16343 16400 0
-1362 -16344 16401 0
-1362 -16345 16402 0
-1362 -16346 16403 0
-1362 -16347 16404 0
-1362 -16348 16405 0
-1362 -16349 16406 0
-1362 -16350 16407 0
-1362 -16351 16408 0
-1362 -16352 16409 0
-1362 -16353 16410 0
-1362 -16354 16411 0
-1362 -16355 16412 0
-1362 -16356 16413 0
-1362 -16357 16414 0
-1362 -16358 16415 0
-1362 -16359 16416 0
-1362 -16360 0
-16361 16417 0
-16362 16418 0
-16363 16419 0
-16364 16420 0
-16365 16421 0
-16366 16422 0
-16367 16423 0
-16368 16424 0
-16369 16425 0
-16370 16426 0
-16371 16427 0
-16372 16428 0
-16373 16429 0
-16374 16430 0
-16375 16431 0
-16376 16432 0
-16377 16433 0
-16378 16434 0
-16379 16435 0
-16380 16436 0
-16381 16437 0
-16382 16438 0
-16383 16439 0
-16384 16440 0
-16385 16441 0
-16386 16442 0
-16387 16443 0
-16388 16444 0
-16389 16445 0
-16390 16446 0
-16391 16447 0
-16392 16448 0
-16393 16449 0
-16394 16450 0
-16395 16451 0
-16396 16452 0
-16397 16453 0
-16398 16454 0
-16399 16455 0
-16400 16456 0
-16401 16457 0
-16402 16458 0
-16403 16459 0
-16404 16460 0
-16405 16461 0
-16406 16462 0
-16407 16463 0
-16408 16464 0
-16409 16465 0
-16410 16466 0
-16411 16467 0
-16412 16468 0
-16413 16469 0
-16414 16470 0
-16415 16471 0
-16416 16472 0
-1364 -16361 16418 0
-1364 -16362 16419 0
-1364 -16363 16420 0
-1364 -16364 16421 0
-1364 -16365 16422 0
-1364 -16366 16423 0
-1364 -16367 16424 0
-1364 -16368 16425 0
-1364 -16369 16426 0
-1364 -16370 16427 0
-1364 -16371 16428 0
-1364 -16372 16429 0
-1364 -16373 16430 0
-1364 -16374 16431 0
-1364 -16375 16432 0
-1364 -16376 16433 0
-1364 -16377 16434 0
-1364 -16378 16435 0
-1364 -16379 16436 0
-1364 -16380 16437 0
-1364 -16381 16438 0
-1364 -16382 16439 0
-1364 -16383 16440 0
-1364 -16384 16441 0
-1364 -16385 16442 0
-1364 -16386 16443 0
-1364 -16387 16444 0
-1364 -16388 16445 0
-1364 -16389 16446 0
-1364 -16390 16447 0
-1364 -16391 16448 0
-1364 -16392 16449 0
-1364 -16393 16450 0
-1364 -16394 16451 0
-1364 -16395 16452 0
-1364 -16396 16453 0
-1364 -16397 16454 0
-1364 -16398 16455 0
-1364 -16399 16456 0
-1364 -16400 16457 0
-1364 -16401 16458 0
-1364 -16402 16459 0
-1364 -16403 16460 0
-1364 -16404 16461 0
-1364 -16405 16462 0
-1364 -16406 16463 0
-1364 -16407 16464 0
-1364 -16408 16465 0
-1364 -16409 16466 0
-1364 -16410 16467 0
-1364 -16411 16468 0
-1364 -16412 16469 0
-1364 -16413 16470 0
-1364 -16414 16471 0
-1364 -16415 16472 0
-1364 -16416 0
-16417 16473 0
-16418 16474 0
-16419 16475 0
-16420 16476 0
-16421 16477 0
-16422 16478 0
-16423 16479 0
-16424 16480 0
-16425 16481 0
-16426 16482 0
-16427 16483 0
-16428 16484 0
-16429 16485 0
-16430 16486 0
-16431 16487 0
-16432 16488 0
-16433 16489 0
-16434 16490 0
-16435 16491 0
-16436 16492 0
-16437 16493 0
-16438 16494 0
-16439 16495 0
-16440 16496 0
-16441 16497 0
-16442 16498 0
-16443 16499 0
-16444 16500 0
-16445 16501 0
-16446 16502 0
-16447 16503 0
-16448 16504 0
-16449 16505 0
-16450 16506 0
-16451 16507 0
-16452 16508 0
-16453 16509 0
-16454 16510 0
-16455 16511 0
-16456 16512 0
-16457 16513 0
-16458 16514 0
-16459 16515 0
-16460 16516 0
-16461 16517 0
-16462 16518 0
-16463 16519 0
-16464 16520 0
-16465 16521 0
-16466 16522 0
-16467 16523 0
-16468 16524 0
-16469 16525 0
-16470 16526 0
-16471 16527 0
-16472 16528 0
-1366 -16417 16474 0
-1366 -16418 16475 0
-1366 -16419 16476 0
-1366 -16420 16477 0
-1366 -16421 16478 0
-1366 -16422 16479 0
-1366 -16423 16480 0
-1366 -16424 16481 0
-1366 -16425 16482 0
-1366 -16426 16483 0
-1366 -16427 16484 0
-1366 -16428 16485 0
-1366 -16429 16486 0
-1366 -16430 16487 0
-1366 -16431 16488 0
-1366 -16432 16489 0
-1366 -16433 16490 0
-1366 -16434 16491 0
-1366 -16435 16492 0
-1366 -16436 16493 0
-1366 -16437 16494 0
-1366 -16438 16495 0
-1366 -16439 16496 0
-1366 -16440 16497 0
-1366 -16441 16498 0
-1366 -16442 16499 0
-1366 -16443 16500 0
-1366 -16444 16501 0
-1366 -16445 16502 0
-1366 -16446 16503 0
-1366 -16447 16504 0
-1366 -16448 16505 0
-1366 -16449 16506 0
-1366 -16450 16507 0
-1366 -16451 16508 0
-1366 -16452 16509 0
-1366 -16453 16510 0
-1366 -16454 16511 0
-1366 -16455 16512 0
-1366 -16456 16513 0
-1366 -16457 16514 0
-1366 -16458 16515 0
-1366 -16459 16516 0
-1366 -16460 16517 0
-1366 -16461 16518 0
-1366 -16462 16519 0
-1366 -16463 16520 0
-1366 -16464 16521 0
-1366 -16465 16522 0
-1366 -16466 16523 0
-1366 -16467 16524 0
-1366 -16468 16525 0
-1366 -16469 16526 0
-1366 -16470 16527 0
-1366 -16471 16528 0
-1366 -16472 0
-16473 16529 0
-16474 16530 0
-16475 16531 0
-16476 16532 0
-16477 16533 0
-16478 16534 0
-16479 16535 0
-16480 16536 0
-16481 16537 0
-16482 16538 0
-16483 16539 0
-16484 16540 0
-16485 16541 0
-16486 16542 0
-16487 16543 0
-16488 16544 0
-16489 16545 0
-16490 16546 0
-16491 16547 0
-16492 16548 0
-16493 16549 0
-16494 16550 0
-16495 16551 0
-16496 16552 0
-16497 16553 0
-16498 16554 0
-16499 16555 0
-16500 16556 0
-16501 16557 0
-16502 16558 0
-16503 16559 0
-16504 16560 0
-16505 16561 0
-16506 16562 0
-16507 16563 0
-16508 16564 0
-16509 16565 0
-16510 16566 0
-16511 16567 0
-16512 16568 0
-16513 16569 0
-16514 16570 0
-16515 16571 0
-16516 16572 0
-16517 16573 0
-16518 16574 0
-16519 16575 0
-16520 16576 0
-16521 16577 0
-16522 16578 0
-16523 16579 0
-16524 16580 0
-16525 16581 0
-16526 16582 0
-16527 16583 0
-16528 16584 0
-1368 -16473 16530 0
-1368 -16474 16531 0
-1368 -16475 16532 0
-1368 -16476 16533 0
-1368 -16477 16534 0
-1368 -16478 16535 0
-1368 -16479 16536 0
-1368 -16480 16537 0
-1368 -16481 16538 0
-1368 -16482 16539 0
-1368 -16483 16540 0
-1368 -16484 16541 0
-1368 -16485 16542 0
-1368 -16486 16543 0
-1368 -16487 16544 0
-1368 -16488 16545 0
-1368 -16489 16546 0
-1368 -16490 16547 0
-1368 -16491 16548 0
-1368 -16492 16549 0
-1368 -16493 16550 0
-1368 -16494 16551 0
-1368 -16495 16552 0
-1368 -16496 16553 0
-1368 -16497 16554 0
-1368 -16498 16555 0
-1368 -16499 16556 0
-1368 -16500 16557 0
-1368 -16501 16558 0
-1368 -16502 16559 0
-1368 -16503 16560 0
-1368 -16504 16561 0
-1368 -16505 16562 0
-1368 -16506 16563 0
-1368 -16507 16564 0
-1368 -16508 16565 0
-1368 -16509 16566 0
-1368 -16510 16567 0
-1368 -16511 16568 0
-1368 -16512 16569 0
-1368 -16513 16570 0
-1368 -16514 16571 0
-1368 -16515 16572 0
-1368 -16516 16573 0
-1368 -16517 16574 0
-1368 -16518 16575 0
-1368 -16519 16576 0
-1368 -16520 16577 0
-1368 -16521 16578 0
-1368 -16522 16579 0
-1368 -16523 16580 0
-1368 -16524 16581 0
-1368 -16525 16582 0
-1368 -16526 16583 0
-1368 -16527 16584 0
-1368 -16528 0
-16529 16585 0
-16530 16586 0
-16531 16587 0
-16532 16588 0
-16533 16589 0
-16534 16590 0
-16535 16591 0
-16536 16592 0
-16537 16593 0
-16538 16594 0
-16539 16595 0
-16540 16596 0
-16541 16597 0
-16542 16598 0
-16543 16599 0
-16544 16600 0
-16545 16601 0
-16546 16602 0
-16547 16603 0
-16548 16604 0
-16549 16605 0
-16550 16606 0
-16551 16607 0
-16552 16608 0
-16553 16609 0
-16554 16610 0
-16555 16611 0
-16556 16612 0
-16557 16613 0
-16558 16614 0
-16559 16615 0
-16560 16616 0
-16561 16617 0
-16562 16618 0
-16563 16619 0
-16564 16620 0
-16565 16621 0
-16566 16622 0
-16567 16623 0
-16568 16624 0
-16569 16625 0
-16570 16626 0
-16571 16627 0
-16572 16628 0
-16573 16629 0
-16574 16630 0
-16575 16631 0
-16576 16632 0
-16577 16633 0
-16578 16634 0
-16579 16635 0
-16580 16636 0
-16581 16637 0
-16582 16638 0
-16583 16639 0
-16584 16640 0
-1370 -16529 16586 0
-1370 -16530 16587 0
-1370 -16531 16588 0
-1370 -16532 16589 0
-1370 -16533 16590 0
-1370 -16534 16591 0
-1370 -16535 16592 0
-1370 -16536 16593 0
-1370 -16537 16594 0
-1370 -16538 16595 0
-1370 -16539 16596 0
-1370 -16540 16597 0
-1370 -16541 16598 0
-1370 -16542 16599 0
-1370 -16543 16600 0
-1370 -16544 16601 0
-1370 -16545 16602 0
-1370 -16546 16603 0
-1370 -16547 16604 0
-1370 -16548 16605 0
-1370 -16549 16606 0
-1370 -16550 16607 0
-1370 -16551 16608 0
-1370 -16552 16609 0
-1370 -16553 16610 0
-1370 -16554 16611 0
-1370 -16555 16612 0
-1370 -16556 16613 0
-1370 -16557 16614 0
-1370 -16558 16615 0
-1370 -16559 16616 0
-1370 -16560 16617 0
-1370 -16561 16618 0
-1370 -16562 16619 0
-1370 -16563 16620 0
-1370 -16564 16621 0
-1370 -16565 16622 0
-1370 -16566 16623 0
-1370 -16567 16624 0
-1370 -16568 16625 0
-1370 -16569 16626 0
-1370 -16570 16627 0
-1370 -16571 16628 0
-1370 -16572 16629 0
-1370 -16573 16630 0
-1370 -16574 16631 0
-1370 -16575 16632 0
-1370 -16576 16633 0
-1370 -16577 16634 0
-1370 -16578 16635 0
-1370 -16579 16636 0
-1370 -16580 16637 0
-1370 -16581 16638 0
-1370 -16582 16639 0
-1370 -16583 16640 0
-1370 -16584 0
-16585 16641 0
-16586 16642 0
-16587 16643 0
-16588 16644 0
-16589 16645 0
-16590 16646 0
-16591 16647 0
-16592 16648 0
-16593 16649 0
-16594 16650 0
-16595 16651 0
-16596 16652 0
-16597 16653 0
-16598 16654 0
-16599 16655 0
-16600 16656 0
-16601 16657 0
-16602 16658 0
-16603 16659 0
-16604 16660 0
-16605 16661 0
-16606 16662 0
-16607 16663 0
-16608 16664 0
-16609 16665 0
-16610 16666 0
-16611 16667 0
-16612 16668 0
-16613 16669 0
-16614 16670 0
-16615 16671 0
-16616 16672 0
-16617 16673 0
-16618 16674 0
-16619 16675 0
-16620 16676 0
-16621 16677 0
-16622 16678 0
-16623 16679 0
-16624 16680 0
-16625 16681 0
-16626 16682 0
-16627 16683 0
-16628 16684 0
-16629 16685 0
-16630 16686 0
-16631 16687 0
-16632 16688 0
-16633 16689 0
-16634 16690 0
-16635 16691 0
-16636 16692 0
-16637 16693 0
-16638 16694 0
-16639 16695 0
-16640 16696 0
-1372 -16585 16642 0
-1372 -16586 16643 0
-1372 -16587 16644 0
-1372 -16588 16645 0
-1372 -16589 16646 0
-1372 -16590 16647 0
-1372 -16591 16648 0
-1372 -16592 16649 0
-1372 -16593 16650 0
-1372 -16594 16651 0
-1372 -16595 16652 0
-1372 -16596 16653 0
-1372 -16597 16654 0
-1372 -16598 16655 0
-1372 -16599 16656 0
-1372 -16600 16657 0
-1372 -16601 16658 0
-1372 -16602 16659 0
-1372 -16603 16660 0
-1372 -16604 16661 0
-1372 -16605 16662 0
-1372 -16606 16663 0
-1372 -16607 16664 0
-1372 -16608 16665 0
-1372 -16609 16666 0
-1372 -16610 16667 0
-1372 -16611 16668 0
-1372 -16612 16669 0
-1372 -16613 16670 0
-1372 -16614 16671 0
-1372 -16615 16672 0
-1372 -16616 16673 0
-1372 -16617 16674 0
-1372 -16618 16675 0
-1372 -16619 16676 0
-1372 -16620 16677 0
-1372 -16621 16678 0
-1372 -16622 16679 0
-1372 -16623 16680 0
-1372 -16624 16681 0
-1372 -16625 16682 0
-1372 -16626 16683 0
-1372 -16627 16684 0
-1372 -16628 16685 0
-1372 -16629 16686 0
-1372 -16630 16687 0
-1372 -16631 16688 0
-1372 -16632 16689 0
-1372 -16633 16690 0
-1372 -16634 16691 0
-1372 -16635 16692 0
-1372 -16636 16693 0
-1372 -16637 16694 0
-1372 -16638 16695 0
-1372 -16639 16696 0
-1372 -16640 0
-16641 16697 0
-16642 16698 0
-16643 16699 0
-16644 16700 0
-16645 16701 0
-16646 16702 0
-16647 16703 0
-16648 16704 0
-16649 16705 0
-16650 16706 0
-16651 16707 0
-16652 16708 0
-16653 16709 0
-16654 16710 0
-16655 16711 0
-16656 16712 0
-16657 16713 0
-16658 16714 0
-16659 16715 0
-16660 16716 0
-16661 16717 0
-16662 16718 0
-16663 16719 0
-16664 16720 0
-16665 16721 0
-16666 16722 0
-16667 16723 0
-16668 16724 0
-16669 16725 0
-16670 16726 0
-16671 16727 0
-16672 16728 0
-16673 16729 0
-16674 16730 0
-16675 16731 0
-16676 16732 0
-16677 16733 0
-16678 16734 0
-16679 16735 0
-16680 16736 0
-16681 16737 0
-16682 16738 0
-16683 16739 0
-16684 16740 0
-16685 16741 0
-16686 16742 0
-16687 16743 0
-16688 16744 0
-16689 16745 0
-16690 16746 0
-16691 16747 0
-16692 16748 0
-16693 16749 0
-16694 16750 0
-16695 16751 0
-16696 16752 0
-1374 -16641 16698 0
-1374 -16642 16699 0
-1374 -16643 16700 0
-1374 -16644 16701 0
-1374 -16645 16702 0
-1374 -16646 16703 0
-1374 -16647 16704 0
-1374 -16648 16705 0
-1374 -16649 16706 0
-1374 -16650 16707 0
-1374 -16651 16708 0
-1374 -16652 16709 0
-1374 -16653 16710 0
-1374 -16654 16711 0
-1374 -16655 16712 0
-1374 -16656 16713 0
-1374 -16657 16714 0
-1374 -16658 16715 0
-1374 -16659 16716 0
-1374 -16660 16717 0
-1374 -16661 16718 0
-1374 -16662 16719 0
-1374 -16663 16720 0
-1374 -16664 16721 0
-1374 -16665 16722 0
-1374 -16666 16723 0
-1374 -16667 16724 0
-1374 -16668 16725 0
-1374 -16669 16726 0
-1374 -16670 16727 0
-1374 -16671 16728 0
-1374 -16672 16729 0
-1374 -16673 16730 0
-1374 -16674 16731 0
-1374 -16675 16732 0
-1374 -16676 16733 0
-1374 -16677 16734 0
-1374 -16678 16735 0
-1374 -16679 16736 0
-1374 -16680 16737 0
-1374 -16681 16738 0
-1374 -16682 16739 0
-1374 -16683 16740 0
-1374 -16684 16741 0
-1374 -16685 16742 0
-1374 -16686 16743 0
-1374 -16687 16744 0
-1374 -16688 16745 0
-1374 -16689 16746 0
-1374 -16690 16747 0
-1374 -16691 16748 0
-1374 -16692 16749 0
-1374 -16693 16750 0
-1374 -16694 16751 0
-1374 -16695 16752 0
-1374 -16696 0
-16697 16753 0
-16698 16754 0
-16699 16755 0
-16700 16756 0
-16701 16757 0
-16702 16758 0
-16703 16759 0
-16704 16760 0
-16705 16761 0
-16706 16762 0
-16707 16763 0
-16708 16764 0
-16709 16765 0
-16710 16766 0
-16711 16767 0
-16712 16768 0
-16713 16769 0
-16714 16770 0
-16715 16771 0
-16716 16772 0
-16717 16773 0
-16718 16774 0
-16719 16775 0
-16720 16776 0
-16721 16777 0
-16722 16778 0
-16723 16779 0
-16724 16780 0
-16725 16781 0
-16726 16782 0
-16727 16783 0
-16728 16784 0
-16729 16785 0
-16730 16786 0
-16731 16787 0
-16732 16788 0
-16733 16789 0
-16734 16790 0
-16735 16791 0
-16736 16792 0
-16737 16793 0
-16738 16794 0
-16739 16795 0
-16740 16796 0
-16741 16797 0
-16742 16798 0
-16743 16799 0
-16744 16800 0
-16745 16801 0
-16746 16802 0
-16747 16803 0
-16748 16804 0
-16749 16805 0
-16750 16806 0
-16751 16807 0
-16752 16808 0
-1376 -16697 16754 0
-1376 -16698 16755 0
-1376 -16699 16756 0
-1376 -16700 16757 0
-1376 -16701 16758 0
-1376 -16702 16759 0
-1376 -16703 16760 0
-1376 -16704 16761 0
-1376 -16705 16762 0
-1376 -16706 16763 0
-1376 -16707 16764 0
-1376 -16708 16765 0
-1376 -16709 16766 0
-1376 -16710 16767 0
-1376 -16711 16768 0
-1376 -16712 16769 0
-1376 -16713 16770 0
-1376 -16714 16771 0
-1376 -16715 16772 0
-1376 -16716 16773 0
-1376 -16717 16774 0
-1376 -16718 16775 0
-1376 -16719 16776 0
-1376 -16720 16777 0
-1376 -16721 16778 0
-1376 -16722 16779 0
-1376 -16723 16780 0
-1376 -16724 16781 0
-1376 -16725 16782 0
-1376 -16726 16783 0
-1376 -16727 16784 0
-1376 -16728 16785 0
-1376 -16729 16786 0
-1376 -16730 16787 0
-1376 -16731 16788 0
-1376 -16732 16789 0
-1376 -16733 16790 0
-1376 -16734 16791 0
-1376 -16735 16792 0
-1376 -16736 16793 0
-1376 -16737 16794 0
-1376 -16738 16795 0
-1376 -16739 16796 0
-1376 -16740 16797 0
-1376 -16741 16798 0
-1376 -16742 16799 0
-1376 -16743 16800 0
-1376 -16744 16801 0
-1376 -16745 16802 0
-1376 -16746 16803 0
-1376 -16747 16804 0
-1376 -16748 16805 0
-1376 -16749 16806 0
-1376 -16750 16807 0
-1376 -16751 16808 0
-1376 -16752 0
-16753 16809 0
-16754 16810 0
-16755 16811 0
-16756 16812 0
-16757 16813 0
-16758 16814 0
-16759 16815 0
-16760 16816 0
-16761 16817 0
-16762 16818 0
-16763 16819 0
-16764 16820 0
-16765 16821 0
-16766 16822 0
-16767 16823 0
-16768 16824 0
-16769 16825 0
-16770 16826 0
-16771 16827 0
-16772 16828 0
-16773 16829 0
-16774 16830 0
-16775 16831 0
-16776 16832 0
-16777 16833 0
-16778 16834 0
-16779 16835 0
-16780 16836 0
-16781 16837 0
-16782 16838 0
-16783 16839 0
-16784 16840 0
-16785 16841 0
-16786 16842 0
-16787 16843 0
-16788 16844 0
-16789 16845 0
-16790 16846 0
-16791 16847 0
-16792 16848 0
-16793 16849 0
-16794 16850 0
-16795 16851 0
-16796 16852 0
-16797 16853 0
-16798 16854 0
-16799 16855 0
-16800 16856 0
-16801 16857 0
-16802 16858 0
-16803 16859 0
-16804 16860 0
-16805 16861 0
-16806 16862 0
-16807 16863 0
-16808 16864 0
-1378 -16753 16810 0
-1378 -16754 16811 0
-1378 -16755 16812 0
-1378 -16756 16813 0
-1378 -16757 16814 0
-1378 -16758 16815 0
-1378 -16759 16816 0
-1378 -16760 16817 0
-1378 -16761 16818 0
-1378 -16762 16819 0
-1378 -16763 16820 0
-1378 -16764 16821 0
-1378 -16765 16822 0
-1378 -16766 16823 0
-1378 -16767 16824 0
-1378 -16768 16825 0
-1378 -16769 16826 0
-1378 -16770 16827 0
-1378 -16771 16828 0
-1378 -16772 16829 0
-1378 -16773 16830 0
-1378 -16774 16831 0
-1378 -16775 16832 0
-1378 -16776 16833 0
-1378 -16777 16834 0
-1378 -16778 16835 0
-1378 -16779 16836 0
-1378 -16780 16837 0
-1378 -16781 16838 0
-1378 -16782 16839 0
-1378 -16783 16840 0
-1378 -16784 16841 0
-1378 -16785 16842 0
-1378 -16786 16843 0
-1378 -16787 16844 0
-1378 -16788 16845 0
-1378 -16789 16846 0
-1378 -16790 16847 0
-1378 -16791 16848 0
-1378 -16792 16849 0
-1378 -16793 16850 0
-1378 -16794 16851 0
-1378 -16795 16852 0
-1378 -16796 16853 0
-1378 -16797 16854 0
-1378 -16798 16855 0
-1378 -16799 16856 0
-1378 -16800 16857 0
-1378 -16801 16858 0
-1378 -16802 16859 0
-1378 -16803 16860 0
-1378 -16804 16861 0
-1378 -16805 16862 0
-1378 -16806 16863 0
-1378 -16807 16864 0
-1378 -16808 0
-16809 16865 0
-16810 16866 0
-16811 16867 0
-16812 16868 0
-16813 16869 0
-16814 16870 0
-16815 16871 0
-16816 16872 0
-16817 16873 0
-16818 16874 0
-16819 16875 0
-16820 16876 0
-16821 16877 0
-16822 16878 0
-16823 16879 0
-16824 16880 0
-16825 16881 0
-16826 16882 0
-16827 16883 0
-16828 16884 0
-16829 16885 0
-16830 16886 0
-16831 16887 0
-16832 16888 0
-16833 16889 0
-16834 16890 0
-16835 16891 0
-16836 16892 0
-16837 16893 0
-16838 16894 0
-16839 16895 0
-16840 16896 0
-16841 16897 0
-16842 16898 0
-16843 16899 0
-16844 16900 0
-16845 16901 0
-16846 16902 0
-16847 16903 0
-16848 16904 0
-16849 16905 0
-16850 16906 0
-16851 16907 0
-16852 16908 0
-16853 16909 0
-16854 16910 0
-16855 16911 0
-16856 16912 0
-16857 16913 0
-16858 16914 0
-16859 16915 0
-16860 16916 0
-16861 16917 0
-16862 16918 0
-16863 16919 0
-16864 16920 0
-1380 -16809 16866 0
-1380 -16810 16867 0
-1380 -16811 16868 0
-1380 -16812 16869 0
-1380 -16813 16870 0
-1380 -16814 16871 0
-1380 -16815 16872 0
-1380 -16816 16873 0
-1380 -16817 16874 0
-1380 -16818 16875 0
-1380 -16819 16876 0
-1380 -16820 16877 0
-1380 -16821 16878 0
-1380 -16822 16879 0
-1380 -16823 16880 0
-1380 -16824 16881 0
-1380 -16825 16882 0
-1380 -16826 16883 0
-1380 -16827 16884 0
-1380 -16828 16885 0
-1380 -16829 16886 0
-1380 -16830 16887 0
-1380 -16831 16888 0
-1380 -16832 16889 0
-1380 -16833 16890 0
-1380 -16834 16891 0
-1380 -16835 16892 0
-1380 -16836 16893 0
-1380 -16837 16894 0
-1380 -16838 16895 0
-1380 -16839 16896 0
-1380 -16840 16897 0
-1380 -16841 16898 0
-1380 -16842 16899 0
-1380 -16843 16900 0
-1380 -16844 16901 0
-1380 -16845 16902 0
-1380 -16846 16903 0
-1380 -16847 16904 0
-1380 -16848 16905 0
-1380 -16849 16906 0
-1380 -16850 16907 0
-1380 -16851 16908 0
-1380 -16852 16909 0
-1380 -16853 16910 0
-1380 -16854 16911 0
-1380 -16855 16912 0
-1380 -16856 16913 0
-1380 -16857 16914 0
-1380 -16858 16915 0
-1380 -16859 16916 0
-1380 -16860 16917 0
-1380 -16861 16918 0
-1380 -16862 16919 0
-1380 -16863 16920 0
-1380 -16864 0
-16865 16921 0
-16866 16922 0
-16867 16923 0
-16868 16924 0
-16869 16925 0
-16870 16926 0
-16871 16927 0
-16872 16928 0
-16873 16929 0
-16874 16930 0
-16875 16931 0
-16876 16932 0
-16877 16933 0
-16878 16934 0
-16879 16935 0
-16880 16936 0
-16881 16937 0
-16882 16938 0
-16883 16939 0
-16884 16940 0
-16885 16941 0
-16886 16942 0
-16887 16943 0
-16888 16944 0
-16889 16945 0
-16890 16946 0
-16891 16947 0
-16892 16948 0
-16893 16949 0
-16894 16950 0
-16895 16951 0
-16896 16952 0
-16897 16953 0
-16898 16954 0
-16899 16955 0
-16900 16956 0
-16901 16957 0
-16902 16958 0
-16903 16959 0
-16904 16960 0
-16905 16961 0
-16906 16962 0
-16907 16963 0
-16908 16964 0
-16909 16965 0
-16910 16966 0
-16911 16967 0
-16912 16968 0
-16913 16969 0
-16914 16970 0
-16915 16971 0
-16916 16972 0
-16917 16973 0
-16918 16974 0
-16919 16975 0
-16920 16976 0
-1382 -16865 16922 0
-1382 -16866 16923 0
-1382 -16867 16924 0
-1382 -16868 16925 0
-1382 -16869 16926 0
-1382 -16870 16927 0
-1382 -16871 16928 0
-1382 -16872 16929 0
-1382 -16873 16930 0
-1382 -16874 16931 0
-1382 -16875 16932 0
-1382 -16876 16933 0
-1382 -16877 16934 0
-1382 -16878 16935 0
-1382 -16879 16936 0
-1382 -16880 16937 0
-1382 -16881 16938 0
-1382 -16882 16939 0
-1382 -16883 16940 0
-1382 -16884 16941 0
-1382 -16885 16942 0
-1382 -16886 16943 0
-1382 -16887 16944 0
-1382 -16888 16945 0
-1382 -16889 16946 0
-1382 -16890 16947 0
-1382 -16891 16948 0
-1382 -16892 16949 0
-1382 -16893 16950 0
-1382 -16894 16951 0
-1382 -16895 16952 0
-1382 -16896 16953 0
-1382 -16897 16954 0
-1382 -16898 16955 0
-1382 -16899 16956 0
-1382 -16900 16957 0
-1382 -16901 16958 0
-1382 -16902 16959 0
-1382 -16903 16960 0
-1382 -16904 16961 0
-1382 -16905 16962 0
-1382 -16906 16963 0
-1382 -16907 16964 0
-1382 -16908 16965 0
-1382 -16909 16966 0
-1382 -16910 16967 0
-1382 -16911 16968 0
-1382 -16912 16969 0
-1382 -16913 16970 0
-1382 -16914 16971 0
-1382 -16915 16972 0
-1382 -16916 16973 0
-1382 -16917 16974 0
-1382 -16918 16975 0
-1382 -16919 16976 0
-1382 -16920 0
-16921 16977 0
-16922 16978 0
-16923 16979 0
-16924 16980 0
-16925 16981 0
-16926 16982 0
-16927 16983 0
-16928 16984 0
-16929 16985 0
-16930 16986 0
-16931 16987 0
-16932 16988 0
-16933 16989 0
-16934 16990 0
-16935 16991 0
-16936 16992 0
-16937 16993 0
-16938 16994 0
-16939 16995 0
-16940 16996 0
-16941 16997 0
-16942 16998 0
-16943 16999 0
-16944 17000 0
-16945 17001 0
-16946 17002 0
-16947 17003 0
-16948 17004 0
-16949 17005 0
-16950 17006 0
-16951 17007 0
-16952 17008 0
-16953 17009 0
-16954 17010 0
-16955 17011 0
-16956 17012 0
-16957 17013 0
-16958 17014 0
-16959 17015 0
-16960 17016 0
-16961 17017 0
-16962 17018 0
-16963 17019 0
-16964 17020 0
-16965 17021 0
-16966 17022 0
-16967 17023 0
-16968 17024 0
-16969 17025 0
-16970 17026 0
-16971 17027 0
-16972 17028 0
-16973 17029 0
-16974 17030 0
-16975 17031 0
-16976 17032 0
-1384 -16921 16978 0
-1384 -16922 16979 0
-1384 -16923 16980 0
-1384 -16924 16981 0
-1384 -16925 16982 0
-1384 -16926 16983 0
-1384 -16927 16984 0
-1384 -16928 16985 0
-1384 -16929 16986 0
-1384 -16930 16987 0
-1384 -16931 16988 0
-1384 -16932 16989 0
-1384 -16933 16990 0
-1384 -16934 16991 0
-1384 -16935 16992 0
-1384 -16936 16993 0
-1384 -16937 16994 0
-1384 -16938 16995 0
-1384 -16939 16996 0
-1384 -16940 16997 0
-1384 -16941 16998 0
-1384 -16942 16999 0
-1384 -16943 17000 0
-1384 -16944 17001 0
-1384 -16945 17002 0
-1384 -16946 17003 0
-1384 -16947 17004 0
-1384 -16948 17005 0
-1384 -16949 17006 0
-1384 -16950 17007 0
-1384 -16951 17008 0
-1384 -16952 17009 0
-1384 -16953 17010 0
-1384 -16954 17011 0
-1384 -16955 17012 0
-1384 -16956 17013 0
-1384 -16957 17014 0
-1384 -16958 17015 0
-1384 -16959 17016 0
-1384 -16960 17017 0
-1384 -16961 17018 0
-1384 -16962 17019 0
-1384 -16963 17020 0
-1384 -16964 17021 0
-1384 -16965 17022 0
-1384 -16966 17023 0
-1384 -16967 17024 0
-1384 -16968 17025 0
-1384 -16969 17026 0
-1384 -16970 17027 0
-1384 -16971 17028 0
-1384 -16972 17029 0
-1384 -16973 17030 0
-1384 -16974 17031 0
-1384 -16975 17032 0
-1384 -16976 0
-16977 17033 0
-16978 17034 0
-16979 17035 0
-16980 17036 0
-16981 17037 0
-16982 17038 0
-16983 17039 0
-16984 17040 0
-16985 17041 0
-16986 17042 0
-16987 17043 0
-16988 17044 0
-16989 17045 0
-16990 17046 0
-16991 17047 0
-16992 17048 0
-16993 17049 0
-16994 17050 0
-16995 17051 0
-16996 17052 0
-16997 17053 0
-16998 17054 0
-16999 17055 0
-17000 17056 0
-17001 17057 0
-17002 17058 0
-17003 17059 0
-17004 17060 0
-17005 17061 0
-17006 17062 0
-17007 17063 0
-17008 17064 0
-17009 17065 0
-17010 17066 0
-17011 17067 0
-17012 17068 0
-17013 17069 0
-17014 17070 0
-17015 17071 0
-17016 17072 0
-17017 17073 0
-17018 17074 0
-17019 17075 0
-17020 17076 0
-17021 17077 0
-17022 17078 0
-17023 17079 0
-17024 17080 0
-17025 17081 0
-17026 17082 0
-17027 17083 0
-17028 17084 0
-17029 17085 0
-17030 17086 0
-17031 17087 0
-17032 17088 0
-1386 -16977 17034 0
-1386 -16978 17035 0
-1386 -16979 17036 0
-1386 -16980 17037 0
-1386 -16981 17038 0
-1386 -16982 17039 0
-1386 -16983 17040 0
-1386 -16984 17041 0
-1386 -16985 17042 0
-1386 -16986 17043 0
-1386 -16987 17044 0
-1386 -16988 17045 0
-1386 -16989 17046 0
-1386 -16990 17047 0
-1386 -16991 17048 0
-1386 -16992 17049 0
-1386 -16993 17050 0
-1386 -16994 17051 0
-1386 -16995 17052 0
-1386 -16996 17053 0
-1386 -16997 17054 0
-1386 -16998 17055 0
-1386 -16999 17056 0
-1386 -17000 17057 0
-1386 -17001 17058 0
-1386 -17002 17059 0
-1386 -17003 17060 0
-1386 -17004 17061 0
-1386 -17005 17062 0
-1386 -17006 17063 0
-1386 -17007 17064 0
-1386 -17008 17065 0
-1386 -17009 17066 0
-1386 -17010 17067 0
-1386 -17011 17068 0
-1386 -17012 17069 0
-1386 -17013 17070 0
-1386 -17014 17071 0
-1386 -17015 17072 0
-1386 -17016 17073 0
-1386 -17017 17074 0
-1386 -17018 17075 0
-1386 -17019 17076 0
-1386 -17020 17077 0
-1386 -17021 17078 0
-1386 -17022 17079 0
-1386 -17023 17080 0
-1386 -17024 17081 0
-1386 -17025 17082 0
-1386 -17026 17083 0
-1386 -17027 17084 0
-1386 -17028 17085 0
-1386 -17029 17086 0
-1386 -17030 17087 0
-1386 -17031 17088 0
-1386 -17032 0
-17033 17089 0
-17034 17090 0
-17035 17091 0
-17036 17092 0
-17037 17093 0
-17038 17094 0
-17039 17095 0
-17040 17096 0
-17041 17097 0
-17042 17098 0
-17043 17099 0
-17044 17100 0
-17045 17101 0
-17046 17102 0
-17047 17103 0
-17048 17104 0
-17049 17105 0
-17050 17106 0
-17051 17107 0
-17052 17108 0
-17053 17109 0
-17054 17110 0
-17055 17111 0
-17056 17112 0
-17057 17113 0
-17058 17114 0
-17059 17115 0
-17060 17116 0
-17061 17117 0
-17062 17118 0
-17063 17119 0
-17064 17120 0
-17065 17121 0
-17066 17122 0
-17067 17123 0
-17068 17124 0
-17069 17125 0
-17070 17126 0
-17071 17127 0
-17072 17128 0
-17073 17129 0
-17074 17130 0
-17075 17131 0
-17076 17132 0
-17077 17133 0
-17078 17134 0
-17079 17135 0
-17080 17136 0
-17081 17137 0
-17082 17138 0
-17083 17139 0
-17084 17140 0
-17085 17141 0
-17086 17142 0
-17087 17143 0
-17088 17144 0
-1388 -17033 17090 0
-1388 -17034 17091 0
-1388 -17035 17092 0
-1388 -17036 17093 0
-1388 -17037 17094 0
-1388 -17038 17095 0
-1388 -17039 17096 0
-1388 -17040 17097 0
-1388 -17041 17098 0
-1388 -17042 17099 0
-1388 -17043 17100 0
-1388 -17044 17101 0
-1388 -17045 17102 0
-1388 -17046 17103 0
-1388 -17047 17104 0
-1388 -17048 17105 0
-1388 -17049 17106 0
-1388 -17050 17107 0
-1388 -17051 17108 0
-1388 -17052 17109 0
-1388 -17053 17110 0
-1388 -17054 17111 0
-1388 -17055 17112 0
-1388 -17056 17113 0
-1388 -17057 17114 0
-1388 -17058 17115 0
-1388 -17059 17116 0
-1388 -17060 17117 0
-1388 -17061 17118 0
-1388 -17062 17119 0
-1388 -17063 17120 0
-1388 -17064 17121 0
-1388 -17065 17122 0
-1388 -17066 17123 0
-1388 -17067 17124 0
-1388 -17068 17125 0
-1388 -17069 17126 0
-1388 -17070 17127 0
-1388 -17071 17128 0
-1388 -17072 17129 0
-1388 -17073 17130 0
-1388 -17074 17131 0
-1388 -17075 17132 0
-1388 -17076 17133 0
-1388 -17077 17134 0
-1388 -17078 17135 0
-1388 -17079 17136 0
-1388 -17080 17137 0
-1388 -17081 17138 0
-1388 -17082 17139 0
-1388 -17083 17140 0
-1388 -17084 17141 0
-1388 -17085 17142 0
-1388 -17086 17143 0
-1388 -17087 17144 0
-1388 -17088 0
-17089 17145 0
-17090 17146 0
-17091 17147 0
-17092 17148 0
-17093 17149 0
-17094 17150 0
-17095 17151 0
-17096 17152 0
-17097 17153 0
-17098 17154 0
-17099 17155 0
-17100 17156 0
-17101 17157 0
-17102 17158 0
-17103 17159 0
-17104 17160 0
-17105 17161 0
-17106 17162 0
-17107 17163 0
-17108 17164 0
-17109 17165 0
-17110 17166 0
-17111 17167 0
-17112 17168 0
-17113 17169 0
-17114 17170 0
-17115 17171 0
-17116 17172 0
-17117 17173 0
-17118 17174 0
-17119 17175 0
-17120 17176 0
-17121 17177 0
-17122 17178 0
-17123 17179 0
-17124 17180 0
-17125 17181 0
-17126 17182 0
-17127 17183 0
-17128 17184 0
-17129 17185 0
-17130 17186 0
-17131 17187 0
-17132 17188 0
-17133 17189 0
-17134 17190 0
-17135 17191 0
-17136 17192 0
-17137 17193 0
-17138 17194 0
-17139 17195 0
-17140 17196 0
-17141 17197 0
-17142 17198 0
-17143 17199 0
-17144 17200 0
-1390 -17089 17146 0
-1390 -17090 17147 0
-1390 -17091 17148 0
-1390 -17092 17149 0
-1390 -17093 17150 0
-1390 -17094 17151 0
-1390 -17095 17152 0
-1390 -17096 17153 0
-1390 -17097 17154 0
-1390 -17098 17155 0
-1390 -17099 17156 0
-1390 -17100 17157 0
-1390 -17101 17158 0
-1390 -17102 17159 0
-1390 -17103 17160 0
-1390 -17104 17161 0
-1390 -17105 17162 0
-1390 -17106 17163 0
-1390 -17107 17164 0
-1390 -17108 17165 0
-1390 -17109 17166 0
-1390 -17110 17167 0
-1390 -17111 17168 0
-1390 -17112 17169 0
-1390 -17113 17170 0
-1390 -17114 17171 0
-1390 -17115 17172 0
-1390 -17116 17173 0
-1390 -17117 17174 0
-1390 -17118 17175 0
-1390 -17119 17176 0
-1390 -17120 17177 0
-1390 -17121 17178 0
-1390 -17122 17179 0
-1390 -17123 17180 0
-1390 -17124 17181 0
-1390 -17125 17182 0
-1390 -17126 17183 0
-1390 -17127 17184 0
-1390 -17128 17185 0
-1390 -17129 17186 0
-1390 -17130 17187 0
-1390 -17131 17188 0
-1390 -17132 17189 0
-1390 -17133 17190 0
-1390 -17134 17191 0
-1390 -17135 17192 0
-1390 -17136 17193 0
-1390 -17137 17194 0
-1390 -17138 17195 0
-1390 -17139 17196 0
-1390 -17140 17197 0
-1390 -17141 17198 0
-1390 -17142 17199 0
-1390 -17143 17200 0
-1390 -17144 0
-17145 17201 0
-17146 17202 0
-17147 17203 0
-17148 17204 0
-17149 17205 0
-17150 17206 0
-17151 17207 0
-17152 17208 0
-17153 17209 0
-17154 17210 0
-17155 17211 0
-17156 17212 0
-17157 17213 0
-17158 17214 0
-17159 17215 0
-17160 17216 0
-17161 17217 0
-17162 17218 0
-17163 17219 0
-17164 17220 0
-17165 17221 0
-17166 17222 0
-17167 17223 0
-17168 17224 0
-17169 17225 0
-17170 17226 0
-17171 17227 0
-17172 17228 0
-17173 17229 0
-17174 17230 0
-17175 17231 0
-17176 17232 0
-17177 17233 0
-17178 17234 0
-17179 17235 0
-17180 17236 0
-17181 17237 0
-17182 17238 0
-17183 17239 0
-17184 17240 0
-17185 17241 0
-17186 17242 0
-17187 17243 0
-17188 17244 0
-17189 17245 0
-17190 17246 0
-17191 17247 0
-17192 17248 0
-17193 17249 0
-17194 17250 0
-17195 17251 0
-17196 17252 0
-17197 17253 0
-17198 17254 0
-17199 17255 0
-17200 17256 0
-1392 -17145 17202 0
-1392 -17146 17203 0
-1392 -17147 17204 0
-1392 -17148 17205 0
-1392 -17149 17206 0
-1392 -17150 17207 0
-1392 -17151 17208 0
-1392 -17152 17209 0
-1392 -17153 17210 0
-1392 -17154 17211 0
-1392 -17155 17212 0
-1392 -17156 17213 0
-1392 -17157 17214 0
-1392 -17158 17215 0
-1392 -17159 17216 0
-1392 -17160 17217 0
-1392 -17161 17218 0
-1392 -17162 17219 0
-1392 -17163 17220 0
-1392 -17164 17221 0
-1392 -17165 17222 0
-1392 -17166 17223 0
-1392 -17167 17224 0
-1392 -17168 17225 0
-1392 -17169 17226 0
-1392 -17170 17227 0
-1392 -17171 17228 0
-1392 -17172 17229 0
-1392 -17173 17230 0
-1392 -17174 17231 0
-1392 -17175 17232 0
-1392 -17176 17233 0
-1392 -17177 17234 0
-1392 -17178 17235 0
-1392 -17179 17236 0
-1392 -17180 17237 0
-1392 -17181 17238 0
-1392 -17182 17239 0
-1392 -17183 17240 0
-1392 -17184 17241 0
-1392 -17185 17242 0
-1392 -17186 17243 0
-1392 -17187 17244 0
-1392 -17188 17245 0
-1392 -17189 17246 0
-1392 -17190 17247 0
-1392 -17191 17248 0
-1392 -17192 17249 0
-1392 -17193 17250 0
-1392 -17194 17251 0
-1392 -17195 17252 0
-1392 -17196 17253 0
-1392 -17197 17254 0
-1392 -17198 17255 0
-1392 -17199 17256 0
-1392 -17200 0
-17201 17257 0
-17202 17258 0
-17203 17259 0
-17204 17260 0
-17205 17261 0
-17206 17262 0
-17207 17263 0
-17208 17264 0
-17209 17265 0
-17210 17266 0
-17211 17267 0
-17212 17268 0
-17213 17269 0
-17214 17270 0
-17215 17271 0
-17216 17272 0
-17217 17273 0
-17218 17274 0
-17219 17275 0
-17220 17276 0
-17221 17277 0
-17222 17278 0
-17223 17279 0
-17224 17280 0
-17225 17281 0
-17226 17282 0
-17227 17283 0
-17228 17284 0
-17229 17285 0
-17230 17286 0
-17231 17287 0
-17232 17288 0
-17233 17289 0
-17234 17290 0
-17235 17291 0
-17236 17292 0
-17237 17293 0
-17238 17294 0
-17239 17295 0
-17240 17296 0
-17241 17297 0
-17242 17298 0
-17243 17299 0
-17244 17300 0
-17245 17301 0
-17246 17302 0
-17247 17303 0
-17248 17304 0
-17249 17305 0
-17250 17306 0
-17251 17307 0
-17252 17308 0
-17253 17309 0
-17254 17310 0
-17255 17311 0
-17256 17312 0
-1394 -17201 17258 0
-1394 -17202 17259 0
-1394 -17203 17260 0
-1394 -17204 17261 0
-1394 -17205 17262 0
-1394 -17206 17263 0
-1394 -17207 17264 0
-1394 -17208 17265 0
-1394 -17209 17266 0
-1394 -17210 17267 0
-1394 -17211 17268 0
-1394 -17212 17269 0
-1394 -17213 17270 0
-1394 -17214 17271 0
-1394 -17215 17272 0
-1394 -17216 17273 0
-1394 -17217 17274 0
-1394 -17218 17275 0
-1394 -17219 17276 0
-1394 -17220 17277 0
-1394 -17221 17278 0
-1394 -17222 17279 0
-1394 -17223 17280 0
-1394 -17224 17281 0
-1394 -17225 17282 0
-1394 -17226 17283 0
-1394 -17227 17284 0
-1394 -17228 17285 0
-1394 -17229 17286 0
-1394 -17230 17287 0
-1394 -17231 17288 0
-1394 -17232 17289 0
-1394 -17233 17290 0
-1394 -17234 17291 0
-1394 -17235 17292 0
-1394 -17236 17293 0
-1394 -17237 17294 0
-1394 -17238 17295 0
-1394 -17239 17296 0
-1394 -17240 17297 0
-1394 -17241 17298 0
-1394 -17242 17299 0
-1394 -17243 17300 0
-1394 -17244 17301 0
-1394 -17245 17302 0
-1394 -17246 17303 0
-1394 -17247 17304 0
-1394 -17248 17305 0
-1394 -17249 17306 0
-1394 -17250 17307 0
-1394 -17251 17308 0
-1394 -17252 17309 0
-1394 -17253 17310 0
-1394 -17254 17311 0
-1394 -17255 17312 0
-1394 -17256 0
-17257 17313 0
-17258 17314 0
-17259 17315 0
-17260 17316 0
-17261 17317 0
-17262 17318 0
-17263 17319 0
-17264 17320 0
-17265 17321 0
-17266 17322 0
-17267 17323 0
-17268 17324 0
-17269 17325 0
-17270 17326 0
-17271 17327 0
-17272 17328 0
-17273 17329 0
-17274 17330 0
-17275 17331 0
-17276 17332 0
-17277 17333 0
-17278 17334 0
-17279 17335 0
-17280 17336 0
-17281 17337 0
-17282 17338 0
-17283 17339 0
-17284 17340 0
-17285 17341 0
-17286 17342 0
-17287 17343 0
-17288 17344 0
-17289 17345 0
-17290 17346 0
-17291 17347 0
-17292 17348 0
-17293 17349 0
-17294 17350 0
-17295 17351 0
-17296 17352 0
-17297 17353 0
-17298 17354 0
-17299 17355 0
-17300 17356 0
-17301 17357 0
-17302 17358 0
-17303 17359 0
-17304 17360 0
-17305 17361 0
-17306 17362 0
-17307 17363 0
-17308 17364 0
-17309 17365 0
-17310 17366 0
-17311 17367 0
-17312 17368 0
-1396 -17257 17314 0
-1396 -17258 17315 0
-1396 -17259 17316 0
-1396 -17260 17317 0
-1396 -17261 17318 0
-1396 -17262 17319 0
-1396 -17263 17320 0
-1396 -17264 17321 0
-1396 -17265 17322 0
-1396 -17266 17323 0
-1396 -17267 17324 0
-1396 -17268 17325 0
-1396 -17269 17326 0
-1396 -17270 17327 0
-1396 -17271 17328 0
-1396 -17272 17329 0
-1396 -17273 17330 0
-1396 -17274 17331 0
-1396 -17275 17332 0
-1396 -17276 17333 0
-1396 -17277 17334 0
-1396 -17278 17335 0
-1396 -17279 17336 0
-1396 -17280 17337 0
-1396 -17281 17338 0
-1396 -17282 17339 0
-1396 -17283 17340 0
-1396 -17284 17341 0
-1396 -17285 17342 0
-1396 -17286 17343 0
-1396 -17287 17344 0
-1396 -17288 17345 0
-1396 -17289 17346 0
-1396 -17290 17347 0
-1396 -17291 17348 0
-1396 -17292 17349 0
-1396 -17293 17350 0
-1396 -17294 17351 0
-1396 -17295 17352 0
-1396 -17296 17353 0
-1396 -17297 17354 0
-1396 -17298 17355 0
-1396 -17299 17356 0
-1396 -17300 17357 0
-1396 -17301 17358 0
-1396 -17302 17359 0
-1396 -17303 17360 0
-1396 -17304 17361 0
-1396 -17305 17362 0
-1396 -17306 17363 0
-1396 -17307 17364 0
-1396 -17308 17365 0
-1396 -17309 17366 0
-1396 -17310 17367 0
-1396 -17311 17368 0
-1396 -17312 0
-17313 17369 0
-17314 17370 0
-17315 17371 0
-17316 17372 0
-17317 17373 0
-17318 17374 0
-17319 17375 0
-17320 17376 0
-17321 17377 0
-17322 17378 0
-17323 17379 0
-17324 17380 0
-17325 17381 0
-17326 17382 0
-17327 17383 0
-17328 17384 0
-17329 17385 0
-17330 17386 0
-17331 17387 0
-17332 17388 0
-17333 17389 0
-17334 17390 0
-17335 17391 0
-17336 17392 0
-17337 17393 0
-17338 17394 0
-17339 17395 0
-17340 17396 0
-17341 17397 0
-17342 17398 0
-17343 17399 0
-17344 17400 0
-17345 17401 0
-17346 17402 0
-17347 17403 0
-17348 17404 0
-17349 17405 0
-17350 17406 0
-17351 17407 0
-17352 17408 0
-17353 17409 0
-17354 17410 0
-17355 17411 0
-17356 17412 0
-17357 17413 0
-17358 17414 0
-17359 17415 0
-17360 17416 0
-17361 17417 0
-17362 17418 0
-17363 17419 0
-17364 17420 0
-17365 17421 0
-17366 17422 0
-17367 17423 0
-17368 17424 0
-1398 -17313 17370 0
-1398 -17314 17371 0
-1398 -17315 17372 0
-1398 -17316 17373 0
-1398 -17317 17374 0
-1398 -17318 17375 0
-1398 -17319 17376 0
-1398 -17320 17377 0
-1398 -17321 17378 0
-1398 -17322 17379 0
-1398 -17323 17380 0
-1398 -17324 17381 0
-1398 -17325 17382 0
-1398 -17326 17383 0
-1398 -17327 17384 0
-1398 -17328 17385 0
-1398 -17329 17386 0
-1398 -17330 17387 0
-1398 -17331 17388 0
-1398 -17332 17389 0
-1398 -17333 17390 0
-1398 -17334 17391 0
-1398 -17335 17392 0
-1398 -17336 17393 0
-1398 -17337 17394 0
-1398 -17338 17395 0
-1398 -17339 17396 0
-1398 -17340 17397 0
-1398 -17341 17398 0
-1398 -17342 17399 0
-1398 -17343 17400 0
-1398 -17344 17401 0
-1398 -17345 17402 0
-1398 -17346 17403 0
-1398 -17347 17404 0
-1398 -17348 17405 0
-1398 -17349 17406 0
-1398 -17350 17407 0
-1398 -17351 17408 0
-1398 -17352 17409 0
-1398 -17353 17410 0
-1398 -17354 17411 0
-1398 -17355 17412 0
-1398 -17356 17413 0
-1398 -17357 17414 0
-1398 -17358 17415 0
-1398 -17359 17416 0
-1398 -17360 17417 0
-1398 -17361 17418 0
-1398 -17362 17419 0
-1398 -17363 17420 0
-1398 -17364 17421 0
-1398 -17365 17422 0
-1398 -17366 17423 0
-1398 -17367 17424 0
-1398 -17368 0
-17369 17425 0
-17370 17426 0
-17371 17427 0
-17372 17428 0
-17373 17429 0
-17374 17430 0
-17375 17431 0
-17376 17432 0
-17377 17433 0
-17378 17434 0
-17379 17435 0
-17380 17436 0
-17381 17437 0
-17382 17438 0
-17383 17439 0
-17384 17440 0
-17385 17441 0
-17386 17442 0
-17387 17443 0
-17388 17444 0
-17389 17445 0
-17390 17446 0
-17391 17447 0
-17392 17448 0
-17393 17449 0
-17394 17450 0
-17395 17451 0
-17396 17452 0
-17397 17453 0
-17398 17454 0
-17399 17455 0
-17400 17456 0
-17401 17457 0
-17402 17458 0
-17403 17459 0
-17404 17460 0
-17405 17461 0
-17406 17462 0
-17407 17463 0
-17408 17464 0
-17409 17465 0
-17410 17466 0
-17411 17467 0
-17412 17468 0
-17413 17469 0
-17414 17470 0
-17415 17471 0
-17416 17472 0
-17417 17473 0
-17418 17474 0
-17419 17475 0
-17420 17476 0
-17421 17477 0
-17422 17478 0
-17423 17479 0
-17424 17480 0
-1400 -17369 17426 0
-1400 -17370 17427 0
-1400 -17371 17428 0
-1400 -17372 17429 0
-1400 -17373 17430 0
-1400 -17374 17431 0
-1400 -17375 17432 0
-1400 -17376 17433 0
-1400 -17377 17434 0
-1400 -17378 17435 0
-1400 -17379 17436 0
-1400 -17380 17437 0
-1400 -17381 17438 0
-1400 -17382 17439 0
-1400 -17383 17440 0
-1400 -17384 17441 0
-1400 -17385 17442 0
-1400 -17386 17443 0
-1400 -17387 17444 0
-1400 -17388 17445 0
-1400 -17389 17446 0
-1400 -17390 17447 0
-1400 -17391 17448 0
-1400 -17392 17449 0
-1400 -17393 17450 0
-1400 -17394 17451 0
-1400 -17395 17452 0
-1400 -17396 17453 0
-1400 -17397 17454 0
-1400 -17398 17455 0
-1400 -17399 17456 0
-1400 -17400 17457 0
-1400 -17401 17458 0
-1400 -17402 17459 0
-1400 -17403 17460 0
-1400 -17404 17461 0
-1400 -17405 17462 0
-1400 -17406 17463 0
-1400 -17407 17464 0
-1400 -17408 17465 0
-1400 -17409 17466 0
-1400 -17410 17467 0
-1400 -17411 17468 0
-1400 -17412 17469 0
-1400 -17413 17470 0
-1400 -17414 17471 0
-1400 -17415 17472 0
-1400 -17416 17473 0
-1400 -17417 17474 0
-1400 -17418 17475 0
-1400 -17419 17476 0
-1400 -17420 17477 0
-1400 -17421 17478 0
-1400 -17422 17479 0
-1400 -17423 17480 0
-1400 -17424 0
-17425 17481 0
-17426 17482 0
-17427 17483 0
-17428 17484 0
-17429 17485 0
-17430 17486 0
-17431 17487 0
-17432 17488 0
-17433 17489 0
-17434 17490 0
-17435 17491 0
-17436 17492 0
-17437 17493 0
-17438 17494 0
-17439 17495 0
-17440 17496 0
-17441 17497 0
-17442 17498 0
-17443 17499 0
-17444 17500 0
-17445 17501 0
-17446 17502 0
-17447 17503 0
-17448 17504 0
-17449 17505 0
-17450 17506 0
-17451 17507 0
-17452 17508 0
-17453 17509 0
-17454 17510 0
-17455 17511 0
-17456 17512 0
-17457 17513 0
-17458 17514 0
-17459 17515 0
-17460 17516 0
-17461 17517 0
-17462 17518 0
-17463 17519 0
-17464 17520 0
-17465 17521 0
-17466 17522 0
-17467 17523 0
-17468 17524 0
-17469 17525 0
-17470 17526 0
-17471 17527 0
-17472 17528 0
-17473 17529 0
-17474 17530 0
-17475 17531 0
-17476 17532 0
-17477 17533 0
-17478 17534 0
-17479 17535 0
-17480 17536 0
-1402 -17425 17482 0
-1402 -17426 17483 0
-1402 -17427 17484 0
-1402 -17428 17485 0
-1402 -17429 17486 0
-1402 -17430 17487 0
-1402 -17431 17488 0
-1402 -17432 17489 0
-1402 -17433 17490 0
-1402 -17434 17491 0
-1402 -17435 17492 0
-1402 -17436 17493 0
-1402 -17437 17494 0
-1402 -17438 17495 0
-1402 -17439 17496 0
-1402 -17440 17497 0
-1402 -17441 17498 0
-1402 -17442 17499 0
-1402 -17443 17500 0
-1402 -17444 17501 0
-1402 -17445 17502 0
-1402 -17446 17503 0
-1402 -17447 17504 0
-1402 -17448 17505 0
-1402 -17449 17506 0
-1402 -17450 17507 0
-1402 -17451 17508 0
-1402 -17452 17509 0
-1402 -17453 17510 0
-1402 -17454 17511 0
-1402 -17455 17512 0
-1402 -17456 17513 0
-1402 -17457 17514 0
-1402 -17458 17515 0
-1402 -17459 17516 0
-1402 -17460 17517 0
-1402 -17461 17518 0
-1402 -17462 17519 0
-1402 -17463 17520 0
-1402 -17464 17521 0
-1402 -17465 17522 0
-1402 -17466 17523 0
-1402 -17467 17524 0
-1402 -17468 17525 0
-1402 -17469 17526 0
-1402 -17470 17527 0
-1402 -17471 17528 0
-1402 -17472 17529 0
-1402 -17473 17530 0
-1402 -17474 17531 0
-1402 -17475 17532 0
-1402 -17476 17533 0
-1402 -17477 17534 0
-1402 -17478 17535 0
-1402 -17479 17536 0
-1402 -17480 0
-17481 17537 0
-17482 17538 0
-17483 17539 0
-17484 17540 0
-17485 17541 0
-17486 17542 0
-17487 17543 0
-17488 17544 0
-17489 17545 0
-17490 17546 0
-17491 17547 0
-17492 17548 0
-17493 17549 0
-17494 17550 0
-17495 17551 0
-17496 17552 0
-17497 17553 0
-17498 17554 0
-17499 17555 0
-17500 17556 0
-17501 17557 0
-17502 17558 0
-17503 17559 0
-17504 17560 0
-17505 17561 0
-17506 17562 0
-17507 17563 0
-17508 17564 0
-17509 17565 0
-17510 17566 0
-17511 17567 0
-17512 17568 0
-17513 17569 0
-17514 17570 0
-17515 17571 0
-17516 17572 0
-17517 17573 0
-17518 17574 0
-17519 17575 0
-17520 17576 0
-17521 17577 0
-17522 17578 0
-17523 17579 0
-17524 17580 0
-17525 17581 0
-17526 17582 0
-17527 17583 0
-17528 17584 0
-17529 17585 0
-17530 17586 0
-17531 17587 0
-17532 17588 0
-17533 17589 0
-17534 17590 0
-17535 17591 0
-17536 17592 0
-1404 -17481 17538 0
-1404 -17482 17539 0
-1404 -17483 17540 0
-1404 -17484 17541 0
-1404 -17485 17542 0
-1404 -17486 17543 0
-1404 -17487 17544 0
-1404 -17488 17545 0
-1404 -17489 17546 0
-1404 -17490 17547 0
-1404 -17491 17548 0
-1404 -17492 17549 0
-1404 -17493 17550 0
-1404 -17494 17551 0
-1404 -17495 17552 0
-1404 -17496 17553 0
-1404 -17497 17554 0
-1404 -17498 17555 0
-1404 -17499 17556 0
-1404 -17500 17557 0
-1404 -17501 17558 0
-1404 -17502 17559 0
-1404 -17503 17560 0
-1404 -17504 17561 0
-1404 -17505 17562 0
-1404 -17506 17563 0
-1404 -17507 17564 0
-1404 -17508 17565 0
-1404 -17509 17566 0
-1404 -17510 17567 0
-1404 -17511 17568 0
-1404 -17512 17569 0
-1404 -17513 17570 0
-1404 -17514 17571 0
-1404 -17515 17572 0
-1404 -17516 17573 0
-1404 -17517 17574 0
-1404 -17518 17575 0
-1404 -17519 17576 0
-1404 -17520 17577 0
-1404 -17521 17578 0
-1404 -17522 17579 0
-1404 -17523 17580 0
-1404 -17524 17581 0
-1404 -17525 17582 0
-1404 -17526 17583 0
-1404 -17527 17584 0
-1404 -17528 17585 0
-1404 -17529 17586 0
-1404 -17530 17587 0
-1404 -17531 17588 0
-1404 -17532 17589 0
-1404 -17533 17590 0
-1404 -17534 17591 0
-1404 -17535 17592 0
-1404 -17536 0
-17537 17593 0
-17538 17594 0
-17539 17595 0
-17540 17596 0
-17541 17597 0
-17542 17598 0
-17543 17599 0
-17544 17600 0
-17545 17601 0
-17546 17602 0
-17547 17603 0
-17548 17604 0
-17549 17605 0
-17550 17606 0
-17551 17607 0
-17552 17608 0
-17553 17609 0
-17554 17610 0
-17555 17611 0
-17556 17612 0
-17557 17613 0
-17558 17614 0
-17559 17615 0
-17560 17616 0
-17561 17617 0
-17562 17618 0
-17563 17619 0
-17564 17620 0
-17565 17621 0
-17566 17622 0
-17567 17623 0
-17568 17624 0
-17569 17625 0
-17570 17626 0
-17571 17627 0
-17572 17628 0
-17573 17629 0
-17574 17630 0
-17575 17631 0
-17576 17632 0
-17577 17633 0
-17578 17634 0
-17579 17635 0
-17580 17636 0
-17581 17637 0
-17582 17638 0
-17583 17639 0
-17584 17640 0
-17585 17641 0
-17586 17642 0
-17587 17643 0
-17588 17644 0
-17589 17645 0
-17590 17646 0
-17591 17647 0
-17592 17648 0
-1406 -17537 17594 0
-1406 -17538 17595 0
-1406 -17539 17596 0
-1406 -17540 17597 0
-1406 -17541 17598 0
-1406 -17542 17599 0
-1406 -17543 17600 0
-1406 -17544 17601 0
-1406 -17545 17602 0
-1406 -17546 17603 0
-1406 -17547 17604 0
-1406 -17548 17605 0
-1406 -17549 17606 0
-1406 -17550 17607 0
-1406 -17551 17608 0
-1406 -17552 17609 0
-1406 -17553 17610 0
-1406 -17554 17611 0
-1406 -17555 17612 0
-1406 -17556 17613 0
-1406 -17557 17614 0
-1406 -17558 17615 0
-1406 -17559 17616 0
-1406 -17560 17617 0
-1406 -17561 17618 0
-1406 -17562 17619 0
-1406 -17563 17620 0
-1406 -17564 17621 0
-1406 -17565 17622 0
-1406 -17566 17623 0
-1406 -17567 17624 0
-1406 -17568 17625 0
-1406 -17569 17626 0
-1406 -17570 17627 0
-1406 -17571 17628 0
-1406 -17572 17629 0
-1406 -17573 17630 0
-1406 -17574 17631 0
-1406 -17575 17632 0
-1406 -17576 17633 0
-1406 -17577 17634 0
-1406 -17578 17635 0
-1406 -17579 17636 0
-1406 -17580 17637 0
-1406 -17581 17638 0
-1406 -17582 17639 0
-1406 -17583 17640 0
-1406 -17584 17641 0
-1406 -17585 17642 0
-1406 -17586 17643 0
-1406 -17587 17644 0
-1406 -17588 17645 0
-1406 -17589 17646 0
-1406 -17590 17647 0
-1406 -17591 17648 0
-1406 -17592 0
-17593 17649 0
-17594 17650 0
-17595 17651 0
-17596 17652 0
-17597 17653 0
-17598 17654 0
-17599 17655 0
-17600 17656 0
-17601 17657 0
-17602 17658 0
-17603 17659 0
-17604 17660 0
-17605 17661 0
-17606 17662 0
-17607 17663 0
-17608 17664 0
-17609 17665 0
-17610 17666 0
-17611 17667 0
-17612 17668 0
-17613 17669 0
-17614 17670 0
-17615 17671 0
-17616 17672 0
-17617 17673 0
-17618 17674 0
-17619 17675 0
-17620 17676 0
-17621 17677 0
-17622 17678 0
-17623 17679 0
-17624 17680 0
-17625 17681 0
-17626 17682 0
-17627 17683 0
-17628 17684 0
-17629 17685 0
-17630 17686 0
-17631 17687 0
-17632 17688 0
-17633 17689 0
-17634 17690 0
-17635 17691 0
-17636 17692 0
-17637 17693 0
-17638 17694 0
-17639 17695 0
-17640 17696 0
-17641 17697 0
-17642 17698 0
-17643 17699 0
-17644 17700 0
-17645 17701 0
-17646 17702 0
-17647 17703 0
-17648 17704 0
-1408 -17593 17650 0
-1408 -17594 17651 0
-1408 -17595 17652 0
-1408 -17596 17653 0
-1408 -17597 17654 0
-1408 -17598 17655 0
-1408 -17599 17656 0
-1408 -17600 17657 0
-1408 -17601 17658 0
-1408 -17602 17659 0
-1408 -17603 17660 0
-1408 -17604 17661 0
-1408 -17605 17662 0
-1408 -17606 17663 0
-1408 -17607 17664 0
-1408 -17608 17665 0
-1408 -17609 17666 0
-1408 -17610 17667 0
-1408 -17611 17668 0
-1408 -17612 17669 0
-1408 -17613 17670 0
-1408 -17614 17671 0
-1408 -17615 17672 0
-1408 -17616 17673 0
-1408 -17617 17674 0
-1408 -17618 17675 0
-1408 -17619 17676 0
-1408 -17620 17677 0
-1408 -17621 17678 0
-1408 -17622 17679 0
-1408 -17623 17680 0
-1408 -17624 17681 0
-1408 -17625 17682 0
-1408 -17626 17683 0
-1408 -17627 17684 0
-1408 -17628 17685 0
-1408 -17629 17686 0
-1408 -17630 17687 0
-1408 -17631 17688 0
-1408 -17632 17689 0
-1408 -17633 17690 0
-1408 -17634 17691 0
-1408 -17635 17692 0
-1408 -17636 17693 0
-1408 -17637 17694 0
-1408 -17638 17695 0
-1408 -17639 17696 0
-1408 -17640 17697 0
-1408 -17641 17698 0
-1408 -17642 17699 0
-1408 -17643 17700 0
-1408 -17644 17701 0
-1408 -17645 17702 0
-1408 -17646 17703 0
-1408 -17647 17704 0
-1408 -17648 0
-17649 17705 0
-17650 17706 0
-17651 17707 0
-17652 17708 0
-17653 17709 0
-17654 17710 0
-17655 17711 0
-17656 17712 0
-17657 17713 0
-17658 17714 0
-17659 17715 0
-17660 17716 0
-17661 17717 0
-17662 17718 0
-17663 17719 0
-17664 17720 0
-17665 17721 0
-17666 17722 0
-17667 17723 0
-17668 17724 0
-17669 17725 0
-17670 17726 0
-17671 17727 0
-17672 17728 0
-17673 17729 0
-17674 17730 0
-17675 17731 0
-17676 17732 0
-17677 17733 0
-17678 17734 0
-17679 17735 0
-17680 17736 0
-17681 17737 0
-17682 17738 0
-17683 17739 0
-17684 17740 0
-17685 17741 0
-17686 17742 0
-17687 17743 0
-17688 17744 0
-17689 17745 0
-17690 17746 0
-17691 17747 0
-17692 17748 0
-17693 17749 0
-17694 17750 0
-17695 17751 0
-17696 17752 0
-17697 17753 0
-17698 17754 0
-17699 17755 0
-17700 17756 0
-17701 17757 0
-17702 17758 0
-17703 17759 0
-17704 17760 0
-1410 -17649 17706 0
-1410 -17650 17707 0
-1410 -17651 17708 0
-1410 -17652 17709 0
-1410 -17653 17710 0
-1410 -17654 17711 0
-1410 -17655 17712 0
-1410 -17656 17713 0
-1410 -17657 17714 0
-1410 -17658 17715 0
-1410 -17659 17716 0
-1410 -17660 17717 0
-1410 -17661 17718 0
-1410 -17662 17719 0
-1410 -17663 17720 0
-1410 -17664 17721 0
-1410 -17665 17722 0
-1410 -17666 17723 0
-1410 -17667 17724 0
-1410 -17668 17725 0
-1410 -17669 17726 0
-1410 -17670 17727 0
-1410 -17671 17728 0
-1410 -17672 17729 0
-1410 -17673 17730 0
-1410 -17674 17731 0
-1410 -17675 17732 0
-1410 -17676 17733 0
-1410 -17677 17734 0
-1410 -17678 17735 0
-1410 -17679 17736 0
-1410 -17680 17737 0
-1410 -17681 17738 0
-1410 -17682 17739 0
-1410 -17683 17740 0
-1410 -17684 17741 0
-1410 -17685 17742 0
-1410 -17686 17743 0
-1410 -17687 17744 0
-1410 -17688 17745 0
-1410 -17689 17746 0
-1410 -17690 17747 0
-1410 -17691 17748 0
-1410 -17692 17749 0
-1410 -17693 17750 0
-1410 -17694 17751 0
-1410 -17695 17752 0
-1410 -17696 17753 0
-1410 -17697 17754 0
-1410 -17698 17755 0
-1410 -17699 17756 0
-1410 -17700 17757 0
-1410 -17701 17758 0
-1410 -17702 17759 0
-1410 -17703 17760 0
-1410 -17704 0
-17705 17761 0
-17706 17762 0
-17707 17763 0
-17708 17764 0
-17709 17765 0
-17710 17766 0
-17711 17767 0
-17712 17768 0
-17713 17769 0
-17714 17770 0
-17715 17771 0
-17716 17772 0
-17717 17773 0
-17718 17774 0
-17719 17775 0
-17720 17776 0
-17721 17777 0
-17722 17778 0
-17723 17779 0
-17724 17780 0
-17725 17781 0
-17726 17782 0
-17727 17783 0
-17728 17784 0
-17729 17785 0
-17730 17786 0
-17731 17787 0
-17732 17788 0
-17733 17789 0
-17734 17790 0
-17735 17791 0
-17736 17792 0
-17737 17793 0
-17738 17794 0
-17739 17795 0
-17740 17796 0
-17741 17797 0
-17742 17798 0
-17743 17799 0
-17744 17800 0
-17745 17801 0
-17746 17802 0
-17747 17803 0
-17748 17804 0
-17749 17805 0
-17750 17806 0
-17751 17807 0
-17752 17808 0
-17753 17809 0
-17754 17810 0
-17755 17811 0
-17756 17812 0
-17757 17813 0
-17758 17814 0
-17759 17815 0
-17760 17816 0
-1412 -17705 17762 0
-1412 -17706 17763 0
-1412 -17707 17764 0
-1412 -17708 17765 0
-1412 -17709 17766 0
-1412 -17710 17767 0
-1412 -17711 17768 0
-1412 -17712 17769 0
-1412 -17713 17770 0
-1412 -17714 17771 0
-1412 -17715 17772 0
-1412 -17716 17773 0
-1412 -17717 17774 0
-1412 -17718 17775 0
-1412 -17719 17776 0
-1412 -17720 17777 0
-1412 -17721 17778 0
-1412 -17722 17779 0
-1412 -17723 17780 0
-1412 -17724 17781 0
-1412 -17725 17782 0
-1412 -17726 17783 0
-1412 -17727 17784 0
-1412 -17728 17785 0
-1412 -17729 17786 0
-1412 -17730 17787 0
-1412 -17731 17788 0
-1412 -17732 17789 0
-1412 -17733 17790 0
-1412 -17734 17791 0
-1412 -17735 17792 0
-1412 -17736 17793 0
-1412 -17737 17794 0
-1412 -17738 17795 0
-1412 -17739 17796 0
-1412 -17740 17797 0
-1412 -17741 17798 0
-1412 -17742 17799 0
-1412 -17743 17800 0
-1412 -17744 17801 0
-1412 -17745 17802 0
-1412 -17746 17803 0
-1412 -17747 17804 0
-1412 -17748 17805 0
-1412 -17749 17806 0
-1412 -17750 17807 0
-1412 -17751 17808 0
-1412 -17752 17809 0
-1412 -17753 17810 0
-1412 -17754 17811 0
-1412 -17755 17812 0
-1412 -17756 17813 0
-1412 -17757 17814 0
-1412 -17758 17815 0
-1412 -17759 17816 0
-1412 -17760 0
-17761 17817 0
-17762 17818 0
-17763 17819 0
-17764 17820 0
-17765 17821 0
-17766 17822 0
-17767 17823 0
-17768 17824 0
-17769 17825 0
-17770 17826 0
-17771 17827 0
-17772 17828 0
-17773 17829 0
-17774 17830 0
-17775 17831 0
-17776 17832 0
-17777 17833 0
-17778 17834 0
-17779 17835 0
-17780 17836 0
-17781 17837 0
-17782 17838 0
-17783 17839 0
-17784 17840 0
-17785 17841 0
-17786 17842 0
-17787 17843 0
-17788 17844 0
-17789 17845 0
-17790 17846 0
-17791 17847 0
-17792 17848 0
-17793 17849 0
-17794 17850 0
-17795 17851 0
-17796 17852 0
-17797 17853 0
-17798 17854 0
-17799 17855 0
-17800 17856 0
-17801 17857 0
-17802 17858 0
-17803 17859 0
-17804 17860 0
-17805 17861 0
-17806 17862 0
-17807 17863 0
-17808 17864 0
-17809 17865 0
-17810 17866 0
-17811 17867 0
-17812 17868 0
-17813 17869 0
-17814 17870 0
-17815 17871 0
-17816 17872 0
-1414 -17761 17818 0
-1414 -17762 17819 0
-1414 -17763 17820 0
-1414 -17764 17821 0
-1414 -17765 17822 0
-1414 -17766 17823 0
-1414 -17767 17824 0
-1414 -17768 17825 0
-1414 -17769 17826 0
-1414 -17770 17827 0
-1414 -17771 17828 0
-1414 -17772 17829 0
-1414 -17773 17830 0
-1414 -17774 17831 0
-1414 -17775 17832 0
-1414 -17776 17833 0
-1414 -17777 17834 0
-1414 -17778 17835 0
-1414 -17779 17836 0
-1414 -17780 17837 0
-1414 -17781 17838 0
-1414 -17782 17839 0
-1414 -17783 17840 0
-1414 -17784 17841 0
-1414 -17785 17842 0
-1414 -17786 17843 0
-1414 -17787 17844 0
-1414 -17788 17845 0
-1414 -17789 17846 0
-1414 -17790 17847 0
-1414 -17791 17848 0
-1414 -17792 17849 0
-1414 -17793 17850 0
-1414 -17794 17851 0
-1414 -17795 17852 0
-1414 -17796 17853 0
-1414 -17797 17854 0
-1414 -17798 17855 0
-1414 -17799 17856 0
-1414 -17800 17857 0
-1414 -17801 17858 0
-1414 -17802 17859 0
-1414 -17803 17860 0
-1414 -17804 17861 0
-1414 -17805 17862 0
-1414 -17806 17863 0
-1414 -17807 17864 0
-1414 -17808 17865 0
-1414 -17809 17866 0
-1414 -17810 17867 0
-1414 -17811 17868 0
-1414 -17812 17869 0
-1414 -17813 17870 0
-1414 -17814 17871 0
-1414 -17815 17872 0
-1414 -17816 0
-17817 17873 0
-17818 17874 0
-17819 17875 0
-17820 17876 0
-17821 17877 0
-17822 17878 0
-17823 17879 0
-17824 17880 0
-17825 17881 0
-17826 17882 0
-17827 17883 0
-17828 17884 0
-17829 17885 0
-17830 17886 0
-17831 17887 0
-17832 17888 0
-17833 17889 0
-17834 17890 0
-17835 17891 0
-17836 17892 0
-17837 17893 0
-17838 17894 0
-17839 17895 0
-17840 17896 0
-17841 17897 0
-17842 17898 0
-17843 17899 0
-17844 17900 0
-17845 17901 0
-17846 17902 0
-17847 17903 0
-17848 17904 0
-17849 17905 0
-17850 17906 0
-17851 17907 0
-17852 17908 0
-17853 17909 0
-17854 17910 0
-17855 17911 0
-17856 17912 0
-17857 17913 0
-17858 17914 0
-17859 17915 0
-17860 17916 0
-17861 17917 0
-17862 17918 0
-17863 17919 0
-17864 17920 0
-17865 17921 0
-17866 17922 0
-17867 17923 0
-17868 17924 0
-17869 17925 0
-17870 17926 0
-17871 17927 0
-17872 17928 0
-1416 -17817 17874 0
-1416 -17818 17875 0
-1416 -17819 17876 0
-1416 -17820 17877 0
-1416 -17821 17878 0
-1416 -17822 17879 0
-1416 -17823 17880 0
-1416 -17824 17881 0
-1416 -17825 17882 0
-1416 -17826 17883 0
-1416 -17827 17884 0
-1416 -17828 17885 0
-1416 -17829 17886 0
-1416 -17830 17887 0
-1416 -17831 17888 0
-1416 -17832 17889 0
-1416 -17833 17890 0
-1416 -17834 17891 0
-1416 -17835 17892 0
-1416 -17836 17893 0
-1416 -17837 17894 0
-1416 -17838 17895 0
-1416 -17839 17896 0
-1416 -17840 17897 0
-1416 -17841 17898 0
-1416 -17842 17899 0
-1416 -17843 17900 0
-1416 -17844 17901 0
-1416 -17845 17902 0
-1416 -17846 17903 0
-1416 -17847 17904 0
-1416 -17848 17905 0
-1416 -17849 17906 0
-1416 -17850 17907 0
-1416 -17851 17908 0
-1416 -17852 17909 0
-1416 -17853 17910 0
-1416 -17854 17911 0
-1416 -17855 17912 0
-1416 -17856 17913 0
-1416 -17857 17914 0
-1416 -17858 17915 0
-1416 -17859 17916 0
-1416 -17860 17917 0
-1416 -17861 17918 0
-1416 -17862 17919 0
-1416 -17863 17920 0
-1416 -17864 17921 0
-1416 -17865 17922 0
-1416 -17866 17923 0
-1416 -17867 17924 0
-1416 -17868 17925 0
-1416 -17869 17926 0
-1416 -17870 17927 0
-1416 -17871 17928 0
-1416 -17872 0
-17873 17929 0
-17874 17930 0
-17875 17931 0
-17876 17932 0
-17877 17933 0
-17878 17934 0
-17879 17935 0
-17880 17936 0
-17881 17937 0
-17882 17938 0
-17883 17939 0
-17884 17940 0
-17885 17941 0
-17886 17942 0
-17887 17943 0
-17888 17944 0
-17889 17945 0
-17890 17946 0
-17891 17947 0
-17892 17948 0
-17893 17949 0
-17894 17950 0
-17895 17951 0
-17896 17952 0
-17897 17953 0
-17898 17954 0
-17899 17955 0
-17900 17956 0
-17901 17957 0
-17902 17958 0
-17903 17959 0
-17904 17960 0
-17905 17961 0
-17906 17962 0
-17907 17963 0
-17908 17964 0
-17909 17965 0
-17910 17966 0
-17911 17967 0
-17912 17968 0
-17913 17969 0
-17914 17970 0
-17915 17971 0
-17916 17972 0
-17917 17973 0
-17918 17974 0
-17919 17975 0
-17920 17976 0
-17921 17977 0
-17922 17978 0
-17923 17979 0
-17924 17980 0
-17925 17981 0
-17926 17982 0
-17927 17983 0
-17928 17984 0
-1418 -17873 17930 0
-1418 -17874 17931 0
-1418 -17875 17932 0
-1418 -17876 17933 0
-1418 -17877 17934 0
-1418 -17878 17935 0
-1418 -17879 17936 0
-1418 -17880 17937 0
-1418 -17881 17938 0
-1418 -17882 17939 0
-1418 -17883 17940 0
-1418 -17884 17941 0
-1418 -17885 17942 0
-1418 -17886 17943 0
-1418 -17887 17944 0
-1418 -17888 17945 0
-1418 -17889 17946 0
-1418 -17890 17947 0
-1418 -17891 17948 0
-1418 -17892 17949 0
-1418 -17893 17950 0
-1418 -17894 17951 0
-1418 -17895 17952 0
-1418 -17896 17953 0
-1418 -17897 17954 0
-1418 -17898 17955 0
-1418 -17899 17956 0
-1418 -17900 17957 0
-1418 -17901 17958 0
-1418 -17902 17959 0
-1418 -17903 17960 0
-1418 -17904 17961 0
-1418 -17905 17962 0
-1418 -17906 17963 0
-1418 -17907 17964 0
-1418 -17908 17965 0
-1418 -17909 17966 0
-1418 -17910 17967 0
-1418 -17911 17968 0
-1418 -17912 17969 0
-1418 -17913 17970 0
-1418 -17914 17971 0
-1418 -17915 17972 0
-1418 -17916 17973 0
-1418 -17917 17974 0
-1418 -17918 17975 0
-1418 -17919 17976 0
-1418 -17920 17977 0
-1418 -17921 17978 0
-1418 -17922 17979 0
-1418 -17923 17980 0
-1418 -17924 17981 0
-1418 -17925 17982 0
-1418 -17926 17983 0
-1418 -17927 17984 0
-1418 -17928 0
-17929 17985 0
-17930 17986 0
-17931 17987 0
-17932 17988 0
-17933 17989 0
-17934 17990 0
-17935 17991 0
-17936 17992 0
-17937 17993 0
-17938 17994 0
-17939 17995 0
-17940 17996 0
-17941 17997 0
-17942 17998 0
-17943 17999 0
-17944 18000 0
-17945 18001 0
-17946 18002 0
-17947 18003 0
-17948 18004 0
-17949 18005 0
-17950 18006 0
-17951 18007 0
-17952 18008 0
-17953 18009 0
-17954 18010 0
-17955 18011 0
-17956 18012 0
-17957 18013 0
-17958 18014 0
-17959 18015 0
-17960 18016 0
-17961 18017 0
-17962 18018 0
-17963 18019 0
-17964 18020 0
-17965 18021 0
-17966 18022 0
-17967 18023 0
-17968 18024 0
-17969 18025 0
-17970 18026 0
-17971 18027 0
-17972 18028 0
-17973 18029 0
-17974 18030 0
-17975 18031 0
-17976 18032 0
-17977 18033 0
-17978 18034 0
-17979 18035 0
-17980 18036 0
-17981 18037 0
-17982 18038 0
-17983 18039 0
-17984 18040 0
-1420 -17929 17986 0
-1420 -17930 17987 0
-1420 -17931 17988 0
-1420 -17932 17989 0
-1420 -17933 17990 0
-1420 -17934 17991 0
-1420 -17935 17992 0
-1420 -17936 17993 0
-1420 -17937 17994 0
-1420 -17938 17995 0
-1420 -17939 17996 0
-1420 -17940 17997 0
-1420 -17941 17998 0
-1420 -17942 17999 0
-1420 -17943 18000 0
-1420 -17944 18001 0
-1420 -17945 18002 0
-1420 -17946 18003 0
-1420 -17947 18004 0
-1420 -17948 18005 0
-1420 -17949 18006 0
-1420 -17950 18007 0
-1420 -17951 18008 0
-1420 -17952 18009 0
-1420 -17953 18010 0
-1420 -17954 18011 0
-1420 -17955 18012 0
-1420 -17956 18013 0
-1420 -17957 18014 0
-1420 -17958 18015 0
-1420 -17959 18016 0
-1420 -17960 18017 0
-1420 -17961 18018 0
-1420 -17962 18019 0
-1420 -17963 18020 0
-1420 -17964 18021 0
-1420 -17965 18022 0
-1420 -17966 18023 0
-1420 -17967 18024 0
-1420 -17968 18025 0
-1420 -17969 18026 0
-1420 -17970 18027 0
-1420 -17971 18028 0
-1420 -17972 18029 0
-1420 -17973 18030 0
-1420 -17974 18031 0
-1420 -17975 18032 0
-1420 -17976 18033 0
-1420 -17977 18034 0
-1420 -17978 18035 0
-1420 -17979 18036 0
-1420 -17980 18037 0
-1420 -17981 18038 0
-1420 -17982 18039 0
-1420 -17983 18040 0
-1420 -17984 0
-17985 18041 0
-17986 18042 0
-17987 18043 0
-17988 18044 0
-17989 18045 0
-17990 18046 0
-17991 18047 0
-17992 18048 0
-17993 18049 0
-17994 18050 0
-17995 18051 0
-17996 18052 0
-17997 18053 0
-17998 18054 0
-17999 18055 0
-18000 18056 0
-18001 18057 0
-18002 18058 0
-18003 18059 0
-18004 18060 0
-18005 18061 0
-18006 18062 0
-18007 18063 0
-18008 18064 0
-18009 18065 0
-18010 18066 0
-18011 18067 0
-18012 18068 0
-18013 18069 0
-18014 18070 0
-18015 18071 0
-18016 18072 0
-18017 18073 0
-18018 18074 0
-18019 18075 0
-18020 18076 0
-18021 18077 0
-18022 18078 0
-18023 18079 0
-18024 18080 0
-18025 18081 0
-18026 18082 0
-18027 18083 0
-18028 18084 0
-18029 18085 0
-18030 18086 0
-18031 18087 0
-18032 18088 0
-18033 18089 0
-18034 18090 0
-18035 18091 0
-18036 18092 0
-18037 18093 0
-18038 18094 0
-18039 18095 0
-18040 18096 0
-1422 -17985 18042 0
-1422 -17986 18043 0
-1422 -17987 18044 0
-1422 -17988 18045 0
-1422 -17989 18046 0
-1422 -17990 18047 0
-1422 -17991 18048 0
-1422 -17992 18049 0
-1422 -17993 18050 0
-1422 -17994 18051 0
-1422 -17995 18052 0
-1422 -17996 18053 0
-1422 -17997 18054 0
-1422 -17998 18055 0
-1422 -17999 18056 0
-1422 -18000 18057 0
-1422 -18001 18058 0
-1422 -18002 18059 0
-1422 -18003 18060 0
-1422 -18004 18061 0
-1422 -18005 18062 0
-1422 -18006 18063 0
-1422 -18007 18064 0
-1422 -18008 18065 0
-1422 -18009 18066 0
-1422 -18010 18067 0
-1422 -18011 18068 0
-1422 -18012 18069 0
-1422 -18013 18070 0
-1422 -18014 18071 0
-1422 -18015 18072 0
-1422 -18016 18073 0
-1422 -18017 18074 0
-1422 -18018 18075 0
-1422 -18019 18076 0
-1422 -18020 18077 0
-1422 -18021 18078 0
-1422 -18022 18079 0
-1422 -18023 18080 0
-1422 -18024 18081 0
-1422 -18025 18082 0
-1422 -18026 18083 0
-1422 -18027 18084 0
-1422 -18028 18085 0
-1422 -18029 18086 0
-1422 -18030 18087 0
-1422 -18031 18088 0
-1422 -18032 18089 0
-1422 -18033 18090 0
-1422 -18034 18091 0
-1422 -18035 18092 0
-1422 -18036 18093 0
-1422 -18037 18094 0
-1422 -18038 18095 0
-1422 -18039 18096 0
-1422 -18040 0
-18041 18097 0
-18042 18098 0
-18043 18099 0
-18044 18100 0
-18045 18101 0
-18046 18102 0
-18047 18103 0
-18048 18104 0
-18049 18105 0
-18050 18106 0
-18051 18107 0
-18052 18108 0
-18053 18109 0
-18054 18110 0
-18055 18111 0
-18056 18112 0
-18057 18113 0
-18058 18114 0
-18059 18115 0
-18060 18116 0
-18061 18117 0
-18062 18118 0
-18063 18119 0
-18064 18120 0
-18065 18121 0
-18066 18122 0
-18067 18123 0
-18068 18124 0
-18069 18125 0
-18070 18126 0
-18071 18127 0
-18072 18128 0
-18073 18129 0
-18074 18130 0
-18075 18131 0
-18076 18132 0
-18077 18133 0
-18078 18134 0
-18079 18135 0
-18080 18136 0
-18081 18137 0
-18082 18138 0
-18083 18139 0
-18084 18140 0
-18085 18141 0
-18086 18142 0
-18087 18143 0
-18088 18144 0
-18089 18145 0
-18090 18146 0
-18091 18147 0
-18092 18148 0
-18093 18149 0
-18094 18150 0
-18095 18151 0
-18096 18152 0
-1424 -18041 18098 0
-1424 -18042 18099 0
-1424 -18043 18100 0
-1424 -18044 18101 0
-1424 -18045 18102 0
-1424 -18046 18103 0
-1424 -18047 18104 0
-1424 -18048 18105 0
-1424 -18049 18106 0
-1424 -18050 18107 0
-1424 -18051 18108 0
-1424 -18052 18109 0
-1424 -18053 18110 0
-1424 -18054 18111 0
-1424 -18055 18112 0
-1424 -18056 18113 0
-1424 -18057 18114 0
-1424 -18058 18115 0
-1424 -18059 18116 0
-1424 -18060 18117 0
-1424 -18061 18118 0
-1424 -18062 18119 0
-1424 -18063 18120 0
-1424 -18064 18121 0
-1424 -18065 18122 0
-1424 -18066 18123 0
-1424 -18067 18124 0
-1424 -18068 18125 0
-1424 -18069 18126 0
-1424 -18070 18127 0
-1424 -18071 18128 0
-1424 -18072 18129 0
-1424 -18073 18130 0
-1424 -18074 18131 0
-1424 -18075 18132 0
-1424 -18076 18133 0
-1424 -18077 18134 0
-1424 -18078 18135 0
-1424 -18079 18136 0
-1424 -18080 18137 0
-1424 -18081 18138 0
-1424 -18082 18139 0
-1424 -18083 18140 0
-1424 -18084 18141 0
-1424 -18085 18142 0
-1424 -18086 18143 0
-1424 -18087 18144 0
-1424 -18088 18145 0
-1424 -18089 18146 0
-1424 -18090 18147 0
-1424 -18091 18148 0
-1424 -18092 18149 0
-1424 -18093 18150 0
-1424 -18094 18151 0
-1424 -18095 18152 0
-1424 -18096 0
-18097 18153 0
-18098 18154 0
-18099 18155 0
-18100 18156 0
-18101 18157 0
-18102 18158 0
-18103 18159 0
-18104 18160 0
-18105 18161 0
-18106 18162 0
-18107 18163 0
-18108 18164 0
-18109 18165 0
-18110 18166 0
-18111 18167 0
-18112 18168 0
-18113 18169 0
-18114 18170 0
-18115 18171 0
-18116 18172 0
-18117 18173 0
-18118 18174 0
-18119 18175 0
-18120 18176 0
-18121 18177 0
-18122 18178 0
-18123 18179 0
-18124 18180 0
-18125 18181 0
-18126 18182 0
-18127 18183 0
-18128 18184 0
-18129 18185 0
-18130 18186 0
-18131 18187 0
-18132 18188 0
-18133 18189 0
-18134 18190 0
-18135 18191 0
-18136 18192 0
-18137 18193 0
-18138 18194 0
-18139 18195 0
-18140 18196 0
-18141 18197 0
-18142 18198 0
-18143 18199 0
-18144 18200 0
-18145 18201 0
-18146 18202 0
-18147 18203 0
-18148 18204 0
-18149 18205 0
-18150 18206 0
-18151 18207 0
-18152 18208 0
-1426 -18097 18154 0
-1426 -18098 18155 0
-1426 -18099 18156 0
-1426 -18100 18157 0
-1426 -18101 18158 0
-1426 -18102 18159 0
-1426 -18103 18160 0
-1426 -18104 18161 0
-1426 -18105 18162 0
-1426 -18106 18163 0
-1426 -18107 18164 0
-1426 -18108 18165 0
-1426 -18109 18166 0
-1426 -18110 18167 0
-1426 -18111 18168 0
-1426 -18112 18169 0
-1426 -18113 18170 0
-1426 -18114 18171 0
-1426 -18115 18172 0
-1426 -18116 18173 0
-1426 -18117 18174 0
-1426 -18118 18175 0
-1426 -18119 18176 0
-1426 -18120 18177 0
-1426 -18121 18178 0
-1426 -18122 18179 0
-1426 -18123 18180 0
-1426 -18124 18181 0
-1426 -18125 18182 0
-1426 -18126 18183 0
-1426 -18127 18184 0
-1426 -18128 18185 0
-1426 -18129 18186 0
-1426 -18130 18187 0
-1426 -18131 18188 0
-1426 -18132 18189 0
-1426 -18133 18190 0
-1426 -18134 18191 0
-1426 -18135 18192 0
-1426 -18136 18193 0
-1426 -18137 18194 0
-1426 -18138 18195 0
-1426 -18139 18196 0
-1426 -18140 18197 0
-1426 -18141 18198 0
-1426 -18142 18199 0
-1426 -18143 18200 0
-1426 -18144 18201 0
-1426 -18145 18202 0
-1426 -18146 18203 0
-1426 -18147 18204 0
-1426 -18148 18205 0
-1426 -18149 18206 0
-1426 -18150 18207 0
-1426 -18151 18208 0
-1426 -18152 0
-18153 18209 0
-18154 18210 0
-18155 18211 0
-18156 18212 0
-18157 18213 0
-18158 18214 0
-18159 18215 0
-18160 18216 0
-18161 18217 0
-18162 18218 0
-18163 18219 0
-18164 18220 0
-18165 18221 0
-18166 18222 0
-18167 18223 0
-18168 18224 0
-18169 18225 0
-18170 18226 0
-18171 18227 0
-18172 18228 0
-18173 18229 0
-18174 18230 0
-18175 18231 0
-18176 18232 0
-18177 18233 0
-18178 18234 0
-18179 18235 0
-18180 18236 0
-18181 18237 0
-18182 18238 0
-18183 18239 0
-18184 18240 0
-18185 18241 0
-18186 18242 0
-18187 18243 0
-18188 18244 0
-18189 18245 0
-18190 18246 0
-18191 18247 0
-18192 18248 0
-18193 18249 0
-18194 18250 0
-18195 18251 0
-18196 18252 0
-18197 18253 0
-18198 18254 0
-18199 18255 0
-18200 18256 0
-18201 18257 0
-18202 18258 0
-18203 18259 0
-18204 18260 0
-18205 18261 0
-18206 18262 0
-18207 18263 0
-18208 18264 0
-1428 -18153 18210 0
-1428 -18154 18211 0
-1428 -18155 18212 0
-1428 -18156 18213 0
-1428 -18157 18214 0
-1428 -18158 18215 0
-1428 -18159 18216 0
-1428 -18160 18217 0
-1428 -18161 18218 0
-1428 -18162 18219 0
-1428 -18163 18220 0
-1428 -18164 18221 0
-1428 -18165 18222 0
-1428 -18166 18223 0
-1428 -18167 18224 0
-1428 -18168 18225 0
-1428 -18169 18226 0
-1428 -18170 18227 0
-1428 -18171 18228 0
-1428 -18172 18229 0
-1428 -18173 18230 0
-1428 -18174 18231 0
-1428 -18175 18232 0
-1428 -18176 18233 0
-1428 -18177 18234 0
-1428 -18178 18235 0
-1428 -18179 18236 0
-1428 -18180 18237 0
-1428 -18181 18238 0
-1428 -18182 18239 0
-1428 -18183 18240 0
-1428 -18184 18241 0
-1428 -18185 18242 0
-1428 -18186 18243 0
-1428 -18187 18244 0
-1428 -18188 18245 0
-1428 -18189 18246 0
-1428 -18190 18247 0
-1428 -18191 18248 0
-1428 -18192 18249 0
-1428 -18193 18250 0
-1428 -18194 18251 0
-1428 -18195 18252 0
-1428 -18196 18253 0
-1428 -18197 18254 0
-1428 -18198 18255 0
-1428 -18199 18256 0
-1428 -18200 18257 0
-1428 -18201 18258 0
-1428 -18202 18259 0
-1428 -18203 18260 0
-1428 -18204 18261 0
-1428 -18205 18262 0
-1428 -18206 18263 0
-1428 -18207 18264 0
-1428 -18208 0
-18209 18265 0
-18210 18266 0
-18211 18267 0
-18212 18268 0
-18213 18269 0
-18214 18270 0
-18215 18271 0
-18216 18272 0
-18217 18273 0
-18218 18274 0
-18219 18275 0
-18220 18276 0
-18221 18277 0
-18222 18278 0
-18223 18279 0
-18224 18280 0
-18225 18281 0
-18226 18282 0
-18227 18283 0
-18228 18284 0
-18229 18285 0
-18230 18286 0
-18231 18287 0
-18232 18288 0
-18233 18289 0
-18234 18290 0
-18235 18291 0
-18236 18292 0
-18237 18293 0
-18238 18294 0
-18239 18295 0
-18240 18296 0
-18241 18297 0
-18242 18298 0
-18243 18299 0
-18244 18300 0
-18245 18301 0
-18246 18302 0
-18247 18303 0
-18248 18304 0
-18249 18305 0
-18250 18306 0
-18251 18307 0
-18252 18308 0
-18253 18309 0
-18254 18310 0
-18255 18311 0
-18256 18312 0
-18257 18313 0
-18258 18314 0
-18259 18315 0
-18260 18316 0
-18261 18317 0
-18262 18318 0
-18263 18319 0
-18264 18320 0
-1430 -18209 18266 0
-1430 -18210 18267 0
-1430 -18211 18268 0
-1430 -18212 18269 0
-1430 -18213 18270 0
-1430 -18214 18271 0
-1430 -18215 18272 0
-1430 -18216 18273 0
-1430 -18217 18274 0
-1430 -18218 18275 0
-1430 -18219 18276 0
-1430 -18220 18277 0
-1430 -18221 18278 0
-1430 -18222 18279 0
-1430 -18223 18280 0
-1430 -18224 18281 0
-1430 -18225 18282 0
-1430 -18226 18283 0
-1430 -18227 18284 0
-1430 -18228 18285 0
-1430 -18229 18286 0
-1430 -18230 18287 0
-1430 -18231 18288 0
-1430 -18232 18289 0
-1430 -18233 18290 0
-1430 -18234 18291 0
-1430 -18235 18292 0
-1430 -18236 18293 0
-1430 -18237 18294 0
-1430 -18238 18295 0
-1430 -18239 18296 0
-1430 -18240 18297 0
-1430 -18241 18298 0
-1430 -18242 18299 0
-1430 -18243 18300 0
-1430 -18244 18301 0
-1430 -18245 18302 0
-1430 -18246 18303 0
-1430 -18247 18304 0
-1430 -18248 18305 0
-1430 -18249 18306 0
-1430 -18250 18307 0
-1430 -18251 18308 0
-1430 -18252 18309 0
-1430 -18253 18310 0
-1430 -18254 18311 0
-1430 -18255 18312 0
-1430 -18256 18313 0
-1430 -18257 18314 0
-1430 -18258 18315 0
-1430 -18259 18316 0
-1430 -18260 18317 0
-1430 -18261 18318 0
-1430 -18262 18319 0
-1430 -18263 18320 0
-1430 -18264 0
-18265 18321 0
-18266 18322 0
-18267 18323 0
-18268 18324 0
-18269 18325 0
-18270 18326 0
-18271 18327 0
-18272 18328 0
-18273 18329 0
-18274 18330 0
-18275 18331 0
-18276 18332 0
-18277 18333 0
-18278 18334 0
-18279 18335 0
-18280 18336 0
-18281 18337 0
-18282 18338 0
-18283 18339 0
-18284 18340 0
-18285 18341 0
-18286 18342 0
-18287 18343 0
-18288 18344 0
-18289 18345 0
-18290 18346 0
-18291 18347 0
-18292 18348 0
-18293 18349 0
-18294 18350 0
-18295 18351 0
-18296 18352 0
-18297 18353 0
-18298 18354 0
-18299 18355 0
-18300 18356 0
-18301 18357 0
-18302 18358 0
-18303 18359 0
-18304 18360 0
-18305 18361 0
-18306 18362 0
-18307 18363 0
-18308 18364 0
-18309 18365 0
-18310 18366 0
-18311 18367 0
-18312 18368 0
-18313 18369 0
-18314 18370 0
-18315 18371 0
-18316 18372 0
-18317 18373 0
-18318 18374 0
-18319 18375 0
-18320 18376 0
-1432 -18265 18322 0
-1432 -18266 18323 0
-1432 -18267 18324 0
-1432 -18268 18325 0
-1432 -18269 18326 0
-1432 -18270 18327 0
-1432 -18271 18328 0
-1432 -18272 18329 0
-1432 -18273 18330 0
-1432 -18274 18331 0
-1432 -18275 18332 0
-1432 -18276 18333 0
-1432 -18277 18334 0
-1432 -18278 18335 0
-1432 -18279 18336 0
-1432 -18280 18337 0
-1432 -18281 18338 0
-1432 -18282 18339 0
-1432 -18283 18340 0
-1432 -18284 18341 0
-1432 -18285 18342 0
-1432 -18286 18343 0
-1432 -18287 18344 0
-1432 -18288 18345 0
-1432 -18289 18346 0
-1432 -18290 18347 0
-1432 -18291 18348 0
-1432 -18292 18349 0
-1432 -18293 18350 0
-1432 -18294 18351 0
-1432 -18295 18352 0
-1432 -18296 18353 0
-1432 -18297 18354 0
-1432 -18298 18355 0
-1432 -18299 18356 0
-1432 -18300 18357 0
-1432 -18301 18358 0
-1432 -18302 18359 0
-1432 -18303 18360 0
-1432 -18304 18361 0
-1432 -18305 18362 0
-1432 -18306 18363 0
-1432 -18307 18364 0
-1432 -18308 18365 0
-1432 -18309 18366 0
-1432 -18310 18367 0
-1432 -18311 18368 0
-1432 -18312 18369 0
-1432 -18313 18370 0
-1432 -18314 18371 0
-1432 -18315 18372 0
-1432 -18316 18373 0
-1432 -18317 18374 0
-1432 -18318 18375 0
-1432 -18319 18376 0
-1432 -18320 0
-18321 18377 0
-18322 18378 0
-18323 18379 0
-18324 18380 0
-18325 18381 0
-18326 18382 0
-18327 18383 0
-18328 18384 0
-18329 18385 0
-18330 18386 0
-18331 18387 0
-18332 18388 0
-18333 18389 0
-18334 18390 0
-18335 18391 0
-18336 18392 0
-18337 18393 0
-18338 18394 0
-18339 18395 0
-18340 18396 0
-18341 18397 0
-18342 18398 0
-18343 18399 0
-18344 18400 0
-18345 18401 0
-18346 18402 0
-18347 18403 0
-18348 18404 0
-18349 18405 0
-18350 18406 0
-18351 18407 0
-18352 18408 0
-18353 18409 0
-18354 18410 0
-18355 18411 0
-18356 18412 0
-18357 18413 0
-18358 18414 0
-18359 18415 0
-18360 18416 0
-18361 18417 0
-18362 18418 0
-18363 18419 0
-18364 18420 0
-18365 18421 0
-18366 18422 0
-18367 18423 0
-18368 18424 0
-18369 18425 0
-18370 18426 0
-18371 18427 0
-18372 18428 0
-18373 18429 0
-18374 18430 0
-18375 18431 0
-18376 18432 0
-1434 -18321 18378 0
-1434 -18322 18379 0
-1434 -18323 18380 0
-1434 -18324 18381 0
-1434 -18325 18382 0
-1434 -18326 18383 0
-1434 -18327 18384 0
-1434 -18328 18385 0
-1434 -18329 18386 0
-1434 -18330 18387 0
-1434 -18331 18388 0
-1434 -18332 18389 0
-1434 -18333 18390 0
-1434 -18334 18391 0
-1434 -18335 18392 0
-1434 -18336 18393 0
-1434 -18337 18394 0
-1434 -18338 18395 0
-1434 -18339 18396 0
-1434 -18340 18397 0
-1434 -18341 18398 0
-1434 -18342 18399 0
-1434 -18343 18400 0
-1434 -18344 18401 0
-1434 -18345 18402 0
-1434 -18346 18403 0
-1434 -18347 18404 0
-1434 -18348 18405 0
-1434 -18349 18406 0
-1434 -18350 18407 0
-1434 -18351 18408 0
-1434 -18352 18409 0
-1434 -18353 18410 0
-1434 -18354 18411 0
-1434 -18355 18412 0
-1434 -18356 18413 0
-1434 -18357 18414 0
-1434 -18358 18415 0
-1434 -18359 18416 0
-1434 -18360 18417 0
-1434 -18361 18418 0
-1434 -18362 18419 0
-1434 -18363 18420 0
-1434 -18364 18421 0
-1434 -18365 18422 0
-1434 -18366 18423 0
-1434 -18367 18424 0
-1434 -18368 18425 0
-1434 -18369 18426 0
-1434 -18370 18427 0
-1434 -18371 18428 0
-1434 -18372 18429 0
-1434 -18373 18430 0
-1434 -18374 18431 0
-1434 -18375 18432 0
-1434 -18376 0
-18377 18433 0
-18378 18434 0
-18379 18435 0
-18380 18436 0
-18381 18437 0
-18382 18438 0
-18383 18439 0
-18384 18440 0
-18385 18441 0
-18386 18442 0
-18387 18443 0
-18388 18444 0
-18389 18445 0
-18390 18446 0
-18391 18447 0
-18392 18448 0
-18393 18449 0
-18394 18450 0
-18395 18451 0
-18396 18452 0
-18397 18453 0
-18398 18454 0
-18399 18455 0
-18400 18456 0
-18401 18457 0
-18402 18458 0
-18403 18459 0
-18404 18460 0
-18405 18461 0
-18406 18462 0
-18407 18463 0
-18408 18464 0
-18409 18465 0
-18410 18466 0
-18411 18467 0
-18412 18468 0
-18413 18469 0
-18414 18470 0
-18415 18471 0
-18416 18472 0
-18417 18473 0
-18418 18474 0
-18419 18475 0
-18420 18476 0
-18421 18477 0
-18422 18478 0
-18423 18479 0
-18424 18480 0
-18425 18481 0
-18426 18482 0
-18427 18483 0
-18428 18484 0
-18429 18485 0
-18430 18486 0
-18431 18487 0
-18432 18488 0
-1436 -18377 18434 0
-1436 -18378 18435 0
-1436 -18379 18436 0
-1436 -18380 18437 0
-1436 -18381 18438 0
-1436 -18382 18439 0
-1436 -18383 18440 0
-1436 -18384 18441 0
-1436 -18385 18442 0
-1436 -18386 18443 0
-1436 -18387 18444 0
-1436 -18388 18445 0
-1436 -18389 18446 0
-1436 -18390 18447 0
-1436 -18391 18448 0
-1436 -18392 18449 0
-1436 -18393 18450 0
-1436 -18394 18451 0
-1436 -18395 18452 0
-1436 -18396 18453 0
-1436 -18397 18454 0
-1436 -18398 18455 0
-1436 -18399 18456 0
-1436 -18400 18457 0
-1436 -18401 18458 0
-1436 -18402 18459 0
-1436 -18403 18460 0
-1436 -18404 18461 0
-1436 -18405 18462 0
-1436 -18406 18463 0
-1436 -18407 18464 0
-1436 -18408 18465 0
-1436 -18409 18466 0
-1436 -18410 18467 0
-1436 -18411 18468 0
-1436 -18412 18469 0
-1436 -18413 18470 0
-1436 -18414 18471 0
-1436 -18415 18472 0
-1436 -18416 18473 0
-1436 -18417 18474 0
-1436 -18418 18475 0
-1436 -18419 18476 0
-1436 -18420 18477 0
-1436 -18421 18478 0
-1436 -18422 18479 0
-1436 -18423 18480 0
-1436 -18424 18481 0
-1436 -18425 18482 0
-1436 -18426 18483 0
-1436 -18427 18484 0
-1436 -18428 18485 0
-1436 -18429 18486 0
-1436 -18430 18487 0
-1436 -18431 18488 0
-1436 -18432 0
-18433 18489 0
-18434 18490 0
-18435 18491 0
-18436 18492 0
-18437 18493 0
-18438 18494 0
-18439 18495 0
-18440 18496 0
-18441 18497 0
-18442 18498 0
-18443 18499 0
-18444 18500 0
-18445 18501 0
-18446 18502 0
-18447 18503 0
-18448 18504 0
-18449 18505 0
-18450 18506 0
-18451 18507 0
-18452 18508 0
-18453 18509 0
-18454 18510 0
-18455 18511 0
-18456 18512 0
-18457 18513 0
-18458 18514 0
-18459 18515 0
-18460 18516 0
-18461 18517 0
-18462 18518 0
-18463 18519 0
-18464 18520 0
-18465 18521 0
-18466 18522 0
-18467 18523 0
-18468 18524 0
-18469 18525 0
-18470 18526 0
-18471 18527 0
-18472 18528 0
-18473 18529 0
-18474 18530 0
-18475 18531 0
-18476 18532 0
-18477 18533 0
-18478 18534 0
-18479 18535 0
-18480 18536 0
-18481 18537 0
-18482 18538 0
-18483 18539 0
-18484 18540 0
-18485 18541 0
-18486 18542 0
-18487 18543 0
-18488 18544 0
-1438 -18433 18490 0
-1438 -18434 18491 0
-1438 -18435 18492 0
-1438 -18436 18493 0
-1438 -18437 18494 0
-1438 -18438 18495 0
-1438 -18439 18496 0
-1438 -18440 18497 0
-1438 -18441 18498 0
-1438 -18442 18499 0
-1438 -18443 18500 0
-1438 -18444 18501 0
-1438 -18445 18502 0
-1438 -18446 18503 0
-1438 -18447 18504 0
-1438 -18448 18505 0
-1438 -18449 18506 0
-1438 -18450 18507 0
-1438 -18451 18508 0
-1438 -18452 18509 0
-1438 -18453 18510 0
-1438 -18454 18511 0
-1438 -18455 18512 0
-1438 -18456 18513 0
-1438 -18457 18514 0
-1438 -18458 18515 0
-1438 -18459 18516 0
-1438 -18460 18517 0
-1438 -18461 18518 0
-1438 -18462 18519 0
-1438 -18463 18520 0
-1438 -18464 18521 0
-1438 -18465 18522 0
-1438 -18466 18523 0
-1438 -18467 18524 0
-1438 -18468 18525 0
-1438 -18469 18526 0
-1438 -18470 18527 0
-1438 -18471 18528 0
-1438 -18472 18529 0
-1438 -18473 18530 0
-1438 -18474 18531 0
-1438 -18475 18532 0
-1438 -18476 18533 0
-1438 -18477 18534 0
-1438 -18478 18535 0
-1438 -18479 18536 0
-1438 -18480 18537 0
-1438 -18481 18538 0
-1438 -18482 18539 0
-1438 -18483 18540 0
-1438 -18484 18541 0
-1438 -18485 18542 0
-1438 -18486 18543 0
-1438 -18487 18544 0
-1438 -18488 0
-18489 18545 0
-18490 18546 0
-18491 18547 0
-18492 18548 0
-18493 18549 0
-18494 18550 0
-18495 18551 0
-18496 18552 0
-18497 18553 0
-18498 18554 0
-18499 18555 0
-18500 18556 0
-18501 18557 0
-18502 18558 0
-18503 18559 0
-18504 18560 0
-18505 18561 0
-18506 18562 0
-18507 18563 0
-18508 18564 0
-18509 18565 0
-18510 18566 0
-18511 18567 0
-18512 18568 0
-18513 18569 0
-18514 18570 0
-18515 18571 0
-18516 18572 0
-18517 18573 0
-18518 18574 0
-18519 18575 0
-18520 18576 0
-18521 18577 0
-18522 18578 0
-18523 18579 0
-18524 18580 0
-18525 18581 0
-18526 18582 0
-18527 18583 0
-18528 18584 0
-18529 18585 0
-18530 18586 0
-18531 18587 0
-18532 18588 0
-18533 18589 0
-18534 18590 0
-18535 18591 0
-18536 18592 0
-18537 18593 0
-18538 18594 0
-18539 18595 0
-18540 18596 0
-18541 18597 0
-18542 18598 0
-18543 18599 0
-18544 18600 0
-1440 -18489 18546 0
-1440 -18490 18547 0
-1440 -18491 18548 0
-1440 -18492 18549 0
-1440 -18493 18550 0
-1440 -18494 18551 0
-1440 -18495 18552 0
-1440 -18496 18553 0
-1440 -18497 18554 0
-1440 -18498 18555 0
-1440 -18499 18556 0
-1440 -18500 18557 0
-1440 -18501 18558 0
-1440 -18502 18559 0
-1440 -18503 18560 0
-1440 -18504 18561 0
-1440 -18505 18562 0
-1440 -18506 18563 0
-1440 -18507 18564 0
-1440 -18508 18565 0
-1440 -18509 18566 0
-1440 -18510 18567 0
-1440 -18511 18568 0
-1440 -18512 18569 0
-1440 -18513 18570 0
-1440 -18514 18571 0
-1440 -18515 18572 0
-1440 -18516 18573 0
-1440 -18517 18574 0
-1440 -18518 18575 0
-1440 -18519 18576 0
-1440 -18520 18577 0
-1440 -18521 18578 0
-1440 -18522 18579 0
-1440 -18523 18580 0
-1440 -18524 18581 0
-1440 -18525 18582 0
-1440 -18526 18583 0
-1440 -18527 18584 0
-1440 -18528 18585 0
-1440 -18529 18586 0
-1440 -18530 18587 0
-1440 -18531 18588 0
-1440 -18532 18589 0
-1440 -18533 18590 0
-1440 -18534 18591 0
-1440 -18535 18592 0
-1440 -18536 18593 0
-1440 -18537 18594 0
-1440 -18538 18595 0
-1440 -18539 18596 0
-1440 -18540 18597 0
-1440 -18541 18598 0
-1440 -18542 18599 0
-1440 -18543 18600 0
-1440 -18544 0
-18545 18601 0
-18546 18602 0
-18547 18603 0
-18548 18604 0
-18549 18605 0
-18550 18606 0
-18551 18607 0
-18552 18608 0
-18553 18609 0
-18554 18610 0
-18555 18611 0
-18556 18612 0
-18557 18613 0
-18558 18614 0
-18559 18615 0
-18560 18616 0
-18561 18617 0
-18562 18618 0
-18563 18619 0
-18564 18620 0
-18565 18621 0
-18566 18622 0
-18567 18623 0
-18568 18624 0
-18569 18625 0
-18570 18626 0
-18571 18627 0
-18572 18628 0
-18573 18629 0
-18574 18630 0
-18575 18631 0
-18576 18632 0
-18577 18633 0
-18578 18634 0
-18579 18635 0
-18580 18636 0
-18581 18637 0
-18582 18638 0
-18583 18639 0
-18584 18640 0
-18585 18641 0
-18586 18642 0
-18587 18643 0
-18588 18644 0
-18589 18645 0
-18590 18646 0
-18591 18647 0
-18592 18648 0
-18593 18649 0
-18594 18650 0
-18595 18651 0
-18596 18652 0
-18597 18653 0
-18598 18654 0
-18599 18655 0
-18600 18656 0
-1442 -18545 18602 0
-1442 -18546 18603 0
-1442 -18547 18604 0
-1442 -18548 18605 0
-1442 -18549 18606 0
-1442 -18550 18607 0
-1442 -18551 18608 0
-1442 -18552 18609 0
-1442 -18553 18610 0
-1442 -18554 18611 0
-1442 -18555 18612 0
-1442 -18556 18613 0
-1442 -18557 18614 0
-1442 -18558 18615 0
-1442 -18559 18616 0
-1442 -18560 18617 0
-1442 -18561 18618 0
-1442 -18562 18619 0
-1442 -18563 18620 0
-1442 -18564 18621 0
-1442 -18565 18622 0
-1442 -18566 18623 0
-1442 -18567 18624 0
-1442 -18568 18625 0
-1442 -18569 18626 0
-1442 -18570 18627 0
-1442 -18571 18628 0
-1442 -18572 18629 0
-1442 -18573 18630 0
-1442 -18574 18631 0
-1442 -18575 18632 0
-1442 -18576 18633 0
-1442 -18577 18634 0
-1442 -18578 18635 0
-1442 -18579 18636 0
-1442 -18580 18637 0
-1442 -18581 18638 0
-1442 -18582 18639 0
-1442 -18583 18640 0
-1442 -18584 18641 0
-1442 -18585 18642 0
-1442 -18586 18643 0
-1442 -18587 18644 0
-1442 -18588 18645 0
-1442 -18589 18646 0
-1442 -18590 18647 0
-1442 -18591 18648 0
-1442 -18592 18649 0
-1442 -18593 18650 0
-1442 -18594 18651 0
-1442 -18595 18652 0
-1442 -18596 18653 0
-1442 -18597 18654 0
-1442 -18598 18655 0
-1442 -18599 18656 0
-1442 -18600 0
-18601 18657 0
-18602 18658 0
-18603 18659 0
-18604 18660 0
-18605 18661 0
-18606 18662 0
-18607 18663 0
-18608 18664 0
-18609 18665 0
-18610 18666 0
-18611 18667 0
-18612 18668 0
-18613 18669 0
-18614 18670 0
-18615 18671 0
-18616 18672 0
-18617 18673 0
-18618 18674 0
-18619 18675 0
-18620 18676 0
-18621 18677 0
-18622 18678 0
-18623 18679 0
-18624 18680 0
-18625 18681 0
-18626 18682 0
-18627 18683 0
-18628 18684 0
-18629 18685 0
-18630 18686 0
-18631 18687 0
-18632 18688 0
-18633 18689 0
-18634 18690 0
-18635 18691 0
-18636 18692 0
-18637 18693 0
-18638 18694 0
-18639 18695 0
-18640 18696 0
-18641 18697 0
-18642 18698 0
-18643 18699 0
-18644 18700 0
-18645 18701 0
-18646 18702 0
-18647 18703 0
-18648 18704 0
-18649 18705 0
-18650 18706 0
-18651 18707 0
-18652 18708 0
-18653 18709 0
-18654 18710 0
-18655 18711 0
-18656 18712 0
-1444 -18601 18658 0
-1444 -18602 18659 0
-1444 -18603 18660 0
-1444 -18604 18661 0
-1444 -18605 18662 0
-1444 -18606 18663 0
-1444 -18607 18664 0
-1444 -18608 18665 0
-1444 -18609 18666 0
-1444 -18610 18667 0
-1444 -18611 18668 0
-1444 -18612 18669 0
-1444 -18613 18670 0
-1444 -18614 18671 0
-1444 -18615 18672 0
-1444 -18616 18673 0
-1444 -18617 18674 0
-1444 -18618 18675 0
-1444 -18619 18676 0
-1444 -18620 18677 0
-1444 -18621 18678 0
-1444 -18622 18679 0
-1444 -18623 18680 0
-1444 -18624 18681 0
-1444 -18625 18682 0
-1444 -18626 18683 0
-1444 -18627 18684 0
-1444 -18628 18685 0
-1444 -18629 18686 0
-1444 -18630 18687 0
-1444 -18631 18688 0
-1444 -18632 18689 0
-1444 -18633 18690 0
-1444 -18634 18691 0
-1444 -18635 18692 0
-1444 -18636 18693 0
-1444 -18637 18694 0
-1444 -18638 18695 0
-1444 -18639 18696 0
-1444 -18640 18697 0
-1444 -18641 18698 0
-1444 -18642 18699 0
-1444 -18643 18700 0
-1444 -18644 18701 0
-1444 -18645 18702 0
-1444 -18646 18703 0
-1444 -18647 18704 0
-1444 -18648 18705 0
-1444 -18649 18706 0
-1444 -18650 18707 0
-1444 -18651 18708 0
-1444 -18652 18709 0
-1444 -18653 18710 0
-1444 -18654 18711 0
-1444 -18655 18712 0
-1444 -18656 0
-18657 18713 0
-18658 18714 0
-18659 18715 0
-18660 18716 0
-18661 18717 0
-18662 18718 0
-18663 18719 0
-18664 18720 0
-18665 18721 0
-18666 18722 0
-18667 18723 0
-18668 18724 0
-18669 18725 0
-18670 18726 0
-18671 18727 0
-18672 18728 0
-18673 18729 0
-18674 18730 0
-18675 18731 0
-18676 18732 0
-18677 18733 0
-18678 18734 0
-18679 18735 0
-18680 18736 0
-18681 18737 0
-18682 18738 0
-18683 18739 0
-18684 18740 0
-18685 18741 0
-18686 18742 0
-18687 18743 0
-18688 18744 0
-18689 18745 0
-18690 18746 0
-18691 18747 0
-18692 18748 0
-18693 18749 0
-18694 18750 0
-18695 18751 0
-18696 18752 0
-18697 18753 0
-18698 18754 0
-18699 18755 0
-18700 18756 0
-18701 18757 0
-18702 18758 0
-18703 18759 0
-18704 18760 0
-18705 18761 0
-18706 18762 0
-18707 18763 0
-18708 18764 0
-18709 18765 0
-18710 18766 0
-18711 18767 0
-18712 18768 0
-1446 -18657 18714 0
-1446 -18658 18715 0
-1446 -18659 18716 0
-1446 -18660 18717 0
-1446 -18661 18718 0
-1446 -18662 18719 0
-1446 -18663 18720 0
-1446 -18664 18721 0
-1446 -18665 18722 0
-1446 -18666 18723 0
-1446 -18667 18724 0
-1446 -18668 18725 0
-1446 -18669 18726 0
-1446 -18670 18727 0
-1446 -18671 18728 0
-1446 -18672 18729 0
-1446 -18673 18730 0
-1446 -18674 18731 0
-1446 -18675 18732 0
-1446 -18676 18733 0
-1446 -18677 18734 0
-1446 -18678 18735 0
-1446 -18679 18736 0
-1446 -18680 18737 0
-1446 -18681 18738 0
-1446 -18682 18739 0
-1446 -18683 18740 0
-1446 -18684 18741 0
-1446 -18685 18742 0
-1446 -18686 18743 0
-1446 -18687 18744 0
-1446 -18688 18745 0
-1446 -18689 18746 0
-1446 -18690 18747 0
-1446 -18691 18748 0
-1446 -18692 18749 0
-1446 -18693 18750 0
-1446 -18694 18751 0
-1446 -18695 18752 0
-1446 -18696 18753 0
-1446 -18697 18754 0
-1446 -18698 18755 0
-1446 -18699 18756 0
-1446 -18700 18757 0
-1446 -18701 18758 0
-1446 -18702 18759 0
-1446 -18703 18760 0
-1446 -18704 18761 0
-1446 -18705 18762 0
-1446 -18706 18763 0
-1446 -18707 18764 0
-1446 -18708 18765 0
-1446 -18709 18766 0
-1446 -18710 18767 0
-1446 -18711 18768 0
-1446 -18712 0
-18713 18769 0
-18714 18770 0
-18715 18771 0
-18716 18772 0
-18717 18773 0
-18718 18774 0
-18719 18775 0
-18720 18776 0
-18721 18777 0
-18722 18778 0
-18723 18779 0
-18724 18780 0
-18725 18781 0
-18726 18782 0
-18727 18783 0
-18728 18784 0
-18729 18785 0
-18730 18786 0
-18731 18787 0
-18732 18788 0
-18733 18789 0
-18734 18790 0
-18735 18791 0
-18736 18792 0
-18737 18793 0
-18738 18794 0
-18739 18795 0
-18740 18796 0
-18741 18797 0
-18742 18798 0
-18743 18799 0
-18744 18800 0
-18745 18801 0
-18746 18802 0
-18747 18803 0
-18748 18804 0
-18749 18805 0
-18750 18806 0
-18751 18807 0
-18752 18808 0
-18753 18809 0
-18754 18810 0
-18755 18811 0
-18756 18812 0
-18757 18813 0
-18758 18814 0
-18759 18815 0
-18760 18816 0
-18761 18817 0
-18762 18818 0
-18763 18819 0
-18764 18820 0
-18765 18821 0
-18766 18822 0
-18767 18823 0
-18768 18824 0
-1448 -18713 18770 0
-1448 -18714 18771 0
-1448 -18715 18772 0
-1448 -18716 18773 0
-1448 -18717 18774 0
-1448 -18718 18775 0
-1448 -18719 18776 0
-1448 -18720 18777 0
-1448 -18721 18778 0
-1448 -18722 18779 0
-1448 -18723 18780 0
-1448 -18724 18781 0
-1448 -18725 18782 0
-1448 -18726 18783 0
-1448 -18727 18784 0
-1448 -18728 18785 0
-1448 -18729 18786 0
-1448 -18730 18787 0
-1448 -18731 18788 0
-1448 -18732 18789 0
-1448 -18733 18790 0
-1448 -18734 18791 0
-1448 -18735 18792 0
-1448 -18736 18793 0
-1448 -18737 18794 0
-1448 -18738 18795 0
-1448 -18739 18796 0
-1448 -18740 18797 0
-1448 -18741 18798 0
-1448 -18742 18799 0
-1448 -18743 18800 0
-1448 -18744 18801 0
-1448 -18745 18802 0
-1448 -18746 18803 0
-1448 -18747 18804 0
-1448 -18748 18805 0
-1448 -18749 18806 0
-1448 -18750 18807 0
-1448 -18751 18808 0
-1448 -18752 18809 0
-1448 -18753 18810 0
-1448 -18754 18811 0
-1448 -18755 18812 0
-1448 -18756 18813 0
-1448 -18757 18814 0
-1448 -18758 18815 0
-1448 -18759 18816 0
-1448 -18760 18817 0
-1448 -18761 18818 0
-1448 -18762 18819 0
-1448 -18763 18820 0
-1448 -18764 18821 0
-1448 -18765 18822 0
-1448 -18766 18823 0
-1448 -18767 18824 0
-1448 -18768 0
-18769 18825 0
-18770 18826 0
-18771 18827 0
-18772 18828 0
-18773 18829 0
-18774 18830 0
-18775 18831 0
-18776 18832 0
-18777 18833 0
-18778 18834 0
-18779 18835 0
-18780 18836 0
-18781 18837 0
-18782 18838 0
-18783 18839 0
-18784 18840 0
-18785 18841 0
-18786 18842 0
-18787 18843 0
-18788 18844 0
-18789 18845 0
-18790 18846 0
-18791 18847 0
-18792 18848 0
-18793 18849 0
-18794 18850 0
-18795 18851 0
-18796 18852 0
-18797 18853 0
-18798 18854 0
-18799 18855 0
-18800 18856 0
-18801 18857 0
-18802 18858 0
-18803 18859 0
-18804 18860 0
-18805 18861 0
-18806 18862 0
-18807 18863 0
-18808 18864 0
-18809 18865 0
-18810 18866 0
-18811 18867 0
-18812 18868 0
-18813 18869 0
-18814 18870 0
-18815 18871 0
-18816 18872 0
-18817 18873 0
-18818 18874 0
-18819 18875 0
-18820 18876 0
-18821 18877 0
-18822 18878 0
-18823 18879 0
-18824 18880 0
-1450 -18769 18826 0
-1450 -18770 18827 0
-1450 -18771 18828 0
-1450 -18772 18829 0
-1450 -18773 18830 0
-1450 -18774 18831 0
-1450 -18775 18832 0
-1450 -18776 18833 0
-1450 -18777 18834 0
-1450 -18778 18835 0
-1450 -18779 18836 0
-1450 -18780 18837 0
-1450 -18781 18838 0
-1450 -18782 18839 0
-1450 -18783 18840 0
-1450 -18784 18841 0
-1450 -18785 18842 0
-1450 -18786 18843 0
-1450 -18787 18844 0
-1450 -18788 18845 0
-1450 -18789 18846 0
-1450 -18790 18847 0
-1450 -18791 18848 0
-1450 -18792 18849 0
-1450 -18793 18850 0
-1450 -18794 18851 0
-1450 -18795 18852 0
-1450 -18796 18853 0
-1450 -18797 18854 0
-1450 -18798 18855 0
-1450 -18799 18856 0
-1450 -18800 18857 0
-1450 -18801 18858 0
-1450 -18802 18859 0
-1450 -18803 18860 0
-1450 -18804 18861 0
-1450 -18805 18862 0
-1450 -18806 18863 0
-1450 -18807 18864 0
-1450 -18808 18865 0
-1450 -18809 18866 0
-1450 -18810 18867 0
-1450 -18811 18868 0
-1450 -18812 18869 0
-1450 -18813 18870 0
-1450 -18814 18871 0
-1450 -18815 18872 0
-1450 -18816 18873 0
-1450 -18817 18874 0
-1450 -18818 18875 0
-1450 -18819 18876 0
-1450 -18820 18877 0
-1450 -18821 18878 0
-1450 -18822 18879 0
-1450 -18823 18880 0
-1450 -18824 0
-18825 18881 0
-18826 18882 0
-18827 18883 0
-18828 18884 0
-18829 18885 0
-18830 18886 0
-18831 18887 0
-18832 18888 0
-18833 18889 0
-18834 18890 0
-18835 18891 0
-18836 18892 0
-18837 18893 0
-18838 18894 0
-18839 18895 0
-18840 18896 0
-18841 18897 0
-18842 18898 0
-18843 18899 0
-18844 18900 0
-18845 18901 0
-18846 18902 0
-18847 18903 0
-18848 18904 0
-18849 18905 0
-18850 18906 0
-18851 18907 0
-18852 18908 0
-18853 18909 0
-18854 18910 0
-18855 18911 0
-18856 18912 0
-18857 18913 0
-18858 18914 0
-18859 18915 0
-18860 18916 0
-18861 18917 0
-18862 18918 0
-18863 18919 0
-18864 18920 0
-18865 18921 0
-18866 18922 0
-18867 18923 0
-18868 18924 0
-18869 18925 0
-18870 18926 0
-18871 18927 0
-18872 18928 0
-18873 18929 0
-18874 18930 0
-18875 18931 0
-18876 18932 0
-18877 18933 0
-18878 18934 0
-18879 18935 0
-18880 18936 0
-1452 -18825 18882 0
-1452 -18826 18883 0
-1452 -18827 18884 0
-1452 -18828 18885 0
-1452 -18829 18886 0
-1452 -18830 18887 0
-1452 -18831 18888 0
-1452 -18832 18889 0
-1452 -18833 18890 0
-1452 -18834 18891 0
-1452 -18835 18892 0
-1452 -18836 18893 0
-1452 -18837 18894 0
-1452 -18838 18895 0
-1452 -18839 18896 0
-1452 -18840 18897 0
-1452 -18841 18898 0
-1452 -18842 18899 0
-1452 -18843 18900 0
-1452 -18844 18901 0
-1452 -18845 18902 0
-1452 -18846 18903 0
-1452 -18847 18904 0
-1452 -18848 18905 0
-1452 -18849 18906 0
-1452 -18850 18907 0
-1452 -18851 18908 0
-1452 -18852 18909 0
-1452 -18853 18910 0
-1452 -18854 18911 0
-1452 -18855 18912 0
-1452 -18856 18913 0
-1452 -18857 18914 0
-1452 -18858 18915 0
-1452 -18859 18916 0
-1452 -18860 18917 0
-1452 -18861 18918 0
-1452 -18862 18919 0
-1452 -18863 18920 0
-1452 -18864 18921 0
-1452 -18865 18922 0
-1452 -18866 18923 0
-1452 -18867 18924 0
-1452 -18868 18925 0
-1452 -18869 18926 0
-1452 -18870 18927 0
-1452 -18871 18928 0
-1452 -18872 18929 0
-1452 -18873 18930 0
-1452 -18874 18931 0
-1452 -18875 18932 0
-1452 -18876 18933 0
-1452 -18877 18934 0
-1452 -18878 18935 0
-1452 -18879 18936 0
-1452 -18880 0
-18881 18937 0
-18882 18938 0
-18883 18939 0
-18884 18940 0
-18885 18941 0
-18886 18942 0
-18887 18943 0
-18888 18944 0
-18889 18945 0
-18890 18946 0
-18891 18947 0
-18892 18948 0
-18893 18949 0
-18894 18950 0
-18895 18951 0
-18896 18952 0
-18897 18953 0
-18898 18954 0
-18899 18955 0
-18900 18956 0
-18901 18957 0
-18902 18958 0
-18903 18959 0
-18904 18960 0
-18905 18961 0
-18906 18962 0
-18907 18963 0
-18908 18964 0
-18909 18965 0
-18910 18966 0
-18911 18967 0
-18912 18968 0
-18913 18969 0
-18914 18970 0
-18915 18971 0
-18916 18972 0
-18917 18973 0
-18918 18974 0
-18919 18975 0
-18920 18976 0
-18921 18977 0
-18922 18978 0
-18923 18979 0
-18924 18980 0
-18925 18981 0
-18926 18982 0
-18927 18983 0
-18928 18984 0
-18929 18985 0
-18930 18986 0
-18931 18987 0
-18932 18988 0
-18933 18989 0
-18934 18990 0
-18935 18991 0
-18936 18992 0
-1454 -18881 18938 0
-1454 -18882 18939 0
-1454 -18883 18940 0
-1454 -18884 18941 0
-1454 -18885 18942 0
-1454 -18886 18943 0
-1454 -18887 18944 0
-1454 -18888 18945 0
-1454 -18889 18946 0
-1454 -18890 18947 0
-1454 -18891 18948 0
-1454 -18892 18949 0
-1454 -18893 18950 0
-1454 -18894 18951 0
-1454 -18895 18952 0
-1454 -18896 18953 0
-1454 -18897 18954 0
-1454 -18898 18955 0
-1454 -18899 18956 0
-1454 -18900 18957 0
-1454 -18901 18958 0
-1454 -18902 18959 0
-1454 -18903 18960 0
-1454 -18904 18961 0
-1454 -18905 18962 0
-1454 -18906 18963 0
-1454 -18907 18964 0
-1454 -18908 18965 0
-1454 -18909 18966 0
-1454 -18910 18967 0
-1454 -18911 18968 0
-1454 -18912 18969 0
-1454 -18913 18970 0
-1454 -18914 18971 0
-1454 -18915 18972 0
-1454 -18916 18973 0
-1454 -18917 18974 0
-1454 -18918 18975 0
-1454 -18919 18976 0
-1454 -18920 18977 0
-1454 -18921 18978 0
-1454 -18922 18979 0
-1454 -18923 18980 0
-1454 -18924 18981 0
-1454 -18925 18982 0
-1454 -18926 18983 0
-1454 -18927 18984 0
-1454 -18928 18985 0
-1454 -18929 18986 0
-1454 -18930 18987 0
-1454 -18931 18988 0
-1454 -18932 18989 0
-1454 -18933 18990 0
-1454 -18934 18991 0
-1454 -18935 18992 0
-1454 -18936 0
-18937 18993 0
-18938 18994 0
-18939 18995 0
-18940 18996 0
-18941 18997 0
-18942 18998 0
-18943 18999 0
-18944 19000 0
-18945 19001 0
-18946 19002 0
-18947 19003 0
-18948 19004 0
-18949 19005 0
-18950 19006 0
-18951 19007 0
-18952 19008 0
-18953 19009 0
-18954 19010 0
-18955 19011 0
-18956 19012 0
-18957 19013 0
-18958 19014 0
-18959 19015 0
-18960 19016 0
-18961 19017 0
-18962 19018 0
-18963 19019 0
-18964 19020 0
-18965 19021 0
-18966 19022 0
-18967 19023 0
-18968 19024 0
-18969 19025 0
-18970 19026 0
-18971 19027 0
-18972 19028 0
-18973 19029 0
-18974 19030 0
-18975 19031 0
-18976 19032 0
-18977 19033 0
-18978 19034 0
-18979 19035 0
-18980 19036 0
-18981 19037 0
-18982 19038 0
-18983 19039 0
-18984 19040 0
-18985 19041 0
-18986 19042 0
-18987 19043 0
-18988 19044 0
-18989 19045 0
-18990 19046 0
-18991 19047 0
-18992 19048 0
-1456 -18937 18994 0
-1456 -18938 18995 0
-1456 -18939 18996 0
-1456 -18940 18997 0
-1456 -18941 18998 0
-1456 -18942 18999 0
-1456 -18943 19000 0
-1456 -18944 19001 0
-1456 -18945 19002 0
-1456 -18946 19003 0
-1456 -18947 19004 0
-1456 -18948 19005 0
-1456 -18949 19006 0
-1456 -18950 19007 0
-1456 -18951 19008 0
-1456 -18952 19009 0
-1456 -18953 19010 0
-1456 -18954 19011 0
-1456 -18955 19012 0
-1456 -18956 19013 0
-1456 -18957 19014 0
-1456 -18958 19015 0
-1456 -18959 19016 0
-1456 -18960 19017 0
-1456 -18961 19018 0
-1456 -18962 19019 0
-1456 -18963 19020 0
-1456 -18964 19021 0
-1456 -18965 19022 0
-1456 -18966 19023 0
-1456 -18967 19024 0
-1456 -18968 19025 0
-1456 -18969 19026 0
-1456 -18970 19027 0
-1456 -18971 19028 0
-1456 -18972 19029 0
-1456 -18973 19030 0
-1456 -18974 19031 0
-1456 -18975 19032 0
-1456 -18976 19033 0
-1456 -18977 19034 0
-1456 -18978 19035 0
-1456 -18979 19036 0
-1456 -18980 19037 0
-1456 -18981 19038 0
-1456 -18982 19039 0
-1456 -18983 19040 0
-1456 -18984 19041 0
-1456 -18985 19042 0
-1456 -18986 19043 0
-1456 -18987 19044 0
-1456 -18988 19045 0
-1456 -18989 19046 0
-1456 -18990 19047 0
-1456 -18991 19048 0
-1456 -18992 0
-18993 19049 0
-18994 19050 0
-18995 19051 0
-18996 19052 0
-18997 19053 0
-18998 19054 0
-18999 19055 0
-19000 19056 0
-19001 19057 0
-19002 19058 0
-19003 19059 0
-19004 19060 0
-19005 19061 0
-19006 19062 0
-19007 19063 0
-19008 19064 0
-19009 19065 0
-19010 19066 0
-19011 19067 0
-19012 19068 0
-19013 19069 0
-19014 19070 0
-19015 19071 0
-19016 19072 0
-19017 19073 0
-19018 19074 0
-19019 19075 0
-19020 19076 0
-19021 19077 0
-19022 19078 0
-19023 19079 0
-19024 19080 0
-19025 19081 0
-19026 19082 0
-19027 19083 0
-19028 19084 0
-19029 19085 0
-19030 19086 0
-19031 19087 0
-19032 19088 0
-19033 19089 0
-19034 19090 0
-19035 19091 0
-19036 19092 0
-19037 19093 0
-19038 19094 0
-19039 19095 0
-19040 19096 0
-19041 19097 0
-19042 19098 0
-19043 19099 0
-19044 19100 0
-19045 19101 0
-19046 19102 0
-19047 19103 0
-19048 19104 0
-1458 -18993 19050 0
-1458 -18994 19051 0
-1458 -18995 19052 0
-1458 -18996 19053 0
-1458 -18997 19054 0
-1458 -18998 19055 0
-1458 -18999 19056 0
-1458 -19000 19057 0
-1458 -19001 19058 0
-1458 -19002 19059 0
-1458 -19003 19060 0
-1458 -19004 19061 0
-1458 -19005 19062 0
-1458 -19006 19063 0
-1458 -19007 19064 0
-1458 -19008 19065 0
-1458 -19009 19066 0
-1458 -19010 19067 0
-1458 -19011 19068 0
-1458 -19012 19069 0
-1458 -19013 19070 0
-1458 -19014 19071 0
-1458 -19015 19072 0
-1458 -19016 19073 0
-1458 -19017 19074 0
-1458 -19018 19075 0
-1458 -19019 19076 0
-1458 -19020 19077 0
-1458 -19021 19078 0
-1458 -19022 19079 0
-1458 -19023 19080 0
-1458 -19024 19081 0
-1458 -19025 19082 0
-1458 -19026 19083 0
-1458 -19027 19084 0
-1458 -19028 19085 0
-1458 -19029 19086 0
-1458 -19030 19087 0
-1458 -19031 19088 0
-1458 -19032 19089 0
-1458 -19033 19090 0
-1458 -19034 19091 0
-1458 -19035 19092 0
-1458 -19036 19093 0
-1458 -19037 19094 0
-1458 -19038 19095 0
-1458 -19039 19096 0
-1458 -19040 19097 0
-1458 -19041 19098 0
-1458 -19042 19099 0
-1458 -19043 19100 0
-1458 -19044 19101 0
-1458 -19045 19102 0
-1458 -19046 19103 0
-1458 -19047 19104 0
-1458 -19048 0
-19049 19105 0
-19050 19106 0
-19051 19107 0
-19052 19108 0
-19053 19109 0
-19054 19110 0
-19055 19111 0
-19056 19112 0
-19057 19113 0
-19058 19114 0
-19059 19115 0
-19060 19116 0
-19061 19117 0
-19062 19118 0
-19063 19119 0
-19064 19120 0
-19065 19121 0
-19066 19122 0
-19067 19123 0
-19068 19124 0
-19069 19125 0
-19070 19126 0
-19071 19127 0
-19072 19128 0
-19073 19129 0
-19074 19130 0
-19075 19131 0
-19076 19132 0
-19077 19133 0
-19078 19134 0
-19079 19135 0
-19080 19136 0
-19081 19137 0
-19082 19138 0
-19083 19139 0
-19084 19140 0
-19085 19141 0
-19086 19142 0
-19087 19143 0
-19088 19144 0
-19089 19145 0
-19090 19146 0
-19091 19147 0
-19092 19148 0
-19093 19149 0
-19094 19150 0
-19095 19151 0
-19096 19152 0
-19097 19153 0
-19098 19154 0
-19099 19155 0
-19100 19156 0
-19101 19157 0
-19102 19158 0
-19103 19159 0
-19104 19160 0
-1460 -19049 19106 0
-1460 -19050 19107 0
-1460 -19051 19108 0
-1460 -19052 19109 0
-1460 -19053 19110 0
-1460 -19054 19111 0
-1460 -19055 19112 0
-1460 -19056 19113 0
-1460 -19057 19114 0
-1460 -19058 19115 0
-1460 -19059 19116 0
-1460 -19060 19117 0
-1460 -19061 19118 0
-1460 -19062 19119 0
-1460 -19063 19120 0
-1460 -19064 19121 0
-1460 -19065 19122 0
-1460 -19066 19123 0
-1460 -19067 19124 0
-1460 -19068 19125 0
-1460 -19069 19126 0
-1460 -19070 19127 0
-1460 -19071 19128 0
-1460 -19072 19129 0
-1460 -19073 19130 0
-1460 -19074 19131 0
-1460 -19075 19132 0
-1460 -19076 19133 0
-1460 -19077 19134 0
-1460 -19078 19135 0
-1460 -19079 19136 0
-1460 -19080 19137 0
-1460 -19081 19138 0
-1460 -19082 19139 0
-1460 -19083 19140 0
-1460 -19084 19141 0
-1460 -19085 19142 0
-1460 -19086 19143 0
-1460 -19087 19144 0
-1460 -19088 19145 0
-1460 -19089 19146 0
-1460 -19090 19147 0
-1460 -19091 19148 0
-1460 -19092 19149 0
-1460 -19093 19150 0
-1460 -19094 19151 0
-1460 -19095 19152 0
-1460 -19096 19153 0
-1460 -19097 19154 0
-1460 -19098 19155 0
-1460 -19099 19156 0
-1460 -19100 19157 0
-1460 -19101 19158 0
-1460 -19102 19159 0
-1460 -19103 19160 0
-1460 -19104 0
-19105 19161 0
-19106 19162 0
-19107 19163 0
-19108 19164 0
-19109 19165 0
-19110 19166 0
-19111 19167 0
-19112 19168 0
-19113 19169 0
-19114 19170 0
-19115 19171 0
-19116 19172 0
-19117 19173 0
-19118 19174 0
-19119 19175 0
-19120 19176 0
-19121 19177 0
-19122 19178 0
-19123 19179 0
-19124 19180 0
-19125 19181 0
-19126 19182 0
-19127 19183 0
-19128 19184 0
-19129 19185 0
-19130 19186 0
-19131 19187 0
-19132 19188 0
-19133 19189 0
-19134 19190 0
-19135 19191 0
-19136 19192 0
-19137 19193 0
-19138 19194 0
-19139 19195 0
-19140 19196 0
-19141 19197 0
-19142 19198 0
-19143 19199 0
-19144 19200 0
-19145 19201 0
-19146 19202 0
-19147 19203 0
-19148 19204 0
-19149 19205 0
-19150 19206 0
-19151 19207 0
-19152 19208 0
-19153 19209 0
-19154 19210 0
-19155 19211 0
-19156 19212 0
-19157 19213 0
-19158 19214 0
-19159 19215 0
-19160 19216 0
-1462 -19105 19162 0
-1462 -19106 19163 0
-1462 -19107 19164 0
-1462 -19108 19165 0
-1462 -19109 19166 0
-1462 -19110 19167 0
-1462 -19111 19168 0
-1462 -19112 19169 0
-1462 -19113 19170 0
-1462 -19114 19171 0
-1462 -19115 19172 0
-1462 -19116 19173 0
-1462 -19117 19174 0
-1462 -19118 19175 0
-1462 -19119 19176 0
-1462 -19120 19177 0
-1462 -19121 19178 0
-1462 -19122 19179 0
-1462 -19123 19180 0
-1462 -19124 19181 0
-1462 -19125 19182 0
-1462 -19126 19183 0
-1462 -19127 19184 0
-1462 -19128 19185 0
-1462 -19129 19186 0
-1462 -19130 19187 0
-1462 -19131 19188 0
-1462 -19132 19189 0
-1462 -19133 19190 0
-1462 -19134 19191 0
-1462 -19135 19192 0
-1462 -19136 19193 0
-1462 -19137 19194 0
-1462 -19138 19195 0
-1462 -19139 19196 0
-1462 -19140 19197 0
-1462 -19141 19198 0
-1462 -19142 19199 0
-1462 -19143 19200 0
-1462 -19144 19201 0
-1462 -19145 19202 0
-1462 -19146 19203 0
-1462 -19147 19204 0
-1462 -19148 19205 0
-1462 -19149 19206 0
-1462 -19150 19207 0
-1462 -19151 19208 0
-1462 -19152 19209 0
-1462 -19153 19210 0
-1462 -19154 19211 0
-1462 -19155 19212 0
-1462 -19156 19213 0
-1462 -19157 19214 0
-1462 -19158 19215 0
-1462 -19159 19216 0
-1462 -19160 0
-19161 19217 0
-19162 19218 0
-19163 19219 0
-19164 19220 0
-19165 19221 0
-19166 19222 0
-19167 19223 0
-19168 19224 0
-19169 19225 0
-19170 19226 0
-19171 19227 0
-19172 19228 0
-19173 19229 0
-19174 19230 0
-19175 19231 0
-19176 19232 0
-19177 19233 0
-19178 19234 0
-19179 19235 0
-19180 19236 0
-19181 19237 0
-19182 19238 0
-19183 19239 0
-19184 19240 0
-19185 19241 0
-19186 19242 0
-19187 19243 0
-19188 19244 0
-19189 19245 0
-19190 19246 0
-19191 19247 0
-19192 19248 0
-19193 19249 0
-19194 19250 0
-19195 19251 0
-19196 19252 0
-19197 19253 0
-19198 19254 0
-19199 19255 0
-19200 19256 0
-19201 19257 0
-19202 19258 0
-19203 19259 0
-19204 19260 0
-19205 19261 0
-19206 19262 0
-19207 19263 0
-19208 19264 0
-19209 19265 0
-19210 19266 0
-19211 19267 0
-19212 19268 0
-19213 19269 0
-19214 19270 0
-19215 19271 0
-19216 19272 0
-1464 -19161 19218 0
-1464 -19162 19219 0
-1464 -19163 19220 0
-1464 -19164 19221 0
-1464 -19165 19222 0
-1464 -19166 19223 0
-1464 -19167 19224 0
-1464 -19168 19225 0
-1464 -19169 19226 0
-1464 -19170 19227 0
-1464 -19171 19228 0
-1464 -19172 19229 0
-1464 -19173 19230 0
-1464 -19174 19231 0
-1464 -19175 19232 0
-1464 -19176 19233 0
-1464 -19177 19234 0
-1464 -19178 19235 0
-1464 -19179 19236 0
-1464 -19180 19237 0
-1464 -19181 19238 0
-1464 -19182 19239 0
-1464 -19183 19240 0
-1464 -19184 19241 0
-1464 -19185 19242 0
-1464 -19186 19243 0
-1464 -19187 19244 0
-1464 -19188 19245 0
-1464 -19189 19246 0
-1464 -19190 19247 0
-1464 -19191 19248 0
-1464 -19192 19249 0
-1464 -19193 19250 0
-1464 -19194 19251 0
-1464 -19195 19252 0
-1464 -19196 19253 0
-1464 -19197 19254 0
-1464 -19198 19255 0
-1464 -19199 19256 0
-1464 -19200 19257 0
-1464 -19201 19258 0
-1464 -19202 19259 0
-1464 -19203 19260 0
-1464 -19204 19261 0
-1464 -19205 19262 0
-1464 -19206 19263 0
-1464 -19207 19264 0
-1464 -19208 19265 0
-1464 -19209 19266 0
-1464 -19210 19267 0
-1464 -19211 19268 0
-1464 -19212 19269 0
-1464 -19213 19270 0
-1464 -19214 19271 0
-1464 -19215 19272 0
-1464 -19216 0
-19217 19273 0
-19218 19274 0
-19219 19275 0
-19220 19276 0
-19221 19277 0
-19222 19278 0
-19223 19279 0
-19224 19280 0
-19225 19281 0
-19226 19282 0
-19227 19283 0
-19228 19284 0
-19229 19285 0
-19230 19286 0
-19231 19287 0
-19232 19288 0
-19233 19289 0
-19234 19290 0
-19235 19291 0
-19236 19292 0
-19237 19293 0
-19238 19294 0
-19239 19295 0
-19240 19296 0
-19241 19297 0
-19242 19298 0
-19243 19299 0
-19244 19300 0
-19245 19301 0
-19246 19302 0
-19247 19303 0
-19248 19304 0
-19249 19305 0
-19250 19306 0
-19251 19307 0
-19252 19308 0
-19253 19309 0
-19254 19310 0
-19255 19311 0
-19256 19312 0
-19257 19313 0
-19258 19314 0
-19259 19315 0
-19260 19316 0
-19261 19317 0
-19262 19318 0
-19263 19319 0
-19264 19320 0
-19265 19321 0
-19266 19322 0
-19267 19323 0
-19268 19324 0
-19269 19325 0
-19270 19326 0
-19271 19327 0
-19272 19328 0
-1466 -19217 19274 0
-1466 -19218 19275 0
-1466 -19219 19276 0
-1466 -19220 19277 0
-1466 -19221 19278 0
-1466 -19222 19279 0
-1466 -19223 19280 0
-1466 -19224 19281 0
-1466 -19225 19282 0
-1466 -19226 19283 0
-1466 -19227 19284 0
-1466 -19228 19285 0
-1466 -19229 19286 0
-1466 -19230 19287 0
-1466 -19231 19288 0
-1466 -19232 19289 0
-1466 -19233 19290 0
-1466 -19234 19291 0
-1466 -19235 19292 0
-1466 -19236 19293 0
-1466 -19237 19294 0
-1466 -19238 19295 0
-1466 -19239 19296 0
-1466 -19240 19297 0
-1466 -19241 19298 0
-1466 -19242 19299 0
-1466 -19243 19300 0
-1466 -19244 19301 0
-1466 -19245 19302 0
-1466 -19246 19303 0
-1466 -19247 19304 0
-1466 -19248 19305 0
-1466 -19249 19306 0
-1466 -19250 19307 0
-1466 -19251 19308 0
-1466 -19252 19309 0
-1466 -19253 19310 0
-1466 -19254 19311 0
-1466 -19255 19312 0
-1466 -19256 19313 0
-1466 -19257 19314 0
-1466 -19258 19315 0
-1466 -19259 19316 0
-1466 -19260 19317 0
-1466 -19261 19318 0
-1466 -19262 19319 0
-1466 -19263 19320 0
-1466 -19264 19321 0
-1466 -19265 19322 0
-1466 -19266 19323 0
-1466 -19267 19324 0
-1466 -19268 19325 0
-1466 -19269 19326 0
-1466 -19270 19327 0
-1466 -19271 19328 0
-1466 -19272 0
-19273 19329 0
-19274 19330 0
-19275 19331 0
-19276 19332 0
-19277 19333 0
-19278 19334 0
-19279 19335 0
-19280 19336 0
-19281 19337 0
-19282 19338 0
-19283 19339 0
-19284 19340 0
-19285 19341 0
-19286 19342 0
-19287 19343 0
-19288 19344 0
-19289 19345 0
-19290 19346 0
-19291 19347 0
-19292 19348 0
-19293 19349 0
-19294 19350 0
-19295 19351 0
-19296 19352 0
-19297 19353 0
-19298 19354 0
-19299 19355 0
-19300 19356 0
-19301 19357 0
-19302 19358 0
-19303 19359 0
-19304 19360 0
-19305 19361 0
-19306 19362 0
-19307 19363 0
-19308 19364 0
-19309 19365 0
-19310 19366 0
-19311 19367 0
-19312 19368 0
-19313 19369 0
-19314 19370 0
-19315 19371 0
-19316 19372 0
-19317 19373 0
-19318 19374 0
-19319 19375 0
-19320 19376 0
-19321 19377 0
-19322 19378 0
-19323 19379 0
-19324 19380 0
-19325 19381 0
-19326 19382 0
-19327 19383 0
-19328 19384 0
-1468 -19273 19330 0
-1468 -19274 19331 0
-1468 -19275 19332 0
-1468 -19276 19333 0
-1468 -19277 19334 0
-1468 -19278 19335 0
-1468 -19279 19336 0
-1468 -19280 19337 0
-1468 -19281 19338 0
-1468 -19282 19339 0
-1468 -19283 19340 0
-1468 -19284 19341 0
-1468 -19285 19342 0
-1468 -19286 19343 0
-1468 -19287 19344 0
-1468 -19288 19345 0
-1468 -19289 19346 0
-1468 -19290 19347 0
-1468 -19291 19348 0
-1468 -19292 19349 0
-1468 -19293 19350 0
-1468 -19294 19351 0
-1468 -19295 19352 0
-1468 -19296 19353 0
-1468 -19297 19354 0
-1468 -19298 19355 0
-1468 -19299 19356 0
-1468 -19300 19357 0
-1468 -19301 19358 0
-1468 -19302 19359 0
-1468 -19303 19360 0
-1468 -19304 19361 0
-1468 -19305 19362 0
-1468 -19306 19363 0
-1468 -19307 19364 0
-1468 -19308 19365 0
-1468 -19309 19366 0
-1468 -19310 19367 0
-1468 -19311 19368 0
-1468 -19312 19369 0
-1468 -19313 19370 0
-1468 -19314 19371 0
-1468 -19315 19372 0
-1468 -19316 19373 0
-1468 -19317 19374 0
-1468 -19318 19375 0
-1468 -19319 19376 0
-1468 -19320 19377 0
-1468 -19321 19378 0
-1468 -19322 19379 0
-1468 -19323 19380 0
-1468 -19324 19381 0
-1468 -19325 19382 0
-1468 -19326 19383 0
-1468 -19327 19384 0
-1468 -19328 0
-19329 19385 0
-19330 19386 0
-19331 19387 0
-19332 19388 0
-19333 19389 0
-19334 19390 0
-19335 19391 0
-19336 19392 0
-19337 19393 0
-19338 19394 0
-19339 19395 0
-19340 19396 0
-19341 19397 0
-19342 19398 0
-19343 19399 0
-19344 19400 0
-19345 19401 0
-19346 19402 0
-19347 19403 0
-19348 19404 0
-19349 19405 0
-19350 19406 0
-19351 19407 0
-19352 19408 0
-19353 19409 0
-19354 19410 0
-19355 19411 0
-19356 19412 0
-19357 19413 0
-19358 19414 0
-19359 19415 0
-19360 19416 0
-19361 19417 0
-19362 19418 0
-19363 19419 0
-19364 19420 0
-19365 19421 0
-19366 19422 0
-19367 19423 0
-19368 19424 0
-19369 19425 0
-19370 19426 0
-19371 19427 0
-19372 19428 0
-19373 19429 0
-19374 19430 0
-19375 19431 0
-19376 19432 0
-19377 19433 0
-19378 19434 0
-19379 19435 0
-19380 19436 0
-19381 19437 0
-19382 19438 0
-19383 19439 0
-19384 19440 0
-1470 -19329 19386 0
-1470 -19330 19387 0
-1470 -19331 19388 0
-1470 -19332 19389 0
-1470 -19333 19390 0
-1470 -19334 19391 0
-1470 -19335 19392 0
-1470 -19336 19393 0
-1470 -19337 19394 0
-1470 -19338 19395 0
-1470 -19339 19396 0
-1470 -19340 19397 0
-1470 -19341 19398 0
-1470 -19342 19399 0
-1470 -19343 19400 0
-1470 -19344 19401 0
-1470 -19345 19402 0
-1470 -19346 19403 0
-1470 -19347 19404 0
-1470 -19348 19405 0
-1470 -19349 19406 0
-1470 -19350 19407 0
-1470 -19351 19408 0
-1470 -19352 19409 0
-1470 -19353 19410 0
-1470 -19354 19411 0
-1470 -19355 19412 0
-1470 -19356 19413 0
-1470 -19357 19414 0
-1470 -19358 19415 0
-1470 -19359 19416 0
-1470 -19360 19417 0
-1470 -19361 19418 0
-1470 -19362 19419 0
-1470 -19363 19420 0
-1470 -19364 19421 0
-1470 -19365 19422 0
-1470 -19366 19423 0
-1470 -19367 19424 0
-1470 -19368 19425 0
-1470 -19369 19426 0
-1470 -19370 19427 0
-1470 -19371 19428 0
-1470 -19372 19429 0
-1470 -19373 19430 0
-1470 -19374 19431 0
-1470 -19375 19432 0
-1470 -19376 19433 0
-1470 -19377 19434 0
-1470 -19378 19435 0
-1470 -19379 19436 0
-1470 -19380 19437 0
-1470 -19381 19438 0
-1470 -19382 19439 0
-1470 -19383 19440 0
-1470 -19384 0
-19385 19441 0
-19386 19442 0
-19387 19443 0
-19388 19444 0
-19389 19445 0
-19390 19446 0
-19391 19447 0
-19392 19448 0
-19393 19449 0
-19394 19450 0
-19395 19451 0
-19396 19452 0
-19397 19453 0
-19398 19454 0
-19399 19455 0
-19400 19456 0
-19401 19457 0
-19402 19458 0
-19403 19459 0
-19404 19460 0
-19405 19461 0
-19406 19462 0
-19407 19463 0
-19408 19464 0
-19409 19465 0
-19410 19466 0
-19411 19467 0
-19412 19468 0
-19413 19469 0
-19414 19470 0
-19415 19471 0
-19416 19472 0
-19417 19473 0
-19418 19474 0
-19419 19475 0
-19420 19476 0
-19421 19477 0
-19422 19478 0
-19423 19479 0
-19424 19480 0
-19425 19481 0
-19426 19482 0
-19427 19483 0
-19428 19484 0
-19429 19485 0
-19430 19486 0
-19431 19487 0
-19432 19488 0
-19433 19489 0
-19434 19490 0
-19435 19491 0
-19436 19492 0
-19437 19493 0
-19438 19494 0
-19439 19495 0
-19440 19496 0
-1472 -19385 19442 0
-1472 -19386 19443 0
-1472 -19387 19444 0
-1472 -19388 19445 0
-1472 -19389 19446 0
-1472 -19390 19447 0
-1472 -19391 19448 0
-1472 -19392 19449 0
-1472 -19393 19450 0
-1472 -19394 19451 0
-1472 -19395 19452 0
-1472 -19396 19453 0
-1472 -19397 19454 0
-1472 -19398 19455 0
-1472 -19399 19456 0
-1472 -19400 19457 0
-1472 -19401 19458 0
-1472 -19402 19459 0
-1472 -19403 19460 0
-1472 -19404 19461 0
-1472 -19405 19462 0
-1472 -19406 19463 0
-1472 -19407 19464 0
-1472 -19408 19465 0
-1472 -19409 19466 0
-1472 -19410 19467 0
-1472 -19411 19468 0
-1472 -19412 19469 0
-1472 -19413 19470 0
-1472 -19414 19471 0
-1472 -19415 19472 0
-1472 -19416 19473 0
-1472 -19417 19474 0
-1472 -19418 19475 0
-1472 -19419 19476 0
-1472 -19420 19477 0
-1472 -19421 19478 0
-1472 -19422 19479 0
-1472 -19423 19480 0
-1472 -19424 19481 0
-1472 -19425 19482 0
-1472 -19426 19483 0
-1472 -19427 19484 0
-1472 -19428 19485 0
-1472 -19429 19486 0
-1472 -19430 19487 0
-1472 -19431 19488 0
-1472 -19432 19489 0
-1472 -19433 19490 0
-1472 -19434 19491 0
-1472 -19435 19492 0
-1472 -19436 19493 0
-1472 -19437 19494 0
-1472 -19438 19495 0
-1472 -19439 19496 0
-1472 -19440 0
-19441 19497 0
-19442 19498 0
-19443 19499 0
-19444 19500 0
-19445 19501 0
-19446 19502 0
-19447 19503 0
-19448 19504 0
-19449 19505 0
-19450 19506 0
-19451 19507 0
-19452 19508 0
-19453 19509 0
-19454 19510 0
-19455 19511 0
-19456 19512 0
-19457 19513 0
-19458 19514 0
-19459 19515 0
-19460 19516 0
-19461 19517 0
-19462 19518 0
-19463 19519 0
-19464 19520 0
-19465 19521 0
-19466 19522 0
-19467 19523 0
-19468 19524 0
-19469 19525 0
-19470 19526 0
-19471 19527 0
-19472 19528 0
-19473 19529 0
-19474 19530 0
-19475 19531 0
-19476 19532 0
-19477 19533 0
-19478 19534 0
-19479 19535 0
-19480 19536 0
-19481 19537 0
-19482 19538 0
-19483 19539 0
-19484 19540 0
-19485 19541 0
-19486 19542 0
-19487 19543 0
-19488 19544 0
-19489 19545 0
-19490 19546 0
-19491 19547 0
-19492 19548 0
-19493 19549 0
-19494 19550 0
-19495 19551 0
-19496 19552 0
-1474 -19441 19498 0
-1474 -19442 19499 0
-1474 -19443 19500 0
-1474 -19444 19501 0
-1474 -19445 19502 0
-1474 -19446 19503 0
-1474 -19447 19504 0
-1474 -19448 19505 0
-1474 -19449 19506 0
-1474 -19450 19507 0
-1474 -19451 19508 0
-1474 -19452 19509 0
-1474 -19453 19510 0
-1474 -19454 19511 0
-1474 -19455 19512 0
-1474 -19456 19513 0
-1474 -19457 19514 0
-1474 -19458 19515 0
-1474 -19459 19516 0
-1474 -19460 19517 0
-1474 -19461 19518 0
-1474 -19462 19519 0
-1474 -19463 19520 0
-1474 -19464 19521 0
-1474 -19465 19522 0
-1474 -19466 19523 0
-1474 -19467 19524 0
-1474 -19468 19525 0
-1474 -19469 19526 0
-1474 -19470 19527 0
-1474 -19471 19528 0
-1474 -19472 19529 0
-1474 -19473 19530 0
-1474 -19474 19531 0
-1474 -19475 19532 0
-1474 -19476 19533 0
-1474 -19477 19534 0
-1474 -19478 19535 0
-1474 -19479 19536 0
-1474 -19480 19537 0
-1474 -19481 19538 0
-1474 -19482 19539 0
-1474 -19483 19540 0
-1474 -19484 19541 0
-1474 -19485 19542 0
-1474 -19486 19543 0
-1474 -19487 19544 0
-1474 -19488 19545 0
-1474 -19489 19546 0
-1474 -19490 19547 0
-1474 -19491 19548 0
-1474 -19492 19549 0
-1474 -19493 19550 0
-1474 -19494 19551 0
-1474 -19495 19552 0
-1474 -19496 0
-19497 19553 0
-19498 19554 0
-19499 19555 0
-19500 19556 0
-19501 19557 0
-19502 19558 0
-19503 19559 0
-19504 19560 0
-19505 19561 0
-19506 19562 0
-19507 19563 0
-19508 19564 0
-19509 19565 0
-19510 19566 0
-19511 19567 0
-19512 19568 0
-19513 19569 0
-19514 19570 0
-19515 19571 0
-19516 19572 0
-19517 19573 0
-19518 19574 0
-19519 19575 0
-19520 19576 0
-19521 19577 0
-19522 19578 0
-19523 19579 0
-19524 19580 0
-19525 19581 0
-19526 19582 0
-19527 19583 0
-19528 19584 0
-19529 19585 0
-19530 19586 0
-19531 19587 0
-19532 19588 0
-19533 19589 0
-19534 19590 0
-19535 19591 0
-19536 19592 0
-19537 19593 0
-19538 19594 0
-19539 19595 0
-19540 19596 0
-19541 19597 0
-19542 19598 0
-19543 19599 0
-19544 19600 0
-19545 19601 0
-19546 19602 0
-19547 19603 0
-19548 19604 0
-19549 19605 0
-19550 19606 0
-19551 19607 0
-19552 19608 0
-1476 -19497 19554 0
-1476 -19498 19555 0
-1476 -19499 19556 0
-1476 -19500 19557 0
-1476 -19501 19558 0
-1476 -19502 19559 0
-1476 -19503 19560 0
-1476 -19504 19561 0
-1476 -19505 19562 0
-1476 -19506 19563 0
-1476 -19507 19564 0
-1476 -19508 19565 0
-1476 -19509 19566 0
-1476 -19510 19567 0
-1476 -19511 19568 0
-1476 -19512 19569 0
-1476 -19513 19570 0
-1476 -19514 19571 0
-1476 -19515 19572 0
-1476 -19516 19573 0
-1476 -19517 19574 0
-1476 -19518 19575 0
-1476 -19519 19576 0
-1476 -19520 19577 0
-1476 -19521 19578 0
-1476 -19522 19579 0
-1476 -19523 19580 0
-1476 -19524 19581 0
-1476 -19525 19582 0
-1476 -19526 19583 0
-1476 -19527 19584 0
-1476 -19528 19585 0
-1476 -19529 19586 0
-1476 -19530 19587 0
-1476 -19531 19588 0
-1476 -19532 19589 0
-1476 -19533 19590 0
-1476 -19534 19591 0
-1476 -19535 19592 0
-1476 -19536 19593 0
-1476 -19537 19594 0
-1476 -19538 19595 0
-1476 -19539 19596 0
-1476 -19540 19597 0
-1476 -19541 19598 0
-1476 -19542 19599 0
-1476 -19543 19600 0
-1476 -19544 19601 0
-1476 -19545 19602 0
-1476 -19546 19603 0
-1476 -19547 19604 0
-1476 -19548 19605 0
-1476 -19549 19606 0
-1476 -19550 19607 0
-1476 -19551 19608 0
-1476 -19552 0
-19553 19609 0
-19554 19610 0
-19555 19611 0
-19556 19612 0
-19557 19613 0
-19558 19614 0
-19559 19615 0
-19560 19616 0
-19561 19617 0
-19562 19618 0
-19563 19619 0
-19564 19620 0
-19565 19621 0
-19566 19622 0
-19567 19623 0
-19568 19624 0
-19569 19625 0
-19570 19626 0
-19571 19627 0
-19572 19628 0
-19573 19629 0
-19574 19630 0
-19575 19631 0
-19576 19632 0
-19577 19633 0
-19578 19634 0
-19579 19635 0
-19580 19636 0
-19581 19637 0
-19582 19638 0
-19583 19639 0
-19584 19640 0
-19585 19641 0
-19586 19642 0
-19587 19643 0
-19588 19644 0
-19589 19645 0
-19590 19646 0
-19591 19647 0
-19592 19648 0
-19593 19649 0
-19594 19650 0
-19595 19651 0
-19596 19652 0
-19597 19653 0
-19598 19654 0
-19599 19655 0
-19600 19656 0
-19601 19657 0
-19602 19658 0
-19603 19659 0
-19604 19660 0
-19605 19661 0
-19606 19662 0
-19607 19663 0
-19608 19664 0
-1478 -19553 19610 0
-1478 -19554 19611 0
-1478 -19555 19612 0
-1478 -19556 19613 0
-1478 -19557 19614 0
-1478 -19558 19615 0
-1478 -19559 19616 0
-1478 -19560 19617 0
-1478 -19561 19618 0
-1478 -19562 19619 0
-1478 -19563 19620 0
-1478 -19564 19621 0
-1478 -19565 19622 0
-1478 -19566 19623 0
-1478 -19567 19624 0
-1478 -19568 19625 0
-1478 -19569 19626 0
-1478 -19570 19627 0
-1478 -19571 19628 0
-1478 -19572 19629 0
-1478 -19573 19630 0
-1478 -19574 19631 0
-1478 -19575 19632 0
-1478 -19576 19633 0
-1478 -19577 19634 0
-1478 -19578 19635 0
-1478 -19579 19636 0
-1478 -19580 19637 0
-1478 -19581 19638 0
-1478 -19582 19639 0
-1478 -19583 19640 0
-1478 -19584 19641 0
-1478 -19585 19642 0
-1478 -19586 19643 0
-1478 -19587 19644 0
-1478 -19588 19645 0
-1478 -19589 19646 0
-1478 -19590 19647 0
-1478 -19591 19648 0
-1478 -19592 19649 0
-1478 -19593 19650 0
-1478 -19594 19651 0
-1478 -19595 19652 0
-1478 -19596 19653 0
-1478 -19597 19654 0
-1478 -19598 19655 0
-1478 -19599 19656 0
-1478 -19600 19657 0
-1478 -19601 19658 0
-1478 -19602 19659 0
-1478 -19603 19660 0
-1478 -19604 19661 0
-1478 -19605 19662 0
-1478 -19606 19663 0
-1478 -19607 19664 0
-1478 -19608 0
-19609 19665 0
-19610 19666 0
-19611 19667 0
-19612 19668 0
-19613 19669 0
-19614 19670 0
-19615 19671 0
-19616 19672 0
-19617 19673 0
-19618 19674 0
-19619 19675 0
-19620 19676 0
-19621 19677 0
-19622 19678 0
-19623 19679 0
-19624 19680 0
-19625 19681 0
-19626 19682 0
-19627 19683 0
-19628 19684 0
-19629 19685 0
-19630 19686 0
-19631 19687 0
-19632 19688 0
-19633 19689 0
-19634 19690 0
-19635 19691 0
-19636 19692 0
-19637 19693 0
-19638 19694 0
-19639 19695 0
-19640 19696 0
-19641 19697 0
-19642 19698 0
-19643 19699 0
-19644 19700 0
-19645 19701 0
-19646 19702 0
-19647 19703 0
-19648 19704 0
-19649 19705 0
-19650 19706 0
-19651 19707 0
-19652 19708 0
-19653 19709 0
-19654 19710 0
-19655 19711 0
-19656 19712 0
-19657 19713 0
-19658 19714 0
-19659 19715 0
-19660 19716 0
-19661 19717 0
-19662 19718 0
-19663 19719 0
-19664 19720 0
-1480 -19609 19666 0
-1480 -19610 19667 0
-1480 -19611 19668 0
-1480 -19612 19669 0
-1480 -19613 19670 0
-1480 -19614 19671 0
-1480 -19615 19672 0
-1480 -19616 19673 0
-1480 -19617 19674 0
-1480 -19618 19675 0
-1480 -19619 19676 0
-1480 -19620 19677 0
-1480 -19621 19678 0
-1480 -19622 19679 0
-1480 -19623 19680 0
-1480 -19624 19681 0
-1480 -19625 19682 0
-1480 -19626 19683 0
-1480 -19627 19684 0
-1480 -19628 19685 0
-1480 -19629 19686 0
-1480 -19630 19687 0
-1480 -19631 19688 0
-1480 -19632 19689 0
-1480 -19633 19690 0
-1480 -19634 19691 0
-1480 -19635 19692 0
-1480 -19636 19693 0
-1480 -19637 19694 0
-1480 -19638 19695 0
-1480 -19639 19696 0
-1480 -19640 19697 0
-1480 -19641 19698 0
-1480 -19642 19699 0
-1480 -19643 19700 0
-1480 -19644 19701 0
-1480 -19645 19702 0
-1480 -19646 19703 0
-1480 -19647 19704 0
-1480 -19648 19705 0
-1480 -19649 19706 0
-1480 -19650 19707 0
-1480 -19651 19708 0
-1480 -19652 19709 0
-1480 -19653 19710 0
-1480 -19654 19711 0
-1480 -19655 19712 0
-1480 -19656 19713 0
-1480 -19657 19714 0
-1480 -19658 19715 0
-1480 -19659 19716 0
-1480 -19660 19717 0
-1480 -19661 19718 0
-1480 -19662 19719 0
-1480 -19663 19720 0
-1480 -19664 0
-19665 19721 0
-19666 19722 0
-19667 19723 0
-19668 19724 0
-19669 19725 0
-19670 19726 0
-19671 19727 0
-19672 19728 0
-19673 19729 0
-19674 19730 0
-19675 19731 0
-19676 19732 0
-19677 19733 0
-19678 19734 0
-19679 19735 0
-19680 19736 0
-19681 19737 0
-19682 19738 0
-19683 19739 0
-19684 19740 0
-19685 19741 0
-19686 19742 0
-19687 19743 0
-19688 19744 0
-19689 19745 0
-19690 19746 0
-19691 19747 0
-19692 19748 0
-19693 19749 0
-19694 19750 0
-19695 19751 0
-19696 19752 0
-19697 19753 0
-19698 19754 0
-19699 19755 0
-19700 19756 0
-19701 19757 0
-19702 19758 0
-19703 19759 0
-19704 19760 0
-19705 19761 0
-19706 19762 0
-19707 19763 0
-19708 19764 0
-19709 19765 0
-19710 19766 0
-19711 19767 0
-19712 19768 0
-19713 19769 0
-19714 19770 0
-19715 19771 0
-19716 19772 0
-19717 19773 0
-19718 19774 0
-19719 19775 0
-19720 19776 0
-1482 -19665 19722 0
-1482 -19666 19723 0
-1482 -19667 19724 0
-1482 -19668 19725 0
-1482 -19669 19726 0
-1482 -19670 19727 0
-1482 -19671 19728 0
-1482 -19672 19729 0
-1482 -19673 19730 0
-1482 -19674 19731 0
-1482 -19675 19732 0
-1482 -19676 19733 0
-1482 -19677 19734 0
-1482 -19678 19735 0
-1482 -19679 19736 0
-1482 -19680 19737 0
-1482 -19681 19738 0
-1482 -19682 19739 0
-1482 -19683 19740 0
-1482 -19684 19741 0
-1482 -19685 19742 0
-1482 -19686 19743 0
-1482 -19687 19744 0
-1482 -19688 19745 0
-1482 -19689 19746 0
-1482 -19690 19747 0
-1482 -19691 19748 0
-1482 -19692 19749 0
-1482 -19693 19750 0
-1482 -19694 19751 0
-1482 -19695 19752 0
-1482 -19696 19753 0
-1482 -19697 19754 0
-1482 -19698 19755 0
-1482 -19699 19756 0
-1482 -19700 19757 0
-1482 -19701 19758 0
-1482 -19702 19759 0
-1482 -19703 19760 0
-1482 -19704 19761 0
-1482 -19705 19762 0
-1482 -19706 19763 0
-1482 -19707 19764 0
-1482 -19708 19765 0
-1482 -19709 19766 0
-1482 -19710 19767 0
-1482 -19711 19768 0
-1482 -19712 19769 0
-1482 -19713 19770 0
-1482 -19714 19771 0
-1482 -19715 19772 0
-1482 -19716 19773 0
-1482 -19717 19774 0
-1482 -19718 19775 0
-1482 -19719 19776 0
-1482 -19720 0
-19721 19777 0
-19722 19778 0
-19723 19779 0
-19724 19780 0
-19725 19781 0
-19726 19782 0
-19727 19783 0
-19728 19784 0
-19729 19785 0
-19730 19786 0
-19731 19787 0
-19732 19788 0
-19733 19789 0
-19734 19790 0
-19735 19791 0
-19736 19792 0
-19737 19793 0
-19738 19794 0
-19739 19795 0
-19740 19796 0
-19741 19797 0
-19742 19798 0
-19743 19799 0
-19744 19800 0
-19745 19801 0
-19746 19802 0
-19747 19803 0
-19748 19804 0
-19749 19805 0
-19750 19806 0
-19751 19807 0
-19752 19808 0
-19753 19809 0
-19754 19810 0
-19755 19811 0
-19756 19812 0
-19757 19813 0
-19758 19814 0
-19759 19815 0
-19760 19816 0
-19761 19817 0
-19762 19818 0
-19763 19819 0
-19764 19820 0
-19765 19821 0
-19766 19822 0
-19767 19823 0
-19768 19824 0
-19769 19825 0
-19770 19826 0
-19771 19827 0
-19772 19828 0
-19773 19829 0
-19774 19830 0
-19775 19831 0
-19776 19832 0
-1484 -19721 19778 0
-1484 -19722 19779 0
-1484 -19723 19780 0
-1484 -19724 19781 0
-1484 -19725 19782 0
-1484 -19726 19783 0
-1484 -19727 19784 0
-1484 -19728 19785 0
-1484 -19729 19786 0
-1484 -19730 19787 0
-1484 -19731 19788 0
-1484 -19732 19789 0
-1484 -19733 19790 0
-1484 -19734 19791 0
-1484 -19735 19792 0
-1484 -19736 19793 0
-1484 -19737 19794 0
-1484 -19738 19795 0
-1484 -19739 19796 0
-1484 -19740 19797 0
-1484 -19741 19798 0
-1484 -19742 19799 0
-1484 -19743 19800 0
-1484 -19744 19801 0
-1484 -19745 19802 0
-1484 -19746 19803 0
-1484 -19747 19804 0
-1484 -19748 19805 0
-1484 -19749 19806 0
-1484 -19750 19807 0
-1484 -19751 19808 0
-1484 -19752 19809 0
-1484 -19753 19810 0
-1484 -19754 19811 0
-1484 -19755 19812 0
-1484 -19756 19813 0
-1484 -19757 19814 0
-1484 -19758 19815 0
-1484 -19759 19816 0
-1484 -19760 19817 0
-1484 -19761 19818 0
-1484 -19762 19819 0
-1484 -19763 19820 0
-1484 -19764 19821 0
-1484 -19765 19822 0
-1484 -19766 19823 0
-1484 -19767 19824 0
-1484 -19768 19825 0
-1484 -19769 19826 0
-1484 -19770 19827 0
-1484 -19771 19828 0
-1484 -19772 19829 0
-1484 -19773 19830 0
-1484 -19774 19831 0
-1484 -19775 19832 0
-1484 -19776 0
-19777 19833 0
-19778 19834 0
-19779 19835 0
-19780 19836 0
-19781 19837 0
-19782 19838 0
-19783 19839 0
-19784 19840 0
-19785 19841 0
-19786 19842 0
-19787 19843 0
-19788 19844 0
-19789 19845 0
-19790 19846 0
-19791 19847 0
-19792 19848 0
-19793 19849 0
-19794 19850 0
-19795 19851 0
-19796 19852 0
-19797 19853 0
-19798 19854 0
-19799 19855 0
-19800 19856 0
-19801 19857 0
-19802 19858 0
-19803 19859 0
-19804 19860 0
-19805 19861 0
-19806 19862 0
-19807 19863 0
-19808 19864 0
-19809 19865 0
-19810 19866 0
-19811 19867 0
-19812 19868 0
-19813 19869 0
-19814 19870 0
-19815 19871 0
-19816 19872 0
-19817 19873 0
-19818 19874 0
-19819 19875 0
-19820 19876 0
-19821 19877 0
-19822 19878 0
-19823 19879 0
-19824 19880 0
-19825 19881 0
-19826 19882 0
-19827 19883 0
-19828 19884 0
-19829 19885 0
-19830 19886 0
-19831 19887 0
-19832 19888 0
-1486 -19777 19834 0
-1486 -19778 19835 0
-1486 -19779 19836 0
-1486 -19780 19837 0
-1486 -19781 19838 0
-1486 -19782 19839 0
-1486 -19783 19840 0
-1486 -19784 19841 0
-1486 -19785 19842 0
-1486 -19786 19843 0
-1486 -19787 19844 0
-1486 -19788 19845 0
-1486 -19789 19846 0
-1486 -19790 19847 0
-1486 -19791 19848 0
-1486 -19792 19849 0
-1486 -19793 19850 0
-1486 -19794 19851 0
-1486 -19795 19852 0
-1486 -19796 19853 0
-1486 -19797 19854 0
-1486 -19798 19855 0
-1486 -19799 19856 0
-1486 -19800 19857 0
-1486 -19801 19858 0
-1486 -19802 19859 0
-1486 -19803 19860 0
-1486 -19804 19861 0
-1486 -19805 19862 0
-1486 -19806 19863 0
-1486 -19807 19864 0
-1486 -19808 19865 0
-1486 -19809 19866 0
-1486 -19810 19867 0
-1486 -19811 19868 0
-1486 -19812 19869 0
-1486 -19813 19870 0
-1486 -19814 19871 0
-1486 -19815 19872 0
-1486 -19816 19873 0
-1486 -19817 19874 0
-1486 -19818 19875 0
-1486 -19819 19876 0
-1486 -19820 19877 0
-1486 -19821 19878 0
-1486 -19822 19879 0
-1486 -19823 19880 0
-1486 -19824 19881 0
-1486 -19825 19882 0
-1486 -19826 19883 0
-1486 -19827 19884 0
-1486 -19828 19885 0
-1486 -19829 19886 0
-1486 -19830 19887 0
-1486 -19831 19888 0
-1486 -19832 0
-19833 19889 0
-19834 19890 0
-19835 19891 0
-19836 19892 0
-19837 19893 0
-19838 19894 0
-19839 19895 0
-19840 19896 0
-19841 19897 0
-19842 19898 0
-19843 19899 0
-19844 19900 0
-19845 19901 0
-19846 19902 0
-19847 19903 0
-19848 19904 0
-19849 19905 0
-19850 19906 0
-19851 19907 0
-19852 19908 0
-19853 19909 0
-19854 19910 0
-19855 19911 0
-19856 19912 0
-19857 19913 0
-19858 19914 0
-19859 19915 0
-19860 19916 0
-19861 19917 0
-19862 19918 0
-19863 19919 0
-19864 19920 0
-19865 19921 0
-19866 19922 0
-19867 19923 0
-19868 19924 0
-19869 19925 0
-19870 19926 0
-19871 19927 0
-19872 19928 0
-19873 19929 0
-19874 19930 0
-19875 19931 0
-19876 19932 0
-19877 19933 0
-19878 19934 0
-19879 19935 0
-19880 19936 0
-19881 19937 0
-19882 19938 0
-19883 19939 0
-19884 19940 0
-19885 19941 0
-19886 19942 0
-19887 19943 0
-19888 19944 0
-1488 -19833 19890 0
-1488 -19834 19891 0
-1488 -19835 19892 0
-1488 -19836 19893 0
-1488 -19837 19894 0
-1488 -19838 19895 0
-1488 -19839 19896 0
-1488 -19840 19897 0
-1488 -19841 19898 0
-1488 -19842 19899 0
-1488 -19843 19900 0
-1488 -19844 19901 0
-1488 -19845 19902 0
-1488 -19846 19903 0
-1488 -19847 19904 0
-1488 -19848 19905 0
-1488 -19849 19906 0
-1488 -19850 19907 0
-1488 -19851 19908 0
-1488 -19852 19909 0
-1488 -19853 19910 0
-1488 -19854 19911 0
-1488 -19855 19912 0
-1488 -19856 19913 0
-1488 -19857 19914 0
-1488 -19858 19915 0
-1488 -19859 19916 0
-1488 -19860 19917 0
-1488 -19861 19918 0
-1488 -19862 19919 0
-1488 -19863 19920 0
-1488 -19864 19921 0
-1488 -19865 19922 0
-1488 -19866 19923 0
-1488 -19867 19924 0
-1488 -19868 19925 0
-1488 -19869 19926 0
-1488 -19870 19927 0
-1488 -19871 19928 0
-1488 -19872 19929 0
-1488 -19873 19930 0
-1488 -19874 19931 0
-1488 -19875 19932 0
-1488 -19876 19933 0
-1488 -19877 19934 0
-1488 -19878 19935 0
-1488 -19879 19936 0
-1488 -19880 19937 0
-1488 -19881 19938 0
-1488 -19882 19939 0
-1488 -19883 19940 0
-1488 -19884 19941 0
-1488 -19885 19942 0
-1488 -19886 19943 0
-1488 -19887 19944 0
-1488 -19888 0
-19889 19945 0
-19890 19946 0
-19891 19947 0
-19892 19948 0
-19893 19949 0
-19894 19950 0
-19895 19951 0
-19896 19952 0
-19897 19953 0
-19898 19954 0
-19899 19955 0
-19900 19956 0
-19901 19957 0
-19902 19958 0
-19903 19959 0
-19904 19960 0
-19905 19961 0
-19906 19962 0
-19907 19963 0
-19908 19964 0
-19909 19965 0
-19910 19966 0
-19911 19967 0
-19912 19968 0
-19913 19969 0
-19914 19970 0
-19915 19971 0
-19916 19972 0
-19917 19973 0
-19918 19974 0
-19919 19975 0
-19920 19976 0
-19921 19977 0
-19922 19978 0
-19923 19979 0
-19924 19980 0
-19925 19981 0
-19926 19982 0
-19927 19983 0
-19928 19984 0
-19929 19985 0
-19930 19986 0
-19931 19987 0
-19932 19988 0
-19933 19989 0
-19934 19990 0
-19935 19991 0
-19936 19992 0
-19937 19993 0
-19938 19994 0
-19939 19995 0
-19940 19996 0
-19941 19997 0
-19942 19998 0
-19943 19999 0
-19944 20000 0
-1490 -19889 19946 0
-1490 -19890 19947 0
-1490 -19891 19948 0
-1490 -19892 19949 0
-1490 -19893 19950 0
-1490 -19894 19951 0
-1490 -19895 19952 0
-1490 -19896 19953 0
-1490 -19897 19954 0
-1490 -19898 19955 0
-1490 -19899 19956 0
-1490 -19900 19957 0
-1490 -19901 19958 0
-1490 -19902 19959 0
-1490 -19903 19960 0
-1490 -19904 19961 0
-1490 -19905 19962 0
-1490 -19906 19963 0
-1490 -19907 19964 0
-1490 -19908 19965 0
-1490 -19909 19966 0
-1490 -19910 19967 0
-1490 -19911 19968 0
-1490 -19912 19969 0
-1490 -19913 19970 0
-1490 -19914 19971 0
-1490 -19915 19972 0
-1490 -19916 19973 0
-1490 -19917 19974 0
-1490 -19918 19975 0
-1490 -19919 19976 0
-1490 -19920 19977 0
-1490 -19921 19978 0
-1490 -19922 19979 0
-1490 -19923 19980 0
-1490 -19924 19981 0
-1490 -19925 19982 0
-1490 -19926 19983 0
-1490 -19927 19984 0
-1490 -19928 19985 0
-1490 -19929 19986 0
-1490 -19930 19987 0
-1490 -19931 19988 0
-1490 -19932 19989 0
-1490 -19933 19990 0
-1490 -19934 19991 0
-1490 -19935 19992 0
-1490 -19936 19993 0
-1490 -19937 19994 0
-1490 -19938 19995 0
-1490 -19939 19996 0
-1490 -19940 19997 0
-1490 -19941 19998 0
-1490 -19942 19999 0
-1490 -19943 20000 0
-1490 -19944 0
-19945 20001 0
-19946 20002 0
-19947 20003 0
-19948 20004 0
-19949 20005 0
-19950 20006 0
-19951 20007 0
-19952 20008 0
-19953 20009 0
-19954 20010 0
-19955 20011 0
-19956 20012 0
-19957 20013 0
-19958 20014 0
-19959 20015 0
-19960 20016 0
-19961 20017 0
-19962 20018 0
-19963 20019 0
-19964 20020 0
-19965 20021 0
-19966 20022 0
-19967 20023 0
-19968 20024 0
-19969 20025 0
-19970 20026 0
-19971 20027 0
-19972 20028 0
-19973 20029 0
-19974 20030 0
-19975 20031 0
-19976 20032 0
-19977 20033 0
-19978 20034 0
-19979 20035 0
-19980 20036 0
-19981 20037 0
-19982 20038 0
-19983 20039 0
-19984 20040 0
-19985 20041 0
-19986 20042 0
-19987 20043 0
-19988 20044 0
-19989 20045 0
-19990 20046 0
-19991 20047 0
-19992 20048 0
-19993 20049 0
-19994 20050 0
-19995 20051 0
-19996 20052 0
-19997 20053 0
-19998 20054 0
-19999 20055 0
-20000 20056 0
-1492 -19945 20002 0
-1492 -19946 20003 0
-1492 -19947 20004 0
-1492 -19948 20005 0
-1492 -19949 20006 0
-1492 -19950 20007 0
-1492 -19951 20008 0
-1492 -19952 20009 0
-1492 -19953 20010 0
-1492 -19954 20011 0
-1492 -19955 20012 0
-1492 -19956 20013 0
-1492 -19957 20014 0
-1492 -19958 20015 0
-1492 -19959 20016 0
-1492 -19960 20017 0
-1492 -19961 20018 0
-1492 -19962 20019 0
-1492 -19963 20020 0
-1492 -19964 20021 0
-1492 -19965 20022 0
-1492 -19966 20023 0
-1492 -19967 20024 0
-1492 -19968 20025 0
-1492 -19969 20026 0
-1492 -19970 20027 0
-1492 -19971 20028 0
-1492 -19972 20029 0
-1492 -19973 20030 0
-1492 -19974 20031 0
-1492 -19975 20032 0
-1492 -19976 20033 0
-1492 -19977 20034 0
-1492 -19978 20035 0
-1492 -19979 20036 0
-1492 -19980 20037 0
-1492 -19981 20038 0
-1492 -19982 20039 0
-1492 -19983 20040 0
-1492 -19984 20041 0
-1492 -19985 20042 0
-1492 -19986 20043 0
-1492 -19987 20044 0
-1492 -19988 20045 0
-1492 -19989 20046 0
-1492 -19990 20047 0
-1492 -19991 20048 0
-1492 -19992 20049 0
-1492 -19993 20050 0
-1492 -19994 20051 0
-1492 -19995 20052 0
-1492 -19996 20053 0
-1492 -19997 20054 0
-1492 -19998 20055 0
-1492 -19999 20056 0
-1492 -20000 0
-20001 20057 0
-20002 20058 0
-20003 20059 0
-20004 20060 0
-20005 20061 0
-20006 20062 0
-20007 20063 0
-20008 20064 0
-20009 20065 0
-20010 20066 0
-20011 20067 0
-20012 20068 0
-20013 20069 0
-20014 20070 0
-20015 20071 0
-20016 20072 0
-20017 20073 0
-20018 20074 0
-20019 20075 0
-20020 20076 0
-20021 20077 0
-20022 20078 0
-20023 20079 0
-20024 20080 0
-20025 20081 0
-20026 20082 0
-20027 20083 0
-20028 20084 0
-20029 20085 0
-20030 20086 0
-20031 20087 0
-20032 20088 0
-20033 20089 0
-20034 20090 0
-20035 20091 0
-20036 20092 0
-20037 20093 0
-20038 20094 0
-20039 20095 0
-20040 20096 0
-20041 20097 0
-20042 20098 0
-20043 20099 0
-20044 20100 0
-20045 20101 0
-20046 20102 0
-20047 20103 0
-20048 20104 0
-20049 20105 0
-20050 20106 0
-20051 20107 0
-20052 20108 0
-20053 20109 0
-20054 20110 0
-20055 20111 0
-20056 20112 0
-1494 -20001 20058 0
-1494 -20002 20059 0
-1494 -20003 20060 0
-1494 -20004 20061 0
-1494 -20005 20062 0
-1494 -20006 20063 0
-1494 -20007 20064 0
-1494 -20008 20065 0
-1494 -20009 20066 0
-1494 -20010 20067 0
-1494 -20011 20068 0
-1494 -20012 20069 0
-1494 -20013 20070 0
-1494 -20014 20071 0
-1494 -20015 20072 0
-1494 -20016 20073 0
-1494 -20017 20074 0
-1494 -20018 20075 0
-1494 -20019 20076 0
-1494 -20020 20077 0
-1494 -20021 20078 0
-1494 -20022 20079 0
-1494 -20023 20080 0
-1494 -20024 20081 0
-1494 -20025 20082 0
-1494 -20026 20083 0
-1494 -20027 20084 0
-1494 -20028 20085 0
-1494 -20029 20086 0
-1494 -20030 20087 0
-1494 -20031 20088 0
-1494 -20032 20089 0
-1494 -20033 20090 0
-1494 -20034 20091 0
-1494 -20035 20092 0
-1494 -20036 20093 0
-1494 -20037 20094 0
-1494 -20038 20095 0
-1494 -20039 20096 0
-1494 -20040 20097 0
-1494 -20041 20098 0
-1494 -20042 20099 0
-1494 -20043 20100 0
-1494 -20044 20101 0
-1494 -20045 20102 0
-1494 -20046 20103 0
-1494 -20047 20104 0
-1494 -20048 20105 0
-1494 -20049 20106 0
-1494 -20050 20107 0
-1494 -20051 20108 0
-1494 -20052 20109 0
-1494 -20053 20110 0
-1494 -20054 20111 0
-1494 -20055 20112 0
-1494 -20056 0
-20057 20113 0
-20058 20114 0
-20059 20115 0
-20060 20116 0
-20061 20117 0
-20062 20118 0
-20063 20119 0
-20064 20120 0
-20065 20121 0
-20066 20122 0
-20067 20123 0
-20068 20124 0
-20069 20125 0
-20070 20126 0
-20071 20127 0
-20072 20128 0
-20073 20129 0
-20074 20130 0
-20075 20131 0
-20076 20132 0
-20077 20133 0
-20078 20134 0
-20079 20135 0
-20080 20136 0
-20081 20137 0
-20082 20138 0
-20083 20139 0
-20084 20140 0
-20085 20141 0
-20086 20142 0
-20087 20143 0
-20088 20144 0
-20089 20145 0
-20090 20146 0
-20091 20147 0
-20092 20148 0
-20093 20149 0
-20094 20150 0
-20095 20151 0
-20096 20152 0
-20097 20153 0
-20098 20154 0
-20099 20155 0
-20100 20156 0
-20101 20157 0
-20102 20158 0
-20103 20159 0
-20104 20160 0
-20105 20161 0
-20106 20162 0
-20107 20163 0
-20108 20164 0
-20109 20165 0
-20110 20166 0
-20111 20167 0
-20112 20168 0
-1496 -20057 20114 0
-1496 -20058 20115 0
-1496 -20059 20116 0
-1496 -20060 20117 0
-1496 -20061 20118 0
-1496 -20062 20119 0
-1496 -20063 20120 0
-1496 -20064 20121 0
-1496 -20065 20122 0
-1496 -20066 20123 0
-1496 -20067 20124 0
-1496 -20068 20125 0
-1496 -20069 20126 0
-1496 -20070 20127 0
-1496 -20071 20128 0
-1496 -20072 20129 0
-1496 -20073 20130 0
-1496 -20074 20131 0
-1496 -20075 20132 0
-1496 -20076 20133 0
-1496 -20077 20134 0
-1496 -20078 20135 0
-1496 -20079 20136 0
-1496 -20080 20137 0
-1496 -20081 20138 0
-1496 -20082 20139 0
-1496 -20083 20140 0
-1496 -20084 20141 0
-1496 -20085 20142 0
-1496 -20086 20143 0
-1496 -20087 20144 0
-1496 -20088 20145 0
-1496 -20089 20146 0
-1496 -20090 20147 0
-1496 -20091 20148 0
-1496 -20092 20149 0
-1496 -20093 20150 0
-1496 -20094 20151 0
-1496 -20095 20152 0
-1496 -20096 20153 0
-1496 -20097 20154 0
-1496 -20098 20155 0
-1496 -20099 20156 0
-1496 -20100 20157 0
-1496 -20101 20158 0
-1496 -20102 20159 0
-1496 -20103 20160 0
-1496 -20104 20161 0
-1496 -20105 20162 0
-1496 -20106 20163 0
-1496 -20107 20164 0
-1496 -20108 20165 0
-1496 -20109 20166 0
-1496 -20110 20167 0
-1496 -20111 20168 0
-1496 -20112 0
-20113 20169 0
-20114 20170 0
-20115 20171 0
-20116 20172 0
-20117 20173 0
-20118 20174 0
-20119 20175 0
-20120 20176 0
-20121 20177 0
-20122 20178 0
-20123 20179 0
-20124 20180 0
-20125 20181 0
-20126 20182 0
-20127 20183 0
-20128 20184 0
-20129 20185 0
-20130 20186 0
-20131 20187 0
-20132 20188 0
-20133 20189 0
-20134 20190 0
-20135 20191 0
-20136 20192 0
-20137 20193 0
-20138 20194 0
-20139 20195 0
-20140 20196 0
-20141 20197 0
-20142 20198 0
-20143 20199 0
-20144 20200 0
-20145 20201 0
-20146 20202 0
-20147 20203 0
-20148 20204 0
-20149 20205 0
-20150 20206 0
-20151 20207 0
-20152 20208 0
-20153 20209 0
-20154 20210 0
-20155 20211 0
-20156 20212 0
-20157 20213 0
-20158 20214 0
-20159 20215 0
-20160 20216 0
-20161 20217 0
-20162 20218 0
-20163 20219 0
-20164 20220 0
-20165 20221 0
-20166 20222 0
-20167 20223 0
-20168 20224 0
-1498 -20113 20170 0
-1498 -20114 20171 0
-1498 -20115 20172 0
-1498 -20116 20173 0
-1498 -20117 20174 0
-1498 -20118 20175 0
-1498 -20119 20176 0
-1498 -20120 20177 0
-1498 -20121 20178 0
-1498 -20122 20179 0
-1498 -20123 20180 0
-1498 -20124 20181 0
-1498 -20125 20182 0
-1498 -20126 20183 0
-1498 -20127 20184 0
-1498 -20128 20185 0
-1498 -20129 20186 0
-1498 -20130 20187 0
-1498 -20131 20188 0
-1498 -20132 20189 0
-1498 -20133 20190 0
-1498 -20134 20191 0
-1498 -20135 20192 0
-1498 -20136 20193 0
-1498 -20137 20194 0
-1498 -20138 20195 0
-1498 -20139 20196 0
-1498 -20140 20197 0
-1498 -20141 20198 0
-1498 -20142 20199 0
-1498 -20143 20200 0
-1498 -20144 20201 0
-1498 -20145 20202 0
-1498 -20146 20203 0
-1498 -20147 20204 0
-1498 -20148 20205 0
-1498 -20149 20206 0
-1498 -20150 20207 0
-1498 -20151 20208 0
-1498 -20152 20209 0
-1498 -20153 20210 0
-1498 -20154 20211 0
-1498 -20155 20212 0
-1498 -20156 20213 0
-1498 -20157 20214 0
-1498 -20158 20215 0
-1498 -20159 20216 0
-1498 -20160 20217 0
-1498 -20161 20218 0
-1498 -20162 20219 0
-1498 -20163 20220 0
-1498 -20164 20221 0
-1498 -20165 20222 0
-1498 -20166 20223 0
-1498 -20167 20224 0
-1498 -20168 0
-20169 20225 0
-20170 20226 0
-20171 20227 0
-20172 20228 0
-20173 20229 0
-20174 20230 0
-20175 20231 0
-20176 20232 0
-20177 20233 0
-20178 20234 0
-20179 20235 0
-20180 20236 0
-20181 20237 0
-20182 20238 0
-20183 20239 0
-20184 20240 0
-20185 20241 0
-20186 20242 0
-20187 20243 0
-20188 20244 0
-20189 20245 0
-20190 20246 0
-20191 20247 0
-20192 20248 0
-20193 20249 0
-20194 20250 0
-20195 20251 0
-20196 20252 0
-20197 20253 0
-20198 20254 0
-20199 20255 0
-20200 20256 0
-20201 20257 0
-20202 20258 0
-20203 20259 0
-20204 20260 0
-20205 20261 0
-20206 20262 0
-20207 20263 0
-20208 20264 0
-20209 20265 0
-20210 20266 0
-20211 20267 0
-20212 20268 0
-20213 20269 0
-20214 20270 0
-20215 20271 0
-20216 20272 0
-20217 20273 0
-20218 20274 0
-20219 20275 0
-20220 20276 0
-20221 20277 0
-20222 20278 0
-20223 20279 0
-20224 20280 0
-1500 -20169 20226 0
-1500 -20170 20227 0
-1500 -20171 20228 0
-1500 -20172 20229 0
-1500 -20173 20230 0
-1500 -20174 20231 0
-1500 -20175 20232 0
-1500 -20176 20233 0
-1500 -20177 20234 0
-1500 -20178 20235 0
-1500 -20179 20236 0
-1500 -20180 20237 0
-1500 -20181 20238 0
-1500 -20182 20239 0
-1500 -20183 20240 0
-1500 -20184 20241 0
-1500 -20185 20242 0
-1500 -20186 20243 0
-1500 -20187 20244 0
-1500 -20188 20245 0
-1500 -20189 20246 0
-1500 -20190 20247 0
-1500 -20191 20248 0
-1500 -20192 20249 0
-1500 -20193 20250 0
-1500 -20194 20251 0
-1500 -20195 20252 0
-1500 -20196 20253 0
-1500 -20197 20254 0
-1500 -20198 20255 0
-1500 -20199 20256 0
-1500 -20200 20257 0
-1500 -20201 20258 0
-1500 -20202 20259 0
-1500 -20203 20260 0
-1500 -20204 20261 0
-1500 -20205 20262 0
-1500 -20206 20263 0
-1500 -20207 20264 0
-1500 -20208 20265 0
-1500 -20209 20266 0
-1500 -20210 20267 0
-1500 -20211 20268 0
-1500 -20212 20269 0
-1500 -20213 20270 0
-1500 -20214 20271 0
-1500 -20215 20272 0
-1500 -20216 20273 0
-1500 -20217 20274 0
-1500 -20218 20275 0
-1500 -20219 20276 0
-1500 -20220 20277 0
-1500 -20221 20278 0
-1500 -20222 20279 0
-1500 -20223 20280 0
-1500 -20224 0
-20225 20281 0
-20226 20282 0
-20227 20283 0
-20228 20284 0
-20229 20285 0
-20230 20286 0
-20231 20287 0
-20232 20288 0
-20233 20289 0
-20234 20290 0
-20235 20291 0
-20236 20292 0
-20237 20293 0
-20238 20294 0
-20239 20295 0
-20240 20296 0
-20241 20297 0
-20242 20298 0
-20243 20299 0
-20244 20300 0
-20245 20301 0
-20246 20302 0
-20247 20303 0
-20248 20304 0
-20249 20305 0
-20250 20306 0
-20251 20307 0
-20252 20308 0
-20253 20309 0
-20254 20310 0
-20255 20311 0
-20256 20312 0
-20257 20313 0
-20258 20314 0
-20259 20315 0
-20260 20316 0
-20261 20317 0
-20262 20318 0
-20263 20319 0
-20264 20320 0
-20265 20321 0
-20266 20322 0
-20267 20323 0
-20268 20324 0
-20269 20325 0
-20270 20326 0
-20271 20327 0
-20272 20328 0
-20273 20329 0
-20274 20330 0
-20275 20331 0
-20276 20332 0
-20277 20333 0
-20278 20334 0
-20279 20335 0
-20280 20336 0
-1502 -20225 20282 0
-1502 -20226 20283 0
-1502 -20227 20284 0
-1502 -20228 20285 0
-1502 -20229 20286 0
-1502 -20230 20287 0
-1502 -20231 20288 0
-1502 -20232 20289 0
-1502 -20233 20290 0
-1502 -20234 20291 0
-1502 -20235 20292 0
-1502 -20236 20293 0
-1502 -20237 20294 0
-1502 -20238 20295 0
-1502 -20239 20296 0
-1502 -20240 20297 0
-1502 -20241 20298 0
-1502 -20242 20299 0
-1502 -20243 20300 0
-1502 -20244 20301 0
-1502 -20245 20302 0
-1502 -20246 20303 0
-1502 -20247 20304 0
-1502 -20248 20305 0
-1502 -20249 20306 0
-1502 -20250 20307 0
-1502 -20251 20308 0
-1502 -20252 20309 0
-1502 -20253 20310 0
-1502 -20254 20311 0
-1502 -20255 20312 0
-1502 -20256 20313 0
-1502 -20257 20314 0
-1502 -20258 20315 0
-1502 -20259 20316 0
-1502 -20260 20317 0
-1502 -20261 20318 0
-1502 -20262 20319 0
-1502 -20263 20320 0
-1502 -20264 20321 0
-1502 -20265 20322 0
-1502 -20266 20323 0
-1502 -20267 20324 0
-1502 -20268 20325 0
-1502 -20269 20326 0
-1502 -20270 20327 0
-1502 -20271 20328 0
-1502 -20272 20329 0
-1502 -20273 20330 0
-1502 -20274 20331 0
-1502 -20275 20332 0
-1502 -20276 20333 0
-1502 -20277 20334 0
-1502 -20278 20335 0
-1502 -20279 20336 0
-1502 -20280 0
-20281 20337 0
-20282 20338 0
-20283 20339 0
-20284 20340 0
-20285 20341 0
-20286 20342 0
-20287 20343 0
-20288 20344 0
-20289 20345 0
-20290 20346 0
-20291 20347 0
-20292 20348 0
-20293 20349 0
-20294 20350 0
-20295 20351 0
-20296 20352 0
-20297 20353 0
-20298 20354 0
-20299 20355 0
-20300 20356 0
-20301 20357 0
-20302 20358 0
-20303 20359 0
-20304 20360 0
-20305 20361 0
-20306 20362 0
-20307 20363 0
-20308 20364 0
-20309 20365 0
-20310 20366 0
-20311 20367 0
-20312 20368 0
-20313 20369 0
-20314 20370 0
-20315 20371 0
-20316 20372 0
-20317 20373 0
-20318 20374 0
-20319 20375 0
-20320 20376 0
-20321 20377 0
-20322 20378 0
-20323 20379 0
-20324 20380 0
-20325 20381 0
-20326 20382 0
-20327 20383 0
-20328 20384 0
-20329 20385 0
-20330 20386 0
-20331 20387 0
-20332 20388 0
-20333 20389 0
-20334 20390 0
-20335 20391 0
-20336 20392 0
-1504 -20281 20338 0
-1504 -20282 20339 0
-1504 -20283 20340 0
-1504 -20284 20341 0
-1504 -20285 20342 0
-1504 -20286 20343 0
-1504 -20287 20344 0
-1504 -20288 20345 0
-1504 -20289 20346 0
-1504 -20290 20347 0
-1504 -20291 20348 0
-1504 -20292 20349 0
-1504 -20293 20350 0
-1504 -20294 20351 0
-1504 -20295 20352 0
-1504 -20296 20353 0
-1504 -20297 20354 0
-1504 -20298 20355 0
-1504 -20299 20356 0
-1504 -20300 20357 0
-1504 -20301 20358 0
-1504 -20302 20359 0
-1504 -20303 20360 0
-1504 -20304 20361 0
-1504 -20305 20362 0
-1504 -20306 20363 0
-1504 -20307 20364 0
-1504 -20308 20365 0
-1504 -20309 20366 0
-1504 -20310 20367 0
-1504 -20311 20368 0
-1504 -20312 20369 0
-1504 -20313 20370 0
-1504 -20314 20371 0
-1504 -20315 20372 0
-1504 -20316 20373 0
-1504 -20317 20374 0
-1504 -20318 20375 0
-1504 -20319 20376 0
-1504 -20320 20377 0
-1504 -20321 20378 0
-1504 -20322 20379 0
-1504 -20323 20380 0
-1504 -20324 20381 0
-1504 -20325 20382 0
-1504 -20326 20383 0
-1504 -20327 20384 0
-1504 -20328 20385 0
-1504 -20329 20386 0
-1504 -20330 20387 0
-1504 -20331 20388 0
-1504 -20332 20389 0
-1504 -20333 20390 0
-1504 -20334 20391 0
-1504 -20335 20392 0
-1504 -20336 0
-20337 20393 0
-20338 20394 0
-20339 20395 0
-20340 20396 0
-20341 20397 0
-20342 20398 0
-20343 20399 0
-20344 20400 0
-20345 20401 0
-20346 20402 0
-20347 20403 0
-20348 20404 0
-20349 20405 0
-20350 20406 0
-20351 20407 0
-20352 20408 0
-20353 20409 0
-20354 20410 0
-20355 20411 0
-20356 20412 0
-20357 20413 0
-20358 20414 0
-20359 20415 0
-20360 20416 0
-20361 20417 0
-20362 20418 0
-20363 20419 0
-20364 20420 0
-20365 20421 0
-20366 20422 0
-20367 20423 0
-20368 20424 0
-20369 20425 0
-20370 20426 0
-20371 20427 0
-20372 20428 0
-20373 20429 0
-20374 20430 0
-20375 20431 0
-20376 20432 0
-20377 20433 0
-20378 20434 0
-20379 20435 0
-20380 20436 0
-20381 20437 0
-20382 20438 0
-20383 20439 0
-20384 20440 0
-20385 20441 0
-20386 20442 0
-20387 20443 0
-20388 20444 0
-20389 20445 0
-20390 20446 0
-20391 20447 0
-20392 20448 0
-1506 -20337 20394 0
-1506 -20338 20395 0
-1506 -20339 20396 0
-1506 -20340 20397 0
-1506 -20341 20398 0
-1506 -20342 20399 0
-1506 -20343 20400 0
-1506 -20344 20401 0
-1506 -20345 20402 0
-1506 -20346 20403 0
-1506 -20347 20404 0
-1506 -20348 20405 0
-1506 -20349 20406 0
-1506 -20350 20407 0
-1506 -20351 20408 0
-1506 -20352 20409 0
-1506 -20353 20410 0
-1506 -20354 20411 0
-1506 -20355 20412 0
-1506 -20356 20413 0
-1506 -20357 20414 0
-1506 -20358 20415 0
-1506 -20359 20416 0
-1506 -20360 20417 0
-1506 -20361 20418 0
-1506 -20362 20419 0
-1506 -20363 20420 0
-1506 -20364 20421 0
-1506 -20365 20422 0
-1506 -20366 20423 0
-1506 -20367 20424 0
-1506 -20368 20425 0
-1506 -20369 20426 0
-1506 -20370 20427 0
-1506 -20371 20428 0
-1506 -20372 20429 0
-1506 -20373 20430 0
-1506 -20374 20431 0
-1506 -20375 20432 0
-1506 -20376 20433 0
-1506 -20377 20434 0
-1506 -20378 20435 0
-1506 -20379 20436 0
-1506 -20380 20437 0
-1506 -20381 20438 0
-1506 -20382 20439 0
-1506 -20383 20440 0
-1506 -20384 20441 0
-1506 -20385 20442 0
-1506 -20386 20443 0
-1506 -20387 20444 0
-1506 -20388 20445 0
-1506 -20389 20446 0
-1506 -20390 20447 0
-1506 -20391 20448 0
-1506 -20392 0
-20393 20449 0
-20394 20450 0
-20395 20451 0
-20396 20452 0
-20397 20453 0
-20398 20454 0
-20399 20455 0
-20400 20456 0
-20401 20457 0
-20402 20458 0
-20403 20459 0
-20404 20460 0
-20405 20461 0
-20406 20462 0
-20407 20463 0
-20408 20464 0
-20409 20465 0
-20410 20466 0
-20411 20467 0
-20412 20468 0
-20413 20469 0
-20414 20470 0
-20415 20471 0
-20416 20472 0
-20417 20473 0
-20418 20474 0
-20419 20475 0
-20420 20476 0
-20421 20477 0
-20422 20478 0
-20423 20479 0
-20424 20480 0
-20425 20481 0
-20426 20482 0
-20427 20483 0
-20428 20484 0
-20429 20485 0
-20430 20486 0
-20431 20487 0
-20432 20488 0
-20433 20489 0
-20434 20490 0
-20435 20491 0
-20436 20492 0
-20437 20493 0
-20438 20494 0
-20439 20495 0
-20440 20496 0
-20441 20497 0
-20442 20498 0
-20443 20499 0
-20444 20500 0
-20445 20501 0
-20446 20502 0
-20447 20503 0
-20448 20504 0
-1508 -20393 20450 0
-1508 -20394 20451 0
-1508 -20395 20452 0
-1508 -20396 20453 0
-1508 -20397 20454 0
-1508 -20398 20455 0
-1508 -20399 20456 0
-1508 -20400 20457 0
-1508 -20401 20458 0
-1508 -20402 20459 0
-1508 -20403 20460 0
-1508 -20404 20461 0
-1508 -20405 20462 0
-1508 -20406 20463 0
-1508 -20407 20464 0
-1508 -20408 20465 0
-1508 -20409 20466 0
-1508 -20410 20467 0
-1508 -20411 20468 0
-1508 -20412 20469 0
-1508 -20413 20470 0
-1508 -20414 20471 0
-1508 -20415 20472 0
-1508 -20416 20473 0
-1508 -20417 20474 0
-1508 -20418 20475 0
-1508 -20419 20476 0
-1508 -20420 20477 0
-1508 -20421 20478 0
-1508 -20422 20479 0
-1508 -20423 20480 0
-1508 -20424 20481 0
-1508 -20425 20482 0
-1508 -20426 20483 0
-1508 -20427 20484 0
-1508 -20428 20485 0
-1508 -20429 20486 0
-1508 -20430 20487 0
-1508 -20431 20488 0
-1508 -20432 20489 0
-1508 -20433 20490 0
-1508 -20434 20491 0
-1508 -20435 20492 0
-1508 -20436 20493 0
-1508 -20437 20494 0
-1508 -20438 20495 0
-1508 -20439 20496 0
-1508 -20440 20497 0
-1508 -20441 20498 0
-1508 -20442 20499 0
-1508 -20443 20500 0
-1508 -20444 20501 0
-1508 -20445 20502 0
-1508 -20446 20503 0
-1508 -20447 20504 0
-1508 -20448 0
-20449 20505 0
-20450 20506 0
-20451 20507 0
-20452 20508 0
-20453 20509 0
-20454 20510 0
-20455 20511 0
-20456 20512 0
-20457 20513 0
-20458 20514 0
-20459 20515 0
-20460 20516 0
-20461 20517 0
-20462 20518 0
-20463 20519 0
-20464 20520 0
-20465 20521 0
-20466 20522 0
-20467 20523 0
-20468 20524 0
-20469 20525 0
-20470 20526 0
-20471 20527 0
-20472 20528 0
-20473 20529 0
-20474 20530 0
-20475 20531 0
-20476 20532 0
-20477 20533 0
-20478 20534 0
-20479 20535 0
-20480 20536 0
-20481 20537 0
-20482 20538 0
-20483 20539 0
-20484 20540 0
-20485 20541 0
-20486 20542 0
-20487 20543 0
-20488 20544 0
-20489 20545 0
-20490 20546 0
-20491 20547 0
-20492 20548 0
-20493 20549 0
-20494 20550 0
-20495 20551 0
-20496 20552 0
-20497 20553 0
-20498 20554 0
-20499 20555 0
-20500 20556 0
-20501 20557 0
-20502 20558 0
-20503 20559 0
-20504 20560 0
-1510 -20449 20506 0
-1510 -20450 20507 0
-1510 -20451 20508 0
-1510 -20452 20509 0
-1510 -20453 20510 0
-1510 -20454 20511 0
-1510 -20455 20512 0
-1510 -20456 20513 0
-1510 -20457 20514 0
-1510 -20458 20515 0
-1510 -20459 20516 0
-1510 -20460 20517 0
-1510 -20461 20518 0
-1510 -20462 20519 0
-1510 -20463 20520 0
-1510 -20464 20521 0
-1510 -20465 20522 0
-1510 -20466 20523 0
-1510 -20467 20524 0
-1510 -20468 20525 0
-1510 -20469 20526 0
-1510 -20470 20527 0
-1510 -20471 20528 0
-1510 -20472 20529 0
-1510 -20473 20530 0
-1510 -20474 20531 0
-1510 -20475 20532 0
-1510 -20476 20533 0
-1510 -20477 20534 0
-1510 -20478 20535 0
-1510 -20479 20536 0
-1510 -20480 20537 0
-1510 -20481 20538 0
-1510 -20482 20539 0
-1510 -20483 20540 0
-1510 -20484 20541 0
-1510 -20485 20542 0
-1510 -20486 20543 0
-1510 -20487 20544 0
-1510 -20488 20545 0
-1510 -20489 20546 0
-1510 -20490 20547 0
-1510 -20491 20548 0
-1510 -20492 20549 0
-1510 -20493 20550 0
-1510 -20494 20551 0
-1510 -20495 20552 0
-1510 -20496 20553 0
-1510 -20497 20554 0
-1510 -20498 20555 0
-1510 -20499 20556 0
-1510 -20500 20557 0
-1510 -20501 20558 0
-1510 -20502 20559 0
-1510 -20503 20560 0
-1510 -20504 0
-20505 20561 0
-20506 20562 0
-20507 20563 0
-20508 20564 0
-20509 20565 0
-20510 20566 0
-20511 20567 0
-20512 20568 0
-20513 20569 0
-20514 20570 0
-20515 20571 0
-20516 20572 0
-20517 20573 0
-20518 20574 0
-20519 20575 0
-20520 20576 0
-20521 20577 0
-20522 20578 0
-20523 20579 0
-20524 20580 0
-20525 20581 0
-20526 20582 0
-20527 20583 0
-20528 20584 0
-20529 20585 0
-20530 20586 0
-20531 20587 0
-20532 20588 0
-20533 20589 0
-20534 20590 0
-20535 20591 0
-20536 20592 0
-20537 20593 0
-20538 20594 0
-20539 20595 0
-20540 20596 0
-20541 20597 0
-20542 20598 0
-20543 20599 0
-20544 20600 0
-20545 20601 0
-20546 20602 0
-20547 20603 0
-20548 20604 0
-20549 20605 0
-20550 20606 0
-20551 20607 0
-20552 20608 0
-20553 20609 0
-20554 20610 0
-20555 20611 0
-20556 20612 0
-20557 20613 0
-20558 20614 0
-20559 20615 0
-20560 20616 0
-1512 -20505 20562 0
-1512 -20506 20563 0
-1512 -20507 20564 0
-1512 -20508 20565 0
-1512 -20509 20566 0
-1512 -20510 20567 0
-1512 -20511 20568 0
-1512 -20512 20569 0
-1512 -20513 20570 0
-1512 -20514 20571 0
-1512 -20515 20572 0
-1512 -20516 20573 0
-1512 -20517 20574 0
-1512 -20518 20575 0
-1512 -20519 20576 0
-1512 -20520 20577 0
-1512 -20521 20578 0
-1512 -20522 20579 0
-1512 -20523 20580 0
-1512 -20524 20581 0
-1512 -20525 20582 0
-1512 -20526 20583 0
-1512 -20527 20584 0
-1512 -20528 20585 0
-1512 -20529 20586 0
-1512 -20530 20587 0
-1512 -20531 20588 0
-1512 -20532 20589 0
-1512 -20533 20590 0
-1512 -20534 20591 0
-1512 -20535 20592 0
-1512 -20536 20593 0
-1512 -20537 20594 0
-1512 -20538 20595 0
-1512 -20539 20596 0
-1512 -20540 20597 0
-1512 -20541 20598 0
-1512 -20542 20599 0
-1512 -20543 20600 0
-1512 -20544 20601 0
-1512 -20545 20602 0
-1512 -20546 20603 0
-1512 -20547 20604 0
-1512 -20548 20605 0
-1512 -20549 20606 0
-1512 -20550 20607 0
-1512 -20551 20608 0
-1512 -20552 20609 0
-1512 -20553 20610 0
-1512 -20554 20611 0
-1512 -20555 20612 0
-1512 -20556 20613 0
-1512 -20557 20614 0
-1512 -20558 20615 0
-1512 -20559 20616 0
-1512 -20560 0
-20561 20617 0
-20562 20618 0
-20563 20619 0
-20564 20620 0
-20565 20621 0
-20566 20622 0
-20567 20623 0
-20568 20624 0
-20569 20625 0
-20570 20626 0
-20571 20627 0
-20572 20628 0
-20573 20629 0
-20574 20630 0
-20575 20631 0
-20576 20632 0
-20577 20633 0
-20578 20634 0
-20579 20635 0
-20580 20636 0
-20581 20637 0
-20582 20638 0
-20583 20639 0
-20584 20640 0
-20585 20641 0
-20586 20642 0
-20587 20643 0
-20588 20644 0
-20589 20645 0
-20590 20646 0
-20591 20647 0
-20592 20648 0
-20593 20649 0
-20594 20650 0
-20595 20651 0
-20596 20652 0
-20597 20653 0
-20598 20654 0
-20599 20655 0
-20600 20656 0
-20601 20657 0
-20602 20658 0
-20603 20659 0
-20604 20660 0
-20605 20661 0
-20606 20662 0
-20607 20663 0
-20608 20664 0
-20609 20665 0
-20610 20666 0
-20611 20667 0
-20612 20668 0
-20613 20669 0
-20614 20670 0
-20615 20671 0
-20616 20672 0
-1514 -20561 20618 0
-1514 -20562 20619 0
-1514 -20563 20620 0
-1514 -20564 20621 0
-1514 -20565 20622 0
-1514 -20566 20623 0
-1514 -20567 20624 0
-1514 -20568 20625 0
-1514 -20569 20626 0
-1514 -20570 20627 0
-1514 -20571 20628 0
-1514 -20572 20629 0
-1514 -20573 20630 0
-1514 -20574 20631 0
-1514 -20575 20632 0
-1514 -20576 20633 0
-1514 -20577 20634 0
-1514 -20578 20635 0
-1514 -20579 20636 0
-1514 -20580 20637 0
-1514 -20581 20638 0
-1514 -20582 20639 0
-1514 -20583 20640 0
-1514 -20584 20641 0
-1514 -20585 20642 0
-1514 -20586 20643 0
-1514 -20587 20644 0
-1514 -20588 20645 0
-1514 -20589 20646 0
-1514 -20590 20647 0
-1514 -20591 20648 0
-1514 -20592 20649 0
-1514 -20593 20650 0
-1514 -20594 20651 0
-1514 -20595 20652 0
-1514 -20596 20653 0
-1514 -20597 20654 0
-1514 -20598 20655 0
-1514 -20599 20656 0
-1514 -20600 20657 0
-1514 -20601 20658 0
-1514 -20602 20659 0
-1514 -20603 20660 0
-1514 -20604 20661 0
-1514 -20605 20662 0
-1514 -20606 20663 0
-1514 -20607 20664 0
-1514 -20608 20665 0
-1514 -20609 20666 0
-1514 -20610 20667 0
-1514 -20611 20668 0
-1514 -20612 20669 0
-1514 -20613 20670 0
-1514 -20614 20671 0
-1514 -20615 20672 0
-1514 -20616 0
-20617 20673 0
-20618 20674 0
-20619 20675 0
-20620 20676 0
-20621 20677 0
-20622 20678 0
-20623 20679 0
-20624 20680 0
-20625 20681 0
-20626 20682 0
-20627 20683 0
-20628 20684 0
-20629 20685 0
-20630 20686 0
-20631 20687 0
-20632 20688 0
-20633 20689 0
-20634 20690 0
-20635 20691 0
-20636 20692 0
-20637 20693 0
-20638 20694 0
-20639 20695 0
-20640 20696 0
-20641 20697 0
-20642 20698 0
-20643 20699 0
-20644 20700 0
-20645 20701 0
-20646 20702 0
-20647 20703 0
-20648 20704 0
-20649 20705 0
-20650 20706 0
-20651 20707 0
-20652 20708 0
-20653 20709 0
-20654 20710 0
-20655 20711 0
-20656 20712 0
-20657 20713 0
-20658 20714 0
-20659 20715 0
-20660 20716 0
-20661 20717 0
-20662 20718 0
-20663 20719 0
-20664 20720 0
-20665 20721 0
-20666 20722 0
-20667 20723 0
-20668 20724 0
-20669 20725 0
-20670 20726 0
-20671 20727 0
-20672 20728 0
-1516 -20617 20674 0
-1516 -20618 20675 0
-1516 -20619 20676 0
-1516 -20620 20677 0
-1516 -20621 20678 0
-1516 -20622 20679 0
-1516 -20623 20680 0
-1516 -20624 20681 0
-1516 -20625 20682 0
-1516 -20626 20683 0
-1516 -20627 20684 0
-1516 -20628 20685 0
-1516 -20629 20686 0
-1516 -20630 20687 0
-1516 -20631 20688 0
-1516 -20632 20689 0
-1516 -20633 20690 0
-1516 -20634 20691 0
-1516 -20635 20692 0
-1516 -20636 20693 0
-1516 -20637 20694 0
-1516 -20638 20695 0
-1516 -20639 20696 0
-1516 -20640 20697 0
-1516 -20641 20698 0
-1516 -20642 20699 0
-1516 -20643 20700 0
-1516 -20644 20701 0
-1516 -20645 20702 0
-1516 -20646 20703 0
-1516 -20647 20704 0
-1516 -20648 20705 0
-1516 -20649 20706 0
-1516 -20650 20707 0
-1516 -20651 20708 0
-1516 -20652 20709 0
-1516 -20653 20710 0
-1516 -20654 20711 0
-1516 -20655 20712 0
-1516 -20656 20713 0
-1516 -20657 20714 0
-1516 -20658 20715 0
-1516 -20659 20716 0
-1516 -20660 20717 0
-1516 -20661 20718 0
-1516 -20662 20719 0
-1516 -20663 20720 0
-1516 -20664 20721 0
-1516 -20665 20722 0
-1516 -20666 20723 0
-1516 -20667 20724 0
-1516 -20668 20725 0
-1516 -20669 20726 0
-1516 -20670 20727 0
-1516 -20671 20728 0
-1516 -20672 0
-20673 20729 0
-20674 20730 0
-20675 20731 0
-20676 20732 0
-20677 20733 0
-20678 20734 0
-20679 20735 0
-20680 20736 0
-20681 20737 0
-20682 20738 0
-20683 20739 0
-20684 20740 0
-20685 20741 0
-20686 20742 0
-20687 20743 0
-20688 20744 0
-20689 20745 0
-20690 20746 0
-20691 20747 0
-20692 20748 0
-20693 20749 0
-20694 20750 0
-20695 20751 0
-20696 20752 0
-20697 20753 0
-20698 20754 0
-20699 20755 0
-20700 20756 0
-20701 20757 0
-20702 20758 0
-20703 20759 0
-20704 20760 0
-20705 20761 0
-20706 20762 0
-20707 20763 0
-20708 20764 0
-20709 20765 0
-20710 20766 0
-20711 20767 0
-20712 20768 0
-20713 20769 0
-20714 20770 0
-20715 20771 0
-20716 20772 0
-20717 20773 0
-20718 20774 0
-20719 20775 0
-20720 20776 0
-20721 20777 0
-20722 20778 0
-20723 20779 0
-20724 20780 0
-20725 20781 0
-20726 20782 0
-20727 20783 0
-20728 20784 0
-1518 -20673 20730 0
-1518 -20674 20731 0
-1518 -20675 20732 0
-1518 -20676 20733 0
-1518 -20677 20734 0
-1518 -20678 20735 0
-1518 -20679 20736 0
-1518 -20680 20737 0
-1518 -20681 20738 0
-1518 -20682 20739 0
-1518 -20683 20740 0
-1518 -20684 20741 0
-1518 -20685 20742 0
-1518 -20686 20743 0
-1518 -20687 20744 0
-1518 -20688 20745 0
-1518 -20689 20746 0
-1518 -20690 20747 0
-1518 -20691 20748 0
-1518 -20692 20749 0
-1518 -20693 20750 0
-1518 -20694 20751 0
-1518 -20695 20752 0
-1518 -20696 20753 0
-1518 -20697 20754 0
-1518 -20698 20755 0
-1518 -20699 20756 0
-1518 -20700 20757 0
-1518 -20701 20758 0
-1518 -20702 20759 0
-1518 -20703 20760 0
-1518 -20704 20761 0
-1518 -20705 20762 0
-1518 -20706 20763 0
-1518 -20707 20764 0
-1518 -20708 20765 0
-1518 -20709 20766 0
-1518 -20710 20767 0
-1518 -20711 20768 0
-1518 -20712 20769 0
-1518 -20713 20770 0
-1518 -20714 20771 0
-1518 -20715 20772 0
-1518 -20716 20773 0
-1518 -20717 20774 0
-1518 -20718 20775 0
-1518 -20719 20776 0
-1518 -20720 20777 0
-1518 -20721 20778 0
-1518 -20722 20779 0
-1518 -20723 20780 0
-1518 -20724 20781 0
-1518 -20725 20782 0
-1518 -20726 20783 0
-1518 -20727 20784 0
-1518 -20728 0
-20729 20785 0
-20730 20786 0
-20731 20787 0
-20732 20788 0
-20733 20789 0
-20734 20790 0
-20735 20791 0
-20736 20792 0
-20737 20793 0
-20738 20794 0
-20739 20795 0
-20740 20796 0
-20741 20797 0
-20742 20798 0
-20743 20799 0
-20744 20800 0
-20745 20801 0
-20746 20802 0
-20747 20803 0
-20748 20804 0
-20749 20805 0
-20750 20806 0
-20751 20807 0
-20752 20808 0
-20753 20809 0
-20754 20810 0
-20755 20811 0
-20756 20812 0
-20757 20813 0
-20758 20814 0
-20759 20815 0
-20760 20816 0
-20761 20817 0
-20762 20818 0
-20763 20819 0
-20764 20820 0
-20765 20821 0
-20766 20822 0
-20767 20823 0
-20768 20824 0
-20769 20825 0
-20770 20826 0
-20771 20827 0
-20772 20828 0
-20773 20829 0
-20774 20830 0
-20775 20831 0
-20776 20832 0
-20777 20833 0
-20778 20834 0
-20779 20835 0
-20780 20836 0
-20781 20837 0
-20782 20838 0
-20783 20839 0
-20784 20840 0
-1520 -20729 20786 0
-1520 -20730 20787 0
-1520 -20731 20788 0
-1520 -20732 20789 0
-1520 -20733 20790 0
-1520 -20734 20791 0
-1520 -20735 20792 0
-1520 -20736 20793 0
-1520 -20737 20794 0
-1520 -20738 20795 0
-1520 -20739 20796 0
-1520 -20740 20797 0
-1520 -20741 20798 0
-1520 -20742 20799 0
-1520 -20743 20800 0
-1520 -20744 20801 0
-1520 -20745 20802 0
-1520 -20746 20803 0
-1520 -20747 20804 0
-1520 -20748 20805 0
-1520 -20749 20806 0
-1520 -20750 20807 0
-1520 -20751 20808 0
-1520 -20752 20809 0
-1520 -20753 20810 0
-1520 -20754 20811 0
-1520 -20755 20812 0
-1520 -20756 20813 0
-1520 -20757 20814 0
-1520 -20758 20815 0
-1520 -20759 20816 0
-1520 -20760 20817 0
-1520 -20761 20818 0
-1520 -20762 20819 0
-1520 -20763 20820 0
-1520 -20764 20821 0
-1520 -20765 20822 0
-1520 -20766 20823 0
-1520 -20767 20824 0
-1520 -20768 20825 0
-1520 -20769 20826 0
-1520 -20770 20827 0
-1520 -20771 20828 0
-1520 -20772 20829 0
-1520 -20773 20830 0
-1520 -20774 20831 0
-1520 -20775 20832 0
-1520 -20776 20833 0
-1520 -20777 20834 0
-1520 -20778 20835 0
-1520 -20779 20836 0
-1520 -20780 20837 0
-1520 -20781 20838 0
-1520 -20782 20839 0
-1520 -20783 20840 0
-1520 -20784 0
-20785 20841 0
-20786 20842 0
-20787 20843 0
-20788 20844 0
-20789 20845 0
-20790 20846 0
-20791 20847 0
-20792 20848 0
-20793 20849 0
-20794 20850 0
-20795 20851 0
-20796 20852 0
-20797 20853 0
-20798 20854 0
-20799 20855 0
-20800 20856 0
-20801 20857 0
-20802 20858 0
-20803 20859 0
-20804 20860 0
-20805 20861 0
-20806 20862 0
-20807 20863 0
-20808 20864 0
-20809 20865 0
-20810 20866 0
-20811 20867 0
-20812 20868 0
-20813 20869 0
-20814 20870 0
-20815 20871 0
-20816 20872 0
-20817 20873 0
-20818 20874 0
-20819 20875 0
-20820 20876 0
-20821 20877 0
-20822 20878 0
-20823 20879 0
-20824 20880 0
-20825 20881 0
-20826 20882 0
-20827 20883 0
-20828 20884 0
-20829 20885 0
-20830 20886 0
-20831 20887 0
-20832 20888 0
-20833 20889 0
-20834 20890 0
-20835 20891 0
-20836 20892 0
-20837 20893 0
-20838 20894 0
-20839 20895 0
-20840 20896 0
-1522 -20785 20842 0
-1522 -20786 20843 0
-1522 -20787 20844 0
-1522 -20788 20845 0
-1522 -20789 20846 0
-1522 -20790 20847 0
-1522 -20791 20848 0
-1522 -20792 20849 0
-1522 -20793 20850 0
-1522 -20794 20851 0
-1522 -20795 20852 0
-1522 -20796 20853 0
-1522 -20797 20854 0
-1522 -20798 20855 0
-1522 -20799 20856 0
-1522 -20800 20857 0
-1522 -20801 20858 0
-1522 -20802 20859 0
-1522 -20803 20860 0
-1522 -20804 20861 0
-1522 -20805 20862 0
-1522 -20806 20863 0
-1522 -20807 20864 0
-1522 -20808 20865 0
-1522 -20809 20866 0
-1522 -20810 20867 0
-1522 -20811 20868 0
-1522 -20812 20869 0
-1522 -20813 20870 0
-1522 -20814 20871 0
-1522 -20815 20872 0
-1522 -20816 20873 0
-1522 -20817 20874 0
-1522 -20818 20875 0
-1522 -20819 20876 0
-1522 -20820 20877 0
-1522 -20821 20878 0
-1522 -20822 20879 0
-1522 -20823 20880 0
-1522 -20824 20881 0
-1522 -20825 20882 0
-1522 -20826 20883 0
-1522 -20827 20884 0
-1522 -20828 20885 0
-1522 -20829 20886 0
-1522 -20830 20887 0
-1522 -20831 20888 0
-1522 -20832 20889 0
-1522 -20833 20890 0
-1522 -20834 20891 0
-1522 -20835 20892 0
-1522 -20836 20893 0
-1522 -20837 20894 0
-1522 -20838 20895 0
-1522 -20839 20896 0
-1522 -20840 0
-20841 20897 0
-20842 20898 0
-20843 20899 0
-20844 20900 0
-20845 20901 0
-20846 20902 0
-20847 20903 0
-20848 20904 0
-20849 20905 0
-20850 20906 0
-20851 20907 0
-20852 20908 0
-20853 20909 0
-20854 20910 0
-20855 20911 0
-20856 20912 0
-20857 20913 0
-20858 20914 0
-20859 20915 0
-20860 20916 0
-20861 20917 0
-20862 20918 0
-20863 20919 0
-20864 20920 0
-20865 20921 0
-20866 20922 0
-20867 20923 0
-20868 20924 0
-20869 20925 0
-20870 20926 0
-20871 20927 0
-20872 20928 0
-20873 20929 0
-20874 20930 0
-20875 20931 0
-20876 20932 0
-20877 20933 0
-20878 20934 0
-20879 20935 0
-20880 20936 0
-20881 20937 0
-20882 20938 0
-20883 20939 0
-20884 20940 0
-20885 20941 0
-20886 20942 0
-20887 20943 0
-20888 20944 0
-20889 20945 0
-20890 20946 0
-20891 20947 0
-20892 20948 0
-20893 20949 0
-20894 20950 0
-20895 20951 0
-20896 20952 0
-1524 -20841 20898 0
-1524 -20842 20899 0
-1524 -20843 20900 0
-1524 -20844 20901 0
-1524 -20845 20902 0
-1524 -20846 20903 0
-1524 -20847 20904 0
-1524 -20848 20905 0
-1524 -20849 20906 0
-1524 -20850 20907 0
-1524 -20851 20908 0
-1524 -20852 20909 0
-1524 -20853 20910 0
-1524 -20854 20911 0
-1524 -20855 20912 0
-1524 -20856 20913 0
-1524 -20857 20914 0
-1524 -20858 20915 0
-1524 -20859 20916 0
-1524 -20860 20917 0
-1524 -20861 20918 0
-1524 -20862 20919 0
-1524 -20863 20920 0
-1524 -20864 20921 0
-1524 -20865 20922 0
-1524 -20866 20923 0
-1524 -20867 20924 0
-1524 -20868 20925 0
-1524 -20869 20926 0
-1524 -20870 20927 0
-1524 -20871 20928 0
-1524 -20872 20929 0
-1524 -20873 20930 0
-1524 -20874 20931 0
-1524 -20875 20932 0
-1524 -20876 20933 0
-1524 -20877 20934 0
-1524 -20878 20935 0
-1524 -20879 20936 0
-1524 -20880 20937 0
-1524 -20881 20938 0
-1524 -20882 20939 0
-1524 -20883 20940 0
-1524 -20884 20941 0
-1524 -20885 20942 0
-1524 -20886 20943 0
-1524 -20887 20944 0
-1524 -20888 20945 0
-1524 -20889 20946 0
-1524 -20890 20947 0
-1524 -20891 20948 0
-1524 -20892 20949 0
-1524 -20893 20950 0
-1524 -20894 20951 0
-1524 -20895 20952 0
-1524 -20896 0
-20897 20953 0
-20898 20954 0
-20899 20955 0
-20900 20956 0
-20901 20957 0
-20902 20958 0
-20903 20959 0
-20904 20960 0
-20905 20961 0
-20906 20962 0
-20907 20963 0
-20908 20964 0
-20909 20965 0
-20910 20966 0
-20911 20967 0
-20912 20968 0
-20913 20969 0
-20914 20970 0
-20915 20971 0
-20916 20972 0
-20917 20973 0
-20918 20974 0
-20919 20975 0
-20920 20976 0
-20921 20977 0
-20922 20978 0
-20923 20979 0
-20924 20980 0
-20925 20981 0
-20926 20982 0
-20927 20983 0
-20928 20984 0
-20929 20985 0
-20930 20986 0
-20931 20987 0
-20932 20988 0
-20933 20989 0
-20934 20990 0
-20935 20991 0
-20936 20992 0
-20937 20993 0
-20938 20994 0
-20939 20995 0
-20940 20996 0
-20941 20997 0
-20942 20998 0
-20943 20999 0
-20944 21000 0
-20945 21001 0
-20946 21002 0
-20947 21003 0
-20948 21004 0
-20949 21005 0
-20950 21006 0
-20951 21007 0
-20952 21008 0
-1526 -20897 20954 0
-1526 -20898 20955 0
-1526 -20899 20956 0
-1526 -20900 20957 0
-1526 -20901 20958 0
-1526 -20902 20959 0
-1526 -20903 20960 0
-1526 -20904 20961 0
-1526 -20905 20962 0
-1526 -20906 20963 0
-1526 -20907 20964 0
-1526 -20908 20965 0
-1526 -20909 20966 0
-1526 -20910 20967 0
-1526 -20911 20968 0
-1526 -20912 20969 0
-1526 -20913 20970 0
-1526 -20914 20971 0
-1526 -20915 20972 0
-1526 -20916 20973 0
-1526 -20917 20974 0
-1526 -20918 20975 0
-1526 -20919 20976 0
-1526 -20920 20977 0
-1526 -20921 20978 0
-1526 -20922 20979 0
-1526 -20923 20980 0
-1526 -20924 20981 0
-1526 -20925 20982 0
-1526 -20926 20983 0
-1526 -20927 20984 0
-1526 -20928 20985 0
-1526 -20929 20986 0
-1526 -20930 20987 0
-1526 -20931 20988 0
-1526 -20932 20989 0
-1526 -20933 20990 0
-1526 -20934 20991 0
-1526 -20935 20992 0
-1526 -20936 20993 0
-1526 -20937 20994 0
-1526 -20938 20995 0
-1526 -20939 20996 0
-1526 -20940 20997 0
-1526 -20941 20998 0
-1526 -20942 20999 0
-1526 -20943 21000 0
-1526 -20944 21001 0
-1526 -20945 21002 0
-1526 -20946 21003 0
-1526 -20947 21004 0
-1526 -20948 21005 0
-1526 -20949 21006 0
-1526 -20950 21007 0
-1526 -20951 21008 0
-1526 -20952 0
-20953 21009 0
-20954 21010 0
-20955 21011 0
-20956 21012 0
-20957 21013 0
-20958 21014 0
-20959 21015 0
-20960 21016 0
-20961 21017 0
-20962 21018 0
-20963 21019 0
-20964 21020 0
-20965 21021 0
-20966 21022 0
-20967 21023 0
-20968 21024 0
-20969 21025 0
-20970 21026 0
-20971 21027 0
-20972 21028 0
-20973 21029 0
-20974 21030 0
-20975 21031 0
-20976 21032 0
-20977 21033 0
-20978 21034 0
-20979 21035 0
-20980 21036 0
-20981 21037 0
-20982 21038 0
-20983 21039 0
-20984 21040 0
-20985 21041 0
-20986 21042 0
-20987 21043 0
-20988 21044 0
-20989 21045 0
-20990 21046 0
-20991 21047 0
-20992 21048 0
-20993 21049 0
-20994 21050 0
-20995 21051 0
-20996 21052 0
-20997 21053 0
-20998 21054 0
-20999 21055 0
-21000 21056 0
-21001 21057 0
-21002 21058 0
-21003 21059 0
-21004 21060 0
-21005 21061 0
-21006 21062 0
-21007 21063 0
-21008 21064 0
-1528 -20953 21010 0
-1528 -20954 21011 0
-1528 -20955 21012 0
-1528 -20956 21013 0
-1528 -20957 21014 0
-1528 -20958 21015 0
-1528 -20959 21016 0
-1528 -20960 21017 0
-1528 -20961 21018 0
-1528 -20962 21019 0
-1528 -20963 21020 0
-1528 -20964 21021 0
-1528 -20965 21022 0
-1528 -20966 21023 0
-1528 -20967 21024 0
-1528 -20968 21025 0
-1528 -20969 21026 0
-1528 -20970 21027 0
-1528 -20971 21028 0
-1528 -20972 21029 0
-1528 -20973 21030 0
-1528 -20974 21031 0
-1528 -20975 21032 0
-1528 -20976 21033 0
-1528 -20977 21034 0
-1528 -20978 21035 0
-1528 -20979 21036 0
-1528 -20980 21037 0
-1528 -20981 21038 0
-1528 -20982 21039 0
-1528 -20983 21040 0
-1528 -20984 21041 0
-1528 -20985 21042 0
-1528 -20986 21043 0
-1528 -20987 21044 0
-1528 -20988 21045 0
-1528 -20989 21046 0
-1528 -20990 21047 0
-1528 -20991 21048 0
-1528 -20992 21049 0
-1528 -20993 21050 0
-1528 -20994 21051 0
-1528 -20995 21052 0
-1528 -20996 21053 0
-1528 -20997 21054 0
-1528 -20998 21055 0
-1528 -20999 21056 0
-1528 -21000 21057 0
-1528 -21001 21058 0
-1528 -21002 21059 0
-1528 -21003 21060 0
-1528 -21004 21061 0
-1528 -21005 21062 0
-1528 -21006 21063 0
-1528 -21007 21064 0
-1528 -21008 0
-21009 21065 0
-21010 21066 0
-21011 21067 0
-21012 21068 0
-21013 21069 0
-21014 21070 0
-21015 21071 0
-21016 21072 0
-21017 21073 0
-21018 21074 0
-21019 21075 0
-21020 21076 0
-21021 21077 0
-21022 21078 0
-21023 21079 0
-21024 21080 0
-21025 21081 0
-21026 21082 0
-21027 21083 0
-21028 21084 0
-21029 21085 0
-21030 21086 0
-21031 21087 0
-21032 21088 0
-21033 21089 0
-21034 21090 0
-21035 21091 0
-21036 21092 0
-21037 21093 0
-21038 21094 0
-21039 21095 0
-21040 21096 0
-21041 21097 0
-21042 21098 0
-21043 21099 0
-21044 21100 0
-21045 21101 0
-21046 21102 0
-21047 21103 0
-21048 21104 0
-21049 21105 0
-21050 21106 0
-21051 21107 0
-21052 21108 0
-21053 21109 0
-21054 21110 0
-21055 21111 0
-21056 21112 0
-21057 21113 0
-21058 21114 0
-21059 21115 0
-21060 21116 0
-21061 21117 0
-21062 21118 0
-21063 21119 0
-21064 21120 0
-1530 -21009 21066 0
-1530 -21010 21067 0
-1530 -21011 21068 0
-1530 -21012 21069 0
-1530 -21013 21070 0
-1530 -21014 21071 0
-1530 -21015 21072 0
-1530 -21016 21073 0
-1530 -21017 21074 0
-1530 -21018 21075 0
-1530 -21019 21076 0
-1530 -21020 21077 0
-1530 -21021 21078 0
-1530 -21022 21079 0
-1530 -21023 21080 0
-1530 -21024 21081 0
-1530 -21025 21082 0
-1530 -21026 21083 0
-1530 -21027 21084 0
-1530 -21028 21085 0
-1530 -21029 21086 0
-1530 -21030 21087 0
-1530 -21031 21088 0
-1530 -21032 21089 0
-1530 -21033 21090 0
-1530 -21034 21091 0
-1530 -21035 21092 0
-1530 -21036 21093 0
-1530 -21037 21094 0
-1530 -21038 21095 0
-1530 -21039 21096 0
-1530 -21040 21097 0
-1530 -21041 21098 0
-1530 -21042 21099 0
-1530 -21043 21100 0
-1530 -21044 21101 0
-1530 -21045 21102 0
-1530 -21046 21103 0
-1530 -21047 21104 0
-1530 -21048 21105 0
-1530 -21049 21106 0
-1530 -21050 21107 0
-1530 -21051 21108 0
-1530 -21052 21109 0
-1530 -21053 21110 0
-1530 -21054 21111 0
-1530 -21055 21112 0
-1530 -21056 21113 0
-1530 -21057 21114 0
-1530 -21058 21115 0
-1530 -21059 21116 0
-1530 -21060 21117 0
-1530 -21061 21118 0
-1530 -21062 21119 0
-1530 -21063 21120 0
-1530 -21064 0
-21065 21121 0
-21066 21122 0
-21067 21123 0
-21068 21124 0
-21069 21125 0
-21070 21126 0
-21071 21127 0
-21072 21128 0
-21073 21129 0
-21074 21130 0
-21075 21131 0
-21076 21132 0
-21077 21133 0
-21078 21134 0
-21079 21135 0
-21080 21136 0
-21081 21137 0
-21082 21138 0
-21083 21139 0
-21084 21140 0
-21085 21141 0
-21086 21142 0
-21087 21143 0
-21088 21144 0
-21089 21145 0
-21090 21146 0
-21091 21147 0
-21092 21148 0
-21093 21149 0
-21094 21150 0
-21095 21151 0
-21096 21152 0
-21097 21153 0
-21098 21154 0
-21099 21155 0
-21100 21156 0
-21101 21157 0
-21102 21158 0
-21103 21159 0
-21104 21160 0
-21105 21161 0
-21106 21162 0
-21107 21163 0
-21108 21164 0
-21109 21165 0
-21110 21166 0
-21111 21167 0
-21112 21168 0
-21113 21169 0
-21114 21170 0
-21115 21171 0
-21116 21172 0
-21117 21173 0
-21118 21174 0
-21119 21175 0
-21120 21176 0
-1532 -21065 21122 0
-1532 -21066 21123 0
-1532 -21067 21124 0
-1532 -21068 21125 0
-1532 -21069 21126 0
-1532 -21070 21127 0
-1532 -21071 21128 0
-1532 -21072 21129 0
-1532 -21073 21130 0
-1532 -21074 21131 0
-1532 -21075 21132 0
-1532 -21076 21133 0
-1532 -21077 21134 0
-1532 -21078 21135 0
-1532 -21079 21136 0
-1532 -21080 21137 0
-1532 -21081 21138 0
-1532 -21082 21139 0
-1532 -21083 21140 0
-1532 -21084 21141 0
-1532 -21085 21142 0
-1532 -21086 21143 0
-1532 -21087 21144 0
-1532 -21088 21145 0
-1532 -21089 21146 0
-1532 -21090 21147 0
-1532 -21091 21148 0
-1532 -21092 21149 0
-1532 -21093 21150 0
-1532 -21094 21151 0
-1532 -21095 21152 0
-1532 -21096 21153 0
-1532 -21097 21154 0
-1532 -21098 21155 0
-1532 -21099 21156 0
-1532 -21100 21157 0
-1532 -21101 21158 0
-1532 -21102 21159 0
-1532 -21103 21160 0
-1532 -21104 21161 0
-1532 -21105 21162 0
-1532 -21106 21163 0
-1532 -21107 21164 0
-1532 -21108 21165 0
-1532 -21109 21166 0
-1532 -21110 21167 0
-1532 -21111 21168 0
-1532 -21112 21169 0
-1532 -21113 21170 0
-1532 -21114 21171 0
-1532 -21115 21172 0
-1532 -21116 21173 0
-1532 -21117 21174 0
-1532 -21118 21175 0
-1532 -21119 21176 0
-1532 -21120 0
-21121 21177 0
-21122 21178 0
-21123 21179 0
-21124 21180 0
-21125 21181 0
-21126 21182 0
-21127 21183 0
-21128 21184 0
-21129 21185 0
-21130 21186 0
-21131 21187 0
-21132 21188 0
-21133 21189 0
-21134 21190 0
-21135 21191 0
-21136 21192 0
-21137 21193 0
-21138 21194 0
-21139 21195 0
-21140 21196 0
-21141 21197 0
-21142 21198 0
-21143 21199 0
-21144 21200 0
-21145 21201 0
-21146 21202 0
-21147 21203 0
-21148 21204 0
-21149 21205 0
-21150 21206 0
-21151 21207 0
-21152 21208 0
-21153 21209 0
-21154 21210 0
-21155 21211 0
-21156 21212 0
-21157 21213 0
-21158 21214 0
-21159 21215 0
-21160 21216 0
-21161 21217 0
-21162 21218 0
-21163 21219 0
-21164 21220 0
-21165 21221 0
-21166 21222 0
-21167 21223 0
-21168 21224 0
-21169 21225 0
-21170 21226 0
-21171 21227 0
-21172 21228 0
-21173 21229 0
-21174 21230 0
-21175 21231 0
-21176 21232 0
-1534 -21121 21178 0
-1534 -21122 21179 0
-1534 -21123 21180 0
-1534 -21124 21181 0
-1534 -21125 21182 0
-1534 -21126 21183 0
-1534 -21127 21184 0
-1534 -21128 21185 0
-1534 -21129 21186 0
-1534 -21130 21187 0
-1534 -21131 21188 0
-1534 -21132 21189 0
-1534 -21133 21190 0
-1534 -21134 21191 0
-1534 -21135 21192 0
-1534 -21136 21193 0
-1534 -21137 21194 0
-1534 -21138 21195 0
-1534 -21139 21196 0
-1534 -21140 21197 0
-1534 -21141 21198 0
-1534 -21142 21199 0
-1534 -21143 21200 0
-1534 -21144 21201 0
-1534 -21145 21202 0
-1534 -21146 21203 0
-1534 -21147 21204 0
-1534 -21148 21205 0
-1534 -21149 21206 0
-1534 -21150 21207 0
-1534 -21151 21208 0
-1534 -21152 21209 0
-1534 -21153 21210 0
-1534 -21154 21211 0
-1534 -21155 21212 0
-1534 -21156 21213 0
-1534 -21157 21214 0
-1534 -21158 21215 0
-1534 -21159 21216 0
-1534 -21160 21217 0
-1534 -21161 21218 0
-1534 -21162 21219 0
-1534 -21163 21220 0
-1534 -21164 21221 0
-1534 -21165 21222 0
-1534 -21166 21223 0
-1534 -21167 21224 0
-1534 -21168 21225 0
-1534 -21169 21226 0
-1534 -21170 21227 0
-1534 -21171 21228 0
-1534 -21172 21229 0
-1534 -21173 21230 0
-1534 -21174 21231 0
-1534 -21175 21232 0
-1534 -21176 0
-21177 21233 0
-21178 21234 0
-21179 21235 0
-21180 21236 0
-21181 21237 0
-21182 21238 0
-21183 21239 0
-21184 21240 0
-21185 21241 0
-21186 21242 0
-21187 21243 0
-21188 21244 0
-21189 21245 0
-21190 21246 0
-21191 21247 0
-21192 21248 0
-21193 21249 0
-21194 21250 0
-21195 21251 0
-21196 21252 0
-21197 21253 0
-21198 21254 0
-21199 21255 0
-21200 21256 0
-21201 21257 0
-21202 21258 0
-21203 21259 0
-21204 21260 0
-21205 21261 0
-21206 21262 0
-21207 21263 0
-21208 21264 0
-21209 21265 0
-21210 21266 0
-21211 21267 0
-21212 21268 0
-21213 21269 0
-21214 21270 0
-21215 21271 0
-21216 21272 0
-21217 21273 0
-21218 21274 0
-21219 21275 0
-21220 21276 0
-21221 21277 0
-21222 21278 0
-21223 21279 0
-21224 21280 0
-21225 21281 0
-21226 21282 0
-21227 21283 0
-21228 21284 0
-21229 21285 0
-21230 21286 0
-21231 21287 0
-21232 21288 0
-1536 -21177 21234 0
-1536 -21178 21235 0
-1536 -21179 21236 0
-1536 -21180 21237 0
-1536 -21181 21238 0
-1536 -21182 21239 0
-1536 -21183 21240 0
-1536 -21184 21241 0
-1536 -21185 21242 0
-1536 -21186 21243 0
-1536 -21187 21244 0
-1536 -21188 21245 0
-1536 -21189 21246 0
-1536 -21190 21247 0
-1536 -21191 21248 0
-1536 -21192 21249 0
-1536 -21193 21250 0
-1536 -21194 21251 0
-1536 -21195 21252 0
-1536 -21196 21253 0
-1536 -21197 21254 0
-1536 -21198 21255 0
-1536 -21199 21256 0
-1536 -21200 21257 0
-1536 -21201 21258 0
-1536 -21202 21259 0
-1536 -21203 21260 0
-1536 -21204 21261 0
-1536 -21205 21262 0
-1536 -21206 21263 0
-1536 -21207 21264 0
-1536 -21208 21265 0
-1536 -21209 21266 0
-1536 -21210 21267 0
-1536 -21211 21268 0
-1536 -21212 21269 0
-1536 -21213 21270 0
-1536 -21214 21271 0
-1536 -21215 21272 0
-1536 -21216 21273 0
-1536 -21217 21274 0
-1536 -21218 21275 0
-1536 -21219 21276 0
-1536 -21220 21277 0
-1536 -21221 21278 0
-1536 -21222 21279 0
-1536 -21223 21280 0
-1536 -21224 21281 0
-1536 -21225 21282 0
-1536 -21226 21283 0
-1536 -21227 21284 0
-1536 -21228 21285 0
-1536 -21229 21286 0
-1536 -21230 21287 0
-1536 -21231 21288 0
-1536 -21232 0
-21233 21289 0
-21234 21290 0
-21235 21291 0
-21236 21292 0
-21237 21293 0
-21238 21294 0
-21239 21295 0
-21240 21296 0
-21241 21297 0
-21242 21298 0
-21243 21299 0
-21244 21300 0
-21245 21301 0
-21246 21302 0
-21247 21303 0
-21248 21304 0
-21249 21305 0
-21250 21306 0
-21251 21307 0
-21252 21308 0
-21253 21309 0
-21254 21310 0
-21255 21311 0
-21256 21312 0
-21257 21313 0
-21258 21314 0
-21259 21315 0
-21260 21316 0
-21261 21317 0
-21262 21318 0
-21263 21319 0
-21264 21320 0
-21265 21321 0
-21266 21322 0
-21267 21323 0
-21268 21324 0
-21269 21325 0
-21270 21326 0
-21271 21327 0
-21272 21328 0
-21273 21329 0
-21274 21330 0
-21275 21331 0
-21276 21332 0
-21277 21333 0
-21278 21334 0
-21279 21335 0
-21280 21336 0
-21281 21337 0
-21282 21338 0
-21283 21339 0
-21284 21340 0
-21285 21341 0
-21286 21342 0
-21287 21343 0
-21288 21344 0
-1538 -21233 21290 0
-1538 -21234 21291 0
-1538 -21235 21292 0
-1538 -21236 21293 0
-1538 -21237 21294 0
-1538 -21238 21295 0
-1538 -21239 21296 0
-1538 -21240 21297 0
-1538 -21241 21298 0
-1538 -21242 21299 0
-1538 -21243 21300 0
-1538 -21244 21301 0
-1538 -21245 21302 0
-1538 -21246 21303 0
-1538 -21247 21304 0
-1538 -21248 21305 0
-1538 -21249 21306 0
-1538 -21250 21307 0
-1538 -21251 21308 0
-1538 -21252 21309 0
-1538 -21253 21310 0
-1538 -21254 21311 0
-1538 -21255 21312 0
-1538 -21256 21313 0
-1538 -21257 21314 0
-1538 -21258 21315 0
-1538 -21259 21316 0
-1538 -21260 21317 0
-1538 -21261 21318 0
-1538 -21262 21319 0
-1538 -21263 21320 0
-1538 -21264 21321 0
-1538 -21265 21322 0
-1538 -21266 21323 0
-1538 -21267 21324 0
-1538 -21268 21325 0
-1538 -21269 21326 0
-1538 -21270 21327 0
-1538 -21271 21328 0
-1538 -21272 21329 0
-1538 -21273 21330 0
-1538 -21274 21331 0
-1538 -21275 21332 0
-1538 -21276 21333 0
-1538 -21277 21334 0
-1538 -21278 21335 0
-1538 -21279 21336 0
-1538 -21280 21337 0
-1538 -21281 21338 0
-1538 -21282 21339 0
-1538 -21283 21340 0
-1538 -21284 21341 0
-1538 -21285 21342 0
-1538 -21286 21343 0
-1538 -21287 21344 0
-1538 -21288 0
-21289 21345 0
-21290 21346 0
-21291 21347 0
-21292 21348 0
-21293 21349 0
-21294 21350 0
-21295 21351 0
-21296 21352 0
-21297 21353 0
-21298 21354 0
-21299 21355 0
-21300 21356 0
-21301 21357 0
-21302 21358 0
-21303 21359 0
-21304 21360 0
-21305 21361 0
-21306 21362 0
-21307 21363 0
-21308 21364 0
-21309 21365 0
-21310 21366 0
-21311 21367 0
-21312 21368 0
-21313 21369 0
-21314 21370 0
-21315 21371 0
-21316 21372 0
-21317 21373 0
-21318 21374 0
-21319 21375 0
-21320 21376 0
-21321 21377 0
-21322 21378 0
-21323 21379 0
-21324 21380 0
-21325 21381 0
-21326 21382 0
-21327 21383 0
-21328 21384 0
-21329 21385 0
-21330 21386 0
-21331 21387 0
-21332 21388 0
-21333 21389 0
-21334 21390 0
-21335 21391 0
-21336 21392 0
-21337 21393 0
-21338 21394 0
-21339 21395 0
-21340 21396 0
-21341 21397 0
-21342 21398 0
-21343 21399 0
-21344 21400 0
-1540 -21289 21346 0
-1540 -21290 21347 0
-1540 -21291 21348 0
-1540 -21292 21349 0
-1540 -21293 21350 0
-1540 -21294 21351 0
-1540 -21295 21352 0
-1540 -21296 21353 0
-1540 -21297 21354 0
-1540 -21298 21355 0
-1540 -21299 21356 0
-1540 -21300 21357 0
-1540 -21301 21358 0
-1540 -21302 21359 0
-1540 -21303 21360 0
-1540 -21304 21361 0
-1540 -21305 21362 0
-1540 -21306 21363 0
-1540 -21307 21364 0
-1540 -21308 21365 0
-1540 -21309 21366 0
-1540 -21310 21367 0
-1540 -21311 21368 0
-1540 -21312 21369 0
-1540 -21313 21370 0
-1540 -21314 21371 0
-1540 -21315 21372 0
-1540 -21316 21373 0
-1540 -21317 21374 0
-1540 -21318 21375 0
-1540 -21319 21376 0
-1540 -21320 21377 0
-1540 -21321 21378 0
-1540 -21322 21379 0
-1540 -21323 21380 0
-1540 -21324 21381 0
-1540 -21325 21382 0
-1540 -21326 21383 0
-1540 -21327 21384 0
-1540 -21328 21385 0
-1540 -21329 21386 0
-1540 -21330 21387 0
-1540 -21331 21388 0
-1540 -21332 21389 0
-1540 -21333 21390 0
-1540 -21334 21391 0
-1540 -21335 21392 0
-1540 -21336 21393 0
-1540 -21337 21394 0
-1540 -21338 21395 0
-1540 -21339 21396 0
-1540 -21340 21397 0
-1540 -21341 21398 0
-1540 -21342 21399 0
-1540 -21343 21400 0
-1540 -21344 0
-21345 21401 0
-21346 21402 0
-21347 21403 0
-21348 21404 0
-21349 21405 0
-21350 21406 0
-21351 21407 0
-21352 21408 0
-21353 21409 0
-21354 21410 0
-21355 21411 0
-21356 21412 0
-21357 21413 0
-21358 21414 0
-21359 21415 0
-21360 21416 0
-21361 21417 0
-21362 21418 0
-21363 21419 0
-21364 21420 0
-21365 21421 0
-21366 21422 0
-21367 21423 0
-21368 21424 0
-21369 21425 0
-21370 21426 0
-21371 21427 0
-21372 21428 0
-21373 21429 0
-21374 21430 0
-21375 21431 0
-21376 21432 0
-21377 21433 0
-21378 21434 0
-21379 21435 0
-21380 21436 0
-21381 21437 0
-21382 21438 0
-21383 21439 0
-21384 21440 0
-21385 21441 0
-21386 21442 0
-21387 21443 0
-21388 21444 0
-21389 21445 0
-21390 21446 0
-21391 21447 0
-21392 21448 0
-21393 21449 0
-21394 21450 0
-21395 21451 0
-21396 21452 0
-21397 21453 0
-21398 21454 0
-21399 21455 0
-21400 21456 0
-1542 -21345 21402 0
-1542 -21346 21403 0
-1542 -21347 21404 0
-1542 -21348 21405 0
-1542 -21349 21406 0
-1542 -21350 21407 0
-1542 -21351 21408 0
-1542 -21352 21409 0
-1542 -21353 21410 0
-1542 -21354 21411 0
-1542 -21355 21412 0
-1542 -21356 21413 0
-1542 -21357 21414 0
-1542 -21358 21415 0
-1542 -21359 21416 0
-1542 -21360 21417 0
-1542 -21361 21418 0
-1542 -21362 21419 0
-1542 -21363 21420 0
-1542 -21364 21421 0
-1542 -21365 21422 0
-1542 -21366 21423 0
-1542 -21367 21424 0
-1542 -21368 21425 0
-1542 -21369 21426 0
-1542 -21370 21427 0
-1542 -21371 21428 0
-1542 -21372 21429 0
-1542 -21373 21430 0
-1542 -21374 21431 0
-1542 -21375 21432 0
-1542 -21376 21433 0
-1542 -21377 21434 0
-1542 -21378 21435 0
-1542 -21379 21436 0
-1542 -21380 21437 0
-1542 -21381 21438 0
-1542 -21382 21439 0
-1542 -21383 21440 0
-1542 -21384 21441 0
-1542 -21385 21442 0
-1542 -21386 21443 0
-1542 -21387 21444 0
-1542 -21388 21445 0
-1542 -21389 21446 0
-1542 -21390 21447 0
-1542 -21391 21448 0
-1542 -21392 21449 0
-1542 -21393 21450 0
-1542 -21394 21451 0
-1542 -21395 21452 0
-1542 -21396 21453 0
-1542 -21397 21454 0
-1542 -21398 21455 0
-1542 -21399 21456 0
-1542 -21400 0
-21401 21457 0
-21402 21458 0
-21403 21459 0
-21404 21460 0
-21405 21461 0
-21406 21462 0
-21407 21463 0
-21408 21464 0
-21409 21465 0
-21410 21466 0
-21411 21467 0
-21412 21468 0
-21413 21469 0
-21414 21470 0
-21415 21471 0
-21416 21472 0
-21417 21473 0
-21418 21474 0
-21419 21475 0
-21420 21476 0
-21421 21477 0
-21422 21478 0
-21423 21479 0
-21424 21480 0
-21425 21481 0
-21426 21482 0
-21427 21483 0
-21428 21484 0
-21429 21485 0
-21430 21486 0
-21431 21487 0
-21432 21488 0
-21433 21489 0
-21434 21490 0
-21435 21491 0
-21436 21492 0
-21437 21493 0
-21438 21494 0
-21439 21495 0
-21440 21496 0
-21441 21497 0
-21442 21498 0
-21443 21499 0
-21444 21500 0
-21445 21501 0
-21446 21502 0
-21447 21503 0
-21448 21504 0
-21449 21505 0
-21450 21506 0
-21451 21507 0
-21452 21508 0
-21453 21509 0
-21454 21510 0
-21455 21511 0
-21456 21512 0
-1544 -21401 21458 0
-1544 -21402 21459 0
-1544 -21403 21460 0
-1544 -21404 21461 0
-1544 -21405 21462 0
-1544 -21406 21463 0
-1544 -21407 21464 0
-1544 -21408 21465 0
-1544 -21409 21466 0
-1544 -21410 21467 0
-1544 -21411 21468 0
-1544 -21412 21469 0
-1544 -21413 21470 0
-1544 -21414 21471 0
-1544 -21415 21472 0
-1544 -21416 21473 0
-1544 -21417 21474 0
-1544 -21418 21475 0
-1544 -21419 21476 0
-1544 -21420 21477 0
-1544 -21421 21478 0
-1544 -21422 21479 0
-1544 -21423 21480 0
-1544 -21424 21481 0
-1544 -21425 21482 0
-1544 -21426 21483 0
-1544 -21427 21484 0
-1544 -21428 21485 0
-1544 -21429 21486 0
-1544 -21430 21487 0
-1544 -21431 21488 0
-1544 -21432 21489 0
-1544 -21433 21490 0
-1544 -21434 21491 0
-1544 -21435 21492 0
-1544 -21436 21493 0
-1544 -21437 21494 0
-1544 -21438 21495 0
-1544 -21439 21496 0
-1544 -21440 21497 0
-1544 -21441 21498 0
-1544 -21442 21499 0
-1544 -21443 21500 0
-1544 -21444 21501 0
-1544 -21445 21502 0
-1544 -21446 21503 0
-1544 -21447 21504 0
-1544 -21448 21505 0
-1544 -21449 21506 0
-1544 -21450 21507 0
-1544 -21451 21508 0
-1544 -21452 21509 0
-1544 -21453 21510 0
-1544 -21454 21511 0
-1544 -21455 21512 0
-1544 -21456 0
-21457 21513 0
-21458 21514 0
-21459 21515 0
-21460 21516 0
-21461 21517 0
-21462 21518 0
-21463 21519 0
-21464 21520 0
-21465 21521 0
-21466 21522 0
-21467 21523 0
-21468 21524 0
-21469 21525 0
-21470 21526 0
-21471 21527 0
-21472 21528 0
-21473 21529 0
-21474 21530 0
-21475 21531 0
-21476 21532 0
-21477 21533 0
-21478 21534 0
-21479 21535 0
-21480 21536 0
-21481 21537 0
-21482 21538 0
-21483 21539 0
-21484 21540 0
-21485 21541 0
-21486 21542 0
-21487 21543 0
-21488 21544 0
-21489 21545 0
-21490 21546 0
-21491 21547 0
-21492 21548 0
-21493 21549 0
-21494 21550 0
-21495 21551 0
-21496 21552 0
-21497 21553 0
-21498 21554 0
-21499 21555 0
-21500 21556 0
-21501 21557 0
-21502 21558 0
-21503 21559 0
-21504 21560 0
-21505 21561 0
-21506 21562 0
-21507 21563 0
-21508 21564 0
-21509 21565 0
-21510 21566 0
-21511 21567 0
-21512 21568 0
-1546 -21457 21514 0
-1546 -21458 21515 0
-1546 -21459 21516 0
-1546 -21460 21517 0
-1546 -21461 21518 0
-1546 -21462 21519 0
-1546 -21463 21520 0
-1546 -21464 21521 0
-1546 -21465 21522 0
-1546 -21466 21523 0
-1546 -21467 21524 0
-1546 -21468 21525 0
-1546 -21469 21526 0
-1546 -21470 21527 0
-1546 -21471 21528 0
-1546 -21472 21529 0
-1546 -21473 21530 0
-1546 -21474 21531 0
-1546 -21475 21532 0
-1546 -21476 21533 0
-1546 -21477 21534 0
-1546 -21478 21535 0
-1546 -21479 21536 0
-1546 -21480 21537 0
-1546 -21481 21538 0
-1546 -21482 21539 0
-1546 -21483 21540 0
-1546 -21484 21541 0
-1546 -21485 21542 0
-1546 -21486 21543 0
-1546 -21487 21544 0
-1546 -21488 21545 0
-1546 -21489 21546 0
-1546 -21490 21547 0
-1546 -21491 21548 0
-1546 -21492 21549 0
-1546 -21493 21550 0
-1546 -21494 21551 0
-1546 -21495 21552 0
-1546 -21496 21553 0
-1546 -21497 21554 0
-1546 -21498 21555 0
-1546 -21499 21556 0
-1546 -21500 21557 0
-1546 -21501 21558 0
-1546 -21502 21559 0
-1546 -21503 21560 0
-1546 -21504 21561 0
-1546 -21505 21562 0
-1546 -21506 21563 0
-1546 -21507 21564 0
-1546 -21508 21565 0
-1546 -21509 21566 0
-1546 -21510 21567 0
-1546 -21511 21568 0
-1546 -21512 0
-21513 21569 0
-21514 21570 0
-21515 21571 0
-21516 21572 0
-21517 21573 0
-21518 21574 0
-21519 21575 0
-21520 21576 0
-21521 21577 0
-21522 21578 0
-21523 21579 0
-21524 21580 0
-21525 21581 0
-21526 21582 0
-21527 21583 0
-21528 21584 0
-21529 21585 0
-21530 21586 0
-21531 21587 0
-21532 21588 0
-21533 21589 0
-21534 21590 0
-21535 21591 0
-21536 21592 0
-21537 21593 0
-21538 21594 0
-21539 21595 0
-21540 21596 0
-21541 21597 0
-21542 21598 0
-21543 21599 0
-21544 21600 0
-21545 21601 0
-21546 21602 0
-21547 21603 0
-21548 21604 0
-21549 21605 0
-21550 21606 0
-21551 21607 0
-21552 21608 0
-21553 21609 0
-21554 21610 0
-21555 21611 0
-21556 21612 0
-21557 21613 0
-21558 21614 0
-21559 21615 0
-21560 21616 0
-21561 21617 0
-21562 21618 0
-21563 21619 0
-21564 21620 0
-21565 21621 0
-21566 21622 0
-21567 21623 0
-21568 21624 0
-1548 -21513 21570 0
-1548 -21514 21571 0
-1548 -21515 21572 0
-1548 -21516 21573 0
-1548 -21517 21574 0
-1548 -21518 21575 0
-1548 -21519 21576 0
-1548 -21520 21577 0
-1548 -21521 21578 0
-1548 -21522 21579 0
-1548 -21523 21580 0
-1548 -21524 21581 0
-1548 -21525 21582 0
-1548 -21526 21583 0
-1548 -21527 21584 0
-1548 -21528 21585 0
-1548 -21529 21586 0
-1548 -21530 21587 0
-1548 -21531 21588 0
-1548 -21532 21589 0
-1548 -21533 21590 0
-1548 -21534 21591 0
-1548 -21535 21592 0
-1548 -21536 21593 0
-1548 -21537 21594 0
-1548 -21538 21595 0
-1548 -21539 21596 0
-1548 -21540 21597 0
-1548 -21541 21598 0
-1548 -21542 21599 0
-1548 -21543 21600 0
-1548 -21544 21601 0
-1548 -21545 21602 0
-1548 -21546 21603 0
-1548 -21547 21604 0
-1548 -21548 21605 0
-1548 -21549 21606 0
-1548 -21550 21607 0
-1548 -21551 21608 0
-1548 -21552 21609 0
-1548 -21553 21610 0
-1548 -21554 21611 0
-1548 -21555 21612 0
-1548 -21556 21613 0
-1548 -21557 21614 0
-1548 -21558 21615 0
-1548 -21559 21616 0
-1548 -21560 21617 0
-1548 -21561 21618 0
-1548 -21562 21619 0
-1548 -21563 21620 0
-1548 -21564 21621 0
-1548 -21565 21622 0
-1548 -21566 21623 0
-1548 -21567 21624 0
-1548 -21568 0
-21569 21625 0
-21570 21626 0
-21571 21627 0
-21572 21628 0
-21573 21629 0
-21574 21630 0
-21575 21631 0
-21576 21632 0
-21577 21633 0
-21578 21634 0
-21579 21635 0
-21580 21636 0
-21581 21637 0
-21582 21638 0
-21583 21639 0
-21584 21640 0
-21585 21641 0
-21586 21642 0
-21587 21643 0
-21588 21644 0
-21589 21645 0
-21590 21646 0
-21591 21647 0
-21592 21648 0
-21593 21649 0
-21594 21650 0
-21595 21651 0
-21596 21652 0
-21597 21653 0
-21598 21654 0
-21599 21655 0
-21600 21656 0
-21601 21657 0
-21602 21658 0
-21603 21659 0
-21604 21660 0
-21605 21661 0
-21606 21662 0
-21607 21663 0
-21608 21664 0
-21609 21665 0
-21610 21666 0
-21611 21667 0
-21612 21668 0
-21613 21669 0
-21614 21670 0
-21615 21671 0
-21616 21672 0
-21617 21673 0
-21618 21674 0
-21619 21675 0
-21620 21676 0
-21621 21677 0
-21622 21678 0
-21623 21679 0
-21624 21680 0
-1550 -21569 21626 0
-1550 -21570 21627 0
-1550 -21571 21628 0
-1550 -21572 21629 0
-1550 -21573 21630 0
-1550 -21574 21631 0
-1550 -21575 21632 0
-1550 -21576 21633 0
-1550 -21577 21634 0
-1550 -21578 21635 0
-1550 -21579 21636 0
-1550 -21580 21637 0
-1550 -21581 21638 0
-1550 -21582 21639 0
-1550 -21583 21640 0
-1550 -21584 21641 0
-1550 -21585 21642 0
-1550 -21586 21643 0
-1550 -21587 21644 0
-1550 -21588 21645 0
-1550 -21589 21646 0
-1550 -21590 21647 0
-1550 -21591 21648 0
-1550 -21592 21649 0
-1550 -21593 21650 0
-1550 -21594 21651 0
-1550 -21595 21652 0
-1550 -21596 21653 0
-1550 -21597 21654 0
-1550 -21598 21655 0
-1550 -21599 21656 0
-1550 -21600 21657 0
-1550 -21601 21658 0
-1550 -21602 21659 0
-1550 -21603 21660 0
-1550 -21604 21661 0
-1550 -21605 21662 0
-1550 -21606 21663 0
-1550 -21607 21664 0
-1550 -21608 21665 0
-1550 -21609 21666 0
-1550 -21610 21667 0
-1550 -21611 21668 0
-1550 -21612 21669 0
-1550 -21613 21670 0
-1550 -21614 21671 0
-1550 -21615 21672 0
-1550 -21616 21673 0
-1550 -21617 21674 0
-1550 -21618 21675 0
-1550 -21619 21676 0
-1550 -21620 21677 0
-1550 -21621 21678 0
-1550 -21622 21679 0
-1550 -21623 21680 0
-1550 -21624 0
-21625 21681 0
-21626 21682 0
-21627 21683 0
-21628 21684 0
-21629 21685 0
-21630 21686 0
-21631 21687 0
-21632 21688 0
-21633 21689 0
-21634 21690 0
-21635 21691 0
-21636 21692 0
-21637 21693 0
-21638 21694 0
-21639 21695 0
-21640 21696 0
-21641 21697 0
-21642 21698 0
-21643 21699 0
-21644 21700 0
-21645 21701 0
-21646 21702 0
-21647 21703 0
-21648 21704 0
-21649 21705 0
-21650 21706 0
-21651 21707 0
-21652 21708 0
-21653 21709 0
-21654 21710 0
-21655 21711 0
-21656 21712 0
-21657 21713 0
-21658 21714 0
-21659 21715 0
-21660 21716 0
-21661 21717 0
-21662 21718 0
-21663 21719 0
-21664 21720 0
-21665 21721 0
-21666 21722 0
-21667 21723 0
-21668 21724 0
-21669 21725 0
-21670 21726 0
-21671 21727 0
-21672 21728 0
-21673 21729 0
-21674 21730 0
-21675 21731 0
-21676 21732 0
-21677 21733 0
-21678 21734 0
-21679 21735 0
-21680 21736 0
-1552 -21625 21682 0
-1552 -21626 21683 0
-1552 -21627 21684 0
-1552 -21628 21685 0
-1552 -21629 21686 0
-1552 -21630 21687 0
-1552 -21631 21688 0
-1552 -21632 21689 0
-1552 -21633 21690 0
-1552 -21634 21691 0
-1552 -21635 21692 0
-1552 -21636 21693 0
-1552 -21637 21694 0
-1552 -21638 21695 0
-1552 -21639 21696 0
-1552 -21640 21697 0
-1552 -21641 21698 0
-1552 -21642 21699 0
-1552 -21643 21700 0
-1552 -21644 21701 0
-1552 -21645 21702 0
-1552 -21646 21703 0
-1552 -21647 21704 0
-1552 -21648 21705 0
-1552 -21649 21706 0
-1552 -21650 21707 0
-1552 -21651 21708 0
-1552 -21652 21709 0
-1552 -21653 21710 0
-1552 -21654 21711 0
-1552 -21655 21712 0
-1552 -21656 21713 0
-1552 -21657 21714 0
-1552 -21658 21715 0
-1552 -21659 21716 0
-1552 -21660 21717 0
-1552 -21661 21718 0
-1552 -21662 21719 0
-1552 -21663 21720 0
-1552 -21664 21721 0
-1552 -21665 21722 0
-1552 -21666 21723 0
-1552 -21667 21724 0
-1552 -21668 21725 0
-1552 -21669 21726 0
-1552 -21670 21727 0
-1552 -21671 21728 0
-1552 -21672 21729 0
-1552 -21673 21730 0
-1552 -21674 21731 0
-1552 -21675 21732 0
-1552 -21676 21733 0
-1552 -21677 21734 0
-1552 -21678 21735 0
-1552 -21679 21736 0
-1552 -21680 0
-21681 21737 0
-21682 21738 0
-21683 21739 0
-21684 21740 0
-21685 21741 0
-21686 21742 0
-21687 21743 0
-21688 21744 0
-21689 21745 0
-21690 21746 0
-21691 21747 0
-21692 21748 0
-21693 21749 0
-21694 21750 0
-21695 21751 0
-21696 21752 0
-21697 21753 0
-21698 21754 0
-21699 21755 0
-21700 21756 0
-21701 21757 0
-21702 21758 0
-21703 21759 0
-21704 21760 0
-21705 21761 0
-21706 21762 0
-21707 21763 0
-21708 21764 0
-21709 21765 0
-21710 21766 0
-21711 21767 0
-21712 21768 0
-21713 21769 0
-21714 21770 0
-21715 21771 0
-21716 21772 0
-21717 21773 0
-21718 21774 0
-21719 21775 0
-21720 21776 0
-21721 21777 0
-21722 21778 0
-21723 21779 0
-21724 21780 0
-21725 21781 0
-21726 21782 0
-21727 21783 0
-21728 21784 0
-21729 21785 0
-21730 21786 0
-21731 21787 0
-21732 21788 0
-21733 21789 0
-21734 21790 0
-21735 21791 0
-21736 21792 0
-1554 -21681 21738 0
-1554 -21682 21739 0
-1554 -21683 21740 0
-1554 -21684 21741 0
-1554 -21685 21742 0
-1554 -21686 21743 0
-1554 -21687 21744 0
-1554 -21688 21745 0
-1554 -21689 21746 0
-1554 -21690 21747 0
-1554 -21691 21748 0
-1554 -21692 21749 0
-1554 -21693 21750 0
-1554 -21694 21751 0
-1554 -21695 21752 0
-1554 -21696 21753 0
-1554 -21697 21754 0
-1554 -21698 21755 0
-1554 -21699 21756 0
-1554 -21700 21757 0
-1554 -21701 21758 0
-1554 -21702 21759 0
-1554 -21703 21760 0
-1554 -21704 21761 0
-1554 -21705 21762 0
-1554 -21706 21763 0
-1554 -21707 21764 0
-1554 -21708 21765 0
-1554 -21709 21766 0
-1554 -21710 21767 0
-1554 -21711 21768 0
-1554 -21712 21769 0
-1554 -21713 21770 0
-1554 -21714 21771 0
-1554 -21715 21772 0
-1554 -21716 21773 0
-1554 -21717 21774 0
-1554 -21718 21775 0
-1554 -21719 21776 0
-1554 -21720 21777 0
-1554 -21721 21778 0
-1554 -21722 21779 0
-1554 -21723 21780 0
-1554 -21724 21781 0
-1554 -21725 21782 0
-1554 -21726 21783 0
-1554 -21727 21784 0
-1554 -21728 21785 0
-1554 -21729 21786 0
-1554 -21730 21787 0
-1554 -21731 21788 0
-1554 -21732 21789 0
-1554 -21733 21790 0
-1554 -21734 21791 0
-1554 -21735 21792 0
-1554 -21736 0
-21737 21793 0
-21738 21794 0
-21739 21795 0
-21740 21796 0
-21741 21797 0
-21742 21798 0
-21743 21799 0
-21744 21800 0
-21745 21801 0
-21746 21802 0
-21747 21803 0
-21748 21804 0
-21749 21805 0
-21750 21806 0
-21751 21807 0
-21752 21808 0
-21753 21809 0
-21754 21810 0
-21755 21811 0
-21756 21812 0
-21757 21813 0
-21758 21814 0
-21759 21815 0
-21760 21816 0
-21761 21817 0
-21762 21818 0
-21763 21819 0
-21764 21820 0
-21765 21821 0
-21766 21822 0
-21767 21823 0
-21768 21824 0
-21769 21825 0
-21770 21826 0
-21771 21827 0
-21772 21828 0
-21773 21829 0
-21774 21830 0
-21775 21831 0
-21776 21832 0
-21777 21833 0
-21778 21834 0
-21779 21835 0
-21780 21836 0
-21781 21837 0
-21782 21838 0
-21783 21839 0
-21784 21840 0
-21785 21841 0
-21786 21842 0
-21787 21843 0
-21788 21844 0
-21789 21845 0
-21790 21846 0
-21791 21847 0
-21792 21848 0
-1556 -21737 21794 0
-1556 -21738 21795 0
-1556 -21739 21796 0
-1556 -21740 21797 0
-1556 -21741 21798 0
-1556 -21742 21799 0
-1556 -21743 21800 0
-1556 -21744 21801 0
-1556 -21745 21802 0
-1556 -21746 21803 0
-1556 -21747 21804 0
-1556 -21748 21805 0
-1556 -21749 21806 0
-1556 -21750 21807 0
-1556 -21751 21808 0
-1556 -21752 21809 0
-1556 -21753 21810 0
-1556 -21754 21811 0
-1556 -21755 21812 0
-1556 -21756 21813 0
-1556 -21757 21814 0
-1556 -21758 21815 0
-1556 -21759 21816 0
-1556 -21760 21817 0
-1556 -21761 21818 0
-1556 -21762 21819 0
-1556 -21763 21820 0
-1556 -21764 21821 0
-1556 -21765 21822 0
-1556 -21766 21823 0
-1556 -21767 21824 0
-1556 -21768 21825 0
-1556 -21769 21826 0
-1556 -21770 21827 0
-1556 -21771 21828 0
-1556 -21772 21829 0
-1556 -21773 21830 0
-1556 -21774 21831 0
-1556 -21775 21832 0
-1556 -21776 21833 0
-1556 -21777 21834 0
-1556 -21778 21835 0
-1556 -21779 21836 0
-1556 -21780 21837 0
-1556 -21781 21838 0
-1556 -21782 21839 0
-1556 -21783 21840 0
-1556 -21784 21841 0
-1556 -21785 21842 0
-1556 -21786 21843 0
-1556 -21787 21844 0
-1556 -21788 21845 0
-1556 -21789 21846 0
-1556 -21790 21847 0
-1556 -21791 21848 0
-1556 -21792 0
-21793 21849 0
-21794 21850 0
-21795 21851 0
-21796 21852 0
-21797 21853 0
-21798 21854 0
-21799 21855 0
-21800 21856 0
-21801 21857 0
-21802 21858 0
-21803 21859 0
-21804 21860 0
-21805 21861 0
-21806 21862 0
-21807 21863 0
-21808 21864 0
-21809 21865 0
-21810 21866 0
-21811 21867 0
-21812 21868 0
-21813 21869 0
-21814 21870 0
-21815 21871 0
-21816 21872 0
-21817 21873 0
-21818 21874 0
-21819 21875 0
-21820 21876 0
-21821 21877 0
-21822 21878 0
-21823 21879 0
-21824 21880 0
-21825 21881 0
-21826 21882 0
-21827 21883 0
-21828 21884 0
-21829 21885 0
-21830 21886 0
-21831 21887 0
-21832 21888 0
-21833 21889 0
-21834 21890 0
-21835 21891 0
-21836 21892 0
-21837 21893 0
-21838 21894 0
-21839 21895 0
-21840 21896 0
-21841 21897 0
-21842 21898 0
-21843 21899 0
-21844 21900 0
-21845 21901 0
-21846 21902 0
-21847 21903 0
-21848 21904 0
-1558 -21793 21850 0
-1558 -21794 21851 0
-1558 -21795 21852 0
-1558 -21796 21853 0
-1558 -21797 21854 0
-1558 -21798 21855 0
-1558 -21799 21856 0
-1558 -21800 21857 0
-1558 -21801 21858 0
-1558 -21802 21859 0
-1558 -21803 21860 0
-1558 -21804 21861 0
-1558 -21805 21862 0
-1558 -21806 21863 0
-1558 -21807 21864 0
-1558 -21808 21865 0
-1558 -21809 21866 0
-1558 -21810 21867 0
-1558 -21811 21868 0
-1558 -21812 21869 0
-1558 -21813 21870 0
-1558 -21814 21871 0
-1558 -21815 21872 0
-1558 -21816 21873 0
-1558 -21817 21874 0
-1558 -21818 21875 0
-1558 -21819 21876 0
-1558 -21820 21877 0
-1558 -21821 21878 0
-1558 -21822 21879 0
-1558 -21823 21880 0
-1558 -21824 21881 0
-1558 -21825 21882 0
-1558 -21826 21883 0
-1558 -21827 21884 0
-1558 -21828 21885 0
-1558 -21829 21886 0
-1558 -21830 21887 0
-1558 -21831 21888 0
-1558 -21832 21889 0
-1558 -21833 21890 0
-1558 -21834 21891 0
-1558 -21835 21892 0
-1558 -21836 21893 0
-1558 -21837 21894 0
-1558 -21838 21895 0
-1558 -21839 21896 0
-1558 -21840 21897 0
-1558 -21841 21898 0
-1558 -21842 21899 0
-1558 -21843 21900 0
-1558 -21844 21901 0
-1558 -21845 21902 0
-1558 -21846 21903 0
-1558 -21847 21904 0
-1558 -21848 0
-21849 21905 0
-21850 21906 0
-21851 21907 0
-21852 21908 0
-21853 21909 0
-21854 21910 0
-21855 21911 0
-21856 21912 0
-21857 21913 0
-21858 21914 0
-21859 21915 0
-21860 21916 0
-21861 21917 0
-21862 21918 0
-21863 21919 0
-21864 21920 0
-21865 21921 0
-21866 21922 0
-21867 21923 0
-21868 21924 0
-21869 21925 0
-21870 21926 0
-21871 21927 0
-21872 21928 0
-21873 21929 0
-21874 21930 0
-21875 21931 0
-21876 21932 0
-21877 21933 0
-21878 21934 0
-21879 21935 0
-21880 21936 0
-21881 21937 0
-21882 21938 0
-21883 21939 0
-21884 21940 0
-21885 21941 0
-21886 21942 0
-21887 21943 0
-21888 21944 0
-21889 21945 0
-21890 21946 0
-21891 21947 0
-21892 21948 0
-21893 21949 0
-21894 21950 0
-21895 21951 0
-21896 21952 0
-21897 21953 0
-21898 21954 0
-21899 21955 0
-21900 21956 0
-21901 21957 0
-21902 21958 0
-21903 21959 0
-21904 21960 0
-1560 -21849 21906 0
-1560 -21850 21907 0
-1560 -21851 21908 0
-1560 -21852 21909 0
-1560 -21853 21910 0
-1560 -21854 21911 0
-1560 -21855 21912 0
-1560 -21856 21913 0
-1560 -21857 21914 0
-1560 -21858 21915 0
-1560 -21859 21916 0
-1560 -21860 21917 0
-1560 -21861 21918 0
-1560 -21862 21919 0
-1560 -21863 21920 0
-1560 -21864 21921 0
-1560 -21865 21922 0
-1560 -21866 21923 0
-1560 -21867 21924 0
-1560 -21868 21925 0
-1560 -21869 21926 0
-1560 -21870 21927 0
-1560 -21871 21928 0
-1560 -21872 21929 0
-1560 -21873 21930 0
-1560 -21874 21931 0
-1560 -21875 21932 0
-1560 -21876 21933 0
-1560 -21877 21934 0
-1560 -21878 21935 0
-1560 -21879 21936 0
-1560 -21880 21937 0
-1560 -21881 21938 0
-1560 -21882 21939 0
-1560 -21883 21940 0
-1560 -21884 21941 0
-1560 -21885 21942 0
-1560 -21886 21943 0
-1560 -21887 21944 0
-1560 -21888 21945 0
-1560 -21889 21946 0
-1560 -21890 21947 0
-1560 -21891 21948 0
-1560 -21892 21949 0
-1560 -21893 21950 0
-1560 -21894 21951 0
-1560 -21895 21952 0
-1560 -21896 21953 0
-1560 -21897 21954 0
-1560 -21898 21955 0
-1560 -21899 21956 0
-1560 -21900 21957 0
-1560 -21901 21958 0
-1560 -21902 21959 0
-1560 -21903 21960 0
-1560 -21904 0
-21905 21961 0
-21906 21962 0
-21907 21963 0
-21908 21964 0
-21909 21965 0
-21910 21966 0
-21911 21967 0
-21912 21968 0
-21913 21969 0
-21914 21970 0
-21915 21971 0
-21916 21972 0
-21917 21973 0
-21918 21974 0
-21919 21975 0
-21920 21976 0
-21921 21977 0
-21922 21978 0
-21923 21979 0
-21924 21980 0
-21925 21981 0
-21926 21982 0
-21927 21983 0
-21928 21984 0
-21929 21985 0
-21930 21986 0
-21931 21987 0
-21932 21988 0
-21933 21989 0
-21934 21990 0
-21935 21991 0
-21936 21992 0
-21937 21993 0
-21938 21994 0
-21939 21995 0
-21940 21996 0
-21941 21997 0
-21942 21998 0
-21943 21999 0
-21944 22000 0
-21945 22001 0
-21946 22002 0
-21947 22003 0
-21948 22004 0
-21949 22005 0
-21950 22006 0
-21951 22007 0
-21952 22008 0
-21953 22009 0
-21954 22010 0
-21955 22011 0
-21956 22012 0
-21957 22013 0
-21958 22014 0
-21959 22015 0
-21960 22016 0
-1562 -21905 21962 0
-1562 -21906 21963 0
-1562 -21907 21964 0
-1562 -21908 21965 0
-1562 -21909 21966 0
-1562 -21910 21967 0
-1562 -21911 21968 0
-1562 -21912 21969 0
-1562 -21913 21970 0
-1562 -21914 21971 0
-1562 -21915 21972 0
-1562 -21916 21973 0
-1562 -21917 21974 0
-1562 -21918 21975 0
-1562 -21919 21976 0
-1562 -21920 21977 0
-1562 -21921 21978 0
-1562 -21922 21979 0
-1562 -21923 21980 0
-1562 -21924 21981 0
-1562 -21925 21982 0
-1562 -21926 21983 0
-1562 -21927 21984 0
-1562 -21928 21985 0
-1562 -21929 21986 0
-1562 -21930 21987 0
-1562 -21931 21988 0
-1562 -21932 21989 0
-1562 -21933 21990 0
-1562 -21934 21991 0
-1562 -21935 21992 0
-1562 -21936 21993 0
-1562 -21937 21994 0
-1562 -21938 21995 0
-1562 -21939 21996 0
-1562 -21940 21997 0
-1562 -21941 21998 0
-1562 -21942 21999 0
-1562 -21943 22000 0
-1562 -21944 22001 0
-1562 -21945 22002 0
-1562 -21946 22003 0
-1562 -21947 22004 0
-1562 -21948 22005 0
-1562 -21949 22006 0
-1562 -21950 22007 0
-1562 -21951 22008 0
-1562 -21952 22009 0
-1562 -21953 22010 0
-1562 -21954 22011 0
-1562 -21955 22012 0
-1562 -21956 22013 0
-1562 -21957 22014 0
-1562 -21958 22015 0
-1562 -21959 22016 0
-1562 -21960 0
-21961 22017 0
-21962 22018 0
-21963 22019 0
-21964 22020 0
-21965 22021 0
-21966 22022 0
-21967 22023 0
-21968 22024 0
-21969 22025 0
-21970 22026 0
-21971 22027 0
-21972 22028 0
-21973 22029 0
-21974 22030 0
-21975 22031 0
-21976 22032 0
-21977 22033 0
-21978 22034 0
-21979 22035 0
-21980 22036 0
-21981 22037 0
-21982 22038 0
-21983 22039 0
-21984 22040 0
-21985 22041 0
-21986 22042 0
-21987 22043 0
-21988 22044 0
-21989 22045 0
-21990 22046 0
-21991 22047 0
-21992 22048 0
-21993 22049 0
-21994 22050 0
-21995 22051 0
-21996 22052 0
-21997 22053 0
-21998 22054 0
-21999 22055 0
-22000 22056 0
-22001 22057 0
-22002 22058 0
-22003 22059 0
-22004 22060 0
-22005 22061 0
-22006 22062 0
-22007 22063 0
-22008 22064 0
-22009 22065 0
-22010 22066 0
-22011 22067 0
-22012 22068 0
-22013 22069 0
-22014 22070 0
-22015 22071 0
-22016 22072 0
-1564 -21961 22018 0
-1564 -21962 22019 0
-1564 -21963 22020 0
-1564 -21964 22021 0
-1564 -21965 22022 0
-1564 -21966 22023 0
-1564 -21967 22024 0
-1564 -21968 22025 0
-1564 -21969 22026 0
-1564 -21970 22027 0
-1564 -21971 22028 0
-1564 -21972 22029 0
-1564 -21973 22030 0
-1564 -21974 22031 0
-1564 -21975 22032 0
-1564 -21976 22033 0
-1564 -21977 22034 0
-1564 -21978 22035 0
-1564 -21979 22036 0
-1564 -21980 22037 0
-1564 -21981 22038 0
-1564 -21982 22039 0
-1564 -21983 22040 0
-1564 -21984 22041 0
-1564 -21985 22042 0
-1564 -21986 22043 0
-1564 -21987 22044 0
-1564 -21988 22045 0
-1564 -21989 22046 0
-1564 -21990 22047 0
-1564 -21991 22048 0
-1564 -21992 22049 0
-1564 -21993 22050 0
-1564 -21994 22051 0
-1564 -21995 22052 0
-1564 -21996 22053 0
-1564 -21997 22054 0
-1564 -21998 22055 0
-1564 -21999 22056 0
-1564 -22000 22057 0
-1564 -22001 22058 0
-1564 -22002 22059 0
-1564 -22003 22060 0
-1564 -22004 22061 0
-1564 -22005 22062 0
-1564 -22006 22063 0
-1564 -22007 22064 0
-1564 -22008 22065 0
-1564 -22009 22066 0
-1564 -22010 22067 0
-1564 -22011 22068 0
-1564 -22012 22069 0
-1564 -22013 22070 0
-1564 -22014 22071 0
-1564 -22015 22072 0
-1564 -22016 0
-22017 22073 0
-22018 22074 0
-22019 22075 0
-22020 22076 0
-22021 22077 0
-22022 22078 0
-22023 22079 0
-22024 22080 0
-22025 22081 0
-22026 22082 0
-22027 22083 0
-22028 22084 0
-22029 22085 0
-22030 22086 0
-22031 22087 0
-22032 22088 0
-22033 22089 0
-22034 22090 0
-22035 22091 0
-22036 22092 0
-22037 22093 0
-22038 22094 0
-22039 22095 0
-22040 22096 0
-22041 22097 0
-22042 22098 0
-22043 22099 0
-22044 22100 0
-22045 22101 0
-22046 22102 0
-22047 22103 0
-22048 22104 0
-22049 22105 0
-22050 22106 0
-22051 22107 0
-22052 22108 0
-22053 22109 0
-22054 22110 0
-22055 22111 0
-22056 22112 0
-22057 22113 0
-22058 22114 0
-22059 22115 0
-22060 22116 0
-22061 22117 0
-22062 22118 0
-22063 22119 0
-22064 22120 0
-22065 22121 0
-22066 22122 0
-22067 22123 0
-22068 22124 0
-22069 22125 0
-22070 22126 0
-22071 22127 0
-22072 22128 0
-1566 -22017 22074 0
-1566 -22018 22075 0
-1566 -22019 22076 0
-1566 -22020 22077 0
-1566 -22021 22078 0
-1566 -22022 22079 0
-1566 -22023 22080 0
-1566 -22024 22081 0
-1566 -22025 22082 0
-1566 -22026 22083 0
-1566 -22027 22084 0
-1566 -22028 22085 0
-1566 -22029 22086 0
-1566 -22030 22087 0
-1566 -22031 22088 0
-1566 -22032 22089 0
-1566 -22033 22090 0
-1566 -22034 22091 0
-1566 -22035 22092 0
-1566 -22036 22093 0
-1566 -22037 22094 0
-1566 -22038 22095 0
-1566 -22039 22096 0
-1566 -22040 22097 0
-1566 -22041 22098 0
-1566 -22042 22099 0
-1566 -22043 22100 0
-1566 -22044 22101 0
-1566 -22045 22102 0
-1566 -22046 22103 0
-1566 -22047 22104 0
-1566 -22048 22105 0
-1566 -22049 22106 0
-1566 -22050 22107 0
-1566 -22051 22108 0
-1566 -22052 22109 0
-1566 -22053 22110 0
-1566 -22054 22111 0
-1566 -22055 22112 0
-1566 -22056 22113 0
-1566 -22057 22114 0
-1566 -22058 22115 0
-1566 -22059 22116 0
-1566 -22060 22117 0
-1566 -22061 22118 0
-1566 -22062 22119 0
-1566 -22063 22120 0
-1566 -22064 22121 0
-1566 -22065 22122 0
-1566 -22066 22123 0
-1566 -22067 22124 0
-1566 -22068 22125 0
-1566 -22069 22126 0
-1566 -22070 22127 0
-1566 -22071 22128 0
-1566 -22072 0
-22073 22129 0
-22074 22130 0
-22075 22131 0
-22076 22132 0
-22077 22133 0
-22078 22134 0
-22079 22135 0
-22080 22136 0
-22081 22137 0
-22082 22138 0
-22083 22139 0
-22084 22140 0
-22085 22141 0
-22086 22142 0
-22087 22143 0
-22088 22144 0
-22089 22145 0
-22090 22146 0
-22091 22147 0
-22092 22148 0
-22093 22149 0
-22094 22150 0
-22095 22151 0
-22096 22152 0
-22097 22153 0
-22098 22154 0
-22099 22155 0
-22100 22156 0
-22101 22157 0
-22102 22158 0
-22103 22159 0
-22104 22160 0
-22105 22161 0
-22106 22162 0
-22107 22163 0
-22108 22164 0
-22109 22165 0
-22110 22166 0
-22111 22167 0
-22112 22168 0
-22113 22169 0
-22114 22170 0
-22115 22171 0
-22116 22172 0
-22117 22173 0
-22118 22174 0
-22119 22175 0
-22120 22176 0
-22121 22177 0
-22122 22178 0
-22123 22179 0
-22124 22180 0
-22125 22181 0
-22126 22182 0
-22127 22183 0
-22128 22184 0
-1568 -22073 22130 0
-1568 -22074 22131 0
-1568 -22075 22132 0
-1568 -22076 22133 0
-1568 -22077 22134 0
-1568 -22078 22135 0
-1568 -22079 22136 0
-1568 -22080 22137 0
-1568 -22081 22138 0
-1568 -22082 22139 0
-1568 -22083 22140 0
-1568 -22084 22141 0
-1568 -22085 22142 0
-1568 -22086 22143 0
-1568 -22087 22144 0
-1568 -22088 22145 0
-1568 -22089 22146 0
-1568 -22090 22147 0
-1568 -22091 22148 0
-1568 -22092 22149 0
-1568 -22093 22150 0
-1568 -22094 22151 0
-1568 -22095 22152 0
-1568 -22096 22153 0
-1568 -22097 22154 0
-1568 -22098 22155 0
-1568 -22099 22156 0
-1568 -22100 22157 0
-1568 -22101 22158 0
-1568 -22102 22159 0
-1568 -22103 22160 0
-1568 -22104 22161 0
-1568 -22105 22162 0
-1568 -22106 22163 0
-1568 -22107 22164 0
-1568 -22108 22165 0
-1568 -22109 22166 0
-1568 -22110 22167 0
-1568 -22111 22168 0
-1568 -22112 22169 0
-1568 -22113 22170 0
-1568 -22114 22171 0
-1568 -22115 22172 0
-1568 -22116 22173 0
-1568 -22117 22174 0
-1568 -22118 22175 0
-1568 -22119 22176 0
-1568 -22120 22177 0
-1568 -22121 22178 0
-1568 -22122 22179 0
-1568 -22123 22180 0
-1568 -22124 22181 0
-1568 -22125 22182 0
-1568 -22126 22183 0
-1568 -22127 22184 0
-1568 -22128 0
-22129 22185 0
-22130 22186 0
-22131 22187 0
-22132 22188 0
-22133 22189 0
-22134 22190 0
-22135 22191 0
-22136 22192 0
-22137 22193 0
-22138 22194 0
-22139 22195 0
-22140 22196 0
-22141 22197 0
-22142 22198 0
-22143 22199 0
-22144 22200 0
-22145 22201 0
-22146 22202 0
-22147 22203 0
-22148 22204 0
-22149 22205 0
-22150 22206 0
-22151 22207 0
-22152 22208 0
-22153 22209 0
-22154 22210 0
-22155 22211 0
-22156 22212 0
-22157 22213 0
-22158 22214 0
-22159 22215 0
-22160 22216 0
-22161 22217 0
-22162 22218 0
-22163 22219 0
-22164 22220 0
-22165 22221 0
-22166 22222 0
-22167 22223 0
-22168 22224 0
-22169 22225 0
-22170 22226 0
-22171 22227 0
-22172 22228 0
-22173 22229 0
-22174 22230 0
-22175 22231 0
-22176 22232 0
-22177 22233 0
-22178 22234 0
-22179 22235 0
-22180 22236 0
-22181 22237 0
-22182 22238 0
-22183 22239 0
-22184 22240 0
-1570 -22129 22186 0
-1570 -22130 22187 0
-1570 -22131 22188 0
-1570 -22132 22189 0
-1570 -22133 22190 0
-1570 -22134 22191 0
-1570 -22135 22192 0
-1570 -22136 22193 0
-1570 -22137 22194 0
-1570 -22138 22195 0
-1570 -22139 22196 0
-1570 -22140 22197 0
-1570 -22141 22198 0
-1570 -22142 22199 0
-1570 -22143 22200 0
-1570 -22144 22201 0
-1570 -22145 22202 0
-1570 -22146 22203 0
-1570 -22147 22204 0
-1570 -22148 22205 0
-1570 -22149 22206 0
-1570 -22150 22207 0
-1570 -22151 22208 0
-1570 -22152 22209 0
-1570 -22153 22210 0
-1570 -22154 22211 0
-1570 -22155 22212 0
-1570 -22156 22213 0
-1570 -22157 22214 0
-1570 -22158 22215 0
-1570 -22159 22216 0
-1570 -22160 22217 0
-1570 -22161 22218 0
-1570 -22162 22219 0
-1570 -22163 22220 0
-1570 -22164 22221 0
-1570 -22165 22222 0
-1570 -22166 22223 0
-1570 -22167 22224 0
-1570 -22168 22225 0
-1570 -22169 22226 0
-1570 -22170 22227 0
-1570 -22171 22228 0
-1570 -22172 22229 0
-1570 -22173 22230 0
-1570 -22174 22231 0
-1570 -22175 22232 0
-1570 -22176 22233 0
-1570 -22177 22234 0
-1570 -22178 22235 0
-1570 -22179 22236 0
-1570 -22180 22237 0
-1570 -22181 22238 0
-1570 -22182 22239 0
-1570 -22183 22240 0
-1570 -22184 0
-22185 22241 0
-22186 22242 0
-22187 22243 0
-22188 22244 0
-22189 22245 0
-22190 22246 0
-22191 22247 0
-22192 22248 0
-22193 22249 0
-22194 22250 0
-22195 22251 0
-22196 22252 0
-22197 22253 0
-22198 22254 0
-22199 22255 0
-22200 22256 0
-22201 22257 0
-22202 22258 0
-22203 22259 0
-22204 22260 0
-22205 22261 0
-22206 22262 0
-22207 22263 0
-22208 22264 0
-22209 22265 0
-22210 22266 0
-22211 22267 0
-22212 22268 0
-22213 22269 0
-22214 22270 0
-22215 22271 0
-22216 22272 0
-22217 22273 0
-22218 22274 0
-22219 22275 0
-22220 22276 0
-22221 22277 0
-22222 22278 0
-22223 22279 0
-22224 22280 0
-22225 22281 0
-22226 22282 0
-22227 22283 0
-22228 22284 0
-22229 22285 0
-22230 22286 0
-22231 22287 0
-22232 22288 0
-22233 22289 0
-22234 22290 0
-22235 22291 0
-22236 22292 0
-22237 22293 0
-22238 22294 0
-22239 22295 0
-22240 22296 0
-1572 -22185 22242 0
-1572 -22186 22243 0
-1572 -22187 22244 0
-1572 -22188 22245 0
-1572 -22189 22246 0
-1572 -22190 22247 0
-1572 -22191 22248 0
-1572 -22192 22249 0
-1572 -22193 22250 0
-1572 -22194 22251 0
-1572 -22195 22252 0
-1572 -22196 22253 0
-1572 -22197 22254 0
-1572 -22198 22255 0
-1572 -22199 22256 0
-1572 -22200 22257 0
-1572 -22201 22258 0
-1572 -22202 22259 0
-1572 -22203 22260 0
-1572 -22204 22261 0
-1572 -22205 22262 0
-1572 -22206 22263 0
-1572 -22207 22264 0
-1572 -22208 22265 0
-1572 -22209 22266 0
-1572 -22210 22267 0
-1572 -22211 22268 0
-1572 -22212 22269 0
-1572 -22213 22270 0
-1572 -22214 22271 0
-1572 -22215 22272 0
-1572 -22216 22273 0
-1572 -22217 22274 0
-1572 -22218 22275 0
-1572 -22219 22276 0
-1572 -22220 22277 0
-1572 -22221 22278 0
-1572 -22222 22279 0
-1572 -22223 22280 0
-1572 -22224 22281 0
-1572 -22225 22282 0
-1572 -22226 22283 0
-1572 -22227 22284 0
-1572 -22228 22285 0
-1572 -22229 22286 0
-1572 -22230 22287 0
-1572 -22231 22288 0
-1572 -22232 22289 0
-1572 -22233 22290 0
-1572 -22234 22291 0
-1572 -22235 22292 0
-1572 -22236 22293 0
-1572 -22237 22294 0
-1572 -22238 22295 0
-1572 -22239 22296 0
-1572 -22240 0
-22241 22297 0
-22242 22298 0
-22243 22299 0
-22244 22300 0
-22245 22301 0
-22246 22302 0
-22247 22303 0
-22248 22304 0
-22249 22305 0
-22250 22306 0
-22251 22307 0
-22252 22308 0
-22253 22309 0
-22254 22310 0
-22255 22311 0
-22256 22312 0
-22257 22313 0
-22258 22314 0
-22259 22315 0
-22260 22316 0
-22261 22317 0
-22262 22318 0
-22263 22319 0
-22264 22320 0
-22265 22321 0
-22266 22322 0
-22267 22323 0
-22268 22324 0
-22269 22325 0
-22270 22326 0
-22271 22327 0
-22272 22328 0
-22273 22329 0
-22274 22330 0
-22275 22331 0
-22276 22332 0
-22277 22333 0
-22278 22334 0
-22279 22335 0
-22280 22336 0
-22281 22337 0
-22282 22338 0
-22283 22339 0
-22284 22340 0
-22285 22341 0
-22286 22342 0
-22287 22343 0
-22288 22344 0
-22289 22345 0
-22290 22346 0
-22291 22347 0
-22292 22348 0
-22293 22349 0
-22294 22350 0
-22295 22351 0
-22296 22352 0
-1574 -22241 22298 0
-1574 -22242 22299 0
-1574 -22243 22300 0
-1574 -22244 22301 0
-1574 -22245 22302 0
-1574 -22246 22303 0
-1574 -22247 22304 0
-1574 -22248 22305 0
-1574 -22249 22306 0
-1574 -22250 22307 0
-1574 -22251 22308 0
-1574 -22252 22309 0
-1574 -22253 22310 0
-1574 -22254 22311 0
-1574 -22255 22312 0
-1574 -22256 22313 0
-1574 -22257 22314 0
-1574 -22258 22315 0
-1574 -22259 22316 0
-1574 -22260 22317 0
-1574 -22261 22318 0
-1574 -22262 22319 0
-1574 -22263 22320 0
-1574 -22264 22321 0
-1574 -22265 22322 0
-1574 -22266 22323 0
-1574 -22267 22324 0
-1574 -22268 22325 0
-1574 -22269 22326 0
-1574 -22270 22327 0
-1574 -22271 22328 0
-1574 -22272 22329 0
-1574 -22273 22330 0
-1574 -22274 22331 0
-1574 -22275 22332 0
-1574 -22276 22333 0
-1574 -22277 22334 0
-1574 -22278 22335 0
-1574 -22279 22336 0
-1574 -22280 22337 0
-1574 -22281 22338 0
-1574 -22282 22339 0
-1574 -22283 22340 0
-1574 -22284 22341 0
-1574 -22285 22342 0
-1574 -22286 22343 0
-1574 -22287 22344 0
-1574 -22288 22345 0
-1574 -22289 22346 0
-1574 -22290 22347 0
-1574 -22291 22348 0
-1574 -22292 22349 0
-1574 -22293 22350 0
-1574 -22294 22351 0
-1574 -22295 22352 0
-1574 -22296 0
-22297 22353 0
-22298 22354 0
-22299 22355 0
-22300 22356 0
-22301 22357 0
-22302 22358 0
-22303 22359 0
-22304 22360 0
-22305 22361 0
-22306 22362 0
-22307 22363 0
-22308 22364 0
-22309 22365 0
-22310 22366 0
-22311 22367 0
-22312 22368 0
-22313 22369 0
-22314 22370 0
-22315 22371 0
-22316 22372 0
-22317 22373 0
-22318 22374 0
-22319 22375 0
-22320 22376 0
-22321 22377 0
-22322 22378 0
-22323 22379 0
-22324 22380 0
-22325 22381 0
-22326 22382 0
-22327 22383 0
-22328 22384 0
-22329 22385 0
-22330 22386 0
-22331 22387 0
-22332 22388 0
-22333 22389 0
-22334 22390 0
-22335 22391 0
-22336 22392 0
-22337 22393 0
-22338 22394 0
-22339 22395 0
-22340 22396 0
-22341 22397 0
-22342 22398 0
-22343 22399 0
-22344 22400 0
-22345 22401 0
-22346 22402 0
-22347 22403 0
-22348 22404 0
-22349 22405 0
-22350 22406 0
-22351 22407 0
-22352 22408 0
-1576 -22297 22354 0
-1576 -22298 22355 0
-1576 -22299 22356 0
-1576 -22300 22357 0
-1576 -22301 22358 0
-1576 -22302 22359 0
-1576 -22303 22360 0
-1576 -22304 22361 0
-1576 -22305 22362 0
-1576 -22306 22363 0
-1576 -22307 22364 0
-1576 -22308 22365 0
-1576 -22309 22366 0
-1576 -22310 22367 0
-1576 -22311 22368 0
-1576 -22312 22369 0
-1576 -22313 22370 0
-1576 -22314 22371 0
-1576 -22315 22372 0
-1576 -22316 22373 0
-1576 -22317 22374 0
-1576 -22318 22375 0
-1576 -22319 22376 0
-1576 -22320 22377 0
-1576 -22321 22378 0
-1576 -22322 22379 0
-1576 -22323 22380 0
-1576 -22324 22381 0
-1576 -22325 22382 0
-1576 -22326 22383 0
-1576 -22327 22384 0
-1576 -22328 22385 0
-1576 -22329 22386 0
-1576 -22330 22387 0
-1576 -22331 22388 0
-1576 -22332 22389 0
-1576 -22333 22390 0
-1576 -22334 22391 0
-1576 -22335 22392 0
-1576 -22336 22393 0
-1576 -22337 22394 0
-1576 -22338 22395 0
-1576 -22339 22396 0
-1576 -22340 22397 0
-1576 -22341 22398 0
-1576 -22342 22399 0
-1576 -22343 22400 0
-1576 -22344 22401 0
-1576 -22345 22402 0
-1576 -22346 22403 0
-1576 -22347 22404 0
-1576 -22348 22405 0
-1576 -22349 22406 0
-1576 -22350 22407 0
-1576 -22351 22408 0
-1576 -22352 0
