c Speck64 XOR-differential SAT CNF
c word_bits=32 alpha=8 beta=3 rounds=3
c in_dx=None in_dy=None
c out_dx=0x08000000 out_dy=0x00000000
c max_weight=12
c num_vars=1558 num_clauses=4260
p cnf 1558 4260
-193 0
-194 0
-195 0
-196 0
-197 0
-198 0
-199 0
-200 0
-201 0
-202 0
-203 0
-204 0
-205 0
-206 0
-207 0
-208 0
-209 0
-210 0
-211 0
-212 0
-213 0
-214 0
-215 0
-216 0
-217 0
-218 0
-219 0
220 0
-221 0
-222 0
-223 0
-224 0
-225 0
-226 0
-227 0
-228 0
-229 0
-230 0
-231 0
-232 0
-233 0
-234 0
-235 0
-236 0
-237 0
-238 0
-239 0
-240 0
-241 0
-242 0
-243 0
-244 0
-245 0
-246 0
-247 0
-248 0
-249 0
-250 0
-251 0
-252 0
-253 0
-254 0
-255 0
-256 0
9 33 -65 0
9 -33 65 0
-9 33 65 0
-9 -33 -65 0
9 33 65 257 0
-9 -33 -65 257 0
-257 -9 33 0
-257 9 -33 0
-257 -9 65 0
-257 9 -65 0
-257 10 34 66 -33 0
-257 10 34 -66 33 0
-257 10 -34 66 33 0
-257 10 -34 -66 -33 0
-257 -10 34 66 33 0
-257 -10 34 -66 -33 0
-257 -10 -34 66 -33 0
-257 -10 -34 -66 33 0
258 257 0
-258 -257 0
10 34 66 259 0
-10 -34 -66 259 0
-259 -10 34 0
-259 10 -34 0
-259 -10 66 0
-259 10 -66 0
-259 11 35 67 -34 0
-259 11 35 -67 34 0
-259 11 -35 67 34 0
-259 11 -35 -67 -34 0
-259 -11 35 67 34 0
-259 -11 35 -67 -34 0
-259 -11 -35 67 -34 0
-259 -11 -35 -67 34 0
260 259 0
-260 -259 0
11 35 67 261 0
-11 -35 -67 261 0
-261 -11 35 0
-261 11 -35 0
-261 -11 67 0
-261 11 -67 0
-261 12 36 68 -35 0
-261 12 36 -68 35 0
-261 12 -36 68 35 0
-261 12 -36 -68 -35 0
-261 -12 36 68 35 0
-261 -12 36 -68 -35 0
-261 -12 -36 68 -35 0
-261 -12 -36 -68 35 0
262 261 0
-262 -261 0
12 36 68 263 0
-12 -36 -68 263 0
-263 -12 36 0
-263 12 -36 0
-263 -12 68 0
-263 12 -68 0
-263 13 37 69 -36 0
-263 13 37 -69 36 0
-263 13 -37 69 36 0
-263 13 -37 -69 -36 0
-263 -13 37 69 36 0
-263 -13 37 -69 -36 0
-263 -13 -37 69 -36 0
-263 -13 -37 -69 36 0
264 263 0
-264 -263 0
13 37 69 265 0
-13 -37 -69 265 0
-265 -13 37 0
-265 13 -37 0
-265 -13 69 0
-265 13 -69 0
-265 14 38 70 -37 0
-265 14 38 -70 37 0
-265 14 -38 70 37 0
-265 14 -38 -70 -37 0
-265 -14 38 70 37 0
-265 -14 38 -70 -37 0
-265 -14 -38 70 -37 0
-265 -14 -38 -70 37 0
266 265 0
-266 -265 0
14 38 70 267 0
-14 -38 -70 267 0
-267 -14 38 0
-267 14 -38 0
-267 -14 70 0
-267 14 -70 0
-267 15 39 71 -38 0
-267 15 39 -71 38 0
-267 15 -39 71 38 0
-267 15 -39 -71 -38 0
-267 -15 39 71 38 0
-267 -15 39 -71 -38 0
-267 -15 -39 71 -38 0
-267 -15 -39 -71 38 0
268 267 0
-268 -267 0
15 39 71 269 0
-15 -39 -71 269 0
-269 -15 39 0
-269 15 -39 0
-269 -15 71 0
-269 15 -71 0
-269 16 40 72 -39 0
-269 16 40 -72 39 0
-269 16 -40 72 39 0
-269 16 -40 -72 -39 0
-269 -16 40 72 39 0
-269 -16 40 -72 -39 0
-269 -16 -40 72 -39 0
-269 -16 -40 -72 39 0
270 269 0
-270 -269 0
16 40 72 271 0
-16 -40 -72 271 0
-271 -16 40 0
-271 16 -40 0
-271 -16 72 0
-271 16 -72 0
-271 17 41 73 -40 0
-271 17 41 -73 40 0
-271 17 -41 73 40 0
-271 17 -41 -73 -40 0
-271 -17 41 73 40 0
-271 -17 41 -73 -40 0
-271 -17 -41 73 -40 0
-271 -17 -41 -73 40 0
272 271 0
-272 -271 0
17 41 73 273 0
-17 -41 -73 273 0
-273 -17 41 0
-273 17 -41 0
-273 -17 73 0
-273 17 -73 0
-273 18 42 74 -41 0
-273 18 42 -74 41 0
-273 18 -42 74 41 0
-273 18 -42 -74 -41 0
-273 -18 42 74 41 0
-273 -18 42 -74 -41 0
-273 -18 -42 74 -41 0
-273 -18 -42 -74 41 0
274 273 0
-274 -273 0
18 42 74 275 0
-18 -42 -74 275 0
-275 -18 42 0
-275 18 -42 0
-275 -18 74 0
-275 18 -74 0
-275 19 43 75 -42 0
-275 19 43 -75 42 0
-275 19 -43 75 42 0
-275 19 -43 -75 -42 0
-275 -19 43 75 42 0
-275 -19 43 -75 -42 0
-275 -19 -43 75 -42 0
-275 -19 -43 -75 42 0
276 275 0
-276 -275 0
19 43 75 277 0
-19 -43 -75 277 0
-277 -19 43 0
-277 19 -43 0
-277 -19 75 0
-277 19 -75 0
-277 20 44 76 -43 0
-277 20 44 -76 43 0
-277 20 -44 76 43 0
-277 20 -44 -76 -43 0
-277 -20 44 76 43 0
-277 -20 44 -76 -43 0
-277 -20 -44 76 -43 0
-277 -20 -44 -76 43 0
278 277 0
-278 -277 0
20 44 76 279 0
-20 -44 -76 279 0
-279 -20 44 0
-279 20 -44 0
-279 -20 76 0
-279 20 -76 0
-279 21 45 77 -44 0
-279 21 45 -77 44 0
-279 21 -45 77 44 0
-279 21 -45 -77 -44 0
-279 -21 45 77 44 0
-279 -21 45 -77 -44 0
-279 -21 -45 77 -44 0
-279 -21 -45 -77 44 0
280 279 0
-280 -279 0
21 45 77 281 0
-21 -45 -77 281 0
-281 -21 45 0
-281 21 -45 0
-281 -21 77 0
-281 21 -77 0
-281 22 46 78 -45 0
-281 22 46 -78 45 0
-281 22 -46 78 45 0
-281 22 -46 -78 -45 0
-281 -22 46 78 45 0
-281 -22 46 -78 -45 0
-281 -22 -46 78 -45 0
-281 -22 -46 -78 45 0
282 281 0
-282 -281 0
22 46 78 283 0
-22 -46 -78 283 0
-283 -22 46 0
-283 22 -46 0
-283 -22 78 0
-283 22 -78 0
-283 23 47 79 -46 0
-283 23 47 -79 46 0
-283 23 -47 79 46 0
-283 23 -47 -79 -46 0
-283 -23 47 79 46 0
-283 -23 47 -79 -46 0
-283 -23 -47 79 -46 0
-283 -23 -47 -79 46 0
284 283 0
-284 -283 0
23 47 79 285 0
-23 -47 -79 285 0
-285 -23 47 0
-285 23 -47 0
-285 -23 79 0
-285 23 -79 0
-285 24 48 80 -47 0
-285 24 48 -80 47 0
-285 24 -48 80 47 0
-285 24 -48 -80 -47 0
-285 -24 48 80 47 0
-285 -24 48 -80 -47 0
-285 -24 -48 80 -47 0
-285 -24 -48 -80 47 0
286 285 0
-286 -285 0
24 48 80 287 0
-24 -48 -80 287 0
-287 -24 48 0
-287 24 -48 0
-287 -24 80 0
-287 24 -80 0
-287 25 49 81 -48 0
-287 25 49 -81 48 0
-287 25 -49 81 48 0
-287 25 -49 -81 -48 0
-287 -25 49 81 48 0
-287 -25 49 -81 -48 0
-287 -25 -49 81 -48 0
-287 -25 -49 -81 48 0
288 287 0
-288 -287 0
25 49 81 289 0
-25 -49 -81 289 0
-289 -25 49 0
-289 25 -49 0
-289 -25 81 0
-289 25 -81 0
-289 26 50 82 -49 0
-289 26 50 -82 49 0
-289 26 -50 82 49 0
-289 26 -50 -82 -49 0
-289 -26 50 82 49 0
-289 -26 50 -82 -49 0
-289 -26 -50 82 -49 0
-289 -26 -50 -82 49 0
290 289 0
-290 -289 0
26 50 82 291 0
-26 -50 -82 291 0
-291 -26 50 0
-291 26 -50 0
-291 -26 82 0
-291 26 -82 0
-291 27 51 83 -50 0
-291 27 51 -83 50 0
-291 27 -51 83 50 0
-291 27 -51 -83 -50 0
-291 -27 51 83 50 0
-291 -27 51 -83 -50 0
-291 -27 -51 83 -50 0
-291 -27 -51 -83 50 0
292 291 0
-292 -291 0
27 51 83 293 0
-27 -51 -83 293 0
-293 -27 51 0
-293 27 -51 0
-293 -27 83 0
-293 27 -83 0
-293 28 52 84 -51 0
-293 28 52 -84 51 0
-293 28 -52 84 51 0
-293 28 -52 -84 -51 0
-293 -28 52 84 51 0
-293 -28 52 -84 -51 0
-293 -28 -52 84 -51 0
-293 -28 -52 -84 51 0
294 293 0
-294 -293 0
28 52 84 295 0
-28 -52 -84 295 0
-295 -28 52 0
-295 28 -52 0
-295 -28 84 0
-295 28 -84 0
-295 29 53 85 -52 0
-295 29 53 -85 52 0
-295 29 -53 85 52 0
-295 29 -53 -85 -52 0
-295 -29 53 85 52 0
-295 -29 53 -85 -52 0
-295 -29 -53 85 -52 0
-295 -29 -53 -85 52 0
296 295 0
-296 -295 0
29 53 85 297 0
-29 -53 -85 297 0
-297 -29 53 0
-297 29 -53 0
-297 -29 85 0
-297 29 -85 0
-297 30 54 86 -53 0
-297 30 54 -86 53 0
-297 30 -54 86 53 0
-297 30 -54 -86 -53 0
-297 -30 54 86 53 0
-297 -30 54 -86 -53 0
-297 -30 -54 86 -53 0
-297 -30 -54 -86 53 0
298 297 0
-298 -297 0
30 54 86 299 0
-30 -54 -86 299 0
-299 -30 54 0
-299 30 -54 0
-299 -30 86 0
-299 30 -86 0
-299 31 55 87 -54 0
-299 31 55 -87 54 0
-299 31 -55 87 54 0
-299 31 -55 -87 -54 0
-299 -31 55 87 54 0
-299 -31 55 -87 -54 0
-299 -31 -55 87 -54 0
-299 -31 -55 -87 54 0
300 299 0
-300 -299 0
31 55 87 301 0
-31 -55 -87 301 0
-301 -31 55 0
-301 31 -55 0
-301 -31 87 0
-301 31 -87 0
-301 32 56 88 -55 0
-301 32 56 -88 55 0
-301 32 -56 88 55 0
-301 32 -56 -88 -55 0
-301 -32 56 88 55 0
-301 -32 56 -88 -55 0
-301 -32 -56 88 -55 0
-301 -32 -56 -88 55 0
302 301 0
-302 -301 0
32 56 88 303 0
-32 -56 -88 303 0
-303 -32 56 0
-303 32 -56 0
-303 -32 88 0
-303 32 -88 0
-303 1 57 89 -56 0
-303 1 57 -89 56 0
-303 1 -57 89 56 0
-303 1 -57 -89 -56 0
-303 -1 57 89 56 0
-303 -1 57 -89 -56 0
-303 -1 -57 89 -56 0
-303 -1 -57 -89 56 0
304 303 0
-304 -303 0
1 57 89 305 0
-1 -57 -89 305 0
-305 -1 57 0
-305 1 -57 0
-305 -1 89 0
-305 1 -89 0
-305 2 58 90 -57 0
-305 2 58 -90 57 0
-305 2 -58 90 57 0
-305 2 -58 -90 -57 0
-305 -2 58 90 57 0
-305 -2 58 -90 -57 0
-305 -2 -58 90 -57 0
-305 -2 -58 -90 57 0
306 305 0
-306 -305 0
2 58 90 307 0
-2 -58 -90 307 0
-307 -2 58 0
-307 2 -58 0
-307 -2 90 0
-307 2 -90 0
-307 3 59 91 -58 0
-307 3 59 -91 58 0
-307 3 -59 91 58 0
-307 3 -59 -91 -58 0
-307 -3 59 91 58 0
-307 -3 59 -91 -58 0
-307 -3 -59 91 -58 0
-307 -3 -59 -91 58 0
308 307 0
-308 -307 0
3 59 91 309 0
-3 -59 -91 309 0
-309 -3 59 0
-309 3 -59 0
-309 -3 91 0
-309 3 -91 0
-309 4 60 92 -59 0
-309 4 60 -92 59 0
-309 4 -60 92 59 0
-309 4 -60 -92 -59 0
-309 -4 60 92 59 0
-309 -4 60 -92 -59 0
-309 -4 -60 92 -59 0
-309 -4 -60 -92 59 0
310 309 0
-310 -309 0
4 60 92 311 0
-4 -60 -92 311 0
-311 -4 60 0
-311 4 -60 0
-311 -4 92 0
-311 4 -92 0
-311 5 61 93 -60 0
-311 5 61 -93 60 0
-311 5 -61 93 60 0
-311 5 -61 -93 -60 0
-311 -5 61 93 60 0
-311 -5 61 -93 -60 0
-311 -5 -61 93 -60 0
-311 -5 -61 -93 60 0
312 311 0
-312 -311 0
5 61 93 313 0
-5 -61 -93 313 0
-313 -5 61 0
-313 5 -61 0
-313 -5 93 0
-313 5 -93 0
-313 6 62 94 -61 0
-313 6 62 -94 61 0
-313 6 -62 94 61 0
-313 6 -62 -94 -61 0
-313 -6 62 94 61 0
-313 -6 62 -94 -61 0
-313 -6 -62 94 -61 0
-313 -6 -62 -94 61 0
314 313 0
-314 -313 0
6 62 94 315 0
-6 -62 -94 315 0
-315 -6 62 0
-315 6 -62 0
-315 -6 94 0
-315 6 -94 0
-315 7 63 95 -62 0
-315 7 63 -95 62 0
-315 7 -63 95 62 0
-315 7 -63 -95 -62 0
-315 -7 63 95 62 0
-315 -7 63 -95 -62 0
-315 -7 -63 95 -62 0
-315 -7 -63 -95 62 0
316 315 0
-316 -315 0
7 63 95 317 0
-7 -63 -95 317 0
-317 -7 63 0
-317 7 -63 0
-317 -7 95 0
-317 7 -95 0
-317 8 64 96 -63 0
-317 8 64 -96 63 0
-317 8 -64 96 63 0
-317 8 -64 -96 -63 0
-317 -8 64 96 63 0
-317 -8 64 -96 -63 0
-317 -8 -64 96 -63 0
-317 -8 -64 -96 63 0
318 317 0
-318 -317 0
62 65 -97 0
62 -65 97 0
-62 65 97 0
-62 -65 -97 0
63 66 -98 0
63 -66 98 0
-63 66 98 0
-63 -66 -98 0
64 67 -99 0
64 -67 99 0
-64 67 99 0
-64 -67 -99 0
33 68 -100 0
33 -68 100 0
-33 68 100 0
-33 -68 -100 0
34 69 -101 0
34 -69 101 0
-34 69 101 0
-34 -69 -101 0
35 70 -102 0
35 -70 102 0
-35 70 102 0
-35 -70 -102 0
36 71 -103 0
36 -71 103 0
-36 71 103 0
-36 -71 -103 0
37 72 -104 0
37 -72 104 0
-37 72 104 0
-37 -72 -104 0
38 73 -105 0
38 -73 105 0
-38 73 105 0
-38 -73 -105 0
39 74 -106 0
39 -74 106 0
-39 74 106 0
-39 -74 -106 0
40 75 -107 0
40 -75 107 0
-40 75 107 0
-40 -75 -107 0
41 76 -108 0
41 -76 108 0
-41 76 108 0
-41 -76 -108 0
42 77 -109 0
42 -77 109 0
-42 77 109 0
-42 -77 -109 0
43 78 -110 0
43 -78 110 0
-43 78 110 0
-43 -78 -110 0
44 79 -111 0
44 -79 111 0
-44 79 111 0
-44 -79 -111 0
45 80 -112 0
45 -80 112 0
-45 80 112 0
-45 -80 -112 0
46 81 -113 0
46 -81 113 0
-46 81 113 0
-46 -81 -113 0
47 82 -114 0
47 -82 114 0
-47 82 114 0
-47 -82 -114 0
48 83 -115 0
48 -83 115 0
-48 83 115 0
-48 -83 -115 0
49 84 -116 0
49 -84 116 0
-49 84 116 0
-49 -84 -116 0
50 85 -117 0
50 -85 117 0
-50 85 117 0
-50 -85 -117 0
51 86 -118 0
51 -86 118 0
-51 86 118 0
-51 -86 -118 0
52 87 -119 0
52 -87 119 0
-52 87 119 0
-52 -87 -119 0
53 88 -120 0
53 -88 120 0
-53 88 120 0
-53 -88 -120 0
54 89 -121 0
54 -89 121 0
-54 89 121 0
-54 -89 -121 0
55 90 -122 0
55 -90 122 0
-55 90 122 0
-55 -90 -122 0
56 91 -123 0
56 -91 123 0
-56 91 123 0
-56 -91 -123 0
57 92 -124 0
57 -92 124 0
-57 92 124 0
-57 -92 -124 0
58 93 -125 0
58 -93 125 0
-58 93 125 0
-58 -93 -125 0
59 94 -126 0
59 -94 126 0
-59 94 126 0
-59 -94 -126 0
60 95 -127 0
60 -95 127 0
-60 95 127 0
-60 -95 -127 0
61 96 -128 0
61 -96 128 0
-61 96 128 0
-61 -96 -128 0
73 97 -129 0
73 -97 129 0
-73 97 129 0
-73 -97 -129 0
73 97 129 319 0
-73 -97 -129 319 0
-319 -73 97 0
-319 73 -97 0
-319 -73 129 0
-319 73 -129 0
-319 74 98 130 -97 0
-319 74 98 -130 97 0
-319 74 -98 130 97 0
-319 74 -98 -130 -97 0
-319 -74 98 130 97 0
-319 -74 98 -130 -97 0
-319 -74 -98 130 -97 0
-319 -74 -98 -130 97 0
320 319 0
-320 -319 0
74 98 130 321 0
-74 -98 -130 321 0
-321 -74 98 0
-321 74 -98 0
-321 -74 130 0
-321 74 -130 0
-321 75 99 131 -98 0
-321 75 99 -131 98 0
-321 75 -99 131 98 0
-321 75 -99 -131 -98 0
-321 -75 99 131 98 0
-321 -75 99 -131 -98 0
-321 -75 -99 131 -98 0
-321 -75 -99 -131 98 0
322 321 0
-322 -321 0
75 99 131 323 0
-75 -99 -131 323 0
-323 -75 99 0
-323 75 -99 0
-323 -75 131 0
-323 75 -131 0
-323 76 100 132 -99 0
-323 76 100 -132 99 0
-323 76 -100 132 99 0
-323 76 -100 -132 -99 0
-323 -76 100 132 99 0
-323 -76 100 -132 -99 0
-323 -76 -100 132 -99 0
-323 -76 -100 -132 99 0
324 323 0
-324 -323 0
76 100 132 325 0
-76 -100 -132 325 0
-325 -76 100 0
-325 76 -100 0
-325 -76 132 0
-325 76 -132 0
-325 77 101 133 -100 0
-325 77 101 -133 100 0
-325 77 -101 133 100 0
-325 77 -101 -133 -100 0
-325 -77 101 133 100 0
-325 -77 101 -133 -100 0
-325 -77 -101 133 -100 0
-325 -77 -101 -133 100 0
326 325 0
-326 -325 0
77 101 133 327 0
-77 -101 -133 327 0
-327 -77 101 0
-327 77 -101 0
-327 -77 133 0
-327 77 -133 0
-327 78 102 134 -101 0
-327 78 102 -134 101 0
-327 78 -102 134 101 0
-327 78 -102 -134 -101 0
-327 -78 102 134 101 0
-327 -78 102 -134 -101 0
-327 -78 -102 134 -101 0
-327 -78 -102 -134 101 0
328 327 0
-328 -327 0
78 102 134 329 0
-78 -102 -134 329 0
-329 -78 102 0
-329 78 -102 0
-329 -78 134 0
-329 78 -134 0
-329 79 103 135 -102 0
-329 79 103 -135 102 0
-329 79 -103 135 102 0
-329 79 -103 -135 -102 0
-329 -79 103 135 102 0
-329 -79 103 -135 -102 0
-329 -79 -103 135 -102 0
-329 -79 -103 -135 102 0
330 329 0
-330 -329 0
79 103 135 331 0
-79 -103 -135 331 0
-331 -79 103 0
-331 79 -103 0
-331 -79 135 0
-331 79 -135 0
-331 80 104 136 -103 0
-331 80 104 -136 103 0
-331 80 -104 136 103 0
-331 80 -104 -136 -103 0
-331 -80 104 136 103 0
-331 -80 104 -136 -103 0
-331 -80 -104 136 -103 0
-331 -80 -104 -136 103 0
332 331 0
-332 -331 0
80 104 136 333 0
-80 -104 -136 333 0
-333 -80 104 0
-333 80 -104 0
-333 -80 136 0
-333 80 -136 0
-333 81 105 137 -104 0
-333 81 105 -137 104 0
-333 81 -105 137 104 0
-333 81 -105 -137 -104 0
-333 -81 105 137 104 0
-333 -81 105 -137 -104 0
-333 -81 -105 137 -104 0
-333 -81 -105 -137 104 0
334 333 0
-334 -333 0
81 105 137 335 0
-81 -105 -137 335 0
-335 -81 105 0
-335 81 -105 0
-335 -81 137 0
-335 81 -137 0
-335 82 106 138 -105 0
-335 82 106 -138 105 0
-335 82 -106 138 105 0
-335 82 -106 -138 -105 0
-335 -82 106 138 105 0
-335 -82 106 -138 -105 0
-335 -82 -106 138 -105 0
-335 -82 -106 -138 105 0
336 335 0
-336 -335 0
82 106 138 337 0
-82 -106 -138 337 0
-337 -82 106 0
-337 82 -106 0
-337 -82 138 0
-337 82 -138 0
-337 83 107 139 -106 0
-337 83 107 -139 106 0
-337 83 -107 139 106 0
-337 83 -107 -139 -106 0
-337 -83 107 139 106 0
-337 -83 107 -139 -106 0
-337 -83 -107 139 -106 0
-337 -83 -107 -139 106 0
338 337 0
-338 -337 0
83 107 139 339 0
-83 -107 -139 339 0
-339 -83 107 0
-339 83 -107 0
-339 -83 139 0
-339 83 -139 0
-339 84 108 140 -107 0
-339 84 108 -140 107 0
-339 84 -108 140 107 0
-339 84 -108 -140 -107 0
-339 -84 108 140 107 0
-339 -84 108 -140 -107 0
-339 -84 -108 140 -107 0
-339 -84 -108 -140 107 0
340 339 0
-340 -339 0
84 108 140 341 0
-84 -108 -140 341 0
-341 -84 108 0
-341 84 -108 0
-341 -84 140 0
-341 84 -140 0
-341 85 109 141 -108 0
-341 85 109 -141 108 0
-341 85 -109 141 108 0
-341 85 -109 -141 -108 0
-341 -85 109 141 108 0
-341 -85 109 -141 -108 0
-341 -85 -109 141 -108 0
-341 -85 -109 -141 108 0
342 341 0
-342 -341 0
85 109 141 343 0
-85 -109 -141 343 0
-343 -85 109 0
-343 85 -109 0
-343 -85 141 0
-343 85 -141 0
-343 86 110 142 -109 0
-343 86 110 -142 109 0
-343 86 -110 142 109 0
-343 86 -110 -142 -109 0
-343 -86 110 142 109 0
-343 -86 110 -142 -109 0
-343 -86 -110 142 -109 0
-343 -86 -110 -142 109 0
344 343 0
-344 -343 0
86 110 142 345 0
-86 -110 -142 345 0
-345 -86 110 0
-345 86 -110 0
-345 -86 142 0
-345 86 -142 0
-345 87 111 143 -110 0
-345 87 111 -143 110 0
-345 87 -111 143 110 0
-345 87 -111 -143 -110 0
-345 -87 111 143 110 0
-345 -87 111 -143 -110 0
-345 -87 -111 143 -110 0
-345 -87 -111 -143 110 0
346 345 0
-346 -345 0
87 111 143 347 0
-87 -111 -143 347 0
-347 -87 111 0
-347 87 -111 0
-347 -87 143 0
-347 87 -143 0
-347 88 112 144 -111 0
-347 88 112 -144 111 0
-347 88 -112 144 111 0
-347 88 -112 -144 -111 0
-347 -88 112 144 111 0
-347 -88 112 -144 -111 0
-347 -88 -112 144 -111 0
-347 -88 -112 -144 111 0
348 347 0
-348 -347 0
88 112 144 349 0
-88 -112 -144 349 0
-349 -88 112 0
-349 88 -112 0
-349 -88 144 0
-349 88 -144 0
-349 89 113 145 -112 0
-349 89 113 -145 112 0
-349 89 -113 145 112 0
-349 89 -113 -145 -112 0
-349 -89 113 145 112 0
-349 -89 113 -145 -112 0
-349 -89 -113 145 -112 0
-349 -89 -113 -145 112 0
350 349 0
-350 -349 0
89 113 145 351 0
-89 -113 -145 351 0
-351 -89 113 0
-351 89 -113 0
-351 -89 145 0
-351 89 -145 0
-351 90 114 146 -113 0
-351 90 114 -146 113 0
-351 90 -114 146 113 0
-351 90 -114 -146 -113 0
-351 -90 114 146 113 0
-351 -90 114 -146 -113 0
-351 -90 -114 146 -113 0
-351 -90 -114 -146 113 0
352 351 0
-352 -351 0
90 114 146 353 0
-90 -114 -146 353 0
-353 -90 114 0
-353 90 -114 0
-353 -90 146 0
-353 90 -146 0
-353 91 115 147 -114 0
-353 91 115 -147 114 0
-353 91 -115 147 114 0
-353 91 -115 -147 -114 0
-353 -91 115 147 114 0
-353 -91 115 -147 -114 0
-353 -91 -115 147 -114 0
-353 -91 -115 -147 114 0
354 353 0
-354 -353 0
91 115 147 355 0
-91 -115 -147 355 0
-355 -91 115 0
-355 91 -115 0
-355 -91 147 0
-355 91 -147 0
-355 92 116 148 -115 0
-355 92 116 -148 115 0
-355 92 -116 148 115 0
-355 92 -116 -148 -115 0
-355 -92 116 148 115 0
-355 -92 116 -148 -115 0
-355 -92 -116 148 -115 0
-355 -92 -116 -148 115 0
356 355 0
-356 -355 0
92 116 148 357 0
-92 -116 -148 357 0
-357 -92 116 0
-357 92 -116 0
-357 -92 148 0
-357 92 -148 0
-357 93 117 149 -116 0
-357 93 117 -149 116 0
-357 93 -117 149 116 0
-357 93 -117 -149 -116 0
-357 -93 117 149 116 0
-357 -93 117 -149 -116 0
-357 -93 -117 149 -116 0
-357 -93 -117 -149 116 0
358 357 0
-358 -357 0
93 117 149 359 0
-93 -117 -149 359 0
-359 -93 117 0
-359 93 -117 0
-359 -93 149 0
-359 93 -149 0
-359 94 118 150 -117 0
-359 94 118 -150 117 0
-359 94 -118 150 117 0
-359 94 -118 -150 -117 0
-359 -94 118 150 117 0
-359 -94 118 -150 -117 0
-359 -94 -118 150 -117 0
-359 -94 -118 -150 117 0
360 359 0
-360 -359 0
94 118 150 361 0
-94 -118 -150 361 0
-361 -94 118 0
-361 94 -118 0
-361 -94 150 0
-361 94 -150 0
-361 95 119 151 -118 0
-361 95 119 -151 118 0
-361 95 -119 151 118 0
-361 95 -119 -151 -118 0
-361 -95 119 151 118 0
-361 -95 119 -151 -118 0
-361 -95 -119 151 -118 0
-361 -95 -119 -151 118 0
362 361 0
-362 -361 0
95 119 151 363 0
-95 -119 -151 363 0
-363 -95 119 0
-363 95 -119 0
-363 -95 151 0
-363 95 -151 0
-363 96 120 152 -119 0
-363 96 120 -152 119 0
-363 96 -120 152 119 0
-363 96 -120 -152 -119 0
-363 -96 120 152 119 0
-363 -96 120 -152 -119 0
-363 -96 -120 152 -119 0
-363 -96 -120 -152 119 0
364 363 0
-364 -363 0
96 120 152 365 0
-96 -120 -152 365 0
-365 -96 120 0
-365 96 -120 0
-365 -96 152 0
-365 96 -152 0
-365 65 121 153 -120 0
-365 65 121 -153 120 0
-365 65 -121 153 120 0
-365 65 -121 -153 -120 0
-365 -65 121 153 120 0
-365 -65 121 -153 -120 0
-365 -65 -121 153 -120 0
-365 -65 -121 -153 120 0
366 365 0
-366 -365 0
65 121 153 367 0
-65 -121 -153 367 0
-367 -65 121 0
-367 65 -121 0
-367 -65 153 0
-367 65 -153 0
-367 66 122 154 -121 0
-367 66 122 -154 121 0
-367 66 -122 154 121 0
-367 66 -122 -154 -121 0
-367 -66 122 154 121 0
-367 -66 122 -154 -121 0
-367 -66 -122 154 -121 0
-367 -66 -122 -154 121 0
368 367 0
-368 -367 0
66 122 154 369 0
-66 -122 -154 369 0
-369 -66 122 0
-369 66 -122 0
-369 -66 154 0
-369 66 -154 0
-369 67 123 155 -122 0
-369 67 123 -155 122 0
-369 67 -123 155 122 0
-369 67 -123 -155 -122 0
-369 -67 123 155 122 0
-369 -67 123 -155 -122 0
-369 -67 -123 155 -122 0
-369 -67 -123 -155 122 0
370 369 0
-370 -369 0
67 123 155 371 0
-67 -123 -155 371 0
-371 -67 123 0
-371 67 -123 0
-371 -67 155 0
-371 67 -155 0
-371 68 124 156 -123 0
-371 68 124 -156 123 0
-371 68 -124 156 123 0
-371 68 -124 -156 -123 0
-371 -68 124 156 123 0
-371 -68 124 -156 -123 0
-371 -68 -124 156 -123 0
-371 -68 -124 -156 123 0
372 371 0
-372 -371 0
68 124 156 373 0
-68 -124 -156 373 0
-373 -68 124 0
-373 68 -124 0
-373 -68 156 0
-373 68 -156 0
-373 69 125 157 -124 0
-373 69 125 -157 124 0
-373 69 -125 157 124 0
-373 69 -125 -157 -124 0
-373 -69 125 157 124 0
-373 -69 125 -157 -124 0
-373 -69 -125 157 -124 0
-373 -69 -125 -157 124 0
374 373 0
-374 -373 0
69 125 157 375 0
-69 -125 -157 375 0
-375 -69 125 0
-375 69 -125 0
-375 -69 157 0
-375 69 -157 0
-375 70 126 158 -125 0
-375 70 126 -158 125 0
-375 70 -126 158 125 0
-375 70 -126 -158 -125 0
-375 -70 126 158 125 0
-375 -70 126 -158 -125 0
-375 -70 -126 158 -125 0
-375 -70 -126 -158 125 0
376 375 0
-376 -375 0
70 126 158 377 0
-70 -126 -158 377 0
-377 -70 126 0
-377 70 -126 0
-377 -70 158 0
-377 70 -158 0
-377 71 127 159 -126 0
-377 71 127 -159 126 0
-377 71 -127 159 126 0
-377 71 -127 -159 -126 0
-377 -71 127 159 126 0
-377 -71 127 -159 -126 0
-377 -71 -127 159 -126 0
-377 -71 -127 -159 126 0
378 377 0
-378 -377 0
71 127 159 379 0
-71 -127 -159 379 0
-379 -71 127 0
-379 71 -127 0
-379 -71 159 0
-379 71 -159 0
-379 72 128 160 -127 0
-379 72 128 -160 127 0
-379 72 -128 160 127 0
-379 72 -128 -160 -127 0
-379 -72 128 160 127 0
-379 -72 128 -160 -127 0
-379 -72 -128 160 -127 0
-379 -72 -128 -160 127 0
380 379 0
-380 -379 0
126 129 -161 0
126 -129 161 0
-126 129 161 0
-126 -129 -161 0
127 130 -162 0
127 -130 162 0
-127 130 162 0
-127 -130 -162 0
128 131 -163 0
128 -131 163 0
-128 131 163 0
-128 -131 -163 0
97 132 -164 0
97 -132 164 0
-97 132 164 0
-97 -132 -164 0
98 133 -165 0
98 -133 165 0
-98 133 165 0
-98 -133 -165 0
99 134 -166 0
99 -134 166 0
-99 134 166 0
-99 -134 -166 0
100 135 -167 0
100 -135 167 0
-100 135 167 0
-100 -135 -167 0
101 136 -168 0
101 -136 168 0
-101 136 168 0
-101 -136 -168 0
102 137 -169 0
102 -137 169 0
-102 137 169 0
-102 -137 -169 0
103 138 -170 0
103 -138 170 0
-103 138 170 0
-103 -138 -170 0
104 139 -171 0
104 -139 171 0
-104 139 171 0
-104 -139 -171 0
105 140 -172 0
105 -140 172 0
-105 140 172 0
-105 -140 -172 0
106 141 -173 0
106 -141 173 0
-106 141 173 0
-106 -141 -173 0
107 142 -174 0
107 -142 174 0
-107 142 174 0
-107 -142 -174 0
108 143 -175 0
108 -143 175 0
-108 143 175 0
-108 -143 -175 0
109 144 -176 0
109 -144 176 0
-109 144 176 0
-109 -144 -176 0
110 145 -177 0
110 -145 177 0
-110 145 177 0
-110 -145 -177 0
111 146 -178 0
111 -146 178 0
-111 146 178 0
-111 -146 -178 0
112 147 -179 0
112 -147 179 0
-112 147 179 0
-112 -147 -179 0
113 148 -180 0
113 -148 180 0
-113 148 180 0
-113 -148 -180 0
114 149 -181 0
114 -149 181 0
-114 149 181 0
-114 -149 -181 0
115 150 -182 0
115 -150 182 0
-115 150 182 0
-115 -150 -182 0
116 151 -183 0
116 -151 183 0
-116 151 183 0
-116 -151 -183 0
117 152 -184 0
117 -152 184 0
-117 152 184 0
-117 -152 -184 0
118 153 -185 0
118 -153 185 0
-118 153 185 0
-118 -153 -185 0
119 154 -186 0
119 -154 186 0
-119 154 186 0
-119 -154 -186 0
120 155 -187 0
120 -155 187 0
-120 155 187 0
-120 -155 -187 0
121 156 -188 0
121 -156 188 0
-121 156 188 0
-121 -156 -188 0
122 157 -189 0
122 -157 189 0
-122 157 189 0
-122 -157 -189 0
123 158 -190 0
123 -158 190 0
-123 158 190 0
-123 -158 -190 0
124 159 -191 0
124 -159 191 0
-124 159 191 0
-124 -159 -191 0
125 160 -192 0
125 -160 192 0
-125 160 192 0
-125 -160 -192 0
137 161 -193 0
137 -161 193 0
-137 161 193 0
-137 -161 -193 0
137 161 193 381 0
-137 -161 -193 381 0
-381 -137 161 0
-381 137 -161 0
-381 -137 193 0
-381 137 -193 0
-381 138 162 194 -161 0
-381 138 162 -194 161 0
-381 138 -162 194 161 0
-381 138 -162 -194 -161 0
-381 -138 162 194 161 0
-381 -138 162 -194 -161 0
-381 -138 -162 194 -161 0
-381 -138 -162 -194 161 0
382 381 0
-382 -381 0
138 162 194 383 0
-138 -162 -194 383 0
-383 -138 162 0
-383 138 -162 0
-383 -138 194 0
-383 138 -194 0
-383 139 163 195 -162 0
-383 139 163 -195 162 0
-383 139 -163 195 162 0
-383 139 -163 -195 -162 0
-383 -139 163 195 162 0
-383 -139 163 -195 -162 0
-383 -139 -163 195 -162 0
-383 -139 -163 -195 162 0
384 383 0
-384 -383 0
139 163 195 385 0
-139 -163 -195 385 0
-385 -139 163 0
-385 139 -163 0
-385 -139 195 0
-385 139 -195 0
-385 140 164 196 -163 0
-385 140 164 -196 163 0
-385 140 -164 196 163 0
-385 140 -164 -196 -163 0
-385 -140 164 196 163 0
-385 -140 164 -196 -163 0
-385 -140 -164 196 -163 0
-385 -140 -164 -196 163 0
386 385 0
-386 -385 0
140 164 196 387 0
-140 -164 -196 387 0
-387 -140 164 0
-387 140 -164 0
-387 -140 196 0
-387 140 -196 0
-387 141 165 197 -164 0
-387 141 165 -197 164 0
-387 141 -165 197 164 0
-387 141 -165 -197 -164 0
-387 -141 165 197 164 0
-387 -141 165 -197 -164 0
-387 -141 -165 197 -164 0
-387 -141 -165 -197 164 0
388 387 0
-388 -387 0
141 165 197 389 0
-141 -165 -197 389 0
-389 -141 165 0
-389 141 -165 0
-389 -141 197 0
-389 141 -197 0
-389 142 166 198 -165 0
-389 142 166 -198 165 0
-389 142 -166 198 165 0
-389 142 -166 -198 -165 0
-389 -142 166 198 165 0
-389 -142 166 -198 -165 0
-389 -142 -166 198 -165 0
-389 -142 -166 -198 165 0
390 389 0
-390 -389 0
142 166 198 391 0
-142 -166 -198 391 0
-391 -142 166 0
-391 142 -166 0
-391 -142 198 0
-391 142 -198 0
-391 143 167 199 -166 0
-391 143 167 -199 166 0
-391 143 -167 199 166 0
-391 143 -167 -199 -166 0
-391 -143 167 199 166 0
-391 -143 167 -199 -166 0
-391 -143 -167 199 -166 0
-391 -143 -167 -199 166 0
392 391 0
-392 -391 0
143 167 199 393 0
-143 -167 -199 393 0
-393 -143 167 0
-393 143 -167 0
-393 -143 199 0
-393 143 -199 0
-393 144 168 200 -167 0
-393 144 168 -200 167 0
-393 144 -168 200 167 0
-393 144 -168 -200 -167 0
-393 -144 168 200 167 0
-393 -144 168 -200 -167 0
-393 -144 -168 200 -167 0
-393 -144 -168 -200 167 0
394 393 0
-394 -393 0
144 168 200 395 0
-144 -168 -200 395 0
-395 -144 168 0
-395 144 -168 0
-395 -144 200 0
-395 144 -200 0
-395 145 169 201 -168 0
-395 145 169 -201 168 0
-395 145 -169 201 168 0
-395 145 -169 -201 -168 0
-395 -145 169 201 168 0
-395 -145 169 -201 -168 0
-395 -145 -169 201 -168 0
-395 -145 -169 -201 168 0
396 395 0
-396 -395 0
145 169 201 397 0
-145 -169 -201 397 0
-397 -145 169 0
-397 145 -169 0
-397 -145 201 0
-397 145 -201 0
-397 146 170 202 -169 0
-397 146 170 -202 169 0
-397 146 -170 202 169 0
-397 146 -170 -202 -169 0
-397 -146 170 202 169 0
-397 -146 170 -202 -169 0
-397 -146 -170 202 -169 0
-397 -146 -170 -202 169 0
398 397 0
-398 -397 0
146 170 202 399 0
-146 -170 -202 399 0
-399 -146 170 0
-399 146 -170 0
-399 -146 202 0
-399 146 -202 0
-399 147 171 203 -170 0
-399 147 171 -203 170 0
-399 147 -171 203 170 0
-399 147 -171 -203 -170 0
-399 -147 171 203 170 0
-399 -147 171 -203 -170 0
-399 -147 -171 203 -170 0
-399 -147 -171 -203 170 0
400 399 0
-400 -399 0
147 171 203 401 0
-147 -171 -203 401 0
-401 -147 171 0
-401 147 -171 0
-401 -147 203 0
-401 147 -203 0
-401 148 172 204 -171 0
-401 148 172 -204 171 0
-401 148 -172 204 171 0
-401 148 -172 -204 -171 0
-401 -148 172 204 171 0
-401 -148 172 -204 -171 0
-401 -148 -172 204 -171 0
-401 -148 -172 -204 171 0
402 401 0
-402 -401 0
148 172 204 403 0
-148 -172 -204 403 0
-403 -148 172 0
-403 148 -172 0
-403 -148 204 0
-403 148 -204 0
-403 149 173 205 -172 0
-403 149 173 -205 172 0
-403 149 -173 205 172 0
-403 149 -173 -205 -172 0
-403 -149 173 205 172 0
-403 -149 173 -205 -172 0
-403 -149 -173 205 -172 0
-403 -149 -173 -205 172 0
404 403 0
-404 -403 0
149 173 205 405 0
-149 -173 -205 405 0
-405 -149 173 0
-405 149 -173 0
-405 -149 205 0
-405 149 -205 0
-405 150 174 206 -173 0
-405 150 174 -206 173 0
-405 150 -174 206 173 0
-405 150 -174 -206 -173 0
-405 -150 174 206 173 0
-405 -150 174 -206 -173 0
-405 -150 -174 206 -173 0
-405 -150 -174 -206 173 0
406 405 0
-406 -405 0
150 174 206 407 0
-150 -174 -206 407 0
-407 -150 174 0
-407 150 -174 0
-407 -150 206 0
-407 150 -206 0
-407 151 175 207 -174 0
-407 151 175 -207 174 0
-407 151 -175 207 174 0
-407 151 -175 -207 -174 0
-407 -151 175 207 174 0
-407 -151 175 -207 -174 0
-407 -151 -175 207 -174 0
-407 -151 -175 -207 174 0
408 407 0
-408 -407 0
151 175 207 409 0
-151 -175 -207 409 0
-409 -151 175 0
-409 151 -175 0
-409 -151 207 0
-409 151 -207 0
-409 152 176 208 -175 0
-409 152 176 -208 175 0
-409 152 -176 208 175 0
-409 152 -176 -208 -175 0
-409 -152 176 208 175 0
-409 -152 176 -208 -175 0
-409 -152 -176 208 -175 0
-409 -152 -176 -208 175 0
410 409 0
-410 -409 0
152 176 208 411 0
-152 -176 -208 411 0
-411 -152 176 0
-411 152 -176 0
-411 -152 208 0
-411 152 -208 0
-411 153 177 209 -176 0
-411 153 177 -209 176 0
-411 153 -177 209 176 0
-411 153 -177 -209 -176 0
-411 -153 177 209 176 0
-411 -153 177 -209 -176 0
-411 -153 -177 209 -176 0
-411 -153 -177 -209 176 0
412 411 0
-412 -411 0
153 177 209 413 0
-153 -177 -209 413 0
-413 -153 177 0
-413 153 -177 0
-413 -153 209 0
-413 153 -209 0
-413 154 178 210 -177 0
-413 154 178 -210 177 0
-413 154 -178 210 177 0
-413 154 -178 -210 -177 0
-413 -154 178 210 177 0
-413 -154 178 -210 -177 0
-413 -154 -178 210 -177 0
-413 -154 -178 -210 177 0
414 413 0
-414 -413 0
154 178 210 415 0
-154 -178 -210 415 0
-415 -154 178 0
-415 154 -178 0
-415 -154 210 0
-415 154 -210 0
-415 155 179 211 -178 0
-415 155 179 -211 178 0
-415 155 -179 211 178 0
-415 155 -179 -211 -178 0
-415 -155 179 211 178 0
-415 -155 179 -211 -178 0
-415 -155 -179 211 -178 0
-415 -155 -179 -211 178 0
416 415 0
-416 -415 0
155 179 211 417 0
-155 -179 -211 417 0
-417 -155 179 0
-417 155 -179 0
-417 -155 211 0
-417 155 -211 0
-417 156 180 212 -179 0
-417 156 180 -212 179 0
-417 156 -180 212 179 0
-417 156 -180 -212 -179 0
-417 -156 180 212 179 0
-417 -156 180 -212 -179 0
-417 -156 -180 212 -179 0
-417 -156 -180 -212 179 0
418 417 0
-418 -417 0
156 180 212 419 0
-156 -180 -212 419 0
-419 -156 180 0
-419 156 -180 0
-419 -156 212 0
-419 156 -212 0
-419 157 181 213 -180 0
-419 157 181 -213 180 0
-419 157 -181 213 180 0
-419 157 -181 -213 -180 0
-419 -157 181 213 180 0
-419 -157 181 -213 -180 0
-419 -157 -181 213 -180 0
-419 -157 -181 -213 180 0
420 419 0
-420 -419 0
157 181 213 421 0
-157 -181 -213 421 0
-421 -157 181 0
-421 157 -181 0
-421 -157 213 0
-421 157 -213 0
-421 158 182 214 -181 0
-421 158 182 -214 181 0
-421 158 -182 214 181 0
-421 158 -182 -214 -181 0
-421 -158 182 214 181 0
-421 -158 182 -214 -181 0
-421 -158 -182 214 -181 0
-421 -158 -182 -214 181 0
422 421 0
-422 -421 0
158 182 214 423 0
-158 -182 -214 423 0
-423 -158 182 0
-423 158 -182 0
-423 -158 214 0
-423 158 -214 0
-423 159 183 215 -182 0
-423 159 183 -215 182 0
-423 159 -183 215 182 0
-423 159 -183 -215 -182 0
-423 -159 183 215 182 0
-423 -159 183 -215 -182 0
-423 -159 -183 215 -182 0
-423 -159 -183 -215 182 0
424 423 0
-424 -423 0
159 183 215 425 0
-159 -183 -215 425 0
-425 -159 183 0
-425 159 -183 0
-425 -159 215 0
-425 159 -215 0
-425 160 184 216 -183 0
-425 160 184 -216 183 0
-425 160 -184 216 183 0
-425 160 -184 -216 -183 0
-425 -160 184 216 183 0
-425 -160 184 -216 -183 0
-425 -160 -184 216 -183 0
-425 -160 -184 -216 183 0
426 425 0
-426 -425 0
160 184 216 427 0
-160 -184 -216 427 0
-427 -160 184 0
-427 160 -184 0
-427 -160 216 0
-427 160 -216 0
-427 129 185 217 -184 0
-427 129 185 -217 184 0
-427 129 -185 217 184 0
-427 129 -185 -217 -184 0
-427 -129 185 217 184 0
-427 -129 185 -217 -184 0
-427 -129 -185 217 -184 0
-427 -129 -185 -217 184 0
428 427 0
-428 -427 0
129 185 217 429 0
-129 -185 -217 429 0
-429 -129 185 0
-429 129 -185 0
-429 -129 217 0
-429 129 -217 0
-429 130 186 218 -185 0
-429 130 186 -218 185 0
-429 130 -186 218 185 0
-429 130 -186 -218 -185 0
-429 -130 186 218 185 0
-429 -130 186 -218 -185 0
-429 -130 -186 218 -185 0
-429 -130 -186 -218 185 0
430 429 0
-430 -429 0
130 186 218 431 0
-130 -186 -218 431 0
-431 -130 186 0
-431 130 -186 0
-431 -130 218 0
-431 130 -218 0
-431 131 187 219 -186 0
-431 131 187 -219 186 0
-431 131 -187 219 186 0
-431 131 -187 -219 -186 0
-431 -131 187 219 186 0
-431 -131 187 -219 -186 0
-431 -131 -187 219 -186 0
-431 -131 -187 -219 186 0
432 431 0
-432 -431 0
131 187 219 433 0
-131 -187 -219 433 0
-433 -131 187 0
-433 131 -187 0
-433 -131 219 0
-433 131 -219 0
-433 132 188 220 -187 0
-433 132 188 -220 187 0
-433 132 -188 220 187 0
-433 132 -188 -220 -187 0
-433 -132 188 220 187 0
-433 -132 188 -220 -187 0
-433 -132 -188 220 -187 0
-433 -132 -188 -220 187 0
434 433 0
-434 -433 0
132 188 220 435 0
-132 -188 -220 435 0
-435 -132 188 0
-435 132 -188 0
-435 -132 220 0
-435 132 -220 0
-435 133 189 221 -188 0
-435 133 189 -221 188 0
-435 133 -189 221 188 0
-435 133 -189 -221 -188 0
-435 -133 189 221 188 0
-435 -133 189 -221 -188 0
-435 -133 -189 221 -188 0
-435 -133 -189 -221 188 0
436 435 0
-436 -435 0
133 189 221 437 0
-133 -189 -221 437 0
-437 -133 189 0
-437 133 -189 0
-437 -133 221 0
-437 133 -221 0
-437 134 190 222 -189 0
-437 134 190 -222 189 0
-437 134 -190 222 189 0
-437 134 -190 -222 -189 0
-437 -134 190 222 189 0
-437 -134 190 -222 -189 0
-437 -134 -190 222 -189 0
-437 -134 -190 -222 189 0
438 437 0
-438 -437 0
134 190 222 439 0
-134 -190 -222 439 0
-439 -134 190 0
-439 134 -190 0
-439 -134 222 0
-439 134 -222 0
-439 135 191 223 -190 0
-439 135 191 -223 190 0
-439 135 -191 223 190 0
-439 135 -191 -223 -190 0
-439 -135 191 223 190 0
-439 -135 191 -223 -190 0
-439 -135 -191 223 -190 0
-439 -135 -191 -223 190 0
440 439 0
-440 -439 0
135 191 223 441 0
-135 -191 -223 441 0
-441 -135 191 0
-441 135 -191 0
-441 -135 223 0
-441 135 -223 0
-441 136 192 224 -191 0
-441 136 192 -224 191 0
-441 136 -192 224 191 0
-441 136 -192 -224 -191 0
-441 -136 192 224 191 0
-441 -136 192 -224 -191 0
-441 -136 -192 224 -191 0
-441 -136 -192 -224 191 0
442 441 0
-442 -441 0
190 193 -225 0
190 -193 225 0
-190 193 225 0
-190 -193 -225 0
191 194 -226 0
191 -194 226 0
-191 194 226 0
-191 -194 -226 0
192 195 -227 0
192 -195 227 0
-192 195 227 0
-192 -195 -227 0
161 196 -228 0
161 -196 228 0
-161 196 228 0
-161 -196 -228 0
162 197 -229 0
162 -197 229 0
-162 197 229 0
-162 -197 -229 0
163 198 -230 0
163 -198 230 0
-163 198 230 0
-163 -198 -230 0
164 199 -231 0
164 -199 231 0
-164 199 231 0
-164 -199 -231 0
165 200 -232 0
165 -200 232 0
-165 200 232 0
-165 -200 -232 0
166 201 -233 0
166 -201 233 0
-166 201 233 0
-166 -201 -233 0
167 202 -234 0
167 -202 234 0
-167 202 234 0
-167 -202 -234 0
168 203 -235 0
168 -203 235 0
-168 203 235 0
-168 -203 -235 0
169 204 -236 0
169 -204 236 0
-169 204 236 0
-169 -204 -236 0
170 205 -237 0
170 -205 237 0
-170 205 237 0
-170 -205 -237 0
171 206 -238 0
171 -206 238 0
-171 206 238 0
-171 -206 -238 0
172 207 -239 0
172 -207 239 0
-172 207 239 0
-172 -207 -239 0
173 208 -240 0
173 -208 240 0
-173 208 240 0
-173 -208 -240 0
174 209 -241 0
174 -209 241 0
-174 209 241 0
-174 -209 -241 0
175 210 -242 0
175 -210 242 0
-175 210 242 0
-175 -210 -242 0
176 211 -243 0
176 -211 243 0
-176 211 243 0
-176 -211 -243 0
177 212 -244 0
177 -212 244 0
-177 212 244 0
-177 -212 -244 0
178 213 -245 0
178 -213 245 0
-178 213 245 0
-178 -213 -245 0
179 214 -246 0
179 -214 246 0
-179 214 246 0
-179 -214 -246 0
180 215 -247 0
180 -215 247 0
-180 215 247 0
-180 -215 -247 0
181 216 -248 0
181 -216 248 0
-181 216 248 0
-181 -216 -248 0
182 217 -249 0
182 -217 249 0
-182 217 249 0
-182 -217 -249 0
183 218 -250 0
183 -218 250 0
-183 218 250 0
-183 -218 -250 0
184 219 -251 0
184 -219 251 0
-184 219 251 0
-184 -219 -251 0
185 220 -252 0
185 -220 252 0
-185 220 252 0
-185 -220 -252 0
186 221 -253 0
186 -221 253 0
-186 221 253 0
-186 -221 -253 0
187 222 -254 0
187 -222 254 0
-187 222 254 0
-187 -222 -254 0
188 223 -255 0
188 -223 255 0
-188 223 255 0
-188 -223 -255 0
189 224 -256 0
189 -224 256 0
-189 224 256 0
-189 -224 -256 0
-444 0
-445 0
-446 0
-447 0
-448 0
-449 0
-450 0
-451 0
-452 0
-453 0
-454 0
-258 443 0
-260 455 0
-262 467 0
-264 479 0
-266 491 0
-268 503 0
-270 515 0
-272 527 0
-274 539 0
-276 551 0
-278 563 0
-280 575 0
-282 587 0
-284 599 0
-286 611 0
-288 623 0
-290 635 0
-292 647 0
-294 659 0
-296 671 0
-298 683 0
-300 695 0
-302 707 0
-304 719 0
-306 731 0
-308 743 0
-310 755 0
-312 767 0
-314 779 0
-316 791 0
-318 803 0
-320 815 0
-322 827 0
-324 839 0
-326 851 0
-328 863 0
-330 875 0
-332 887 0
-334 899 0
-336 911 0
-338 923 0
-340 935 0
-342 947 0
-344 959 0
-346 971 0
-348 983 0
-350 995 0
-352 1007 0
-354 1019 0
-356 1031 0
-358 1043 0
-360 1055 0
-362 1067 0
-364 1079 0
-366 1091 0
-368 1103 0
-370 1115 0
-372 1127 0
-374 1139 0
-376 1151 0
-378 1163 0
-380 1175 0
-382 1187 0
-384 1199 0
-386 1211 0
-388 1223 0
-390 1235 0
-392 1247 0
-394 1259 0
-396 1271 0
-398 1283 0
-400 1295 0
-402 1307 0
-404 1319 0
-406 1331 0
-408 1343 0
-410 1355 0
-412 1367 0
-414 1379 0
-416 1391 0
-418 1403 0
-420 1415 0
-422 1427 0
-424 1439 0
-426 1451 0
-428 1463 0
-430 1475 0
-432 1487 0
-434 1499 0
-436 1511 0
-438 1523 0
-440 1535 0
-442 1547 0
-443 455 0
-444 456 0
-445 457 0
-446 458 0
-447 459 0
-448 460 0
-449 461 0
-450 462 0
-451 463 0
-452 464 0
-453 465 0
-454 466 0
-260 -443 456 0
-260 -444 457 0
-260 -445 458 0
-260 -446 459 0
-260 -447 460 0
-260 -448 461 0
-260 -449 462 0
-260 -450 463 0
-260 -451 464 0
-260 -452 465 0
-260 -453 466 0
-260 -454 0
-455 467 0
-456 468 0
-457 469 0
-458 470 0
-459 471 0
-460 472 0
-461 473 0
-462 474 0
-463 475 0
-464 476 0
-465 477 0
-466 478 0
-262 -455 468 0
-262 -456 469 0
-262 -457 470 0
-262 -458 471 0
-262 -459 472 0
-262 -460 473 0
-262 -461 474 0
-262 -462 475 0
-262 -463 476 0
-262 -464 477 0
-262 -465 478 0
-262 -466 0
-467 479 0
-468 480 0
-469 481 0
-470 482 0
-471 483 0
-472 484 0
-473 485 0
-474 486 0
-475 487 0
-476 488 0
-477 489 0
-478 490 0
-264 -467 480 0
-264 -468 481 0
-264 -469 482 0
-264 -470 483 0
-264 -471 484 0
-264 -472 485 0
-264 -473 486 0
-264 -474 487 0
-264 -475 488 0
-264 -476 489 0
-264 -477 490 0
-264 -478 0
-479 491 0
-480 492 0
-481 493 0
-482 494 0
-483 495 0
-484 496 0
-485 497 0
-486 498 0
-487 499 0
-488 500 0
-489 501 0
-490 502 0
-266 -479 492 0
-266 -480 493 0
-266 -481 494 0
-266 -482 495 0
-266 -483 496 0
-266 -484 497 0
-266 -485 498 0
-266 -486 499 0
-266 -487 500 0
-266 -488 501 0
-266 -489 502 0
-266 -490 0
-491 503 0
-492 504 0
-493 505 0
-494 506 0
-495 507 0
-496 508 0
-497 509 0
-498 510 0
-499 511 0
-500 512 0
-501 513 0
-502 514 0
-268 -491 504 0
-268 -492 505 0
-268 -493 506 0
-268 -494 507 0
-268 -495 508 0
-268 -496 509 0
-268 -497 510 0
-268 -498 511 0
-268 -499 512 0
-268 -500 513 0
-268 -501 514 0
-268 -502 0
-503 515 0
-504 516 0
-505 517 0
-506 518 0
-507 519 0
-508 520 0
-509 521 0
-510 522 0
-511 523 0
-512 524 0
-513 525 0
-514 526 0
-270 -503 516 0
-270 -504 517 0
-270 -505 518 0
-270 -506 519 0
-270 -507 520 0
-270 -508 521 0
-270 -509 522 0
-270 -510 523 0
-270 -511 524 0
-270 -512 525 0
-270 -513 526 0
-270 -514 0
-515 527 0
-516 528 0
-517 529 0
-518 530 0
-519 531 0
-520 532 0
-521 533 0
-522 534 0
-523 535 0
-524 536 0
-525 537 0
-526 538 0
-272 -515 528 0
-272 -516 529 0
-272 -517 530 0
-272 -518 531 0
-272 -519 532 0
-272 -520 533 0
-272 -521 534 0
-272 -522 535 0
-272 -523 536 0
-272 -524 537 0
-272 -525 538 0
-272 -526 0
-527 539 0
-528 540 0
-529 541 0
-530 542 0
-531 543 0
-532 544 0
-533 545 0
-534 546 0
-535 547 0
-536 548 0
-537 549 0
-538 550 0
-274 -527 540 0
-274 -528 541 0
-274 -529 542 0
-274 -530 543 0
-274 -531 544 0
-274 -532 545 0
-274 -533 546 0
-274 -534 547 0
-274 -535 548 0
-274 -536 549 0
-274 -537 550 0
-274 -538 0
-539 551 0
-540 552 0
-541 553 0
-542 554 0
-543 555 0
-544 556 0
-545 557 0
-546 558 0
-547 559 0
-548 560 0
-549 561 0
-550 562 0
-276 -539 552 0
-276 -540 553 0
-276 -541 554 0
-276 -542 555 0
-276 -543 556 0
-276 -544 557 0
-276 -545 558 0
-276 -546 559 0
-276 -547 560 0
-276 -548 561 0
-276 -549 562 0
-276 -550 0
-551 563 0
-552 564 0
-553 565 0
-554 566 0
-555 567 0
-556 568 0
-557 569 0
-558 570 0
-559 571 0
-560 572 0
-561 573 0
-562 574 0
-278 -551 564 0
-278 -552 565 0
-278 -553 566 0
-278 -554 567 0
-278 -555 568 0
-278 -556 569 0
-278 -557 570 0
-278 -558 571 0
-278 -559 572 0
-278 -560 573 0
-278 -561 574 0
-278 -562 0
-563 575 0
-564 576 0
-565 577 0
-566 578 0
-567 579 0
-568 580 0
-569 581 0
-570 582 0
-571 583 0
-572 584 0
-573 585 0
-574 586 0
-280 -563 576 0
-280 -564 577 0
-280 -565 578 0
-280 -566 579 0
-280 -567 580 0
-280 -568 581 0
-280 -569 582 0
-280 -570 583 0
-280 -571 584 0
-280 -572 585 0
-280 -573 586 0
-280 -574 0
-575 587 0
-576 588 0
-577 589 0
-578 590 0
-579 591 0
-580 592 0
-581 593 0
-582 594 0
-583 595 0
-584 596 0
-585 597 0
-586 598 0
-282 -575 588 0
-282 -576 589 0
-282 -577 590 0
-282 -578 591 0
-282 -579 592 0
-282 -580 593 0
-282 -581 594 0
-282 -582 595 0
-282 -583 596 0
-282 -584 597 0
-282 -585 598 0
-282 -586 0
-587 599 0
-588 600 0
-589 601 0
-590 602 0
-591 603 0
-592 604 0
-593 605 0
-594 606 0
-595 607 0
-596 608 0
-597 609 0
-598 610 0
-284 -587 600 0
-284 -588 601 0
-284 -589 602 0
-284 -590 603 0
-284 -591 604 0
-284 -592 605 0
-284 -593 606 0
-284 -594 607 0
-284 -595 608 0
-284 -596 609 0
-284 -597 610 0
-284 -598 0
-599 611 0
-600 612 0
-601 613 0
-602 614 0
-603 615 0
-604 616 0
-605 617 0
-606 618 0
-607 619 0
-608 620 0
-609 621 0
-610 622 0
-286 -599 612 0
-286 -600 613 0
-286 -601 614 0
-286 -602 615 0
-286 -603 616 0
-286 -604 617 0
-286 -605 618 0
-286 -606 619 0
-286 -607 620 0
-286 -608 621 0
-286 -609 622 0
-286 -610 0
-611 623 0
-612 624 0
-613 625 0
-614 626 0
-615 627 0
-616 628 0
-617 629 0
-618 630 0
-619 631 0
-620 632 0
-621 633 0
-622 634 0
-288 -611 624 0
-288 -612 625 0
-288 -613 626 0
-288 -614 627 0
-288 -615 628 0
-288 -616 629 0
-288 -617 630 0
-288 -618 631 0
-288 -619 632 0
-288 -620 633 0
-288 -621 634 0
-288 -622 0
-623 635 0
-624 636 0
-625 637 0
-626 638 0
-627 639 0
-628 640 0
-629 641 0
-630 642 0
-631 643 0
-632 644 0
-633 645 0
-634 646 0
-290 -623 636 0
-290 -624 637 0
-290 -625 638 0
-290 -626 639 0
-290 -627 640 0
-290 -628 641 0
-290 -629 642 0
-290 -630 643 0
-290 -631 644 0
-290 -632 645 0
-290 -633 646 0
-290 -634 0
-635 647 0
-636 648 0
-637 649 0
-638 650 0
-639 651 0
-640 652 0
-641 653 0
-642 654 0
-643 655 0
-644 656 0
-645 657 0
-646 658 0
-292 -635 648 0
-292 -636 649 0
-292 -637 650 0
-292 -638 651 0
-292 -639 652 0
-292 -640 653 0
-292 -641 654 0
-292 -642 655 0
-292 -643 656 0
-292 -644 657 0
-292 -645 658 0
-292 -646 0
-647 659 0
-648 660 0
-649 661 0
-650 662 0
-651 663 0
-652 664 0
-653 665 0
-654 666 0
-655 667 0
-656 668 0
-657 669 0
-658 670 0
-294 -647 660 0
-294 -648 661 0
-294 -649 662 0
-294 -650 663 0
-294 -651 664 0
-294 -652 665 0
-294 -653 666 0
-294 -654 667 0
-294 -655 668 0
-294 -656 669 0
-294 -657 670 0
-294 -658 0
-659 671 0
-660 672 0
-661 673 0
-662 674 0
-663 675 0
-664 676 0
-665 677 0
-666 678 0
-667 679 0
-668 680 0
-669 681 0
-670 682 0
-296 -659 672 0
-296 -660 673 0
-296 -661 674 0
-296 -662 675 0
-296 -663 676 0
-296 -664 677 0
-296 -665 678 0
-296 -666 679 0
-296 -667 680 0
-296 -668 681 0
-296 -669 682 0
-296 -670 0
-671 683 0
-672 684 0
-673 685 0
-674 686 0
-675 687 0
-676 688 0
-677 689 0
-678 690 0
-679 691 0
-680 692 0
-681 693 0
-682 694 0
-298 -671 684 0
-298 -672 685 0
-298 -673 686 0
-298 -674 687 0
-298 -675 688 0
-298 -676 689 0
-298 -677 690 0
-298 -678 691 0
-298 -679 692 0
-298 -680 693 0
-298 -681 694 0
-298 -682 0
-683 695 0
-684 696 0
-685 697 0
-686 698 0
-687 699 0
-688 700 0
-689 701 0
-690 702 0
-691 703 0
-692 704 0
-693 705 0
-694 706 0
-300 -683 696 0
-300 -684 697 0
-300 -685 698 0
-300 -686 699 0
-300 -687 700 0
-300 -688 701 0
-300 -689 702 0
-300 -690 703 0
-300 -691 704 0
-300 -692 705 0
-300 -693 706 0
-300 -694 0
-695 707 0
-696 708 0
-697 709 0
-698 710 0
-699 711 0
-700 712 0
-701 713 0
-702 714 0
-703 715 0
-704 716 0
-705 717 0
-706 718 0
-302 -695 708 0
-302 -696 709 0
-302 -697 710 0
-302 -698 711 0
-302 -699 712 0
-302 -700 713 0
-302 -701 714 0
-302 -702 715 0
-302 -703 716 0
-302 -704 717 0
-302 -705 718 0
-302 -706 0
-707 719 0
-708 720 0
-709 721 0
-710 722 0
-711 723 0
-712 724 0
-713 725 0
-714 726 0
-715 727 0
-716 728 0
-717 729 0
-718 730 0
-304 -707 720 0
-304 -708 721 0
-304 -709 722 0
-304 -710 723 0
-304 -711 724 0
-304 -712 725 0
-304 -713 726 0
-304 -714 727 0
-304 -715 728 0
-304 -716 729 0
-304 -717 730 0
-304 -718 0
-719 731 0
-720 732 0
-721 733 0
-722 734 0
-723 735 0
-724 736 0
-725 737 0
-726 738 0
-727 739 0
-728 740 0
-729 741 0
-730 742 0
-306 -719 732 0
-306 -720 733 0
-306 -721 734 0
-306 -722 735 0
-306 -723 736 0
-306 -724 737 0
-306 -725 738 0
-306 -726 739 0
-306 -727 740 0
-306 -728 741 0
-306 -729 742 0
-306 -730 0
-731 743 0
-732 744 0
-733 745 0
-734 746 0
-735 747 0
-736 748 0
-737 749 0
-738 750 0
-739 751 0
-740 752 0
-741 753 0
-742 754 0
-308 -731 744 0
-308 -732 745 0
-308 -733 746 0
-308 -734 747 0
-308 -735 748 0
-308 -736 749 0
-308 -737 750 0
-308 -738 751 0
-308 -739 752 0
-308 -740 753 0
-308 -741 754 0
-308 -742 0
-743 755 0
-744 756 0
-745 757 0
-746 758 0
-747 759 0
-748 760 0
-749 761 0
-750 762 0
-751 763 0
-752 764 0
-753 765 0
-754 766 0
-310 -743 756 0
-310 -744 757 0
-310 -745 758 0
-310 -746 759 0
-310 -747 760 0
-310 -748 761 0
-310 -749 762 0
-310 -750 763 0
-310 -751 764 0
-310 -752 765 0
-310 -753 766 0
-310 -754 0
-755 767 0
-756 768 0
-757 769 0
-758 770 0
-759 771 0
-760 772 0
-761 773 0
-762 774 0
-763 775 0
-764 776 0
-765 777 0
-766 778 0
-312 -755 768 0
-312 -756 769 0
-312 -757 770 0
-312 -758 771 0
-312 -759 772 0
-312 -760 773 0
-312 -761 774 0
-312 -762 775 0
-312 -763 776 0
-312 -764 777 0
-312 -765 778 0
-312 -766 0
-767 779 0
-768 780 0
-769 781 0
-770 782 0
-771 783 0
-772 784 0
-773 785 0
-774 786 0
-775 787 0
-776 788 0
-777 789 0
-778 790 0
-314 -767 780 0
-314 -768 781 0
-314 -769 782 0
-314 -770 783 0
-314 -771 784 0
-314 -772 785 0
-314 -773 786 0
-314 -774 787 0
-314 -775 788 0
-314 -776 789 0
-314 -777 790 0
-314 -778 0
-779 791 0
-780 792 0
-781 793 0
-782 794 0
-783 795 0
-784 796 0
-785 797 0
-786 798 0
-787 799 0
-788 800 0
-789 801 0
-790 802 0
-316 -779 792 0
-316 -780 793 0
-316 -781 794 0
-316 -782 795 0
-316 -783 796 0
-316 -784 797 0
-316 -785 798 0
-316 -786 799 0
-316 -787 800 0
-316 -788 801 0
-316 -789 802 0
-316 -790 0
-791 803 0
-792 804 0
-793 805 0
-794 806 0
-795 807 0
-796 808 0
-797 809 0
-798 810 0
-799 811 0
-800 812 0
-801 813 0
-802 814 0
-318 -791 804 0
-318 -792 805 0
-318 -793 806 0
-318 -794 807 0
-318 -795 808 0
-318 -796 809 0
-318 -797 810 0
-318 -798 811 0
-318 -799 812 0
-318 -800 813 0
-318 -801 814 0
-318 -802 0
-803 815 0
-804 816 0
-805 817 0
-806 818 0
-807 819 0
-808 820 0
-809 821 0
-810 822 0
-811 823 0
-812 824 0
-813 825 0
-814 826 0
-320 -803 816 0
-320 -804 817 0
-320 -805 818 0
-320 -806 819 0
-320 -807 820 0
-320 -808 821 0
-320 -809 822 0
-320 -810 823 0
-320 -811 824 0
-320 -812 825 0
-320 -813 826 0
-320 -814 0
-815 827 0
-816 828 0
-817 829 0
-818 830 0
-819 831 0
-820 832 0
-821 833 0
-822 834 0
-823 835 0
-824 836 0
-825 837 0
-826 838 0
-322 -815 828 0
-322 -816 829 0
-322 -817 830 0
-322 -818 831 0
-322 -819 832 0
-322 -820 833 0
-322 -821 834 0
-322 -822 835 0
-322 -823 836 0
-322 -824 837 0
-322 -825 838 0
-322 -826 0
-827 839 0
-828 840 0
-829 841 0
-830 842 0
-831 843 0
-832 844 0
-833 845 0
-834 846 0
-835 847 0
-836 848 0
-837 849 0
-838 850 0
-324 -827 840 0
-324 -828 841 0
-324 -829 842 0
-324 -830 843 0
-324 -831 844 0
-324 -832 845 0
-324 -833 846 0
-324 -834 847 0
-324 -835 848 0
-324 -836 849 0
-324 -837 850 0
-324 -838 0
-839 851 0
-840 852 0
-841 853 0
-842 854 0
-843 855 0
-844 856 0
-845 857 0
-846 858 0
-847 859 0
-848 860 0
-849 861 0
-850 862 0
-326 -839 852 0
-326 -840 853 0
-326 -841 854 0
-326 -842 855 0
-326 -843 856 0
-326 -844 857 0
-326 -845 858 0
-326 -846 859 0
-326 -847 860 0
-326 -848 861 0
-326 -849 862 0
-326 -850 0
-851 863 0
-852 864 0
-853 865 0
-854 866 0
-855 867 0
-856 868 0
-857 869 0
-858 870 0
-859 871 0
-860 872 0
-861 873 0
-862 874 0
-328 -851 864 0
-328 -852 865 0
-328 -853 866 0
-328 -854 867 0
-328 -855 868 0
-328 -856 869 0
-328 -857 870 0
-328 -858 871 0
-328 -859 872 0
-328 -860 873 0
-328 -861 874 0
-328 -862 0
-863 875 0
-864 876 0
-865 877 0
-866 878 0
-867 879 0
-868 880 0
-869 881 0
-870 882 0
-871 883 0
-872 884 0
-873 885 0
-874 886 0
-330 -863 876 0
-330 -864 877 0
-330 -865 878 0
-330 -866 879 0
-330 -867 880 0
-330 -868 881 0
-330 -869 882 0
-330 -870 883 0
-330 -871 884 0
-330 -872 885 0
-330 -873 886 0
-330 -874 0
-875 887 0
-876 888 0
-877 889 0
-878 890 0
-879 891 0
-880 892 0
-881 893 0
-882 894 0
-883 895 0
-884 896 0
-885 897 0
-886 898 0
-332 -875 888 0
-332 -876 889 0
-332 -877 890 0
-332 -878 891 0
-332 -879 892 0
-332 -880 893 0
-332 -881 894 0
-332 -882 895 0
-332 -883 896 0
-332 -884 897 0
-332 -885 898 0
-332 -886 0
-887 899 0
-888 900 0
-889 901 0
-890 902 0
-891 903 0
-892 904 0
-893 905 0
-894 906 0
-895 907 0
-896 908 0
-897 909 0
-898 910 0
-334 -887 900 0
-334 -888 901 0
-334 -889 902 0
-334 -890 903 0
-334 -891 904 0
-334 -892 905 0
-334 -893 906 0
-334 -894 907 0
-334 -895 908 0
-334 -896 909 0
-334 -897 910 0
-334 -898 0
-899 911 0
-900 912 0
-901 913 0
-902 914 0
-903 915 0
-904 916 0
-905 917 0
-906 918 0
-907 919 0
-908 920 0
-909 921 0
-910 922 0
-336 -899 912 0
-336 -900 913 0
-336 -901 914 0
-336 -902 915 0
-336 -903 916 0
-336 -904 917 0
-336 -905 918 0
-336 -906 919 0
-336 -907 920 0
-336 -908 921 0
-336 -909 922 0
-336 -910 0
-911 923 0
-912 924 0
-913 925 0
-914 926 0
-915 927 0
-916 928 0
-917 929 0
-918 930 0
-919 931 0
-920 932 0
-921 933 0
-922 934 0
-338 -911 924 0
-338 -912 925 0
-338 -913 926 0
-338 -914 927 0
-338 -915 928 0
-338 -916 929 0
-338 -917 930 0
-338 -918 931 0
-338 -919 932 0
-338 -920 933 0
-338 -921 934 0
-338 -922 0
-923 935 0
-924 936 0
-925 937 0
-926 938 0
-927 939 0
-928 940 0
-929 941 0
-930 942 0
-931 943 0
-932 944 0
-933 945 0
-934 946 0
-340 -923 936 0
-340 -924 937 0
-340 -925 938 0
-340 -926 939 0
-340 -927 940 0
-340 -928 941 0
-340 -929 942 0
-340 -930 943 0
-340 -931 944 0
-340 -932 945 0
-340 -933 946 0
-340 -934 0
-935 947 0
-936 948 0
-937 949 0
-938 950 0
-939 951 0
-940 952 0
-941 953 0
-942 954 0
-943 955 0
-944 956 0
-945 957 0
-946 958 0
-342 -935 948 0
-342 -936 949 0
-342 -937 950 0
-342 -938 951 0
-342 -939 952 0
-342 -940 953 0
-342 -941 954 0
-342 -942 955 0
-342 -943 956 0
-342 -944 957 0
-342 -945 958 0
-342 -946 0
-947 959 0
-948 960 0
-949 961 0
-950 962 0
-951 963 0
-952 964 0
-953 965 0
-954 966 0
-955 967 0
-956 968 0
-957 969 0
-958 970 0
-344 -947 960 0
-344 -948 961 0
-344 -949 962 0
-344 -950 963 0
-344 -951 964 0
-344 -952 965 0
-344 -953 966 0
-344 -954 967 0
-344 -955 968 0
-344 -956 969 0
-344 -957 970 0
-344 -958 0
-959 971 0
-960 972 0
-961 973 0
-962 974 0
-963 975 0
-964 976 0
-965 977 0
-966 978 0
-967 979 0
-968 980 0
-969 981 0
-970 982 0
-346 -959 972 0
-346 -960 973 0
-346 -961 974 0
-346 -962 975 0
-346 -963 976 0
-346 -964 977 0
-346 -965 978 0
-346 -966 979 0
-346 -967 980 0
-346 -968 981 0
-346 -969 982 0
-346 -970 0
-971 983 0
-972 984 0
-973 985 0
-974 986 0
-975 987 0
-976 988 0
-977 989 0
-978 990 0
-979 991 0
-980 992 0
-981 993 0
-982 994 0
-348 -971 984 0
-348 -972 985 0
-348 -973 986 0
-348 -974 987 0
-348 -975 988 0
-348 -976 989 0
-348 -977 990 0
-348 -978 991 0
-348 -979 992 0
-348 -980 993 0
-348 -981 994 0
-348 -982 0
-983 995 0
-984 996 0
-985 997 0
-986 998 0
-987 999 0
-988 1000 0
-989 1001 0
-990 1002 0
-991 1003 0
-992 1004 0
-993 1005 0
-994 1006 0
-350 -983 996 0
-350 -984 997 0
-350 -985 998 0
-350 -986 999 0
-350 -987 1000 0
-350 -988 1001 0
-350 -989 1002 0
-350 -990 1003 0
-350 -991 1004 0
-350 -992 1005 0
-350 -993 1006 0
-350 -994 0
-995 1007 0
-996 1008 0
-997 1009 0
-998 1010 0
-999 1011 0
-1000 1012 0
-1001 1013 0
-1002 1014 0
-1003 1015 0
-1004 1016 0
-1005 1017 0
-1006 1018 0
-352 -995 1008 0
-352 -996 1009 0
-352 -997 1010 0
-352 -998 1011 0
-352 -999 1012 0
-352 -1000 1013 0
-352 -1001 1014 0
-352 -1002 1015 0
-352 -1003 1016 0
-352 -1004 1017 0
-352 -1005 1018 0
-352 -1006 0
-1007 1019 0
-1008 1020 0
-1009 1021 0
-1010 1022 0
-1011 1023 0
-1012 1024 0
-1013 1025 0
-1014 1026 0
-1015 1027 0
-1016 1028 0
-1017 1029 0
-1018 1030 0
-354 -1007 1020 0
-354 -1008 1021 0
-354 -1009 1022 0
-354 -1010 1023 0
-354 -1011 1024 0
-354 -1012 1025 0
-354 -1013 1026 0
-354 -1014 1027 0
-354 -1015 1028 0
-354 -1016 1029 0
-354 -1017 1030 0
-354 -1018 0
-1019 1031 0
-1020 1032 0
-1021 1033 0
-1022 1034 0
-1023 1035 0
-1024 1036 0
-1025 1037 0
-1026 1038 0
-1027 1039 0
-1028 1040 0
-1029 1041 0
-1030 1042 0
-356 -1019 1032 0
-356 -1020 1033 0
-356 -1021 1034 0
-356 -1022 1035 0
-356 -1023 1036 0
-356 -1024 1037 0
-356 -1025 1038 0
-356 -1026 1039 0
-356 -1027 1040 0
-356 -1028 1041 0
-356 -1029 1042 0
-356 -1030 0
-1031 1043 0
-1032 1044 0
-1033 1045 0
-1034 1046 0
-1035 1047 0
-1036 1048 0
-1037 1049 0
-1038 1050 0
-1039 1051 0
-1040 1052 0
-1041 1053 0
-1042 1054 0
-358 -1031 1044 0
-358 -1032 1045 0
-358 -1033 1046 0
-358 -1034 1047 0
-358 -1035 1048 0
-358 -1036 1049 0
-358 -1037 1050 0
-358 -1038 1051 0
-358 -1039 1052 0
-358 -1040 1053 0
-358 -1041 1054 0
-358 -1042 0
-1043 1055 0
-1044 1056 0
-1045 1057 0
-1046 1058 0
-1047 1059 0
-1048 1060 0
-1049 1061 0
-1050 1062 0
-1051 1063 0
-1052 1064 0
-1053 1065 0
-1054 1066 0
-360 -1043 1056 0
-360 -1044 1057 0
-360 -1045 1058 0
-360 -1046 1059 0
-360 -1047 1060 0
-360 -1048 1061 0
-360 -1049 1062 0
-360 -1050 1063 0
-360 -1051 1064 0
-360 -1052 1065 0
-360 -1053 1066 0
-360 -1054 0
-1055 1067 0
-1056 1068 0
-1057 1069 0
-1058 1070 0
-1059 1071 0
-1060 1072 0
-1061 1073 0
-1062 1074 0
-1063 1075 0
-1064 1076 0
-1065 1077 0
-1066 1078 0
-362 -1055 1068 0
-362 -1056 1069 0
-362 -1057 1070 0
-362 -1058 1071 0
-362 -1059 1072 0
-362 -1060 1073 0
-362 -1061 1074 0
-362 -1062 1075 0
-362 -1063 1076 0
-362 -1064 1077 0
-362 -1065 1078 0
-362 -1066 0
-1067 1079 0
-1068 1080 0
-1069 1081 0
-1070 1082 0
-1071 1083 0
-1072 1084 0
-1073 1085 0
-1074 1086 0
-1075 1087 0
-1076 1088 0
-1077 1089 0
-1078 1090 0
-364 -1067 1080 0
-364 -1068 1081 0
-364 -1069 1082 0
-364 -1070 1083 0
-364 -1071 1084 0
-364 -1072 1085 0
-364 -1073 1086 0
-364 -1074 1087 0
-364 -1075 1088 0
-364 -1076 1089 0
-364 -1077 1090 0
-364 -1078 0
-1079 1091 0
-1080 1092 0
-1081 1093 0
-1082 1094 0
-1083 1095 0
-1084 1096 0
-1085 1097 0
-1086 1098 0
-1087 1099 0
-1088 1100 0
-1089 1101 0
-1090 1102 0
-366 -1079 1092 0
-366 -1080 1093 0
-366 -1081 1094 0
-366 -1082 1095 0
-366 -1083 1096 0
-366 -1084 1097 0
-366 -1085 1098 0
-366 -1086 1099 0
-366 -1087 1100 0
-366 -1088 1101 0
-366 -1089 1102 0
-366 -1090 0
-1091 1103 0
-1092 1104 0
-1093 1105 0
-1094 1106 0
-1095 1107 0
-1096 1108 0
-1097 1109 0
-1098 1110 0
-1099 1111 0
-1100 1112 0
-1101 1113 0
-1102 1114 0
-368 -1091 1104 0
-368 -1092 1105 0
-368 -1093 1106 0
-368 -1094 1107 0
-368 -1095 1108 0
-368 -1096 1109 0
-368 -1097 1110 0
-368 -1098 1111 0
-368 -1099 1112 0
-368 -1100 1113 0
-368 -1101 1114 0
-368 -1102 0
-1103 1115 0
-1104 1116 0
-1105 1117 0
-1106 1118 0
-1107 1119 0
-1108 1120 0
-1109 1121 0
-1110 1122 0
-1111 1123 0
-1112 1124 0
-1113 1125 0
-1114 1126 0
-370 -1103 1116 0
-370 -1104 1117 0
-370 -1105 1118 0
-370 -1106 1119 0
-370 -1107 1120 0
-370 -1108 1121 0
-370 -1109 1122 0
-370 -1110 1123 0
-370 -1111 1124 0
-370 -1112 1125 0
-370 -1113 1126 0
-370 -1114 0
-1115 1127 0
-1116 1128 0
-1117 1129 0
-1118 1130 0
-1119 1131 0
-1120 1132 0
-1121 1133 0
-1122 1134 0
-1123 1135 0
-1124 1136 0
-1125 1137 0
-1126 1138 0
-372 -1115 1128 0
-372 -1116 1129 0
-372 -1117 1130 0
-372 -1118 1131 0
-372 -1119 1132 0
-372 -1120 1133 0
-372 -1121 1134 0
-372 -1122 1135 0
-372 -1123 1136 0
-372 -1124 1137 0
-372 -1125 1138 0
-372 -1126 0
-1127 1139 0
-1128 1140 0
-1129 1141 0
-1130 1142 0
-1131 1143 0
-1132 1144 0
-1133 1145 0
-1134 1146 0
-1135 1147 0
-1136 1148 0
-1137 1149 0
-1138 1150 0
-374 -1127 1140 0
-374 -1128 1141 0
-374 -1129 1142 0
-374 -1130 1143 0
-374 -1131 1144 0
-374 -1132 1145 0
-374 -1133 1146 0
-374 -1134 1147 0
-374 -1135 1148 0
-374 -1136 1149 0
-374 -1137 1150 0
-374 -1138 0
-1139 1151 0
-1140 1152 0
-1141 1153 0
-1142 1154 0
-1143 1155 0
-1144 1156 0
-1145 1157 0
-1146 1158 0
-1147 1159 0
-1148 1160 0
-1149 1161 0
-1150 1162 0
-376 -1139 1152 0
-376 -1140 1153 0
-376 -1141 1154 0
-376 -1142 1155 0
-376 -1143 1156 0
-376 -1144 1157 0
-376 -1145 1158 0
-376 -1146 1159 0
-376 -1147 1160 0
-376 -1148 1161 0
-376 -1149 1162 0
-376 -1150 0
-1151 1163 0
-1152 1164 0
-1153 1165 0
-1154 1166 0
-1155 1167 0
-1156 1168 0
-1157 1169 0
-1158 1170 0
-1159 1171 0
-1160 1172 0
-1161 1173 0
-1162 1174 0
-378 -1151 1164 0
-378 -1152 1165 0
-378 -1153 1166 0
-378 -1154 1167 0
-378 -1155 1168 0
-378 -1156 1169 0
-378 -1157 1170 0
-378 -1158 1171 0
-378 -1159 1172 0
-378 -1160 1173 0
-378 -1161 1174 0
-378 -1162 0
-1163 1175 0
-1164 1176 0
-1165 1177 0
-1166 1178 0
-1167 1179 0
-1168 1180 0
-1169 1181 0
-1170 1182 0
-1171 1183 0
-1172 1184 0
-1173 1185 0
-1174 1186 0
-380 -1163 1176 0
-380 -1164 1177 0
-380 -1165 1178 0
-380 -1166 1179 0
-380 -1167 1180 0
-380 -1168 1181 0
-380 -1169 1182 0
-380 -1170 1183 0
-380 -1171 1184 0
-380 -1172 1185 0
-380 -1173 1186 0
-380 -1174 0
-1175 1187 0
-1176 1188 0
-1177 1189 0
-1178 1190 0
-1179 1191 0
-1180 1192 0
-1181 1193 0
-1182 1194 0
-1183 1195 0
-1184 1196 0
-1185 1197 0
-1186 1198 0
-382 -1175 1188 0
-382 -1176 1189 0
-382 -1177 1190 0
-382 -1178 1191 0
-382 -1179 1192 0
-382 -1180 1193 0
-382 -1181 1194 0
-382 -1182 1195 0
-382 -1183 1196 0
-382 -1184 1197 0
-382 -1185 1198 0
-382 -1186 0
-1187 1199 0
-1188 1200 0
-1189 1201 0
-1190 1202 0
-1191 1203 0
-1192 1204 0
-1193 1205 0
-1194 1206 0
-1195 1207 0
-1196 1208 0
-1197 1209 0
-1198 1210 0
-384 -1187 1200 0
-384 -1188 1201 0
-384 -1189 1202 0
-384 -1190 1203 0
-384 -1191 1204 0
-384 -1192 1205 0
-384 -1193 1206 0
-384 -1194 1207 0
-384 -1195 1208 0
-384 -1196 1209 0
-384 -1197 1210 0
-384 -1198 0
-1199 1211 0
-1200 1212 0
-1201 1213 0
-1202 1214 0
-1203 1215 0
-1204 1216 0
-1205 1217 0
-1206 1218 0
-1207 1219 0
-1208 1220 0
-1209 1221 0
-1210 1222 0
-386 -1199 1212 0
-386 -1200 1213 0
-386 -1201 1214 0
-386 -1202 1215 0
-386 -1203 1216 0
-386 -1204 1217 0
-386 -1205 1218 0
-386 -1206 1219 0
-386 -1207 1220 0
-386 -1208 1221 0
-386 -1209 1222 0
-386 -1210 0
-1211 1223 0
-1212 1224 0
-1213 1225 0
-1214 1226 0
-1215 1227 0
-1216 1228 0
-1217 1229 0
-1218 1230 0
-1219 1231 0
-1220 1232 0
-1221 1233 0
-1222 1234 0
-388 -1211 1224 0
-388 -1212 1225 0
-388 -1213 1226 0
-388 -1214 1227 0
-388 -1215 1228 0
-388 -1216 1229 0
-388 -1217 1230 0
-388 -1218 1231 0
-388 -1219 1232 0
-388 -1220 1233 0
-388 -1221 1234 0
-388 -1222 0
-1223 1235 0
-1224 1236 0
-1225 1237 0
-1226 1238 0
-1227 1239 0
-1228 1240 0
-1229 1241 0
-1230 1242 0
-1231 1243 0
-1232 1244 0
-1233 1245 0
-1234 1246 0
-390 -1223 1236 0
-390 -1224 1237 0
-390 -1225 1238 0
-390 -1226 1239 0
-390 -1227 1240 0
-390 -1228 1241 0
-390 -1229 1242 0
-390 -1230 1243 0
-390 -1231 1244 0
-390 -1232 1245 0
-390 -1233 1246 0
-390 -1234 0
-1235 1247 0
-1236 1248 0
-1237 1249 0
-1238 1250 0
-1239 1251 0
-1240 1252 0
-1241 1253 0
-1242 1254 0
-1243 1255 0
-1244 1256 0
-1245 1257 0
-1246 1258 0
-392 -1235 1248 0
-392 -1236 1249 0
-392 -1237 1250 0
-392 -1238 1251 0
-392 -1239 1252 0
-392 -1240 1253 0
-392 -1241 1254 0
-392 -1242 1255 0
-392 -1243 1256 0
-392 -1244 1257 0
-392 -1245 1258 0
-392 -1246 0
-1247 1259 0
-1248 1260 0
-1249 1261 0
-1250 1262 0
-1251 1263 0
-1252 1264 0
-1253 1265 0
-1254 1266 0
-1255 1267 0
-1256 1268 0
-1257 1269 0
-1258 1270 0
-394 -1247 1260 0
-394 -1248 1261 0
-394 -1249 1262 0
-394 -1250 1263 0
-394 -1251 1264 0
-394 -1252 1265 0
-394 -1253 1266 0
-394 -1254 1267 0
-394 -1255 1268 0
-394 -1256 1269 0
-394 -1257 1270 0
-394 -1258 0
-1259 1271 0
-1260 1272 0
-1261 1273 0
-1262 1274 0
-1263 1275 0
-1264 1276 0
-1265 1277 0
-1266 1278 0
-1267 1279 0
-1268 1280 0
-1269 1281 0
-1270 1282 0
-396 -1259 1272 0
-396 -1260 1273 0
-396 -1261 1274 0
-396 -1262 1275 0
-396 -1263 1276 0
-396 -1264 1277 0
-396 -1265 1278 0
-396 -1266 1279 0
-396 -1267 1280 0
-396 -1268 1281 0
-396 -1269 1282 0
-396 -1270 0
-1271 1283 0
-1272 1284 0
-1273 1285 0
-1274 1286 0
-1275 1287 0
-1276 1288 0
-1277 1289 0
-1278 1290 0
-1279 1291 0
-1280 1292 0
-1281 1293 0
-1282 1294 0
-398 -1271 1284 0
-398 -1272 1285 0
-398 -1273 1286 0
-398 -1274 1287 0
-398 -1275 1288 0
-398 -1276 1289 0
-398 -1277 1290 0
-398 -1278 1291 0
-398 -1279 1292 0
-398 -1280 1293 0
-398 -1281 1294 0
-398 -1282 0
-1283 1295 0
-1284 1296 0
-1285 1297 0
-1286 1298 0
-1287 1299 0
-1288 1300 0
-1289 1301 0
-1290 1302 0
-1291 1303 0
-1292 1304 0
-1293 1305 0
-1294 1306 0
-400 -1283 1296 0
-400 -1284 1297 0
-400 -1285 1298 0
-400 -1286 1299 0
-400 -1287 1300 0
-400 -1288 1301 0
-400 -1289 1302 0
-400 -1290 1303 0
-400 -1291 1304 0
-400 -1292 1305 0
-400 -1293 1306 0
-400 -1294 0
-1295 1307 0
-1296 1308 0
-1297 1309 0
-1298 1310 0
-1299 1311 0
-1300 1312 0
-1301 1313 0
-1302 1314 0
-1303 1315 0
-1304 1316 0
-1305 1317 0
-1306 1318 0
-402 -1295 1308 0
-402 -1296 1309 0
-402 -1297 1310 0
-402 -1298 1311 0
-402 -1299 1312 0
-402 -1300 1313 0
-402 -1301 1314 0
-402 -1302 1315 0
-402 -1303 1316 0
-402 -1304 1317 0
-402 -1305 1318 0
-402 -1306 0
-1307 1319 0
-1308 1320 0
-1309 1321 0
-1310 1322 0
-1311 1323 0
-1312 1324 0
-1313 1325 0
-1314 1326 0
-1315 1327 0
-1316 1328 0
-1317 1329 0
-1318 1330 0
-404 -1307 1320 0
-404 -1308 1321 0
-404 -1309 1322 0
-404 -1310 1323 0
-404 -1311 1324 0
-404 -1312 1325 0
-404 -1313 1326 0
-404 -1314 1327 0
-404 -1315 1328 0
-404 -1316 1329 0
-404 -1317 1330 0
-404 -1318 0
-1319 1331 0
-1320 1332 0
-1321 1333 0
-1322 1334 0
-1323 1335 0
-1324 1336 0
-1325 1337 0
-1326 1338 0
-1327 1339 0
-1328 1340 0
-1329 1341 0
-1330 1342 0
-406 -1319 1332 0
-406 -1320 1333 0
-406 -1321 1334 0
-406 -1322 1335 0
-406 -1323 1336 0
-406 -1324 1337 0
-406 -1325 1338 0
-406 -1326 1339 0
-406 -1327 1340 0
-406 -1328 1341 0
-406 -1329 1342 0
-406 -1330 0
-1331 1343 0
-1332 1344 0
-1333 1345 0
-1334 1346 0
-1335 1347 0
-1336 1348 0
-1337 1349 0
-1338 1350 0
-1339 1351 0
-1340 1352 0
-1341 1353 0
-1342 1354 0
-408 -1331 1344 0
-408 -1332 1345 0
-408 -1333 1346 0
-408 -1334 1347 0
-408 -1335 1348 0
-408 -1336 1349 0
-408 -1337 1350 0
-408 -1338 1351 0
-408 -1339 1352 0
-408 -1340 1353 0
-408 -1341 1354 0
-408 -1342 0
-1343 1355 0
-1344 1356 0
-1345 1357 0
-1346 1358 0
-1347 1359 0
-1348 1360 0
-1349 1361 0
-1350 1362 0
-1351 1363 0
-1352 1364 0
-1353 1365 0
-1354 1366 0
-410 -1343 1356 0
-410 -1344 1357 0
-410 -1345 1358 0
-410 -1346 1359 0
-410 -1347 1360 0
-410 -1348 1361 0
-410 -1349 1362 0
-410 -1350 1363 0
-410 -1351 1364 0
-410 -1352 1365 0
-410 -1353 1366 0
-410 -1354 0
-1355 1367 0
-1356 1368 0
-1357 1369 0
-1358 1370 0
-1359 1371 0
-1360 1372 0
-1361 1373 0
-1362 1374 0
-1363 1375 0
-1364 1376 0
-1365 1377 0
-1366 1378 0
-412 -1355 1368 0
-412 -1356 1369 0
-412 -1357 1370 0
-412 -1358 1371 0
-412 -1359 1372 0
-412 -1360 1373 0
-412 -1361 1374 0
-412 -1362 1375 0
-412 -1363 1376 0
-412 -1364 1377 0
-412 -1365 1378 0
-412 -1366 0
-1367 1379 0
-1368 1380 0
-1369 1381 0
-1370 1382 0
-1371 1383 0
-1372 1384 0
-1373 1385 0
-1374 1386 0
-1375 1387 0
-1376 1388 0
-1377 1389 0
-1378 1390 0
-414 -1367 1380 0
-414 -1368 1381 0
-414 -1369 1382 0
-414 -1370 1383 0
-414 -1371 1384 0
-414 -1372 1385 0
-414 -1373 1386 0
-414 -1374 1387 0
-414 -1375 1388 0
-414 -1376 1389 0
-414 -1377 1390 0
-414 -1378 0
-1379 1391 0
-1380 1392 0
-1381 1393 0
-1382 1394 0
-1383 1395 0
-1384 1396 0
-1385 1397 0
-1386 1398 0
-1387 1399 0
-1388 1400 0
-1389 1401 0
-1390 1402 0
-416 -1379 1392 0
-416 -1380 1393 0
-416 -1381 1394 0
-416 -1382 1395 0
-416 -1383 1396 0
-416 -1384 1397 0
-416 -1385 1398 0
-416 -1386 1399 0
-416 -1387 1400 0
-416 -1388 1401 0
-416 -1389 1402 0
-416 -1390 0
-1391 1403 0
-1392 1404 0
-1393 1405 0
-1394 1406 0
-1395 1407 0
-1396 1408 0
-1397 1409 0
-1398 1410 0
-1399 1411 0
-1400 1412 0
-1401 1413 0
-1402 1414 0
-418 -1391 1404 0
-418 -1392 1405 0
-418 -1393 1406 0
-418 -1394 1407 0
-418 -1395 1408 0
-418 -1396 1409 0
-418 -1397 1410 0
-418 -1398 1411 0
-418 -1399 1412 0
-418 -1400 1413 0
-418 -1401 1414 0
-418 -1402 0
-1403 1415 0
-1404 1416 0
-1405 1417 0
-1406 1418 0
-1407 1419 0
-1408 1420 0
-1409 1421 0
-1410 1422 0
-1411 1423 0
-1412 1424 0
-1413 1425 0
-1414 1426 0
-420 -1403 1416 0
-420 -1404 1417 0
-420 -1405 1418 0
-420 -1406 1419 0
-420 -1407 1420 0
-420 -1408 1421 0
-420 -1409 1422 0
-420 -1410 1423 0
-420 -1411 1424 0
-420 -1412 1425 0
-420 -1413 1426 0
-420 -1414 0
-1415 1427 0
-1416 1428 0
-1417 1429 0
-1418 1430 0
-1419 1431 0
-1420 1432 0
-1421 1433 0
-1422 1434 0
-1423 1435 0
-1424 1436 0
-1425 1437 0
-1426 1438 0
-422 -1415 1428 0
-422 -1416 1429 0
-422 -1417 1430 0
-422 -1418 1431 0
-422 -1419 1432 0
-422 -1420 1433 0
-422 -1421 1434 0
-422 -1422 1435 0
-422 -1423 1436 0
-422 -1424 1437 0
-422 -1425 1438 0
-422 -1426 0
-1427 1439 0
-1428 1440 0
-1429 1441 0
-1430 1442 0
-1431 1443 0
-1432 1444 0
-1433 1445 0
-1434 1446 0
-1435 1447 0
-1436 1448 0
-1437 1449 0
-1438 1450 0
-424 -1427 1440 0
-424 -1428 1441 0
-424 -1429 1442 0
-424 -1430 1443 0
-424 -1431 1444 0
-424 -1432 1445 0
-424 -1433 1446 0
-424 -1434 1447 0
-424 -1435 1448 0
-424 -1436 1449 0
-424 -1437 1450 0
-424 -1438 0
-1439 1451 0
-1440 1452 0
-1441 1453 0
-1442 1454 0
-1443 1455 0
-1444 1456 0
-1445 1457 0
-1446 1458 0
-1447 1459 0
-1448 1460 0
-1449 1461 0
-1450 1462 0
-426 -1439 1452 0
-426 -1440 1453 0
-426 -1441 1454 0
-426 -1442 1455 0
-426 -1443 1456 0
-426 -1444 1457 0
-426 -1445 1458 0
-426 -1446 1459 0
-426 -1447 1460 0
-426 -1448 1461 0
-426 -1449 1462 0
-426 -1450 0
-1451 1463 0
-1452 1464 0
-1453 1465 0
-1454 1466 0
-1455 1467 0
-1456 1468 0
-1457 1469 0
-1458 1470 0
-1459 1471 0
-1460 1472 0
-1461 1473 0
-1462 1474 0
-428 -1451 1464 0
-428 -1452 1465 0
-428 -1453 1466 0
-428 -1454 1467 0
-428 -1455 1468 0
-428 -1456 1469 0
-428 -1457 1470 0
-428 -1458 1471 0
-428 -1459 1472 0
-428 -1460 1473 0
-428 -1461 1474 0
-428 -1462 0
-1463 1475 0
-1464 1476 0
-1465 1477 0
-1466 1478 0
-1467 1479 0
-1468 1480 0
-1469 1481 0
-1470 1482 0
-1471 1483 0
-1472 1484 0
-1473 1485 0
-1474 1486 0
-430 -1463 1476 0
-430 -1464 1477 0
-430 -1465 1478 0
-430 -1466 1479 0
-430 -1467 1480 0
-430 -1468 1481 0
-430 -1469 1482 0
-430 -1470 1483 0
-430 -1471 1484 0
-430 -1472 1485 0
-430 -1473 1486 0
-430 -1474 0
-1475 1487 0
-1476 1488 0
-1477 1489 0
-1478 1490 0
-1479 1491 0
-1480 1492 0
-1481 1493 0
-1482 1494 0
-1483 1495 0
-1484 1496 0
-1485 1497 0
-1486 1498 0
-432 -1475 1488 0
-432 -1476 1489 0
-432 -1477 1490 0
-432 -1478 1491 0
-432 -1479 1492 0
-432 -1480 1493 0
-432 -1481 1494 0
-432 -1482 1495 0
-432 -1483 1496 0
-432 -1484 1497 0
-432 -1485 1498 0
-432 -1486 0
-1487 1499 0
-1488 1500 0
-1489 1501 0
-1490 1502 0
-1491 1503 0
-1492 1504 0
-1493 1505 0
-1494 1506 0
-1495 1507 0
-1496 1508 0
-1497 1509 0
-1498 1510 0
-434 -1487 1500 0
-434 -1488 1501 0
-434 -1489 1502 0
-434 -1490 1503 0
-434 -1491 1504 0
-434 -1492 1505 0
-434 -1493 1506 0
-434 -1494 1507 0
-434 -1495 1508 0
-434 -1496 1509 0
-434 -1497 1510 0
-434 -1498 0
-1499 1511 0
-1500 1512 0
-1501 1513 0
-1502 1514 0
-1503 1515 0
-1504 1516 0
-1505 1517 0
-1506 1518 0
-1507 1519 0
-1508 1520 0
-1509 1521 0
-1510 1522 0
-436 -1499 1512 0
-436 -1500 1513 0
-436 -1501 1514 0
-436 -1502 1515 0
-436 -1503 1516 0
-436 -1504 1517 0
-436 -1505 1518 0
-436 -1506 1519 0
-436 -1507 1520 0
-436 -1508 1521 0
-436 -1509 1522 0
-436 -1510 0
-1511 1523 0
-1512 1524 0
-1513 1525 0
-1514 1526 0
-1515 1527 0
-1516 1528 0
-1517 1529 0
-1518 1530 0
-1519 1531 0
-1520 1532 0
-1521 1533 0
-1522 1534 0
-438 -1511 1524 0
-438 -1512 1525 0
-438 -1513 1526 0
-438 -1514 1527 0
-438 -1515 1528 0
-438 -1516 1529 0
-438 -1517 1530 0
-438 -1518 1531 0
-438 -1519 1532 0
-438 -1520 1533 0
-438 -1521 1534 0
-438 -1522 0
-1523 1535 0
-1524 1536 0
-1525 1537 0
-1526 1538 0
-1527 1539 0
-1528 1540 0
-1529 1541 0
-1530 1542 0
-1531 1543 0
-1532 1544 0
-1533 1545 0
-1534 1546 0
-440 -1523 1536 0
-440 -1524 1537 0
-440 -1525 1538 0
-440 -1526 1539 0
-440 -1527 1540 0
-440 -1528 1541 0
-440 -1529 1542 0
-440 -1530 1543 0
-440 -1531 1544 0
-440 -1532 1545 0
-440 -1533 1546 0
-440 -1534 0
-1535 1547 0
-1536 1548 0
-1537 1549 0
-1538 1550 0
-1539 1551 0
-1540 1552 0
-1541 1553 0
-1542 1554 0
-1543 1555 0
-1544 1556 0
-1545 1557 0
-1546 1558 0
-442 -1535 1548 0
-442 -1536 1549 0
-442 -1537 1550 0
-442 -1538 1551 0
-442 -1539 1552 0
-442 -1540 1553 0
-442 -1541 1554 0
-442 -1542 1555 0
-442 -1543 1556 0
-442 -1544 1557 0
-442 -1545 1558 0
-442 -1546 0
